<?xml version="1.0"?>
<VTKFile type="UnstructuredGrid" version="0.1" byte_order="LittleEndian">
<UnstructuredGrid>
<Piece NumberOfPoints="30471" NumberOfCells="10680">
<Points>
<DataArray type="Float64" NumberOfComponents="3" format="ascii">
-0.5 -0.5 0 -0.47710714575615482 -0.47475601578167598 0 -0.4656607186342383 -0.49999999999999423 0 -0.5 -0.5 0 -0.48855357287807349 -0.44951203156335889 0 -0.49999999999999573 -0.42426804734504331 0 -0.5 -0.5 0 -0.47710714575615482 -0.47475601578167598 0 -0.48855357287807349 -0.44951203156335889 0 -0.47710714575615482 -0.47475601578167598 0 -0.4656607186342383 -0.49999999999999423 0 -0.47710714575615482 -0.47475601578167598 0 -0.4656607186342383 -0.49999999999999423 0 -0.45543861599526031 -0.48014789325282609 0 -0.4656607186342383 -0.49999999999999423 0 -0.45543861599526031 -0.48014789325282609 0 -0.44521651335629642 -0.5 0 -0.47710714575615482 -0.47475601578167598 0 -0.45543861599526031 -0.48014789325282609 0 -0.46248979692666892 -0.45945841935021892 0 -0.45543861599526031 -0.48014789325282609 0 -0.44168139525757649 -0.4581864096763385 0 -0.43499441071732531 -0.48217871034048793 0 -0.45543861599526031 -0.48014789325282609 0 -0.44521651335629642 -0.5 0 -0.43499441071732531 -0.48217871034048793 0 -0.44168139525757649 -0.4581864096763385 0 -0.4599305010059393 -0.4362861175827687 0 -0.42782158748267662 -0.43388404806295178 0 -0.45543861599526031 -0.48014789325282609 0 -0.44168139525757649 -0.4581864096763385 0 -0.46248979692666892 -0.45945841935021892 0 -0.44168139525757649 -0.4581864096763385 0 -0.46248979692666892 -0.45945841935021892 0 -0.4599305010059393 -0.4362861175827687 0 -0.46248979692666892 -0.45945841935021892 0 -0.48855357287807349 -0.44951203156335889 0 -0.4599305010059393 -0.4362861175827687 0 -0.48855357287807349 -0.44951203156335889 0 -0.48045580153478279 -0.42968989070580832 0 -0.4599305010059393 -0.4362861175827687 0 -0.47710714575615482 -0.47475601578167598 0 -0.48855357287807349 -0.44951203156335889 0 -0.47710714575615482 -0.47475601578167598 0 -0.46248979692666892 -0.45945841935021892 0 -0.48855357287807349 -0.44951203156335889 0 -0.48855357287807349 -0.44951203156335889 0 -0.49999999999999573 -0.42426804734504331 0 -0.48045580153478279 -0.42968989070580832 0 -0.48855357287807349 -0.44951203156335889 0 -0.49999999999999573 -0.42426804734504331 0 -0.49999999999999573 -0.42426804734504331 0 -0.47475379064739398 -0.40958027036506373 0 -0.5 -0.39960341120183068 0 -0.49999999999999573 -0.42426804734504331 0 -0.47475379064739398 -0.40958027036506373 0 -0.48045580153478279 -0.42968989070580832 0 -0.47475379064739398 -0.40958027036506373 0 -0.48045580153478279 -0.42968989070580832 0 -0.4599305010059393 -0.4362861175827687 0 -0.5 -0.39960341120183068 0 -0.4795643867672098 -0.38615165328536388 0 -0.5 -0.37493877505861811 0 -0.4795643867672098 -0.38615165328536388 0 -0.5 -0.37493877505861811 0 -0.47970342761934798 -0.36536877556865471 0 -0.47475379064739398 -0.40958027036506373 0 -0.5 -0.39960341120183068 0 -0.4795643867672098 -0.38615165328536388 0 -0.47475379064739398 -0.40958027036506373 0 -0.4795643867672098 -0.38615165328536388 0 -0.45944996743114591 -0.3940481773290499 0 -0.4795643867672098 -0.38615165328536388 0 -0.46367845029430083 -0.3758899745799143 0 -0.47970342761934798 -0.36536877556865471 0 -0.4795643867672098 -0.38615165328536388 0 -0.46367845029430083 -0.3758899745799143 0 -0.45944996743114591 -0.3940481773290499 0 -0.46367845029430083 -0.3758899745799143 0 -0.45944996743114591 -0.3940481773290499 0 -0.4487854225861832 -0.3816123824839634 0 -0.46367845029430083 -0.3758899745799143 0 -0.4487854225861832 -0.3816123824839634 0 -0.44952958524077169 -0.36846310266208943 0 -0.47475379064739398 -0.40958027036506373 0 -0.45944996743114591 -0.3940481773290499 0 -0.44618877247884298 -0.41322132991262223 0 -0.45944996743114591 -0.3940481773290499 0 -0.4382348202842492 -0.3949357122295431 0 -0.44618877247884298 -0.41322132991262223 0 -0.45944996743114591 -0.3940481773290499 0 -0.4382348202842492 -0.3949357122295431 0 -0.4487854225861832 -0.3816123824839634 0 -0.4382348202842492 -0.3949357122295431 0 -0.4487854225861832 -0.3816123824839634 0 -0.4364350051439454 -0.37659223277027032 0 -0.4487854225861832 -0.3816123824839634 0 -0.4364350051439454 -0.37659223277027032 0 -0.44952958524077169 -0.36846310266208943 0 -0.4599305010059393 -0.4362861175827687 0 -0.44618877247884298 -0.41322132991262223 0 -0.42782158748267662 -0.43388404806295178 0 -0.47475379064739398 -0.40958027036506373 0 -0.4599305010059393 -0.4362861175827687 0 -0.44618877247884298 -0.41322132991262223 0 -0.44618877247884298 -0.41322132991262223 0 -0.42782158748267662 -0.43388404806295178 0 -0.41748094860389351 -0.41095884084689832 0 -0.4382348202842492 -0.3949357122295431 0 -0.44618877247884298 -0.41322132991262223 0 -0.41748094860389351 -0.41095884084689832 0 -0.42782158748267662 -0.43388404806295178 0 -0.41748094860389351 -0.41095884084689832 0 -0.3966635671319384 -0.44211900874647408 0 -0.42190421088594637 -0.38668092524862407 0 -0.4364350051439454 -0.37659223277027032 0 -0.4233305611288673 -0.36994935440575749 0 -0.4382348202842492 -0.3949357122295431 0 -0.42190421088594637 -0.38668092524862407 0 -0.4364350051439454 -0.37659223277027032 0 -0.4382348202842492 -0.3949357122295431 0 -0.41748094860389351 -0.41095884084689832 0 -0.42190421088594637 -0.38668092524862407 0 -0.41748094860389351 -0.41095884084689832 0 -0.42190421088594637 -0.38668092524862407 0 -0.40668073543537381 -0.39554763944923649 0 -0.42190421088594637 -0.38668092524862407 0 -0.40668073543537381 -0.39554763944923649 0 -0.41003978032478122 -0.37810586789402661 0 -0.42190421088594637 -0.38668092524862407 0 -0.41003978032478122 -0.37810586789402661 0 -0.4233305611288673 -0.36994935440575749 0 -0.41003978032478122 -0.37810586789402661 0 -0.38899903146346471 -0.38423801749294528 0 -0.39880654296711909 -0.36851387409748781 0 -0.40668073543537381 -0.39554763944923649 0 -0.41003978032478122 -0.37810586789402661 0 -0.38899903146346471 -0.38423801749294528 0 -0.38899903146346471 -0.38423801749294528 0 -0.39283129929770161 -0.41317851311970971 0 -0.40668073543537381 -0.39554763944923649 0 -0.38899903146346471 -0.38423801749294528 0 -0.39283129929770161 -0.41317851311970971 0 -0.38899903146346471 -0.38423801749294528 0 -0.39283129929770161 -0.41317851311970971 0 -0.3651581852374195 -0.40480621420331792 0 -0.38899903146346471 -0.38423801749294528 0 -0.3738892760449905 -0.36844461230234338 0 -0.36626203606495528 -0.38179973831237279 0 -0.39283129929770161 -0.41317851311970971 0 -0.3966635671319384 -0.44211900874647408 0 -0.41748094860389351 -0.41095884084689832 0 -0.39283129929770161 -0.41317851311970971 0 -0.3966635671319384 -0.44211900874647408 0 -0.41748094860389351 -0.41095884084689832 0 -0.40668073543537381 -0.39554763944923649 0 -0.39283129929770161 -0.41317851311970971 0 -0.39283129929770161 -0.41317851311970971 0 -0.37447794905648568 -0.43300714366587539 0 -0.3651581852374195 -0.40480621420331792 0 -0.39283129929770161 -0.41317851311970971 0 -0.3966635671319384 -0.44211900874647408 0 -0.37447794905648568 -0.43300714366587539 0 -0.3966635671319384 -0.44211900874647408 0 -0.38037559506231822 -0.45380145660997673 0 -0.37447794905648568 -0.43300714366587539 0 -0.3966635671319384 -0.44211900874647408 0 -0.38037559506231822 -0.45380145660997673 0 -0.40049583496617519 -0.47105950437323851 0 -0.3966635671319384 -0.44211900874647408 0 -0.40049583496617519 -0.47105950437323851 0 -0.3966635671319384 -0.44211900874647408 0 -0.40049583496617519 -0.47105950437323851 0 -0.41868515049096883 -0.45951816642578469 0 -0.38037559506231822 -0.45380145660997673 0 -0.40049583496617519 -0.47105950437323851 0 -0.37109339097970551 -0.47183814066354279 0 -0.38794778498020938 -0.48700460910628701 0 -0.40049583496617519 -0.47105950437323851 0 -0.37109339097970551 -0.47183814066354279 0 -0.38794778498020938 -0.48700460910628701 0 -0.37669569715867768 -0.5 0 -0.40432810280041243 -0.50000000000000289 0 -0.38794778498020938 -0.48700460910628701 0 -0.37669569715867768 -0.5 0 -0.36476681620186879 -0.49124523158891398 0 -0.38794778498020938 -0.48700460910628701 0 -0.40432810280041243 -0.50000000000000289 0 -0.40049583496617519 -0.47105950437323851 0 -0.40432810280041243 -0.50000000000000289 0 -0.40049583496617519 -0.47105950437323851 0 -0.40049583496617519 -0.47105950437323851 0 -0.41605374541885759 -0.48294303175523529 0 -0.41868515049096883 -0.45951816642578469 0 -0.40432810280041243 -0.50000000000000289 0 -0.40049583496617519 -0.47105950437323851 0 -0.41605374541885759 -0.48294303175523529 0 -0.40432810280041243 -0.50000000000000289 0 -0.41605374541885759 -0.48294303175523529 0 -0.42477230807835442 -0.5 0 -0.41605374541885759 -0.48294303175523529 0 -0.42477230807835442 -0.5 0 -0.43499441071732531 -0.48217871034048793 0 -0.44521651335629642 -0.5 0 -0.42477230807835442 -0.5 0 -0.43499441071732531 -0.48217871034048793 0 -0.41605374541885759 -0.48294303175523529 0 -0.43499441071732531 -0.48217871034048793 0 -0.41868515049096883 -0.45951816642578469 0 -0.44168139525757649 -0.4581864096763385 0 -0.43499441071732531 -0.48217871034048793 0 -0.41868515049096883 -0.45951816642578469 0 -0.44168139525757649 -0.4581864096763385 0 -0.42782158748267662 -0.43388404806295178 0 -0.41868515049096883 -0.45951816642578469 0 -0.42782158748267662 -0.43388404806295178 0 -0.3966635671319384 -0.44211900874647408 0 -0.41868515049096883 -0.45951816642578469 0 -0.44144573889681982 -0.25402770002028169 0 -0.45189938063717511 -0.26200832376235977 0 -0.4581530983886718 -0.2480328079409195 0 -0.44144573889681982 -0.25402770002028169 0 -0.45189938063717511 -0.26200832376235977 0 -0.43563502470413101 -0.2672929848723295 0 -0.45189938063717511 -0.26200832376235977 0 -0.45087534402505181 -0.27756585873405432 0 -0.43563502470413101 -0.2672929848723295 0 -0.45087534402505181 -0.27756585873405432 0 -0.43721728060211401 -0.28748531825848 0 -0.43563502470413101 -0.2672929848723295 0 -0.45087534402505181 -0.27756585873405432 0 -0.46550691178465758 -0.26995761649567568 0 -0.46548305737278339 -0.28621329456749972 0 -0.45189938063717511 -0.26200832376235977 0 -0.45087534402505181 -0.27756585873405432 0 -0.46550691178465758 -0.26995761649567568 0 -0.45189938063717511 -0.26200832376235977 0 -0.46550691178465758 -0.26995761649567568 0 -0.46466138366660581 -0.25739012116834592 0 -0.45189938063717511 -0.26200832376235977 0 -0.46466138366660581 -0.25739012116834592 0 -0.4581530983886718 -0.2480328079409195 0 -0.46466138366660581 -0.25739012116834592 0 -0.47101012542757698 -0.24588932588837159 0 -0.4581530983886718 -0.2480328079409195 0 -0.46466138366660581 -0.25739012116834592 0 -0.47827606622265872 -0.25858177826393641 0 -0.47101012542757698 -0.24588932588837159 0 -0.46550691178465758 -0.26995761649567568 0 -0.46466138366660581 -0.25739012116834592 0 -0.47827606622265872 -0.25858177826393641 0 -0.47827606622265872 -0.25858177826393641 0 -0.5 -0.26068686590540718 0 -0.48512312604368729 -0.2424185057973908 0 -0.47827606622265872 -0.25858177826393641 0 -0.5 -0.26068686590540718 0 -0.48261557084752671 -0.27674594573262501 0 -0.5 -0.26068686590540718 0 -0.48261557084752671 -0.27674594573262501 0 -0.5 -0.29054929024207321 0 -0.46550691178465758 -0.26995761649567568 0 -0.48261557084752671 -0.27674594573262501 0 -0.46548305737278339 -0.28621329456749972 0 -0.46550691178465758 -0.26995761649567568 0 -0.47827606622265872 -0.25858177826393641 0 -0.48261557084752671 -0.27674594573262501 0 -0.47912316018887768 -0.30207447990931302 0 -0.46214013423824069 -0.29985774285182731 0 -0.46548305737278339 -0.28621329456749972 0 -0.48261557084752671 -0.27674594573262501 0 -0.47912316018887768 -0.30207447990931302 0 -0.46548305737278339 -0.28621329456749972 0 -0.48261557084752671 -0.27674594573262501 0 -0.5 -0.29054929024207321 0 -0.47912316018887768 -0.30207447990931302 0 -0.5 -0.29054929024207321 0 -0.47912316018887768 -0.30207447990931302 0 -0.5 -0.32041171457873929 0 -0.46214013423824069 -0.29985774285182731 0 -0.4460572370035446 -0.30470936978872942 0 -0.46265147162947923 -0.31426755748187962 0 -0.46214013423824069 -0.29985774285182731 0 -0.45235461064834692 -0.29116631684011818 0 -0.4460572370035446 -0.30470936978872942 0 -0.47912316018887768 -0.30207447990931302 0 -0.46214013423824069 -0.29985774285182731 0 -0.46265147162947923 -0.31426755748187962 0 -0.45087534402505181 -0.27756585873405432 0 -0.46548305737278339 -0.28621329456749972 0 -0.45235461064834692 -0.29116631684011818 0 -0.46214013423824069 -0.29985774285182731 0 -0.46548305737278339 -0.28621329456749972 0 -0.45235461064834692 -0.29116631684011818 0 -0.45235461064834692 -0.29116631684011818 0 -0.4460572370035446 -0.30470936978872942 0 -0.43721728060211401 -0.28748531825848 0 -0.45087534402505181 -0.27756585873405432 0 -0.45235461064834692 -0.29116631684011818 0 -0.43721728060211401 -0.28748531825848 0 -0.4460572370035446 -0.30470936978872942 0 -0.44905150442801511 -0.31940102860640518 0 -0.46265147162947923 -0.31426755748187962 0 -0.44905150442801511 -0.31940102860640518 0 -0.44560352415089238 -0.33022238164029188 0 -0.46015288353275929 -0.33188960054518679 0 -0.4460572370035446 -0.30470936978872942 0 -0.44905150442801511 -0.31940102860640518 0 -0.4342818588494109 -0.31976249581131561 0 -0.44905150442801511 -0.31940102860640518 0 -0.44560352415089238 -0.33022238164029188 0 -0.4342818588494109 -0.31976249581131561 0 -0.44560352415089238 -0.33022238164029188 0 -0.43318389806946839 -0.33462687909418631 0 -0.4342818588494109 -0.31976249581131561 0 -0.44560352415089238 -0.33022238164029188 0 -0.46015288353275929 -0.33188960054518679 0 -0.44696378662762037 -0.34710755123538473 0 -0.44560352415089238 -0.33022238164029188 0 -0.44696378662762037 -0.34710755123538473 0 -0.43318389806946839 -0.33462687909418631 0 -0.46015288353275929 -0.33188960054518679 0 -0.4734818933138093 -0.34869084507539511 0 -0.44696378662762037 -0.34710755123538473 0 -0.46015288353275929 -0.33188960054518679 0 -0.46265147162947923 -0.31426755748187962 0 -0.47952874446328259 -0.32790457894862479 0 -0.44905150442801511 -0.31940102860640518 0 -0.46015288353275929 -0.33188960054518679 0 -0.46265147162947923 -0.31426755748187962 0 -0.47912316018887768 -0.30207447990931302 0 -0.46265147162947923 -0.31426755748187962 0 -0.47952874446328259 -0.32790457894862479 0 -0.47912316018887768 -0.30207447990931302 0 -0.47952874446328259 -0.32790457894862479 0 -0.5 -0.32041171457873929 0 -0.47952874446328259 -0.32790457894862479 0 -0.5 -0.32041171457873929 0 -0.49999999999999822 -0.35027413891540538 0 -0.47952874446328259 -0.32790457894862479 0 -0.4734818933138093 -0.34869084507539511 0 -0.49999999999999822 -0.35027413891540538 0 -0.46015288353275929 -0.33188960054518679 0 -0.47952874446328259 -0.32790457894862479 0 -0.4734818933138093 -0.34869084507539511 0 -0.4734818933138093 -0.34869084507539511 0 -0.47970342761934798 -0.36536877556865471 0 -0.4627282620945552 -0.35864722367803142 0 -0.4734818933138093 -0.34869084507539511 0 -0.49999999999999822 -0.35027413891540538 0 -0.4734818933138093 -0.34869084507539511 0 -0.49999999999999822 -0.35027413891540538 0 -0.47970342761934798 -0.36536877556865471 0 -0.49999999999999822 -0.35027413891540538 0 -0.5 -0.37493877505861811 0 -0.47970342761934798 -0.36536877556865471 0 -0.46367845029430083 -0.3758899745799143 0 -0.4627282620945552 -0.35864722367803142 0 -0.44952958524077169 -0.36846310266208943 0 -0.46367845029430083 -0.3758899745799143 0 -0.47970342761934798 -0.36536877556865471 0 -0.4627282620945552 -0.35864722367803142 0 -0.4734818933138093 -0.34869084507539511 0 -0.4627282620945552 -0.35864722367803142 0 -0.44696378662762037 -0.34710755123538473 0 -0.4734818933138093 -0.34869084507539511 0 -0.44696378662762037 -0.34710755123538473 0 -0.4627282620945552 -0.35864722367803142 0 -0.4368744292727792 -0.3575306564074151 0 -0.4627282620945552 -0.35864722367803142 0 -0.44696378662762037 -0.34710755123538473 0 -0.4368744292727792 -0.3575306564074151 0 -0.4364350051439454 -0.37659223277027032 0 -0.44952958524077169 -0.36846310266208943 0 -0.4368744292727792 -0.3575306564074151 0 -0.4627282620945552 -0.35864722367803142 0 -0.44952958524077169 -0.36846310266208943 0 -0.4368744292727792 -0.3575306564074151 0 -0.4233305611288673 -0.36994935440575749 0 -0.4368744292727792 -0.3575306564074151 0 -0.41102059645100331 -0.35641408913679867 0 -0.4364350051439454 -0.37659223277027032 0 -0.4233305611288673 -0.36994935440575749 0 -0.4368744292727792 -0.3575306564074151 0 -0.44696378662762037 -0.34710755123538473 0 -0.4368744292727792 -0.3575306564074151 0 -0.42044567994143139 -0.34552425739537429 0 -0.4368744292727792 -0.3575306564074151 0 -0.42044567994143139 -0.34552425739537429 0 -0.41102059645100331 -0.35641408913679867 0 -0.4368744292727792 -0.3575306564074151 0 -0.41102059645100331 -0.35641408913679867 0 -0.44696378662762037 -0.34710755123538473 0 -0.42044567994143139 -0.34552425739537429 0 -0.41102059645100331 -0.35641408913679867 0 -0.39785775227577741 -0.34455404644643739 0 -0.4100811054957979 -0.34197833067121591 0 -0.42044567994143139 -0.34552425739537429 0 -0.41102059645100331 -0.35641408913679867 0 -0.4100811054957979 -0.34197833067121591 0 -0.41003978032478122 -0.37810586789402661 0 -0.41102059645100331 -0.35641408913679867 0 -0.39880654296711909 -0.36851387409748781 0 -0.41003978032478122 -0.37810586789402661 0 -0.4233305611288673 -0.36994935440575749 0 -0.41102059645100331 -0.35641408913679867 0 -0.38899903146346471 -0.38423801749294528 0 -0.39880654296711909 -0.36851387409748781 0 -0.38516676362922742 -0.35529752186618058 0 -0.41102059645100331 -0.35641408913679867 0 -0.39880654296711909 -0.36851387409748781 0 -0.38516676362922742 -0.35529752186618058 0 -0.38899903146346471 -0.38423801749294528 0 -0.38516676362922742 -0.35529752186618058 0 -0.38899903146346471 -0.38423801749294528 0 -0.38516676362922742 -0.35529752186618058 0 -0.3738892760449905 -0.36844461230234338 0 -0.38516676362922742 -0.35529752186618058 0 -0.37383227738772939 -0.35480801160850622 0 -0.3738892760449905 -0.36844461230234338 0 -0.38516676362922742 -0.35529752186618058 0 -0.39785775227577741 -0.34455404644643739 0 -0.38295317818164232 -0.33858098149470778 0 -0.38516676362922742 -0.35529752186618058 0 -0.38295317818164232 -0.33858098149470778 0 -0.37383227738772939 -0.35480801160850622 0 -0.38516676362922742 -0.35529752186618058 0 -0.38295317818164232 -0.33858098149470778 0 -0.38516676362922742 -0.35529752186618058 0 -0.37383227738772939 -0.35480801160850622 0 -0.41102059645100331 -0.35641408913679867 0 -0.38516676362922742 -0.35529752186618058 0 -0.41102059645100331 -0.35641408913679867 0 -0.38516676362922742 -0.35529752186618058 0 -0.39785775227577741 -0.34455404644643739 0 -0.39785775227577741 -0.34455404644643739 0 -0.40373361131616448 -0.33293311016112681 0 -0.4100811054957979 -0.34197833067121591 0 -0.39785775227577741 -0.34455404644643739 0 -0.40373361131616448 -0.33293311016112681 0 -0.39162476140554509 -0.32985652728407111 0 -0.39785775227577741 -0.34455404644643739 0 -0.39162476140554509 -0.32985652728407111 0 -0.38295317818164232 -0.33858098149470778 0 -0.39162476140554509 -0.32985652728407111 0 -0.38295317818164232 -0.33858098149470778 0 -0.37598568968216928 -0.32519728089495309 0 -0.38295317818164232 -0.33858098149470778 0 -0.37598568968216928 -0.32519728089495309 0 -0.36622329625633671 -0.33931507095600938 0 -0.38653192626187671 -0.3179687527030301 0 -0.37598568968216928 -0.32519728089495309 0 -0.3736407434709067 -0.30581361040262911 0 -0.39162476140554509 -0.32985652728407111 0 -0.38653192626187671 -0.3179687527030301 0 -0.37598568968216928 -0.32519728089495309 0 -0.39162476140554509 -0.32985652728407111 0 -0.38653192626187671 -0.3179687527030301 0 -0.40268641071564137 -0.31990499200417161 0 -0.38653192626187671 -0.3179687527030301 0 -0.40268641071564137 -0.31990499200417161 0 -0.39432509774719049 -0.30526127169435607 0 -0.40373361131616448 -0.33293311016112681 0 -0.39162476140554509 -0.32985652728407111 0 -0.40268641071564137 -0.31990499200417161 0 -0.40268641071564137 -0.31990499200417161 0 -0.41868894508487081 -0.31474025732529359 0 -0.40677392865851769 -0.30847462183912733 0 -0.40268641071564137 -0.31990499200417161 0 -0.41868894508487081 -0.31474025732529359 0 -0.41734788749461321 -0.33046615021634212 0 -0.40373361131616448 -0.33293311016112681 0 -0.40268641071564137 -0.31990499200417161 0 -0.41734788749461321 -0.33046615021634212 0 -0.40373361131616448 -0.33293311016112681 0 -0.4100811054957979 -0.34197833067121591 0 -0.41734788749461321 -0.33046615021634212 0 -0.42044567994143139 -0.34552425739537429 0 -0.4100811054957979 -0.34197833067121591 0 -0.41734788749461321 -0.33046615021634212 0 -0.41734788749461321 -0.33046615021634212 0 -0.43318389806946839 -0.33462687909418631 0 -0.4342818588494109 -0.31976249581131561 0 -0.42044567994143139 -0.34552425739537429 0 -0.41734788749461321 -0.33046615021634212 0 -0.43318389806946839 -0.33462687909418631 0 -0.44696378662762037 -0.34710755123538473 0 -0.42044567994143139 -0.34552425739537429 0 -0.43318389806946839 -0.33462687909418631 0 -0.41868894508487081 -0.31474025732529359 0 -0.41734788749461321 -0.33046615021634212 0 -0.4342818588494109 -0.31976249581131561 0 -0.41868894508487081 -0.31474025732529359 0 -0.4342818588494109 -0.31976249581131561 0 -0.42828445389730169 -0.30231899781208171 0 -0.4460572370035446 -0.30470936978872942 0 -0.4342818588494109 -0.31976249581131561 0 -0.42828445389730169 -0.30231899781208171 0 -0.4460572370035446 -0.30470936978872942 0 -0.42828445389730169 -0.30231899781208171 0 -0.43721728060211401 -0.28748531825848 0 -0.43721728060211401 -0.28748531825848 0 -0.41924350639669578 -0.28852923833506289 0 -0.42560887038201589 -0.27780955401698559 0 -0.42828445389730169 -0.30231899781208171 0 -0.43721728060211401 -0.28748531825848 0 -0.41924350639669578 -0.28852923833506289 0 -0.41924350639669578 -0.28852923833506289 0 -0.41464284285417169 -0.30043072752847111 0 -0.40237082216429182 -0.29390035496625272 0 -0.41924350639669578 -0.28852923833506289 0 -0.40237082216429182 -0.29390035496625272 0 -0.40809536667733592 -0.27804163783117369 0 -0.41924350639669578 -0.28852923833506289 0 -0.40809536667733592 -0.27804163783117369 0 -0.42560887038201589 -0.27780955401698559 0 -0.41464284285417169 -0.30043072752847111 0 -0.40677392865851769 -0.30847462183912733 0 -0.40237082216429182 -0.29390035496625272 0 -0.42828445389730169 -0.30231899781208171 0 -0.41924350639669578 -0.28852923833506289 0 -0.41464284285417169 -0.30043072752847111 0 -0.41868894508487081 -0.31474025732529359 0 -0.42828445389730169 -0.30231899781208171 0 -0.41464284285417169 -0.30043072752847111 0 -0.41868894508487081 -0.31474025732529359 0 -0.41464284285417169 -0.30043072752847111 0 -0.40677392865851769 -0.30847462183912733 0 -0.40268641071564137 -0.31990499200417161 0 -0.40677392865851769 -0.30847462183912733 0 -0.39432509774719049 -0.30526127169435607 0 -0.39432509774719049 -0.30526127169435607 0 -0.3834710894027098 -0.2950011168221166 0 -0.40237082216429182 -0.29390035496625272 0 -0.40677392865851769 -0.30847462183912733 0 -0.39432509774719049 -0.30526127169435607 0 -0.40237082216429182 -0.29390035496625272 0 -0.38653192626187671 -0.3179687527030301 0 -0.39432509774719049 -0.30526127169435607 0 -0.3736407434709067 -0.30581361040262911 0 -0.39432509774719049 -0.30526127169435607 0 -0.3834710894027098 -0.2950011168221166 0 -0.3736407434709067 -0.30581361040262911 0 -0.3834710894027098 -0.2950011168221166 0 -0.36846285296374642 -0.28287620738788549 0 -0.3736407434709067 -0.30581361040262911 0 -0.3834710894027098 -0.2950011168221166 0 -0.38853247493426141 -0.28015168035365051 0 -0.36846285296374642 -0.28287620738788549 0 -0.40237082216429182 -0.29390035496625272 0 -0.38853247493426141 -0.28015168035365051 0 -0.40809536667733592 -0.27804163783117369 0 -0.3834710894027098 -0.2950011168221166 0 -0.40237082216429182 -0.29390035496625272 0 -0.38853247493426141 -0.28015168035365051 0 -0.38853247493426141 -0.28015168035365051 0 -0.39356113704175072 -0.26393400104860187 0 -0.40809536667733592 -0.27804163783117369 0 -0.39356113704175072 -0.26393400104860187 0 -0.4155038567201193 -0.2621199728217708 0 -0.40809536667733592 -0.27804163783117369 0 -0.37523358135573398 -0.26715676406587269 0 -0.38853247493426141 -0.28015168035365051 0 -0.39356113704175072 -0.26393400104860187 0 -0.37523358135573398 -0.26715676406587269 0 -0.38853247493426141 -0.28015168035365051 0 -0.36846285296374642 -0.28287620738788549 0 -0.37523358135573398 -0.26715676406587269 0 -0.39356113704175072 -0.26393400104860187 0 -0.3771588361068961 -0.24654124474883099 0 -0.39356113704175072 -0.26393400104860187 0 -0.39693797107832218 -0.248358685632352 0 -0.3771588361068961 -0.24654124474883099 0 -0.39356113704175072 -0.26393400104860187 0 -0.4155038567201193 -0.2621199728217708 0 -0.39693797107832218 -0.248358685632352 0 -0.4155038567201193 -0.2621199728217708 0 -0.41111456103740052 -0.239572168162098 0 -0.39693797107832218 -0.248358685632352 0 -0.4155038567201193 -0.2621199728217708 0 -0.40809536667733592 -0.27804163783117369 0 -0.42560887038201589 -0.27780955401698559 0 -0.4155038567201193 -0.2621199728217708 0 -0.43563502470413101 -0.2672929848723295 0 -0.42560887038201589 -0.27780955401698559 0 -0.43721728060211401 -0.28748531825848 0 -0.43563502470413101 -0.2672929848723295 0 -0.42560887038201589 -0.27780955401698559 0 -0.4155038567201193 -0.2621199728217708 0 -0.43563502470413101 -0.2672929848723295 0 -0.42651272049937422 -0.247930454917801 0 -0.44144573889681982 -0.25402770002028169 0 -0.43563502470413101 -0.2672929848723295 0 -0.42651272049937422 -0.247930454917801 0 -0.31842307187710722 -0.25405741130472698 0 -0.31581103510282788 -0.27401318639123451 0 -0.33037406290388771 -0.26400743378878272 0 -0.31842307187710722 -0.25405741130472698 0 -0.33037406290388771 -0.26400743378878272 0 -0.33285528621675797 -0.25366544236987482 0 -0.31842307187710722 -0.25405741130472698 0 -0.33285528621675797 -0.25366544236987482 0 -0.32474474360340427 -0.2425494890601281 0 -0.31581103510282788 -0.27401318639123451 0 -0.33530720233843531 -0.27838053422886599 0 -0.3239898396736009 -0.28782788233707413 0 -0.31581103510282788 -0.27401318639123451 0 -0.33530720233843531 -0.27838053422886599 0 -0.33037406290388771 -0.26400743378878272 0 -0.33530720233843531 -0.27838053422886599 0 -0.33037406290388771 -0.26400743378878272 0 -0.34783403830403531 -0.25907477684970182 0 -0.33285528621675797 -0.25366544236987482 0 -0.34783403830403531 -0.25907477684970182 0 -0.33626113388988121 -0.2433267744279238 0 -0.33037406290388771 -0.26400743378878272 0 -0.33285528621675797 -0.25366544236987482 0 -0.34783403830403531 -0.25907477684970182 0 -0.37523358135573398 -0.26715676406587269 0 -0.34783403830403531 -0.25907477684970182 0 -0.3771588361068961 -0.24654124474883099 0 -0.37523358135573398 -0.26715676406587269 0 -0.34783403830403531 -0.25907477684970182 0 -0.36846285296374642 -0.28287620738788549 0 -0.34783403830403531 -0.25907477684970182 0 -0.35147883232361532 -0.28768635624575689 0 -0.36846285296374642 -0.28287620738788549 0 -0.34783403830403531 -0.25907477684970182 0 -0.35147883232361532 -0.28768635624575689 0 -0.33530720233843531 -0.27838053422886599 0 -0.34783403830403531 -0.25907477684970182 0 -0.35147883232361532 -0.28768635624575689 0 -0.35147883232361532 -0.28768635624575689 0 -0.36846285296374642 -0.28287620738788549 0 -0.3736407434709067 -0.30581361040262911 0 -0.35147883232361532 -0.28768635624575689 0 -0.3736407434709067 -0.30581361040262911 0 -0.35512362634319528 -0.31629793564181208 0 -0.35147883232361532 -0.28768635624575689 0 -0.33739308036130972 -0.29833449787308591 0 -0.35512362634319528 -0.31629793564181208 0 -0.35147883232361532 -0.28768635624575689 0 -0.35512362634319528 -0.31629793564181208 0 -0.33739308036130972 -0.29833449787308591 0 -0.32159822851353598 -0.30524893229242328 0 -0.33448743534614678 -0.31564159357254701 0 -0.33739308036130972 -0.29833449787308591 0 -0.33448743534614678 -0.31564159357254701 0 -0.35512362634319528 -0.31629793564181208 0 -0.33530720233843531 -0.27838053422886599 0 -0.33739308036130972 -0.29833449787308591 0 -0.3239898396736009 -0.28782788233707413 0 -0.33530720233843531 -0.27838053422886599 0 -0.35147883232361532 -0.28768635624575689 0 -0.33739308036130972 -0.29833449787308591 0 -0.31581103510282788 -0.27401318639123451 0 -0.3239898396736009 -0.28782788233707413 0 -0.30613750623043667 -0.2915613123020957 0 -0.3239898396736009 -0.28782788233707413 0 -0.32159822851353598 -0.30524893229242328 0 -0.3239898396736009 -0.28782788233707413 0 -0.32159822851353598 -0.30524893229242328 0 -0.30613750623043667 -0.2915613123020957 0 -0.32159822851353598 -0.30524893229242328 0 -0.31920661735347039 -0.32266998224777238 0 -0.2999407373773616 -0.30846138900849163 0 -0.33739308036130972 -0.29833449787308591 0 -0.3239898396736009 -0.28782788233707413 0 -0.32159822851353598 -0.30524893229242328 0 -0.32159822851353598 -0.30524893229242328 0 -0.31920661735347039 -0.32266998224777238 0 -0.32159822851353598 -0.30524893229242328 0 -0.31920661735347039 -0.32266998224777238 0 -0.33448743534614678 -0.31564159357254701 0 -0.31920661735347039 -0.32266998224777238 0 -0.33510481451850532 -0.33439490823278051 0 -0.31920661735347039 -0.32266998224777238 0 -0.33510481451850532 -0.33439490823278051 0 -0.31620574853057498 -0.34452900621707949 0 -0.31920661735347039 -0.32266998224777238 0 -0.31620574853057498 -0.34452900621707949 0 -0.31920661735347039 -0.32266998224777238 0 -0.31620574853057498 -0.34452900621707949 0 -0.30283744901272119 -0.32469955023732472 0 -0.33510481451850532 -0.33439490823278051 0 -0.35100301168354098 -0.34611983421778758 0 -0.31920661735347039 -0.32266998224777238 0 -0.33510481451850532 -0.33439490823278051 0 -0.33448743534614678 -0.31564159357254701 0 -0.33510481451850532 -0.33439490823278051 0 -0.33448743534614678 -0.31564159357254701 0 -0.35512362634319528 -0.31629793564181208 0 -0.37598568968216928 -0.32519728089495309 0 -0.35512362634319528 -0.31629793564181208 0 -0.36622329625633671 -0.33931507095600938 0 -0.37598568968216928 -0.32519728089495309 0 -0.3736407434709067 -0.30581361040262911 0 -0.35512362634319528 -0.31629793564181208 0 -0.33510481451850532 -0.33439490823278051 0 -0.35512362634319528 -0.31629793564181208 0 -0.35100301168354098 -0.34611983421778758 0 -0.35512362634319528 -0.31629793564181208 0 -0.36622329625633671 -0.33931507095600938 0 -0.35100301168354098 -0.34611983421778758 0 -0.35100301168354098 -0.34611983421778758 0 -0.35627941735064739 -0.3665928775899312 0 -0.33476720986915509 -0.36122065005276338 0 -0.35100301168354098 -0.34611983421778758 0 -0.36088570984060081 -0.35448927168557998 0 -0.35627941735064739 -0.3665928775899312 0 -0.36622329625633671 -0.33931507095600938 0 -0.35100301168354098 -0.34611983421778758 0 -0.36088570984060081 -0.35448927168557998 0 -0.36622329625633671 -0.33931507095600938 0 -0.36088570984060081 -0.35448927168557998 0 -0.37383227738772939 -0.35480801160850622 0 -0.38295317818164232 -0.33858098149470778 0 -0.36622329625633671 -0.33931507095600938 0 -0.37383227738772939 -0.35480801160850622 0 -0.36088570984060081 -0.35448927168557998 0 -0.37383227738772939 -0.35480801160850622 0 -0.35627941735064739 -0.3665928775899312 0 -0.3738892760449905 -0.36844461230234338 0 -0.35627941735064739 -0.3665928775899312 0 -0.36626203606495528 -0.38179973831237279 0 -0.37383227738772939 -0.35480801160850622 0 -0.3738892760449905 -0.36844461230234338 0 -0.35627941735064739 -0.3665928775899312 0 -0.35627941735064739 -0.3665928775899312 0 -0.33476720986915509 -0.36122065005276338 0 -0.3469842702282544 -0.38491696997332631 0 -0.33510481451850532 -0.33439490823278051 0 -0.33476720986915509 -0.36122065005276338 0 -0.31620574853057498 -0.34452900621707949 0 -0.33510481451850532 -0.33439490823278051 0 -0.35100301168354098 -0.34611983421778758 0 -0.33476720986915509 -0.36122065005276338 0 -0.33476720986915509 -0.36122065005276338 0 -0.31620574853057498 -0.34452900621707949 0 -0.31320487970767902 -0.36638803018638638 0 -0.31620574853057498 -0.34452900621707949 0 -0.31320487970767902 -0.36638803018638638 0 -0.33476720986915509 -0.36122065005276338 0 -0.31320487970767902 -0.36638803018638638 0 -0.32381924695636433 -0.38607435161461562 0 -0.31320487970767902 -0.36638803018638638 0 -0.30049905388090609 -0.35350824249414969 0 -0.28857939912278519 -0.36711885494857588 0 -0.31620574853057498 -0.34452900621707949 0 -0.31320487970767902 -0.36638803018638638 0 -0.30049905388090609 -0.35350824249414969 0 -0.31620574853057498 -0.34452900621707949 0 -0.30049905388090609 -0.35350824249414969 0 -0.29219251584784772 -0.33729932072362279 0 -0.30049905388090609 -0.35350824249414969 0 -0.28016920558782971 -0.34910771559448961 0 -0.29219251584784772 -0.33729932072362279 0 -0.30049905388090609 -0.35350824249414969 0 -0.28857939912278519 -0.36711885494857588 0 -0.28016920558782971 -0.34910771559448961 0 -0.28857939912278519 -0.36711885494857588 0 -0.26848003902649792 -0.36852268458086063 0 -0.28016920558782971 -0.34910771559448961 0 -0.28857939912278519 -0.36711885494857588 0 -0.26848003902649792 -0.36852268458086063 0 -0.2775218126609636 -0.38592867705691652 0 -0.26848003902649792 -0.36852268458086063 0 -0.25763153378316062 -0.34852674486984359 0 -0.24910915227481051 -0.36912515271141638 0 -0.26848003902649792 -0.36852268458086063 0 -0.25763153378316062 -0.34852674486984359 0 -0.28016920558782971 -0.34910771559448961 0 -0.25763153378316062 -0.34852674486984359 0 -0.28016920558782971 -0.34910771559448961 0 -0.27363269186578087 -0.3196704459498852 0 -0.25763153378316062 -0.34852674486984359 0 -0.27363269186578087 -0.3196704459498852 0 -0.24320469395457511 -0.32837359787739412 0 -0.27363269186578087 -0.3196704459498852 0 -0.25507286788371403 -0.30204157117614749 0 -0.24320469395457511 -0.32837359787739412 0 -0.27363269186578087 -0.3196704459498852 0 -0.30283744901272119 -0.32469955023732472 0 -0.2999407373773616 -0.30846138900849163 0 -0.27363269186578087 -0.3196704459498852 0 -0.29219251584784772 -0.33729932072362279 0 -0.30283744901272119 -0.32469955023732472 0 -0.28016920558782971 -0.34910771559448961 0 -0.27363269186578087 -0.3196704459498852 0 -0.29219251584784772 -0.33729932072362279 0 -0.27363269186578087 -0.3196704459498852 0 -0.29219251584784772 -0.33729932072362279 0 -0.31620574853057498 -0.34452900621707949 0 -0.29219251584784772 -0.33729932072362279 0 -0.30283744901272119 -0.32469955023732472 0 -0.31920661735347039 -0.32266998224777238 0 -0.30283744901272119 -0.32469955023732472 0 -0.2999407373773616 -0.30846138900849163 0 -0.31920661735347039 -0.32266998224777238 0 -0.2999407373773616 -0.30846138900849163 0 -0.32159822851353598 -0.30524893229242328 0 -0.2999407373773616 -0.30846138900849163 0 -0.30613750623043667 -0.2915613123020957 0 -0.30613750623043667 -0.2915613123020957 0 -0.28067485740125359 -0.29425279576920982 0 -0.29554397626309431 -0.27764162313466678 0 -0.28067485740125359 -0.29425279576920982 0 -0.27875223251922421 -0.27724106581826091 0 -0.29554397626309431 -0.27764162313466678 0 -0.2999407373773616 -0.30846138900849163 0 -0.28067485740125359 -0.29425279576920982 0 -0.27363269186578087 -0.3196704459498852 0 -0.2999407373773616 -0.30846138900849163 0 -0.28067485740125359 -0.29425279576920982 0 -0.2999407373773616 -0.30846138900849163 0 -0.30613750623043667 -0.2915613123020957 0 -0.28067485740125359 -0.29425279576920982 0 -0.27363269186578087 -0.3196704459498852 0 -0.25507286788371403 -0.30204157117614749 0 -0.28067485740125359 -0.29425279576920982 0 -0.27363269186578087 -0.3196704459498852 0 -0.25507286788371403 -0.30204157117614749 0 -0.25507286788371403 -0.30204157117614749 0 -0.26167355822908039 -0.28172127198014307 0 -0.23651304390164701 -0.28441269640240979 0 -0.26167355822908039 -0.28172127198014307 0 -0.28067485740125359 -0.29425279576920982 0 -0.27875223251922421 -0.27724106581826091 0 -0.25507286788371403 -0.30204157117614749 0 -0.26167355822908039 -0.28172127198014307 0 -0.28067485740125359 -0.29425279576920982 0 -0.27875223251922421 -0.27724106581826091 0 -0.26926365258195289 -0.26134439966289402 0 -0.28739130737148783 -0.26484471509426039 0 -0.26167355822908039 -0.28172127198014307 0 -0.27875223251922421 -0.27724106581826091 0 -0.26926365258195289 -0.26134439966289402 0 -0.26167355822908039 -0.28172127198014307 0 -0.26926365258195289 -0.26134439966289402 0 -0.2498548544044375 -0.27030109806912361 0 -0.25376413621451421 -0.25480509811548918 0 -0.26926365258195289 -0.26134439966289402 0 -0.2498548544044375 -0.27030109806912361 0 -0.25376413621451421 -0.25480509811548918 0 -0.26926365258195289 -0.26134439966289402 0 -0.26865853484675578 -0.24535303177873821 0 -0.26926365258195289 -0.26134439966289402 0 -0.28946068327166308 -0.24798612466053549 0 -0.26865853484675578 -0.24535303177873821 0 -0.28739130737148783 -0.26484471509426039 0 -0.30295576989058498 -0.25923432597990181 0 -0.28946068327166308 -0.24798612466053549 0 -0.26926365258195289 -0.26134439966289402 0 -0.28739130737148783 -0.26484471509426039 0 -0.28946068327166308 -0.24798612466053549 0 -0.27875223251922421 -0.27724106581826091 0 -0.28739130737148783 -0.26484471509426039 0 -0.29554397626309431 -0.27764162313466678 0 -0.28739130737148783 -0.26484471509426039 0 -0.29554397626309431 -0.27764162313466678 0 -0.30295576989058498 -0.25923432597990181 0 -0.31581103510282788 -0.27401318639123451 0 -0.29554397626309431 -0.27764162313466678 0 -0.30295576989058498 -0.25923432597990181 0 -0.31581103510282788 -0.27401318639123451 0 -0.30613750623043667 -0.2915613123020957 0 -0.29554397626309431 -0.27764162313466678 0 -0.31842307187710722 -0.25405741130472698 0 -0.31581103510282788 -0.27401318639123451 0 -0.30295576989058498 -0.25923432597990181 0 -0.34070560660355981 -0.46557309122057988 0 -0.33648553464511233 -0.44634658249456111 0 -0.32649236590416619 -0.45875808849210298 0 -0.34070560660355981 -0.46557309122057988 0 -0.32649236590416619 -0.45875808849210298 0 -0.32808722076693569 -0.48050634611619442 0 -0.33648553464511233 -0.44634658249456111 0 -0.31605682715034028 -0.44694453677022639 0 -0.32679056744711737 -0.42529080767715632 0 -0.33648553464511233 -0.44634658249456111 0 -0.31605682715034028 -0.44694453677022639 0 -0.32649236590416619 -0.45875808849210298 0 -0.32649236590416619 -0.45875808849210298 0 -0.31726509107384138 -0.47153767661432722 0 -0.30330202562763853 -0.46339228045567837 0 -0.31605682715034028 -0.44694453677022639 0 -0.32649236590416619 -0.45875808849210298 0 -0.30330202562763853 -0.46339228045567837 0 -0.32649236590416619 -0.45875808849210298 0 -0.31726509107384138 -0.47153767661432722 0 -0.32808722076693569 -0.48050634611619442 0 -0.31726509107384138 -0.47153767661432722 0 -0.31649919106778762 -0.48374167296607962 0 -0.30660796101860582 -0.47847984654433978 0 -0.31726509107384138 -0.47153767661432722 0 -0.31649919106778762 -0.48374167296607962 0 -0.32808722076693569 -0.48050634611619442 0 -0.32744452214397429 -0.49347880763136198 0 -0.3044605966629384 -0.49205788543635032 0 -0.32143088587520818 -0.5 0 -0.32744452214397429 -0.49347880763136198 0 -0.3044605966629384 -0.49205788543635032 0 -0.31649919106778762 -0.48374167296607962 0 -0.32744452214397429 -0.49347880763136198 0 -0.3044605966629384 -0.49205788543635032 0 -0.31649919106778762 -0.48374167296607962 0 -0.32808722076693569 -0.48050634611619442 0 -0.32744452214397429 -0.49347880763136198 0 -0.32744452214397429 -0.49347880763136198 0 -0.3504284476250103 -0.49489972982637359 0 -0.32744452214397429 -0.49347880763136198 0 -0.34906329151694299 -0.5 0 -0.3504284476250103 -0.49489972982637359 0 -0.32143088587520818 -0.5 0 -0.32744452214397429 -0.49347880763136198 0 -0.34906329151694299 -0.5 0 -0.32744452214397429 -0.49347880763136198 0 -0.34043794963532281 -0.48885522503438678 0 -0.3504284476250103 -0.49489972982637359 0 -0.32808722076693569 -0.48050634611619442 0 -0.32744452214397429 -0.49347880763136198 0 -0.33388014246647107 -0.48735289562586331 0 -0.32744452214397429 -0.49347880763136198 0 -0.33388014246647107 -0.48735289562586331 0 -0.34043794963532281 -0.48885522503438678 0 -0.34043794963532281 -0.48885522503438678 0 -0.34131730806670119 -0.482094693282833 0 -0.34911932787445682 -0.4864499988055021 0 -0.33388014246647107 -0.48735289562586331 0 -0.34043794963532281 -0.48885522503438678 0 -0.34131730806670119 -0.482094693282833 0 -0.34070560660355981 -0.46557309122057988 0 -0.32808722076693569 -0.48050634611619442 0 -0.34131730806670119 -0.482094693282833 0 -0.32808722076693569 -0.48050634611619442 0 -0.33388014246647107 -0.48735289562586331 0 -0.34131730806670119 -0.482094693282833 0 -0.34070560660355981 -0.46557309122057988 0 -0.34131730806670119 -0.482094693282833 0 -0.35374933241454271 -0.47710121814514678 0 -0.34070560660355981 -0.46557309122057988 0 -0.35374933241454271 -0.47710121814514678 0 -0.35574148427729402 -0.46575886125338523 0 -0.34131730806670119 -0.482094693282833 0 -0.35374933241454271 -0.47710121814514678 0 -0.34911932787445682 -0.4864499988055021 0 -0.35374933241454271 -0.47710121814514678 0 -0.34911932787445682 -0.4864499988055021 0 -0.36476681620186879 -0.49124523158891398 0 -0.34906329151694299 -0.5 0 -0.3504284476250103 -0.49489972982637359 0 -0.36476681620186879 -0.49124523158891398 0 -0.3504284476250103 -0.49489972982637359 0 -0.34911932787445682 -0.4864499988055021 0 -0.36476681620186879 -0.49124523158891398 0 -0.34043794963532281 -0.48885522503438678 0 -0.3504284476250103 -0.49489972982637359 0 -0.34911932787445682 -0.4864499988055021 0 -0.37669569715867768 -0.5 0 -0.34906329151694299 -0.5 0 -0.36476681620186879 -0.49124523158891398 0 -0.35374933241454271 -0.47710121814514678 0 -0.36476681620186879 -0.49124523158891398 0 -0.37109339097970551 -0.47183814066354279 0 -0.38794778498020938 -0.48700460910628701 0 -0.36476681620186879 -0.49124523158891398 0 -0.37109339097970551 -0.47183814066354279 0 -0.35374933241454271 -0.47710121814514678 0 -0.37109339097970551 -0.47183814066354279 0 -0.35574148427729402 -0.46575886125338523 0 -0.37109339097970551 -0.47183814066354279 0 -0.35574148427729402 -0.46575886125338523 0 -0.35914723317728608 -0.45098348560075258 0 -0.38037559506231822 -0.45380145660997673 0 -0.37109339097970551 -0.47183814066354279 0 -0.35914723317728608 -0.45098348560075258 0 -0.34070560660355981 -0.46557309122057988 0 -0.35574148427729402 -0.46575886125338523 0 -0.35914723317728608 -0.45098348560075258 0 -0.34070560660355981 -0.46557309122057988 0 -0.33648553464511233 -0.44634658249456111 0 -0.35914723317728608 -0.45098348560075258 0 -0.33648553464511233 -0.44634658249456111 0 -0.35914723317728608 -0.45098348560075258 0 -0.3510827782783032 -0.42792470671571581 0 -0.38037559506231822 -0.45380145660997673 0 -0.35914723317728608 -0.45098348560075258 0 -0.37447794905648568 -0.43300714366587539 0 -0.37447794905648568 -0.43300714366587539 0 -0.3510827782783032 -0.42792470671571581 0 -0.3651581852374195 -0.40480621420331792 0 -0.35914723317728608 -0.45098348560075258 0 -0.37447794905648568 -0.43300714366587539 0 -0.3510827782783032 -0.42792470671571581 0 -0.3510827782783032 -0.42792470671571581 0 -0.3651581852374195 -0.40480621420331792 0 -0.33562098301261928 -0.4074573114873114 0 -0.38899903146346471 -0.38423801749294528 0 -0.36626203606495528 -0.38179973831237279 0 -0.3651581852374195 -0.40480621420331792 0 -0.36626203606495528 -0.38179973831237279 0 -0.3651581852374195 -0.40480621420331792 0 -0.3469842702282544 -0.38491696997332631 0 -0.3651581852374195 -0.40480621420331792 0 -0.3469842702282544 -0.38491696997332631 0 -0.33562098301261928 -0.4074573114873114 0 -0.35627941735064739 -0.3665928775899312 0 -0.36626203606495528 -0.38179973831237279 0 -0.3469842702282544 -0.38491696997332631 0 -0.33476720986915509 -0.36122065005276338 0 -0.3469842702282544 -0.38491696997332631 0 -0.32381924695636433 -0.38607435161461562 0 -0.3469842702282544 -0.38491696997332631 0 -0.32381924695636433 -0.38607435161461562 0 -0.33562098301261928 -0.4074573114873114 0 -0.31459959712184099 -0.40273573243211358 0 -0.32381924695636433 -0.38607435161461562 0 -0.33562098301261928 -0.4074573114873114 0 -0.33648553464511233 -0.44634658249456111 0 -0.3510827782783032 -0.42792470671571581 0 -0.32679056744711737 -0.42529080767715632 0 -0.3510827782783032 -0.42792470671571581 0 -0.33562098301261928 -0.4074573114873114 0 -0.32679056744711737 -0.42529080767715632 0 -0.31459959712184099 -0.40273573243211358 0 -0.32679056744711737 -0.42529080767715632 0 -0.30689768447448862 -0.42033597616300949 0 -0.31459959712184099 -0.40273573243211358 0 -0.33562098301261928 -0.4074573114873114 0 -0.32679056744711737 -0.42529080767715632 0 -0.31605682715034028 -0.44694453677022639 0 -0.32679056744711737 -0.42529080767715632 0 -0.30689768447448862 -0.42033597616300949 0 -0.31605682715034028 -0.44694453677022639 0 -0.30689768447448862 -0.42033597616300949 0 -0.31605682715034028 -0.44694453677022639 0 -0.30689768447448862 -0.42033597616300949 0 -0.29215118188175171 -0.44190549500033349 0 -0.30689768447448862 -0.42033597616300949 0 -0.2977385417986369 -0.3937274155557926 0 -0.30689768447448862 -0.42033597616300949 0 -0.2836761488648028 -0.42396687118482029 0 -0.2977385417986369 -0.3937274155557926 0 -0.2836761488648028 -0.42396687118482029 0 -0.2977385417986369 -0.3937274155557926 0 -0.27499319514582149 -0.40482791621794989 0 -0.2836761488648028 -0.42396687118482029 0 -0.2703074523070611 -0.43559632741816401 0 -0.29215118188175171 -0.44190549500033349 0 -0.30689768447448862 -0.42033597616300949 0 -0.2836761488648028 -0.42396687118482029 0 -0.29215118188175171 -0.44190549500033349 0 -0.31320487970767902 -0.36638803018638638 0 -0.28857939912278519 -0.36711885494857588 0 -0.2977385417986369 -0.3937274155557926 0 -0.31320487970767902 -0.36638803018638638 0 -0.32381924695636433 -0.38607435161461562 0 -0.2977385417986369 -0.3937274155557926 0 -0.31459959712184099 -0.40273573243211358 0 -0.32381924695636433 -0.38607435161461562 0 -0.2977385417986369 -0.3937274155557926 0 -0.31459959712184099 -0.40273573243211358 0 -0.30689768447448862 -0.42033597616300949 0 -0.2977385417986369 -0.3937274155557926 0 -0.2977385417986369 -0.3937274155557926 0 -0.2775218126609636 -0.38592867705691652 0 -0.27499319514582149 -0.40482791621794989 0 -0.28857939912278519 -0.36711885494857588 0 -0.2977385417986369 -0.3937274155557926 0 -0.2775218126609636 -0.38592867705691652 0 -0.28857939912278519 -0.36711885494857588 0 -0.2977385417986369 -0.3937274155557926 0 -0.26848003902649792 -0.36852268458086063 0 -0.2775218126609636 -0.38592867705691652 0 -0.2570528547229794 -0.39071354066775549 0 -0.2775218126609636 -0.38592867705691652 0 -0.27499319514582149 -0.40482791621794989 0 -0.2570528547229794 -0.39071354066775549 0 -0.27499319514582149 -0.40482791621794989 0 -0.2570528547229794 -0.39071354066775549 0 -0.25896102605170951 -0.41984111555371872 0 -0.2570528547229794 -0.39071354066775549 0 -0.25896102605170951 -0.41984111555371872 0 -0.23743338382676241 -0.40472427266337813 0 -0.26848003902649792 -0.36852268458086063 0 -0.2570528547229794 -0.39071354066775549 0 -0.24910915227481051 -0.36912515271141638 0 -0.2836761488648028 -0.42396687118482029 0 -0.2703074523070611 -0.43559632741816401 0 -0.25896102605170951 -0.41984111555371872 0 -0.2836761488648028 -0.42396687118482029 0 -0.27499319514582149 -0.40482791621794989 0 -0.25896102605170951 -0.41984111555371872 0 -0.2703074523070611 -0.43559632741816401 0 -0.25896102605170951 -0.41984111555371872 0 -0.24856472962383661 -0.44074853436116301 0 -0.2703074523070611 -0.43559632741816401 0 -0.26307468800229 -0.44765881420185372 0 -0.24856472962383661 -0.44074853436116301 0 -0.26307468800229 -0.44765881420185372 0 -0.25650117870752542 -0.45744563134006971 0 -0.24856472962383661 -0.44074853436116301 0 -0.25650117870752542 -0.45744563134006971 0 -0.2590799482090389 -0.4736182495450878 0 -0.23668322523617441 -0.45659953584883972 0 -0.25650117870752542 -0.45744563134006971 0 -0.26808192918820861 -0.46752923155021342 0 -0.2590799482090389 -0.4736182495450878 0 -0.26307468800229 -0.44765881420185372 0 -0.25650117870752542 -0.45744563134006971 0 -0.26852225944794139 -0.45719899609974318 0 -0.25650117870752542 -0.45744563134006971 0 -0.26808192918820861 -0.46752923155021342 0 -0.26852225944794139 -0.45719899609974318 0 -0.26808192918820861 -0.46752923155021342 0 -0.26852225944794139 -0.45719899609974318 0 -0.28319429116464301 -0.4636618522750009 0 -0.26852225944794139 -0.45719899609974318 0 -0.27814288810983229 -0.44804522148872072 0 -0.28319429116464301 -0.4636618522750009 0 -0.26808192918820861 -0.46752923155021342 0 -0.28319429116464301 -0.4636618522750009 0 -0.27605152304755431 -0.47453002514132547 0 -0.2703074523070611 -0.43559632741816401 0 -0.27814288810983229 -0.44804522148872072 0 -0.29215118188175171 -0.44190549500033349 0 -0.2703074523070611 -0.43559632741816401 0 -0.26307468800229 -0.44765881420185372 0 -0.27814288810983229 -0.44804522148872072 0 -0.26307468800229 -0.44765881420185372 0 -0.26852225944794139 -0.45719899609974318 0 -0.27814288810983229 -0.44804522148872072 0 -0.27814288810983229 -0.44804522148872072 0 -0.29215118188175171 -0.44190549500033349 0 -0.28319429116464301 -0.4636618522750009 0 -0.28319429116464301 -0.4636618522750009 0 -0.30330202562763853 -0.46339228045567837 0 -0.29359619258789232 -0.47845487471534381 0 -0.29215118188175171 -0.44190549500033349 0 -0.28319429116464301 -0.4636618522750009 0 -0.30330202562763853 -0.46339228045567837 0 -0.31605682715034028 -0.44694453677022639 0 -0.29215118188175171 -0.44190549500033349 0 -0.30330202562763853 -0.46339228045567837 0 -0.32143088587520818 -0.5 0 -0.3044605966629384 -0.49205788543635032 0 -0.29379848023347332 -0.49999999999999911 0 -0.31649919106778762 -0.48374167296607962 0 -0.3044605966629384 -0.49205788543635032 0 -0.30660796101860582 -0.47847984654433978 0 -0.31726509107384138 -0.47153767661432722 0 -0.30330202562763853 -0.46339228045567837 0 -0.30660796101860582 -0.47847984654433978 0 -0.30330202562763853 -0.46339228045567837 0 -0.30660796101860582 -0.47847984654433978 0 -0.29359619258789232 -0.47845487471534381 0 -0.3044605966629384 -0.49205788543635032 0 -0.30660796101860582 -0.47847984654433978 0 -0.29359619258789232 -0.47845487471534381 0 -0.28319429116464301 -0.4636618522750009 0 -0.29359619258789232 -0.47845487471534381 0 -0.28399467793036631 -0.4797438996229435 0 -0.29359619258789232 -0.47845487471534381 0 -0.28399467793036631 -0.4797438996229435 0 -0.28147667118190239 -0.49063696324133688 0 -0.3044605966629384 -0.49205788543635032 0 -0.28147667118190239 -0.49063696324133688 0 -0.3044605966629384 -0.49205788543635032 0 -0.28147667118190239 -0.49063696324133688 0 -0.29379848023347332 -0.49999999999999911 0 -0.3044605966629384 -0.49205788543635032 0 -0.29359619258789232 -0.47845487471534381 0 -0.28147667118190239 -0.49063696324133688 0 -0.28147667118190239 -0.49063696324133688 0 -0.29379848023347332 -0.49999999999999911 0 -0.28147667118190239 -0.49063696324133688 0 -0.27258598831783082 -0.49008731959492169 0 -0.26834775131775079 -0.5 0 -0.28147667118190239 -0.49063696324133688 0 -0.27258598831783082 -0.49008731959492169 0 -0.2590799482090389 -0.4736182495450878 0 -0.27258598831783082 -0.49008731959492169 0 -0.26834775131775079 -0.5 0 -0.25660700514280282 -0.48831878434832421 0 -0.28147667118190239 -0.49063696324133688 0 -0.29379848023347332 -0.49999999999999911 0 -0.26834775131775079 -0.5 0 -0.28147667118190239 -0.49063696324133688 0 -0.27258598831783082 -0.49008731959492169 0 -0.28147667118190239 -0.49063696324133688 0 -0.2590799482090389 -0.4736182495450878 0 -0.26808192918820861 -0.46752923155021342 0 -0.27605152304755431 -0.47453002514132547 0 -0.2590799482090389 -0.4736182495450878 0 -0.28319429116464301 -0.4636618522750009 0 -0.28399467793036631 -0.4797438996229435 0 -0.27605152304755431 -0.47453002514132547 0 -0.28399467793036631 -0.4797438996229435 0 -0.28147667118190239 -0.49063696324133688 0 -0.27605152304755431 -0.47453002514132547 0 -0.28147667118190239 -0.49063696324133688 0 -0.27605152304755431 -0.47453002514132547 0 -0.2590799482090389 -0.4736182495450878 0 -0.27258598831783082 -0.49008731959492169 0 -0.2590799482090389 -0.4736182495450878 0 -0.25660700514280282 -0.48831878434832421 0 -0.25229298712566939 -0.48002345869950758 0 -0.25660700514280282 -0.48831878434832421 0 -0.2444903905821493 -0.48402794020110268 0 -0.2590799482090389 -0.4736182495450878 0 -0.25229298712566939 -0.48002345869950758 0 -0.25660700514280282 -0.48831878434832421 0 -0.2590799482090389 -0.4736182495450878 0 -0.25229298712566939 -0.48002345869950758 0 -0.2493749665202061 -0.47115922151827699 0 -0.26834775131775079 -0.5 0 -0.25660700514280282 -0.48831878434832421 0 -0.24289702240202829 -0.5 0 -0.24289702240202829 -0.5 0 -0.2444903905821493 -0.48402794020110268 0 -0.23024849920366519 -0.48077281434551788 0 -0.25660700514280282 -0.48831878434832421 0 -0.24289702240202829 -0.5 0 -0.2444903905821493 -0.48402794020110268 0 -0.2493749665202061 -0.47115922151827699 0 -0.23024849920366519 -0.48077281434551788 0 -0.2493749665202061 -0.47115922151827699 0 -0.23656765341879329 -0.46951184616109948 0 -0.23024849920366519 -0.48077281434551788 0 -0.25229298712566939 -0.48002345869950758 0 -0.2444903905821493 -0.48402794020110268 0 -0.2493749665202061 -0.47115922151827699 0 -0.2444903905821493 -0.48402794020110268 0 -0.2493749665202061 -0.47115922151827699 0 -0.23024849920366519 -0.48077281434551788 0 -0.23656765341879329 -0.46951184616109948 0 -0.2150319064808727 -0.46392671441063432 0 -0.21753438120221091 -0.4776552908313349 0 -0.23024849920366519 -0.48077281434551788 0 -0.2111220318871242 -0.49038640717275878 0 -0.21753438120221091 -0.4776552908313349 0 -0.23656765341879329 -0.46951184616109948 0 -0.23024849920366519 -0.48077281434551788 0 -0.21753438120221091 -0.4776552908313349 0 -0.23024849920366519 -0.48077281434551788 0 -0.2111220318871242 -0.49038640717275878 0 -0.23024849920366519 -0.48077281434551788 0 -0.2111220318871242 -0.49038640717275878 0 -0.21744629348630579 -0.5 0 -0.24289702240202829 -0.5 0 -0.23024849920366519 -0.48077281434551788 0 -0.21744629348630579 -0.5 0 -0.24856472962383661 -0.44074853436116301 0 -0.23668322523617441 -0.45659953584883972 0 -0.22227691364153379 -0.44110797856119488 0 -0.25650117870752542 -0.45744563134006971 0 -0.24856472962383661 -0.44074853436116301 0 -0.23668322523617441 -0.45659953584883972 0 -0.2590799482090389 -0.4736182495450878 0 -0.23668322523617441 -0.45659953584883972 0 -0.2590799482090389 -0.4736182495450878 0 -0.2493749665202061 -0.47115922151827699 0 -0.23668322523617441 -0.45659953584883972 0 -0.2493749665202061 -0.47115922151827699 0 -0.23656765341879329 -0.46951184616109948 0 -0.23668322523617441 -0.45659953584883972 0 -0.23668322523617441 -0.45659953584883972 0 -0.22227691364153379 -0.44110797856119488 0 -0.2150319064808727 -0.46392671441063432 0 -0.23656765341879329 -0.46951184616109948 0 -0.23668322523617441 -0.45659953584883972 0 -0.2150319064808727 -0.46392671441063432 0 -0.22227691364153379 -0.44110797856119488 0 -0.1914079513053209 -0.45195715158387439 0 -0.20367364904894891 -0.4279357273758102 0 -0.22227691364153379 -0.44110797856119488 0 -0.2150319064808727 -0.46392671441063432 0 -0.1914079513053209 -0.45195715158387439 0 -0.2150319064808727 -0.46392671441063432 0 -0.1914079513053209 -0.45195715158387439 0 -0.19934063174448141 -0.47847120571446161 0 -0.1914079513053209 -0.45195715158387439 0 -0.20367364904894891 -0.4279357273758102 0 -0.2111220318871242 -0.49038640717275878 0 -0.21744629348630579 -0.5 0 -0.19199556457058331 -0.49999999999999989 0 -0.2150319064808727 -0.46392671441063432 0 -0.21753438120221091 -0.4776552908313349 0 -0.19934063174448141 -0.47847120571446161 0 -0.2111220318871242 -0.49038640717275878 0 -0.21753438120221091 -0.4776552908313349 0 -0.19934063174448141 -0.47847120571446161 0 -0.1914079513053209 -0.45195715158387439 0 -0.19934063174448141 -0.47847120571446161 0 -0.1791422535616928 -0.4759785757919387 0 -0.2111220318871242 -0.49038640717275878 0 -0.19199556457058331 -0.49999999999999989 0 -0.2111220318871242 -0.49038640717275878 0 -0.19934063174448141 -0.47847120571446161 0 -0.19199556457058331 -0.49999999999999989 0 -0.19934063174448141 -0.47847120571446161 0 -0.19199556457058331 -0.49999999999999989 0 -0.1791422535616928 -0.4759785757919387 0 -0.19199556457058331 -0.49999999999999989 0 -0.16687655581806379 -0.50000000000000244 0 -0.1791422535616928 -0.4759785757919387 0 -0.16687655581806379 -0.50000000000000244 0 -0.1791422535616928 -0.4759785757919387 0 -0.16687655581806379 -0.50000000000000244 0 -0.1791422535616928 -0.4759785757919387 0 -0.153848415035159 -0.48277379212937199 0 -0.1791422535616928 -0.4759785757919387 0 -0.16474720593190401 -0.46156539754494741 0 -0.153848415035159 -0.48277379212937199 0 -0.1914079513053209 -0.45195715158387439 0 -0.1791422535616928 -0.4759785757919387 0 -0.1914079513053209 -0.45195715158387439 0 -0.1791422535616928 -0.4759785757919387 0 -0.16474720593190401 -0.46156539754494741 0 -0.1914079513053209 -0.45195715158387439 0 -0.17191646480024569 -0.44280322025127927 0 -0.16474720593190401 -0.46156539754494741 0 -0.1914079513053209 -0.45195715158387439 0 -0.17191646480024569 -0.44280322025127927 0 -0.18426937991140499 -0.42552682719764828 0 -0.17191646480024569 -0.44280322025127927 0 -0.15234809199611421 -0.44952778730793158 0 -0.16659314325798541 -0.42345134818349861 0 -0.17191646480024569 -0.44280322025127927 0 -0.16474720593190401 -0.46156539754494741 0 -0.15234809199611421 -0.44952778730793158 0 -0.15234809199611421 -0.44952778730793158 0 -0.13982005889289131 -0.46635185820528852 0 -0.16474720593190401 -0.46156539754494741 0 -0.15234809199611421 -0.44952778730793158 0 -0.13982005889289131 -0.46635185820528852 0 -0.12882698350167229 -0.45169402467100378 0 -0.1339486460680567 -0.43414346506432072 0 -0.1154164459652562 -0.43829713099076612 0 -0.15234809199611421 -0.44952778730793158 0 -0.12882698350167229 -0.45169402467100378 0 -0.1339486460680567 -0.43414346506432072 0 -0.15234809199611421 -0.44952778730793158 0 -0.12882698350167229 -0.45169402467100378 0 -0.13982005889289131 -0.46635185820528852 0 -0.12882698350167229 -0.45169402467100378 0 -0.13982005889289131 -0.46635185820528852 0 -0.1220489925167305 -0.46643990420365711 0 -0.13982005889289131 -0.46635185820528852 0 -0.12729202578966831 -0.4831759291026454 0 -0.153848415035159 -0.48277379212937199 0 -0.13982005889289131 -0.46635185820528852 0 -0.12729202578966831 -0.4831759291026454 0 -0.1220489925167305 -0.46643990420365711 0 -0.13982005889289131 -0.46635185820528852 0 -0.12729202578966831 -0.4831759291026454 0 -0.12729202578966831 -0.4831759291026454 0 -0.14082027425225421 -0.5 0 -0.11476399268644449 -0.50000000000000167 0 -0.12729202578966831 -0.4831759291026454 0 -0.14082027425225421 -0.5 0 -0.153848415035159 -0.48277379212937199 0 -0.16687655581806379 -0.50000000000000244 0 -0.14082027425225421 -0.5 0 -0.153848415035159 -0.48277379212937199 0 -0.16474720593190401 -0.46156539754494741 0 -0.13982005889289131 -0.46635185820528852 0 -0.153848415035159 -0.48277379212937199 0 -0.15594213705251311 -0.39468978466078508 0 -0.13222362800553769 -0.38242543790900979 0 -0.14538073924587 -0.40787097144442352 0 -0.15594213705251311 -0.39468978466078508 0 -0.14491185722987179 -0.37811469575099199 0 -0.13222362800553769 -0.38242543790900979 0 -0.15594213705251311 -0.39468978466078508 0 -0.13222362800553769 -0.38242543790900979 0 -0.15594213705251311 -0.39468978466078508 0 -0.14491185722987179 -0.37811469575099199 0 -0.15619157413943441 -0.37377707706977598 0 -0.14491185722987179 -0.37811469575099199 0 -0.13222362800553769 -0.38242543790900979 0 -0.13680200172848639 -0.37141861264998721 0 -0.13222362800553769 -0.38242543790900979 0 -0.14538073924587 -0.40787097144442352 0 -0.1241683352337546 -0.39229059470534827 0 -0.1275555901096283 -0.40990658073806868 0 -0.14538073924587 -0.40787097144442352 0 -0.1241683352337546 -0.39229059470534827 0 -0.14538073924587 -0.40787097144442352 0 -0.1241683352337546 -0.39229059470534827 0 -0.1275555901096283 -0.40990658073806868 0 -0.1363942871858716 -0.41939578527008992 0 -0.14538073924587 -0.40787097144442352 0 -0.1275555901096283 -0.40990658073806868 0 -0.1363942871858716 -0.41939578527008992 0 -0.1216405933855734 -0.42288700884673402 0 -0.1363942871858716 -0.41939578527008992 0 -0.1339486460680567 -0.43414346506432072 0 -0.1216405933855734 -0.42288700884673402 0 -0.1363942871858716 -0.41939578527008992 0 -0.1339486460680567 -0.43414346506432072 0 -0.14773444235734201 -0.42621493659708493 0 -0.15234809199611421 -0.44952778730793158 0 -0.14773444235734201 -0.42621493659708493 0 -0.16659314325798541 -0.42345134818349861 0 -0.15234809199611421 -0.44952778730793158 0 -0.1339486460680567 -0.43414346506432072 0 -0.14773444235734201 -0.42621493659708493 0 -0.14773444235734201 -0.42621493659708493 0 -0.14538073924587 -0.40787097144442352 0 -0.16659314325798541 -0.42345134818349861 0 -0.15594213705251311 -0.39468978466078508 0 -0.14538073924587 -0.40787097144442352 0 -0.16659314325798541 -0.42345134818349861 0 -0.14538073924587 -0.40787097144442352 0 -0.16659314325798541 -0.42345134818349861 0 -0.1363942871858716 -0.41939578527008992 0 -0.14773444235734201 -0.42621493659708493 0 -0.14538073924587 -0.40787097144442352 0 -0.15594213705251311 -0.39468978466078508 0 -0.16659314325798541 -0.42345134818349861 0 -0.17695751129232901 -0.40159135146289288 0 -0.17191646480024569 -0.44280322025127927 0 -0.16659314325798541 -0.42345134818349861 0 -0.18426937991140499 -0.42552682719764828 0 -0.16659314325798541 -0.42345134818349861 0 -0.18426937991140499 -0.42552682719764828 0 -0.17695751129232901 -0.40159135146289288 0 -0.18426937991140499 -0.42552682719764828 0 -0.17695751129232901 -0.40159135146289288 0 -0.1950675597636001 -0.4054221643285344 0 -0.17695751129232901 -0.40159135146289288 0 -0.18905579382955701 -0.3827219483429054 0 -0.1950675597636001 -0.4054221643285344 0 -0.15594213705251311 -0.39468978466078508 0 -0.17695751129232901 -0.40159135146289288 0 -0.16950008417844059 -0.38131471471919548 0 -0.15594213705251311 -0.39468978466078508 0 -0.16950008417844059 -0.38131471471919548 0 -0.15619157413943441 -0.37377707706977598 0 -0.17695751129232901 -0.40159135146289288 0 -0.16950008417844059 -0.38131471471919548 0 -0.18905579382955701 -0.3827219483429054 0 -0.16950008417844059 -0.38131471471919548 0 -0.18905579382955701 -0.3827219483429054 0 -0.17735189390407671 -0.36800531833253691 0 -0.18905579382955701 -0.3827219483429054 0 -0.20804966168534059 -0.38850408825698218 0 -0.2105241463922245 -0.36806464903327041 0 -0.18905579382955701 -0.3827219483429054 0 -0.1950675597636001 -0.4054221643285344 0 -0.20804966168534059 -0.38850408825698218 0 -0.1950675597636001 -0.4054221643285344 0 -0.21593934679257701 -0.40391430316774601 0 -0.20804966168534059 -0.38850408825698218 0 -0.21593934679257701 -0.40391430316774601 0 -0.20804966168534059 -0.38850408825698218 0 -0.22966146164874471 -0.3823973764124548 0 -0.20804966168534059 -0.38850408825698218 0 -0.22966146164874471 -0.3823973764124548 0 -0.2105241463922245 -0.36806464903327041 0 -0.1914079513053209 -0.45195715158387439 0 -0.18426937991140499 -0.42552682719764828 0 -0.20367364904894891 -0.4279357273758102 0 -0.18426937991140499 -0.42552682719764828 0 -0.1950675597636001 -0.4054221643285344 0 -0.20367364904894891 -0.4279357273758102 0 -0.21593934679257701 -0.40391430316774601 0 -0.20367364904894891 -0.4279357273758102 0 -0.1950675597636001 -0.4054221643285344 0 -0.21593934679257701 -0.40391430316774601 0 -0.20367364904894891 -0.4279357273758102 0 -0.21593934679257701 -0.40391430316774601 0 -0.20367364904894891 -0.4279357273758102 0 -0.2237786464271278 -0.4205028725354793 0 -0.22227691364153379 -0.44110797856119488 0 -0.20367364904894891 -0.4279357273758102 0 -0.2237786464271278 -0.4205028725354793 0 -0.22227691364153379 -0.44110797856119488 0 -0.2237786464271278 -0.4205028725354793 0 -0.23956993882581701 -0.42483208090926727 0 -0.21593934679257701 -0.40391430316774601 0 -0.2237786464271278 -0.4205028725354793 0 -0.23743338382676241 -0.40472427266337813 0 -0.2237786464271278 -0.4205028725354793 0 -0.23956993882581701 -0.42483208090926727 0 -0.23743338382676241 -0.40472427266337813 0 -0.25896102605170951 -0.41984111555371872 0 -0.23956993882581701 -0.42483208090926727 0 -0.23743338382676241 -0.40472427266337813 0 -0.24856472962383661 -0.44074853436116301 0 -0.22227691364153379 -0.44110797856119488 0 -0.23956993882581701 -0.42483208090926727 0 -0.25896102605170951 -0.41984111555371872 0 -0.24856472962383661 -0.44074853436116301 0 -0.23956993882581701 -0.42483208090926727 0 -0.21593934679257701 -0.40391430316774601 0 -0.22966146164874471 -0.3823973764124548 0 -0.23743338382676241 -0.40472427266337813 0 -0.2570528547229794 -0.39071354066775549 0 -0.22966146164874471 -0.3823973764124548 0 -0.23743338382676241 -0.40472427266337813 0 -0.2570528547229794 -0.39071354066775549 0 -0.22966146164874471 -0.3823973764124548 0 -0.24910915227481051 -0.36912515271141638 0 -0.22966146164874471 -0.3823973764124548 0 -0.24910915227481051 -0.36912515271141638 0 -0.23271987219267001 -0.35546541702616752 0 -0.22966146164874471 -0.3823973764124548 0 -0.23271987219267001 -0.35546541702616752 0 -0.2105241463922245 -0.36806464903327041 0 -0.23271987219267001 -0.35546541702616752 0 -0.2096347287309393 -0.34400520266489287 0 -0.25763153378316062 -0.34852674486984359 0 -0.24910915227481051 -0.36912515271141638 0 -0.23271987219267001 -0.35546541702616752 0 -0.25763153378316062 -0.34852674486984359 0 -0.23271987219267001 -0.35546541702616752 0 -0.24320469395457511 -0.32837359787739412 0 -0.24320469395457511 -0.32837359787739412 0 -0.22329559140895541 -0.33135056906924892 0 -0.21891656090572581 -0.31240496522499961 0 -0.24320469395457511 -0.32837359787739412 0 -0.2349936979471258 -0.30339557116711852 0 -0.21891656090572581 -0.31240496522499961 0 -0.23271987219267001 -0.35546541702616752 0 -0.22329559140895541 -0.33135056906924892 0 -0.2096347287309393 -0.34400520266489287 0 -0.23271987219267001 -0.35546541702616752 0 -0.24320469395457511 -0.32837359787739412 0 -0.22329559140895541 -0.33135056906924892 0 -0.22329559140895541 -0.33135056906924892 0 -0.20111704640413669 -0.31970238582574589 0 -0.2096347287309393 -0.34400520266489287 0 -0.22329559140895541 -0.33135056906924892 0 -0.20111704640413669 -0.31970238582574589 0 -0.21891656090572581 -0.31240496522499961 0 -0.20111704640413669 -0.31970238582574589 0 -0.1865495852692087 -0.33254498830361812 0 -0.178496369513337 -0.3194908559420695 0 -0.20111704640413669 -0.31970238582574589 0 -0.18681201740498429 -0.30783882882218472 0 -0.178496369513337 -0.3194908559420695 0 -0.20111704640413669 -0.31970238582574589 0 -0.2096347287309393 -0.34400520266489287 0 -0.1865495852692087 -0.33254498830361812 0 -0.2096347287309393 -0.34400520266489287 0 -0.1865495852692087 -0.33254498830361812 0 -0.1915154762613033 -0.35804646354784048 0 -0.2096347287309393 -0.34400520266489287 0 -0.1865495852692087 -0.33254498830361812 0 -0.18905579382955701 -0.3827219483429054 0 -0.1915154762613033 -0.35804646354784048 0 -0.2105241463922245 -0.36806464903327041 0 -0.23271987219267001 -0.35546541702616752 0 -0.2105241463922245 -0.36806464903327041 0 -0.2096347287309393 -0.34400520266489287 0 -0.1915154762613033 -0.35804646354784048 0 -0.2105241463922245 -0.36806464903327041 0 -0.2096347287309393 -0.34400520266489287 0 -0.23606735027508691 -0.26228649500277978 0 -0.21595873457168949 -0.26998509988498343 0 -0.21649768948809109 -0.24850514420996581 0 -0.23606735027508691 -0.26228649500277978 0 -0.21649768948809109 -0.24850514420996581 0 -0.24295490279806459 -0.24609637562437539 0 -0.25376413621451421 -0.25480509811548918 0 -0.23606735027508691 -0.26228649500277978 0 -0.24295490279806459 -0.24609637562437539 0 -0.25376413621451421 -0.25480509811548918 0 -0.23606735027508691 -0.26228649500277978 0 -0.2498548544044375 -0.27030109806912361 0 -0.26167355822908039 -0.28172127198014307 0 -0.2498548544044375 -0.27030109806912361 0 -0.23651304390164701 -0.28441269640240979 0 -0.23606735027508691 -0.26228649500277978 0 -0.2498548544044375 -0.27030109806912361 0 -0.23651304390164701 -0.28441269640240979 0 -0.23651304390164701 -0.28441269640240979 0 -0.20663822686556649 -0.2880749702251178 0 -0.21595873457168949 -0.26998509988498343 0 -0.23606735027508691 -0.26228649500277978 0 -0.23651304390164701 -0.28441269640240979 0 -0.21595873457168949 -0.26998509988498343 0 -0.23651304390164701 -0.28441269640240979 0 -0.2349936979471258 -0.30339557116711852 0 -0.20663822686556649 -0.2880749702251178 0 -0.25507286788371403 -0.30204157117614749 0 -0.23651304390164701 -0.28441269640240979 0 -0.25507286788371403 -0.30204157117614749 0 -0.23651304390164701 -0.28441269640240979 0 -0.2349936979471258 -0.30339557116711852 0 -0.25507286788371403 -0.30204157117614749 0 -0.24320469395457511 -0.32837359787739412 0 -0.2349936979471258 -0.30339557116711852 0 -0.2349936979471258 -0.30339557116711852 0 -0.21891656090572581 -0.31240496522499961 0 -0.20663822686556649 -0.2880749702251178 0 -0.21891656090572581 -0.31240496522499961 0 -0.2001130184556931 -0.30368433266342909 0 -0.20663822686556649 -0.2880749702251178 0 -0.20111704640413669 -0.31970238582574589 0 -0.21891656090572581 -0.31240496522499961 0 -0.2001130184556931 -0.30368433266342909 0 -0.2001130184556931 -0.30368433266342909 0 -0.18239773432165179 -0.29048860000524551 0 -0.18681201740498429 -0.30783882882218472 0 -0.20111704640413669 -0.31970238582574589 0 -0.2001130184556931 -0.30368433266342909 0 -0.18681201740498429 -0.30783882882218472 0 -0.20663822686556649 -0.2880749702251178 0 -0.19406731065048069 -0.27819905415437368 0 -0.18239773432165179 -0.29048860000524551 0 -0.2001130184556931 -0.30368433266342909 0 -0.20663822686556649 -0.2880749702251178 0 -0.18239773432165179 -0.29048860000524551 0 -0.20663822686556649 -0.2880749702251178 0 -0.21595873457168949 -0.26998509988498343 0 -0.19406731065048069 -0.27819905415437368 0 -0.19406731065048069 -0.27819905415437368 0 -0.19696200004224071 -0.26247701783434441 0 -0.18019434957166741 -0.27025533942958502 0 -0.21595873457168949 -0.26998509988498343 0 -0.19406731065048069 -0.27819905415437368 0 -0.19696200004224071 -0.26247701783434441 0 -0.19696200004224071 -0.26247701783434441 0 -0.18019434957166741 -0.27025533942958502 0 -0.19054804706596259 -0.24750041955575999 0 -0.19696200004224071 -0.26247701783434441 0 -0.21649768948809109 -0.24850514420996581 0 -0.19054804706596259 -0.24750041955575999 0 -0.19696200004224071 -0.26247701783434441 0 -0.21649768948809109 -0.24850514420996581 0 -0.21595873457168949 -0.26998509988498343 0 -0.19696200004224071 -0.26247701783434441 0 -0.21649768948809109 -0.24850514420996581 0 -0.16867509988366769 -0.26529509034892118 0 -0.16153193887691589 -0.25498623807777449 0 -0.17431016009139391 -0.2488301997560706 0 -0.16153193887691589 -0.25498623807777449 0 -0.16214641895653589 -0.27600366213363697 0 -0.16867509988366769 -0.26529509034892118 0 -0.16153193887691589 -0.25498623807777449 0 -0.16214641895653589 -0.27600366213363697 0 -0.16153193887691589 -0.25498623807777449 0 -0.16214641895653589 -0.27600366213363697 0 -0.15494456317253241 -0.26569652590396631 0 -0.18019434957166741 -0.27025533942958502 0 -0.17431016009139391 -0.2488301997560706 0 -0.19054804706596259 -0.24750041955575999 0 -0.18019434957166741 -0.27025533942958502 0 -0.17431016009139391 -0.2488301997560706 0 -0.16867509988366769 -0.26529509034892118 0 -0.18019434957166741 -0.27025533942958502 0 -0.17431016009139391 -0.2488301997560706 0 -0.19406731065048069 -0.27819905415437368 0 -0.18019434957166741 -0.27025533942958502 0 -0.18239773432165179 -0.29048860000524551 0 -0.18019434957166741 -0.27025533942958502 0 -0.16214641895653589 -0.27600366213363697 0 -0.18239773432165179 -0.29048860000524551 0 -0.16867509988366769 -0.26529509034892118 0 -0.18019434957166741 -0.27025533942958502 0 -0.16214641895653589 -0.27600366213363697 0 -0.16214641895653589 -0.27600366213363697 0 -0.16276089903615579 -0.29702108618949957 0 -0.16214641895653589 -0.27600366213363697 0 -0.16276089903615579 -0.29702108618949957 0 -0.15607652590016871 -0.28666362944016183 0 -0.16214641895653589 -0.27600366213363697 0 -0.18239773432165179 -0.29048860000524551 0 -0.16276089903615579 -0.29702108618949957 0 -0.16276089903615579 -0.29702108618949957 0 -0.15016561086747551 -0.2969504137470424 0 -0.15607652590016871 -0.28666362944016183 0 -0.18239773432165179 -0.29048860000524551 0 -0.17208793091370761 -0.30723403272673239 0 -0.16276089903615579 -0.29702108618949957 0 -0.18239773432165179 -0.29048860000524551 0 -0.18681201740498429 -0.30783882882218472 0 -0.17208793091370761 -0.30723403272673239 0 -0.18681201740498429 -0.30783882882218472 0 -0.17208793091370761 -0.30723403272673239 0 -0.178496369513337 -0.3194908559420695 0 -0.17208793091370761 -0.30723403272673239 0 -0.16276089903615579 -0.29702108618949957 0 -0.1634503152639098 -0.31803631935983068 0 -0.16276089903615579 -0.29702108618949957 0 -0.1634503152639098 -0.31803631935983068 0 -0.16276089903615579 -0.29702108618949957 0 -0.15016561086747551 -0.2969504137470424 0 -0.1634503152639098 -0.31803631935983068 0 -0.15016561086747551 -0.2969504137470424 0 -0.1634503152639098 -0.31803631935983068 0 -0.15016561086747551 -0.2969504137470424 0 -0.1634503152639098 -0.31803631935983068 0 -0.1484140971118981 -0.31361329442962788 0 -0.15016561086747551 -0.2969504137470424 0 -0.14090486492606991 -0.30171141041970678 0 -0.1484140971118981 -0.31361329442962788 0 -0.15016561086747551 -0.2969504137470424 0 -0.14090486492606991 -0.30171141041970678 0 -0.14656616817666451 -0.29410502800691379 0 -0.1313792474066636 -0.30928515273957918 0 -0.12770952675061251 -0.29302618228820282 0 -0.1192100386773557 -0.30001249277675851 0 -0.14090486492606991 -0.30171141041970678 0 -0.1313792474066636 -0.30928515273957918 0 -0.12770952675061251 -0.29302618228820282 0 -0.14090486492606991 -0.30171141041970678 0 -0.1313792474066636 -0.30928515273957918 0 -0.1484140971118981 -0.31361329442962788 0 -0.12770952675061251 -0.29302618228820282 0 -0.14656616817666451 -0.29410502800691379 0 -0.12770952675061251 -0.29302618228820282 0 -0.14656616817666451 -0.29410502800691379 0 -0.1368809064710412 -0.27586450813425423 0 -0.14090486492606991 -0.30171141041970678 0 -0.12770952675061251 -0.29302618228820282 0 -0.14656616817666451 -0.29410502800691379 0 -0.12770952675061251 -0.29302618228820282 0 -0.1368809064710412 -0.27586450813425423 0 -0.11912342570766631 -0.27776599440637523 0 -0.15016561086747551 -0.2969504137470424 0 -0.15607652590016871 -0.28666362944016183 0 -0.1498081186042203 -0.27672525221295002 0 -0.15016561086747551 -0.2969504137470424 0 -0.1368809064710412 -0.27586450813425423 0 -0.15016561086747551 -0.2969504137470424 0 -0.1498081186042203 -0.27672525221295002 0 -0.1368809064710412 -0.27586450813425423 0 -0.15016561086747551 -0.2969504137470424 0 -0.14656616817666451 -0.29410502800691379 0 -0.1368809064710412 -0.27586450813425423 0 -0.1498081186042203 -0.27672525221295002 0 -0.15494456317253241 -0.26569652590396631 0 -0.14465089884745799 -0.25965303512988958 0 -0.1498081186042203 -0.27672525221295002 0 -0.1368809064710412 -0.27586450813425423 0 -0.14465089884745799 -0.25965303512988958 0 -0.16214641895653589 -0.27600366213363697 0 -0.15607652590016871 -0.28666362944016183 0 -0.1498081186042203 -0.27672525221295002 0 -0.16214641895653589 -0.27600366213363697 0 -0.1498081186042203 -0.27672525221295002 0 -0.15494456317253241 -0.26569652590396631 0 -0.1368809064710412 -0.27586450813425423 0 -0.123596202074607 -0.25477860252146589 0 -0.11912342570766631 -0.27776599440637523 0 -0.1368809064710412 -0.27586450813425423 0 -0.123596202074607 -0.25477860252146589 0 -0.1368809064710412 -0.27586450813425423 0 -0.14465089884745799 -0.25965303512988958 0 -0.123596202074607 -0.25477860252146589 0 -0.14465089884745799 -0.25965303512988958 0 -0.123596202074607 -0.25477860252146589 0 -0.1378763090635933 -0.24360624003131881 0 -0.16153193887691589 -0.25498623807777449 0 -0.14465089884745799 -0.25965303512988958 0 -0.1513457192101508 -0.2448063678238897 0 -0.16153193887691589 -0.25498623807777449 0 -0.15494456317253241 -0.26569652590396631 0 -0.14465089884745799 -0.25965303512988958 0 -0.15717519572504851 -0.34992585108842222 0 -0.16427352493760061 -0.36324985186028202 0 -0.17369230944952571 -0.34899071672005177 0 -0.15717519572504851 -0.34992585108842222 0 -0.17369230944952571 -0.34899071672005177 0 -0.1645725881467173 -0.34065725641244549 0 -0.15717519572504851 -0.34992585108842222 0 -0.16427352493760061 -0.36324985186028202 0 -0.15322108840534349 -0.36211049831067871 0 -0.16427352493760061 -0.36324985186028202 0 -0.15619157413943441 -0.37377707706977598 0 -0.15322108840534349 -0.36211049831067871 0 -0.16950008417844059 -0.38131471471919548 0 -0.16427352493760061 -0.36324985186028202 0 -0.17735189390407671 -0.36800531833253691 0 -0.16427352493760061 -0.36324985186028202 0 -0.17735189390407671 -0.36800531833253691 0 -0.17369230944952571 -0.34899071672005177 0 -0.16950008417844059 -0.38131471471919548 0 -0.16427352493760061 -0.36324985186028202 0 -0.15619157413943441 -0.37377707706977598 0 -0.18905579382955701 -0.3827219483429054 0 -0.1915154762613033 -0.35804646354784048 0 -0.17735189390407671 -0.36800531833253691 0 -0.1915154762613033 -0.35804646354784048 0 -0.17735189390407671 -0.36800531833253691 0 -0.17369230944952571 -0.34899071672005177 0 -0.1915154762613033 -0.35804646354784048 0 -0.17369230944952571 -0.34899071672005177 0 -0.1865495852692087 -0.33254498830361812 0 -0.17369230944952571 -0.34899071672005177 0 -0.1865495852692087 -0.33254498830361812 0 -0.17274319953659339 -0.33549332011005689 0 -0.1865495852692087 -0.33254498830361812 0 -0.17274319953659339 -0.33549332011005689 0 -0.16346444180747821 -0.32108477394234353 0 -0.1865495852692087 -0.33254498830361812 0 -0.178496369513337 -0.3194908559420695 0 -0.16346444180747821 -0.32108477394234353 0 -0.1865495852692087 -0.33254498830361812 0 -0.16346444180747821 -0.32108477394234353 0 -0.17208793091370761 -0.30723403272673239 0 -0.178496369513337 -0.3194908559420695 0 -0.16937476437460819 -0.31646149549274399 0 -0.17208793091370761 -0.30723403272673239 0 -0.16937476437460819 -0.31646149549274399 0 -0.1634503152639098 -0.31803631935983068 0 -0.178496369513337 -0.3194908559420695 0 -0.16937476437460819 -0.31646149549274399 0 -0.16346444180747821 -0.32108477394234353 0 -0.16937476437460819 -0.31646149549274399 0 -0.16346444180747821 -0.32108477394234353 0 -0.1634503152639098 -0.31803631935983068 0 -0.16346444180747821 -0.32108477394234353 0 -0.16375382448754949 -0.33098270017820292 0 -0.16346444180747821 -0.32108477394234353 0 -0.16375382448754949 -0.33098270017820292 0 -0.1588112450421211 -0.32853708396973591 0 -0.16346444180747821 -0.32108477394234353 0 -0.1588112450421211 -0.32853708396973591 0 -0.1528494878259557 -0.3260704978874075 0 -0.16346444180747821 -0.32108477394234353 0 -0.1634503152639098 -0.31803631935983068 0 -0.1484140971118981 -0.31361329442962788 0 -0.16346444180747821 -0.32108477394234353 0 -0.1634503152639098 -0.31803631935983068 0 -0.17369230944952571 -0.34899071672005177 0 -0.17274319953659339 -0.33549332011005689 0 -0.1645725881467173 -0.34065725641244549 0 -0.17274319953659339 -0.33549332011005689 0 -0.16346444180747821 -0.32108477394234353 0 -0.16375382448754949 -0.33098270017820292 0 -0.17274319953659339 -0.33549332011005689 0 -0.1645725881467173 -0.34065725641244549 0 -0.16375382448754949 -0.33098270017820292 0 -0.16375382448754949 -0.33098270017820292 0 -0.1588112450421211 -0.32853708396973591 0 -0.15517722604750089 -0.33601036387098943 0 -0.1645725881467173 -0.34065725641244549 0 -0.16375382448754949 -0.33098270017820292 0 -0.15517722604750089 -0.33601036387098943 0 -0.15717519572504851 -0.34992585108842222 0 -0.1645725881467173 -0.34065725641244549 0 -0.15517722604750089 -0.33601036387098943 0 -0.15717519572504851 -0.34992585108842222 0 -0.15517722604750089 -0.33601036387098943 0 -0.14471782894537741 -0.34382018203671721 0 -0.15517722604750089 -0.33601036387098943 0 -0.14478334397005671 -0.33330046290144 0 -0.1528494878259557 -0.3260704978874075 0 -0.1588112450421211 -0.32853708396973591 0 -0.15517722604750089 -0.33601036387098943 0 -0.1528494878259557 -0.3260704978874075 0 -0.15517722604750089 -0.33601036387098943 0 -0.14478334397005671 -0.33330046290144 0 -0.14471782894537741 -0.34382018203671721 0 -0.14478334397005671 -0.33330046290144 0 -0.13484037952750999 -0.33541836836170008 0 -0.14471782894537741 -0.34382018203671721 0 -0.16346444180747821 -0.32108477394234353 0 -0.1484140971118981 -0.31361329442962788 0 -0.16346444180747821 -0.32108477394234353 0 -0.1528494878259557 -0.3260704978874075 0 -0.1484140971118981 -0.31361329442962788 0 -0.14478334397005671 -0.33330046290144 0 -0.1528494878259557 -0.3260704978874075 0 -0.13943460129080351 -0.32418483421945649 0 -0.1528494878259557 -0.3260704978874075 0 -0.1484140971118981 -0.31361329442962788 0 -0.13943460129080351 -0.32418483421945649 0 -0.1313792474066636 -0.30928515273957918 0 -0.1484140971118981 -0.31361329442962788 0 -0.13943460129080351 -0.32418483421945649 0 -0.13943460129080351 -0.32418483421945649 0 -0.13484037952750999 -0.33541836836170008 0 -0.12397043166626789 -0.32304839526035878 0 -0.1313792474066636 -0.30928515273957918 0 -0.13943460129080351 -0.32418483421945649 0 -0.12397043166626789 -0.32304839526035878 0 -0.13484037952750999 -0.33541836836170008 0 -0.1229880573142154 -0.33874934493979431 0 -0.12397043166626789 -0.32304839526035878 0 -0.13484037952750999 -0.33541836836170008 0 -0.13314801397833939 -0.34940699081243409 0 -0.14471782894537741 -0.34382018203671721 0 -0.14478334397005671 -0.33330046290144 0 -0.13943460129080351 -0.32418483421945649 0 -0.13484037952750999 -0.33541836836170008 0 -0.13484037952750999 -0.33541836836170008 0 -0.13314801397833939 -0.34940699081243409 0 -0.1229880573142154 -0.33874934493979431 0 -0.13314801397833939 -0.34940699081243409 0 -0.120408433609421 -0.35022570354069033 0 -0.1229880573142154 -0.33874934493979431 0 -0.12692902138571049 -0.35735533298228561 0 -0.13314801397833939 -0.34940699081243409 0 -0.1355794186524337 -0.36130995847690822 0 -0.12692902138571049 -0.35735533298228561 0 -0.13314801397833939 -0.34940699081243409 0 -0.120408433609421 -0.35022570354069033 0 -0.13314801397833939 -0.34940699081243409 0 -0.1456071708830273 -0.35525145158002353 0 -0.1355794186524337 -0.36130995847690822 0 -0.13314801397833939 -0.34940699081243409 0 -0.14471782894537741 -0.34382018203671721 0 -0.1456071708830273 -0.35525145158002353 0 -0.15717519572504851 -0.34992585108842222 0 -0.1456071708830273 -0.35525145158002353 0 -0.15322108840534349 -0.36211049831067871 0 -0.15717519572504851 -0.34992585108842222 0 -0.14471782894537741 -0.34382018203671721 0 -0.1456071708830273 -0.35525145158002353 0 -0.14491185722987179 -0.37811469575099199 0 -0.15619157413943441 -0.37377707706977598 0 -0.1454684951190032 -0.36778672136737101 0 -0.15619157413943441 -0.37377707706977598 0 -0.15322108840534349 -0.36211049831067871 0 -0.1454684951190032 -0.36778672136737101 0 -0.1456071708830273 -0.35525145158002353 0 -0.15322108840534349 -0.36211049831067871 0 -0.1454684951190032 -0.36778672136737101 0 -0.1456071708830273 -0.35525145158002353 0 -0.1454684951190032 -0.36778672136737101 0 -0.1355794186524337 -0.36130995847690822 0 -0.14491185722987179 -0.37811469575099199 0 -0.1454684951190032 -0.36778672136737101 0 -0.13680200172848639 -0.37141861264998721 0 -0.1454684951190032 -0.36778672136737101 0 -0.13680200172848639 -0.37141861264998721 0 -0.1355794186524337 -0.36130995847690822 0 -0.12692902138571049 -0.35735533298228561 0 -0.1355794186524337 -0.36130995847690822 0 -0.12582660963558559 -0.36745624974565527 0 -0.13680200172848639 -0.37141861264998721 0 -0.1355794186524337 -0.36130995847690822 0 -0.12582660963558559 -0.36745624974565527 0 -0.13222362800553769 -0.38242543790900979 0 -0.13680200172848639 -0.37141861264998721 0 -0.12582660963558559 -0.36745624974565527 0 -0.12582660963558559 -0.36745624974565527 0 -0.115503506740471 -0.3607299434281328 0 -0.10850511895856239 -0.37016109115723472 0 -0.13222362800553769 -0.38242543790900979 0 -0.12582660963558559 -0.36745624974565527 0 -0.10850511895856239 -0.37016109115723472 0 -0.12692902138571049 -0.35735533298228561 0 -0.12582660963558559 -0.36745624974565527 0 -0.115503506740471 -0.3607299434281328 0 -0.10850511895856239 -0.37016109115723472 0 -0.090600739707181993 -0.37208256062103229 0 -0.1029559312216393 -0.37671021796627319 0 -0.10850511895856239 -0.37016109115723472 0 -0.090600739707181993 -0.37208256062103229 0 -0.084786609911587124 -0.35789674440545932 0 -0.10850511895856239 -0.37016109115723472 0 -0.084786609911587124 -0.35789674440545932 0 -0.10850511895856239 -0.37016109115723472 0 -0.1025154453832345 -0.36041355090252841 0 -0.084786609911587124 -0.35789674440545932 0 -0.115503506740471 -0.3607299434281328 0 -0.10850511895856239 -0.37016109115723472 0 -0.1025154453832345 -0.36041355090252841 0 -0.096902989462527969 -0.34916179168828643 0 -0.1031114682828302 -0.33965003210908229 0 -0.082985393967211191 -0.34742309163810059 0 -0.1025154453832345 -0.36041355090252841 0 -0.096344055159807249 -0.3550191237278722 0 -0.084786609911587124 -0.35789674440545932 0 -0.096902989462527969 -0.34916179168828643 0 -0.096344055159807249 -0.3550191237278722 0 -0.090132039502977448 -0.35241033212167611 0 -0.096902989462527969 -0.34916179168828643 0 -0.096344055159807249 -0.3550191237278722 0 -0.10732844693167359 -0.35216554724887889 0 -0.115503506740471 -0.3607299434281328 0 -0.1025154453832345 -0.36041355090252841 0 -0.10732844693167359 -0.35216554724887889 0 -0.1025154453832345 -0.36041355090252841 0 -0.096344055159807249 -0.3550191237278722 0 -0.10732844693167359 -0.35216554724887889 0 -0.10732844693167359 -0.35216554724887889 0 -0.1131433527299662 -0.34239686933090652 0 -0.1031114682828302 -0.33965003210908229 0 -0.096902989462527969 -0.34916179168828643 0 -0.10732844693167359 -0.35216554724887889 0 -0.1031114682828302 -0.33965003210908229 0 -0.10732844693167359 -0.35216554724887889 0 -0.120408433609421 -0.35022570354069033 0 -0.1131433527299662 -0.34239686933090652 0 -0.115503506740471 -0.3607299434281328 0 -0.10732844693167359 -0.35216554724887889 0 -0.120408433609421 -0.35022570354069033 0 -0.12692902138571049 -0.35735533298228561 0 -0.115503506740471 -0.3607299434281328 0 -0.120408433609421 -0.35022570354069033 0 -0.120408433609421 -0.35022570354069033 0 -0.1229880573142154 -0.33874934493979431 0 -0.1131433527299662 -0.34239686933090652 0 -0.1229880573142154 -0.33874934493979431 0 -0.11188035751169061 -0.33119371881608689 0 -0.12397043166626789 -0.32304839526035878 0 -0.11188035751169061 -0.33119371881608689 0 -0.1131433527299662 -0.34239686933090652 0 -0.1031114682828302 -0.33965003210908229 0 -0.1229880573142154 -0.33874934493979431 0 -0.11188035751169061 -0.33119371881608689 0 -0.1131433527299662 -0.34239686933090652 0 -0.12397043166626789 -0.32304839526035878 0 -0.1082076551179552 -0.31569369924453761 0 -0.1194151020287315 -0.31052752035213083 0 -0.11188035751169061 -0.33119371881608689 0 -0.12397043166626789 -0.32304839526035878 0 -0.1082076551179552 -0.31569369924453761 0 -0.1313792474066636 -0.30928515273957918 0 -0.12397043166626789 -0.32304839526035878 0 -0.1194151020287315 -0.31052752035213083 0 -0.1082076551179552 -0.31569369924453761 0 -0.10010146720363949 -0.32790616914964071 0 -0.089632942199459387 -0.31912108882379059 0 -0.1082076551179552 -0.31569369924453761 0 -0.089632942199459387 -0.31912108882379059 0 -0.1008860092895945 -0.30720535677421529 0 -0.11188035751169061 -0.33119371881608689 0 -0.1082076551179552 -0.31569369924453761 0 -0.10010146720363949 -0.32790616914964071 0 -0.11188035751169061 -0.33119371881608689 0 -0.10010146720363949 -0.32790616914964071 0 -0.1031114682828302 -0.33965003210908229 0 -0.10010146720363949 -0.32790616914964071 0 -0.1031114682828302 -0.33965003210908229 0 -0.087674912906262392 -0.33387230675470547 0 -0.1031114682828302 -0.33965003210908229 0 -0.087674912906262392 -0.33387230675470547 0 -0.082985393967211191 -0.34742309163810059 0 -0.1031114682828302 -0.33965003210908229 0 -0.082985393967211191 -0.34742309163810059 0 -0.087674912906262392 -0.33387230675470547 0 -0.074049758521877951 -0.34016736587923768 0 -0.077344182007551707 -0.32955887610847101 0 -0.087674912906262392 -0.33387230675470547 0 -0.074049758521877951 -0.34016736587923768 0 -0.082985393967211191 -0.34742309163810059 0 -0.10010146720363949 -0.32790616914964071 0 -0.087674912906262392 -0.33387230675470547 0 -0.089632942199459387 -0.31912108882379059 0 -0.087674912906262392 -0.33387230675470547 0 -0.089632942199459387 -0.31912108882379059 0 -0.077344182007551707 -0.32955887610847101 0 -0.089632942199459387 -0.31912108882379059 0 -0.06662260328751235 -0.31377906763272773 0 -0.077344182007551707 -0.32955887610847101 0 -0.06662260328751235 -0.31377906763272773 0 -0.062688087184436636 -0.31575431389557967 0 -0.062783827807717199 -0.33780729337114629 0 -0.062688087184436636 -0.31575431389557967 0 -0.062783827807717199 -0.33780729337114629 0 -0.06662260328751235 -0.31377906763272773 0 -0.077344182007551707 -0.32955887610847101 0 -0.062783827807717199 -0.33780729337114629 0 -0.06662260328751235 -0.31377906763272773 0 -0.062783827807717199 -0.33780729337114629 0 -0.074049758521877951 -0.34016736587923768 0 -0.077344182007551707 -0.32955887610847101 0 -0.062783827807717199 -0.33780729337114629 0 -0.074049758521877951 -0.34016736587923768 0 -0.062783827807717199 -0.33780729337114629 0 -0.062859319651591583 -0.35519615116711689 0 -0.074049758521877951 -0.34016736587923768 0 -0.062859319651591583 -0.35519615116711689 0 -0.082985393967211191 -0.34742309163810059 0 -0.062783827807717199 -0.33780729337114629 0 -0.062859319651591583 -0.35519615116711689 0 -0.062859319651591583 -0.35519615116711689 0 -0.082985393967211191 -0.34742309163810059 0 -0.062859319651591583 -0.35519615116711689 0 -0.082985393967211191 -0.34742309163810059 0 -0.080711883484691826 -0.35578978828443653 0 -0.062859319651591583 -0.35519615116711689 0 -0.062968264209951955 -0.38029053667653162 0 -0.062859319651591583 -0.35519615116711689 0 -0.073877437060769241 -0.36909364054099503 0 -0.080711883484691826 -0.35578978828443653 0 -0.062859319651591583 -0.35519615116711689 0 -0.073877437060769241 -0.36909364054099503 0 -0.062968264209951955 -0.38029053667653162 0 -0.073877437060769241 -0.36909364054099503 0 -0.062968264209951955 -0.38029053667653162 0 -0.073877437060769241 -0.36909364054099503 0 -0.090600739707181993 -0.37208256062103229 0 -0.084786609911587124 -0.35789674440545932 0 -0.073877437060769241 -0.36909364054099503 0 -0.090600739707181993 -0.37208256062103229 0 -0.079645834069882473 -0.37756560320271859 0 -0.073877437060769241 -0.36909364054099503 0 -0.084786609911587124 -0.35789674440545932 0 -0.073877437060769241 -0.36909364054099503 0 -0.080711883484691826 -0.35578978828443653 0 -0.084786609911587124 -0.35789674440545932 0 -0.096344055159807249 -0.3550191237278722 0 -0.090132039502977448 -0.35241033212167611 0 -0.084786609911587124 -0.35789674440545932 0 -0.090132039502977448 -0.35241033212167611 0 -0.084786609911587124 -0.35789674440545932 0 -0.090132039502977448 -0.35241033212167611 0 -0.084786609911587124 -0.35789674440545932 0 -0.084908203938453247 -0.35266797288066448 0 -0.096902989462527969 -0.34916179168828643 0 -0.090132039502977448 -0.35241033212167611 0 -0.082985393967211191 -0.34742309163810059 0 -0.090132039502977448 -0.35241033212167611 0 -0.082985393967211191 -0.34742309163810059 0 -0.084908203938453247 -0.35266797288066448 0 -0.082985393967211191 -0.34742309163810059 0 -0.080711883484691826 -0.35578978828443653 0 -0.084908203938453247 -0.35266797288066448 0 -0.080711883484691826 -0.35578978828443653 0 -0.084786609911587124 -0.35789674440545932 0 -0.080711883484691826 -0.35578978828443653 0 -0.084786609911587124 -0.35789674440545932 0 -0.084908203938453247 -0.35266797288066448 0 -0.1050878704726195 -0.26729710456301958 0 -0.1013228556206739 -0.24264687255654899 0 -0.1050878704726195 -0.26729710456301958 0 -0.086803194063947486 -0.25213535243165319 0 -0.1013228556206739 -0.24264687255654899 0 -0.123596202074607 -0.25477860252146589 0 -0.1050878704726195 -0.26729710456301958 0 -0.1013228556206739 -0.24264687255654899 0 -0.123596202074607 -0.25477860252146589 0 -0.11912342570766631 -0.27776599440637523 0 -0.1050878704726195 -0.26729710456301958 0 -0.11912342570766631 -0.27776599440637523 0 -0.1050878704726195 -0.26729710456301958 0 -0.1088528853245605 -0.2919473365694909 0 -0.1050878704726195 -0.26729710456301958 0 -0.097060261674171866 -0.28142135574020899 0 -0.1088528853245605 -0.2919473365694909 0 -0.1050878704726195 -0.26729710456301958 0 -0.1088528853245605 -0.2919473365694909 0 -0.1050878704726195 -0.26729710456301958 0 -0.097060261674171866 -0.28142135574020899 0 -0.087302270515881186 -0.27406658578755683 0 -0.097060261674171866 -0.28142135574020899 0 -0.1088528853245605 -0.2919473365694909 0 -0.089657132045933938 -0.29084908923190039 0 -0.1088528853245605 -0.2919473365694909 0 -0.089657132045933938 -0.29084908923190039 0 -0.1088528853245605 -0.2919473365694909 0 -0.099409563913551893 -0.29822843658599202 0 -0.089657132045933938 -0.29084908923190039 0 -0.1088528853245605 -0.2919473365694909 0 -0.10997749001226791 -0.29931032650646539 0 -0.099409563913551893 -0.29822843658599202 0 -0.12770952675061251 -0.29302618228820282 0 -0.1088528853245605 -0.2919473365694909 0 -0.1192100386773557 -0.30001249277675851 0 -0.12770952675061251 -0.29302618228820282 0 -0.1088528853245605 -0.2919473365694909 0 -0.12770952675061251 -0.29302618228820282 0 -0.11912342570766631 -0.27776599440637523 0 -0.1088528853245605 -0.2919473365694909 0 -0.1088528853245605 -0.2919473365694909 0 -0.10997749001226791 -0.29931032650646539 0 -0.10997749001226791 -0.29931032650646539 0 -0.1192100386773557 -0.30001249277675851 0 -0.1116498069757188 -0.30746161204578532 0 -0.1088528853245605 -0.2919473365694909 0 -0.10997749001226791 -0.29931032650646539 0 -0.1192100386773557 -0.30001249277675851 0 -0.1313792474066636 -0.30928515273957918 0 -0.1192100386773557 -0.30001249277675851 0 -0.1194151020287315 -0.31052752035213083 0 -0.1192100386773557 -0.30001249277675851 0 -0.1194151020287315 -0.31052752035213083 0 -0.1116498069757188 -0.30746161204578532 0 -0.1082076551179552 -0.31569369924453761 0 -0.1194151020287315 -0.31052752035213083 0 -0.1116498069757188 -0.30746161204578532 0 -0.1082076551179552 -0.31569369924453761 0 -0.1116498069757188 -0.30746161204578532 0 -0.1008860092895945 -0.30720535677421529 0 -0.10997749001226791 -0.29931032650646539 0 -0.099409563913551893 -0.29822843658599202 0 -0.1008860092895945 -0.30720535677421529 0 -0.10997749001226791 -0.29931032650646539 0 -0.1116498069757188 -0.30746161204578532 0 -0.1008860092895945 -0.30720535677421529 0 -0.099409563913551893 -0.29822843658599202 0 -0.1008860092895945 -0.30720535677421529 0 -0.086111604917226553 -0.30315564682382251 0 -0.089632942199459387 -0.31912108882379059 0 -0.1008860092895945 -0.30720535677421529 0 -0.086111604917226553 -0.30315564682382251 0 -0.089632942199459387 -0.31912108882379059 0 -0.06662260328751235 -0.31377906763272773 0 -0.086111604917226553 -0.30315564682382251 0 -0.099409563913551893 -0.29822843658599202 0 -0.086111604917226553 -0.30315564682382251 0 -0.089657132045933938 -0.29084908923190039 0 -0.062688087184436636 -0.31575431389557967 0 -0.062592346561156212 -0.29370133442001312 0 -0.06662260328751235 -0.31377906763272773 0 -0.070461378767307348 -0.289750841894309 0 -0.06662260328751235 -0.31377906763272773 0 -0.070461378767307348 -0.289750841894309 0 -0.062592346561156212 -0.29370133442001312 0 -0.06662260328751235 -0.31377906763272773 0 -0.086111604917226553 -0.30315564682382251 0 -0.070461378767307348 -0.289750841894309 0 -0.06662260328751235 -0.31377906763272773 0 -0.062688087184436636 -0.31575431389557967 0 -0.062592346561156212 -0.29370133442001312 0 -0.097060261674171866 -0.28142135574020899 0 -0.089657132045933938 -0.29084908923190039 0 -0.087302270515881186 -0.27406658578755683 0 -0.070461378767307348 -0.289750841894309 0 -0.089657132045933938 -0.29084908923190039 0 -0.070461378767307348 -0.289750841894309 0 -0.089657132045933938 -0.29084908923190039 0 -0.087302270515881186 -0.27406658578755683 0 -0.086111604917226553 -0.30315564682382251 0 -0.070461378767307348 -0.289750841894309 0 -0.089657132045933938 -0.29084908923190039 0 -0.070461378767307348 -0.289750841894309 0 -0.074743786071307008 -0.26294577086424958 0 -0.070461378767307348 -0.289750841894309 0 -0.087302270515881186 -0.27406658578755683 0 -0.074743786071307008 -0.26294577086424958 0 -0.070461378767307348 -0.289750841894309 0 -0.074743786071307008 -0.26294577086424958 0 -0.054537563813673813 -0.27002026766904053 0 -0.074743786071307008 -0.26294577086424958 0 -0.086803194063947486 -0.25213535243165319 0 -0.072335588550341362 -0.23857068070964499 0 -0.1050878704726195 -0.26729710456301958 0 -0.087302270515881186 -0.27406658578755683 0 -0.086803194063947486 -0.25213535243165319 0 -0.087302270515881186 -0.27406658578755683 0 -0.074743786071307008 -0.26294577086424958 0 -0.086803194063947486 -0.25213535243165319 0 -0.074743786071307008 -0.26294577086424958 0 -0.054537563813673813 -0.27002026766904053 0 -0.052401822247863272 -0.24607235700039851 0 -0.036600359035300817 -0.25873915583872231 0 -0.054537563813673813 -0.27002026766904053 0 -0.052401822247863272 -0.24607235700039851 0 -0.036600359035300817 -0.25873915583872231 0 -0.054537563813673813 -0.27002026766904053 0 -0.037771918606079688 -0.27555432605765212 0 -0.054537563813673813 -0.27002026766904053 0 -0.037771918606079688 -0.27555432605765212 0 -0.048199791029730613 -0.28847718885717738 0 -0.048199791029730613 -0.28847718885717738 0 -0.02593820329215387 -0.28720353582004582 0 -0.037771918606079688 -0.27555432605765212 0 -0.048199791029730613 -0.28847718885717738 0 -0.02593820329215387 -0.28720353582004582 0 -0.048199791029730613 -0.28847718885717738 0 -0.039436746167742502 -0.29793623379825562 0 -0.02593820329215387 -0.28720353582004582 0 -0.048199791029730613 -0.28847718885717738 0 -0.052068659935508681 -0.2972579512852172 0 -0.039436746167742502 -0.29793623379825562 0 -0.070461378767307348 -0.289750841894309 0 -0.054537563813673813 -0.27002026766904053 0 -0.048199791029730613 -0.28847718885717738 0 -0.070461378767307348 -0.289750841894309 0 -0.062592346561156212 -0.29370133442001312 0 -0.048199791029730613 -0.28847718885717738 0 -0.070461378767307348 -0.289750841894309 0 -0.048199791029730613 -0.28847718885717738 0 -0.062592346561156212 -0.29370133442001312 0 -0.048199791029730613 -0.28847718885717738 0 -0.052068659935508681 -0.2972579512852172 0 -0.052068659935508681 -0.2972579512852172 0 -0.056906135678214842 -0.3041576127189487 0 -0.049915346724641797 -0.30509275273797309 0 -0.062688087184436636 -0.31575431389557967 0 -0.062592346561156212 -0.29370133442001312 0 -0.056906135678214842 -0.3041576127189487 0 -0.052068659935508681 -0.2972579512852172 0 -0.049915346724641797 -0.30509275273797309 0 -0.039436746167742502 -0.29793623379825562 0 -0.062592346561156212 -0.29370133442001312 0 -0.052068659935508681 -0.2972579512852172 0 -0.056906135678214842 -0.3041576127189487 0 -0.062688087184436636 -0.31575431389557967 0 -0.056906135678214842 -0.3041576127189487 0 -0.055619771227302203 -0.31051939430910119 0 -0.055619771227302203 -0.31051939430910119 0 -0.049915346724641797 -0.30509275273797309 0 -0.050140139486418371 -0.31743801849682401 0 -0.056906135678214842 -0.3041576127189487 0 -0.055619771227302203 -0.31051939430910119 0 -0.049915346724641797 -0.30509275273797309 0 -0.049915346724641797 -0.30509275273797309 0 -0.033143193741189687 -0.31072184399539782 0 -0.050140139486418371 -0.31743801849682401 0 -0.049915346724641797 -0.30509275273797309 0 -0.033143193741189687 -0.31072184399539782 0 -0.039436746167742502 -0.29793623379825562 0 -0.033143193741189687 -0.31072184399539782 0 -0.039436746167742502 -0.29793623379825562 0 -0.02593820329215387 -0.28720353582004582 0 -0.033143193741189687 -0.31072184399539782 0 -0.02593820329215387 -0.28720353582004582 0 -0.0090856546354542989 -0.31454871776104709 0 -0.0036766155545770941 -0.28592988278291398 0 -0.0090856546354542989 -0.31454871776104709 0 0.0042801482108115454 -0.31515528371412183 0 -0.0036766155545770941 -0.28592988278291398 0 -0.0090856546354542989 -0.31454871776104709 0 -0.0036766155545770941 -0.28592988278291398 0 -0.02593820329215387 -0.28720353582004582 0 -0.0090856546354542989 -0.31454871776104709 0 -0.0036766155545770941 -0.28592988278291398 0 -0.02593820329215387 -0.28720353582004582 0 -0.037771918606079688 -0.27555432605765212 0 -0.02593820329215387 -0.28720353582004582 0 -0.01893273429453815 -0.2694529471037167 0 -0.036600359035300817 -0.25873915583872231 0 -0.037771918606079688 -0.27555432605765212 0 -0.01893273429453815 -0.2694529471037167 0 -0.0036766155545770941 -0.28592988278291398 0 -0.02593820329215387 -0.28720353582004582 0 -0.01893273429453815 -0.2694529471037167 0 -0.0036766155545770941 -0.28592988278291398 0 -0.01893273429453815 -0.2694529471037167 0 0.001493640475220439 -0.25857443167614802 0 -0.0036766155545770941 -0.28592988278291398 0 0.001493640475220439 -0.25857443167614802 0 -0.01893273429453815 -0.2694529471037167 0 -0.018702325639984609 -0.24986848551028271 0 0.001493640475220439 -0.25857443167614802 0 -0.036600359035300817 -0.25873915583872231 0 -0.01893273429453815 -0.2694529471037167 0 -0.018702325639984609 -0.24986848551028271 0 -0.036600359035300817 -0.25873915583872231 0 -0.018702325639984609 -0.24986848551028271 0 -0.033663591369986277 -0.24353736627565789 0 -0.039860923651724903 -0.3640785540826329 0 -0.047879871032876192 -0.3442455757419296 0 -0.029883305792649969 -0.35034113206148559 0 -0.039860923651724903 -0.3640785540826329 0 -0.02894643389921555 -0.37506593662561277 0 -0.040924397963121223 -0.3777063176533616 0 -0.039860923651724903 -0.3640785540826329 0 -0.040924397963121223 -0.3777063176533616 0 -0.049562995640731911 -0.37652149234586901 0 -0.039860923651724903 -0.3640785540826329 0 -0.057407066353430493 -0.37146230618583992 0 -0.049562995640731911 -0.37652149234586901 0 -0.039860923651724903 -0.3640785540826329 0 -0.059818114506238959 -0.35637072044794482 0 -0.039860923651724903 -0.3640785540826329 0 -0.057407066353430493 -0.37146230618583992 0 -0.059818114506238959 -0.35637072044794482 0 -0.062859319651591583 -0.35519615116711689 0 -0.057407066353430493 -0.37146230618583992 0 -0.059818114506238959 -0.35637072044794482 0 -0.062859319651591583 -0.35519615116711689 0 -0.057407066353430493 -0.37146230618583992 0 -0.062968264209951955 -0.38029053667653162 0 -0.057407066353430493 -0.37146230618583992 0 -0.059818114506238959 -0.35637072044794482 0 -0.062783827807717199 -0.33780729337114629 0 -0.059818114506238959 -0.35637072044794482 0 -0.062783827807717199 -0.33780729337114629 0 -0.047879871032876192 -0.3442455757419296 0 -0.059818114506238959 -0.35637072044794482 0 -0.039860923651724903 -0.3640785540826329 0 -0.047879871032876192 -0.3442455757419296 0 -0.059818114506238959 -0.35637072044794482 0 -0.062783827807717199 -0.33780729337114629 0 -0.062859319651591583 -0.35519615116711689 0 -0.059818114506238959 -0.35637072044794482 0 -0.062859319651591583 -0.35519615116711689 0 -0.059818114506238959 -0.35637072044794482 0 -0.062783827807717199 -0.33780729337114629 0 -0.047879871032876192 -0.3442455757419296 0 -0.052916201633884108 -0.32857464769552208 0 -0.047879871032876192 -0.3442455757419296 0 -0.052916201633884108 -0.32857464769552208 0 -0.041089082657972002 -0.32762803697213072 0 -0.062688087184436636 -0.31575431389557967 0 -0.062783827807717199 -0.33780729337114629 0 -0.052916201633884108 -0.32857464769552208 0 -0.062688087184436636 -0.31575431389557967 0 -0.055619771227302203 -0.31051939430910119 0 -0.050140139486418371 -0.31743801849682401 0 -0.062688087184436636 -0.31575431389557967 0 -0.052916201633884108 -0.32857464769552208 0 -0.050140139486418371 -0.31743801849682401 0 -0.052916201633884108 -0.32857464769552208 0 -0.050140139486418371 -0.31743801849682401 0 -0.041089082657972002 -0.32762803697213072 0 -0.033143193741189687 -0.31072184399539782 0 -0.041089082657972002 -0.32762803697213072 0 -0.023872125671455871 -0.32706386203125382 0 -0.033143193741189687 -0.31072184399539782 0 -0.050140139486418371 -0.31743801849682401 0 -0.041089082657972002 -0.32762803697213072 0 -0.047879871032876192 -0.3442455757419296 0 -0.041089082657972002 -0.32762803697213072 0 -0.029883305792649969 -0.35034113206148559 0 -0.041089082657972002 -0.32762803697213072 0 -0.023872125671455871 -0.32706386203125382 0 -0.029883305792649969 -0.35034113206148559 0 -0.023872125671455871 -0.32706386203125382 0 -0.014494693716330651 -0.34316755273918043 0 -0.029883305792649969 -0.35034113206148559 0 -0.023872125671455871 -0.32706386203125382 0 -0.0090856546354542989 -0.31454871776104709 0 -0.014494693716330651 -0.34316755273918043 0 -0.033143193741189687 -0.31072184399539782 0 -0.023872125671455871 -0.32706386203125382 0 -0.0090856546354542989 -0.31454871776104709 0 -0.0090856546354542989 -0.31454871776104709 0 -0.0038602890567098658 -0.32943289053322983 0 0.0042801482108115454 -0.31515528371412183 0 -0.014494693716330651 -0.34316755273918043 0 -0.0038602890567098658 -0.32943289053322983 0 0.003859043914133943 -0.34486000791856958 0 -0.0090856546354542989 -0.31454871776104709 0 -0.014494693716330651 -0.34316755273918043 0 -0.0090856546354542989 -0.31454871776104709 0 -0.014494693716330651 -0.34316755273918043 0 -0.0038602890567098658 -0.32943289053322983 0 -0.014494693716330651 -0.34316755273918043 0 -0.0066130663066438378 -0.35956689867538821 0 0.003859043914133943 -0.34486000791856958 0 -0.014494693716330651 -0.34316755273918043 0 -0.01990373279720806 -0.37178638771731343 0 -0.0066130663066438378 -0.35956689867538821 0 -0.014494693716330651 -0.34316755273918043 0 -0.01990373279720806 -0.37178638771731343 0 -0.014494693716330651 -0.34316755273918043 0 -0.029883305792649969 -0.35034113206148559 0 -0.01990373279720806 -0.37178638771731343 0 -0.039860923651724903 -0.3640785540826329 0 -0.01990373279720806 -0.37178638771731343 0 -0.02894643389921555 -0.37506593662561277 0 -0.039860923651724903 -0.3640785540826329 0 -0.01990373279720806 -0.37178638771731343 0 -0.039860923651724903 -0.3640785540826329 0 -0.029883305792649969 -0.35034113206148559 0 -0.01990373279720806 -0.37178638771731343 0 -0.01990373279720806 -0.37178638771731343 0 -0.020192750920412991 -0.37331556172586638 0 -0.02894643389921555 -0.37506593662561277 0 -0.01990373279720806 -0.37178638771731343 0 -0.020192750920412991 -0.37331556172586638 0 -0.01990373279720806 -0.37178638771731343 0 -0.0064953346296796636 -0.37150669908678391 0 0.0029470940580190899 -0.38061179671897127 0 -0.01990373279720806 -0.37178638771731343 0 -0.0066130663066438378 -0.35956689867538821 0 -0.0064953346296796636 -0.37150669908678391 0 -0.0066130663066438378 -0.35956689867538821 0 -0.0064953346296796636 -0.37150669908678391 0 0.0034379396174563431 -0.37456473212301739 0 -0.0064953346296796636 -0.37150669908678391 0 0.0029470940580190899 -0.38061179671897127 0 0.0034379396174563431 -0.37456473212301739 0 -0.01990373279720806 -0.37178638771731343 0 -0.020192750920412991 -0.37331556172586638 0 -4.5285371479721059e-05 -0.38375238409890139 0 -0.01990373279720806 -0.37178638771731343 0 -4.5285371479721059e-05 -0.38375238409890139 0 0.0029470940580190899 -0.38061179671897127 0 -0.01990373279720806 -0.37178638771731343 0 0.0029470940580190899 -0.38061179671897127 0 -4.5285371479721059e-05 -0.38375238409890139 0 -0.027520651786050069 -0.3851531380113179 0 -4.5285371479721059e-05 -0.38375238409890139 0 -0.0092997050886448242 -0.38969038340759959 0 -0.027520651786050069 -0.3851531380113179 0 -0.020192750920412991 -0.37331556172586638 0 -4.5285371479721059e-05 -0.38375238409890139 0 -0.023688301164717689 -0.37860714290185588 0 -4.5285371479721059e-05 -0.38375238409890139 0 -0.0022217879405028109 -0.38971718384678822 0 -0.0092997050886448242 -0.38969038340759959 0 -0.00200338653409237 -0.40200802629359977 0 -0.0081590491726684575 -0.40327407213056982 0 -0.00031398565266066398 -0.4075760124889195 0 -0.00200338653409237 -0.40200802629359977 0 -0.0022316517378109611 -0.39578432846124689 0 -0.0081590491726684575 -0.40327407213056982 0 -0.0022217879405028109 -0.38971718384678822 0 -0.0022316517378109611 -0.39578432846124689 0 0.0026894904359242612 -0.38964163941940477 0 -0.0022217879405028109 -0.38971718384678822 0 -0.0092997050886448242 -0.38969038340759959 0 -0.0022316517378109611 -0.39578432846124689 0 -0.0022316517378109611 -0.39578432846124689 0 -0.01408294304045777 -0.39604418190585999 0 -0.0081590491726684575 -0.40327407213056982 0 -0.0092997050886448242 -0.38969038340759959 0 -0.0022316517378109611 -0.39578432846124689 0 -0.01408294304045777 -0.39604418190585999 0 -0.01408294304045777 -0.39604418190585999 0 -0.0081590491726684575 -0.40327407213056982 0 -0.01658412219096109 -0.40388511300798141 0 -0.0081590491726684575 -0.40327407213056982 0 -0.01658412219096109 -0.40388511300798141 0 -0.01421352341665059 -0.40930746263964962 0 -0.01408294304045777 -0.39604418190585999 0 -0.025061067973680289 -0.40113021292755457 0 -0.027520651786050069 -0.3851531380113179 0 -0.025061067973680289 -0.40113021292755457 0 -0.027520651786050069 -0.3851531380113179 0 -0.040268858060850447 -0.39291323171962722 0 -0.01658412219096109 -0.40388511300798141 0 -0.025061067973680289 -0.40113021292755457 0 -0.021404027351348331 -0.40966963543627283 0 -0.01408294304045777 -0.39604418190585999 0 -0.01658412219096109 -0.40388511300798141 0 -0.025061067973680289 -0.40113021292755457 0 -0.025061067973680289 -0.40113021292755457 0 -0.036580219438265872 -0.40737455125480698 0 -0.021404027351348331 -0.40966963543627283 0 -0.0092997050886448242 -0.38969038340759959 0 -0.01408294304045777 -0.39604418190585999 0 -0.027520651786050069 -0.3851531380113179 0 -4.5285371479721059e-05 -0.38375238409890139 0 -0.027520651786050069 -0.3851531380113179 0 -0.023688301164717689 -0.37860714290185588 0 -0.027520651786050069 -0.3851531380113179 0 -0.023688301164717689 -0.37860714290185588 0 -0.02894643389921555 -0.37506593662561277 0 -0.020192750920412991 -0.37331556172586638 0 -0.023688301164717689 -0.37860714290185588 0 -0.02894643389921555 -0.37506593662561277 0 -0.027520651786050069 -0.3851531380113179 0 -0.02894643389921555 -0.37506593662561277 0 -0.040924397963121223 -0.3777063176533616 0 -0.027520651786050069 -0.3851531380113179 0 -0.054996018200620382 -0.38655389192373463 0 -0.027520651786050069 -0.3851531380113179 0 -0.040924397963121223 -0.3777063176533616 0 -0.054996018200620382 -0.38655389192373463 0 -0.027520651786050069 -0.3851531380113179 0 -0.040268858060850447 -0.39291323171962722 0 -0.054996018200620382 -0.38655389192373463 0 -0.054629275507273957 -0.3888494615057706 0 -0.036580219438265872 -0.40737455125480698 0 -0.040268858060850447 -0.39291323171962722 0 -0.054629275507273957 -0.3888494615057706 0 -0.036580219438265872 -0.40737455125480698 0 -0.025061067973680289 -0.40113021292755457 0 -0.040268858060850447 -0.39291323171962722 0 -0.036580219438265872 -0.40737455125480698 0 -0.053897479752725123 -0.39343002467683658 0 -0.058739110419776683 -0.40586122179274819 0 -0.036580219438265872 -0.40737455125480698 0 -0.053897479752725123 -0.39343002467683658 0 -0.054629275507273957 -0.3888494615057706 0 -0.036580219438265872 -0.40737455125480698 0 -0.053897479752725123 -0.39343002467683658 0 -0.054629275507273957 -0.3888494615057706 0 -0.053897479752725123 -0.39343002467683658 0 -0.058739110419776683 -0.40586122179274819 0 -0.061901910662932033 -0.39338275752924379 0 -0.053897479752725123 -0.39343002467683658 0 -0.061901910662932033 -0.39338275752924379 0 -0.054629275507273957 -0.3888494615057706 0 -0.054996018200620382 -0.38655389192373463 0 -0.056777372896367737 -0.38664470925886402 0 -0.062968264209951955 -0.38029053667653162 0 -0.061901910662932033 -0.39338275752924379 0 -0.056777372896367737 -0.38664470925886402 0 -0.054629275507273957 -0.3888494615057706 0 -0.056777372896367737 -0.38664470925886402 0 -0.054629275507273957 -0.3888494615057706 0 -0.054996018200620382 -0.38655389192373463 0 -0.056777372896367737 -0.38664470925886402 0 -0.054629275507273957 -0.3888494615057706 0 -0.054996018200620382 -0.38655389192373463 0 -0.054629275507273957 -0.3888494615057706 0 -0.054996018200620382 -0.38655389192373463 0 -0.056777372896367737 -0.38664470925886402 0 -0.056777372896367737 -0.38664470925886402 0 -0.06298372854321975 -0.38385260481934008 0 -0.062968264209951955 -0.38029053667653162 0 -0.056777372896367737 -0.38664470925886402 0 -0.062968264209951955 -0.38029053667653162 0 -0.057407066353430493 -0.37146230618583992 0 -0.054996018200620382 -0.38655389192373463 0 -0.057407066353430493 -0.37146230618583992 0 -0.054996018200620382 -0.38655389192373463 0 -0.062968264209951955 -0.38029053667653162 0 -0.057407066353430493 -0.37146230618583992 0 -0.054996018200620382 -0.38655389192373463 0 -0.049562995640731911 -0.37652149234586901 0 -0.040924397963121223 -0.3777063176533616 0 -0.054996018200620382 -0.38655389192373463 0 -0.049562995640731911 -0.37652149234586901 0 -0.040268858060850447 -0.39291323171962722 0 -0.054996018200620382 -0.38655389192373463 0 -0.054629275507273957 -0.3888494615057706 0 -0.052981620299442277 -0.43252453172678218 0 -0.059151384532393603 -0.42079433257988108 0 -0.044256616217691183 -0.42186939211728358 0 -0.052981620299442277 -0.43252453172678218 0 -0.059151384532393603 -0.42079433257988108 0 -0.068126676714850259 -0.42951638332557368 0 -0.058739110419776683 -0.40586122179274819 0 -0.059151384532393603 -0.42079433257988108 0 -0.044256616217691183 -0.42186939211728358 0 -0.058739110419776683 -0.40586122179274819 0 -0.044256616217691183 -0.42186939211728358 0 -0.036580219438265872 -0.40737455125480698 0 -0.044256616217691183 -0.42186939211728358 0 -0.036580219438265872 -0.40737455125480698 0 -0.018531163369258561 -0.42589964100384448 0 -0.052981620299442277 -0.43252453172678218 0 -0.044256616217691183 -0.42186939211728358 0 -0.038274316667394871 -0.44025907499566019 0 -0.044256616217691183 -0.42186939211728358 0 -0.018531163369258561 -0.42589964100384448 0 -0.038274316667394871 -0.44025907499566019 0 -0.036580219438265872 -0.40737455125480698 0 -0.018531163369258561 -0.42589964100384448 0 -0.022023643510526322 -0.42095997655606088 0 -0.036580219438265872 -0.40737455125480698 0 -0.018531163369258561 -0.42589964100384448 0 -0.036580219438265872 -0.40737455125480698 0 -0.022023643510526322 -0.42095997655606088 0 -0.021404027351348331 -0.40966963543627283 0 -0.022023643510526322 -0.42095997655606088 0 -0.021404027351348331 -0.40966963543627283 0 -0.01475405692850764 -0.41480307861055082 0 -0.021404027351348331 -0.40966963543627283 0 -0.01421352341665059 -0.40930746263964962 0 -0.01475405692850764 -0.41480307861055082 0 -0.01658412219096109 -0.40388511300798141 0 -0.021404027351348331 -0.40966963543627283 0 -0.01421352341665059 -0.40930746263964962 0 -0.0081590491726684575 -0.40327407213056982 0 -0.01421352341665059 -0.40930746263964962 0 -0.0077369809005463173 -0.4119955959783772 0 -0.01421352341665059 -0.40930746263964962 0 -0.01475405692850764 -0.41480307861055082 0 -0.0077369809005463173 -0.4119955959783772 0 -0.022023643510526322 -0.42095997655606088 0 -0.0085434850621756118 -0.42102360703694602 0 -0.01475405692850764 -0.41480307861055082 0 -0.0085434850621756118 -0.42102360703694602 0 -0.01475405692850764 -0.41480307861055082 0 -0.0077369809005463173 -0.4119955959783772 0 -0.0085434850621756118 -0.42102360703694602 0 0.00017534408918685581 -0.41611203081565978 0 0.00063694402566210717 -0.42438670491271929 0 -0.0085434850621756118 -0.42102360703694602 0 -0.0077369809005463173 -0.4119955959783772 0 0.00017534408918685581 -0.41611203081565978 0 -0.0081590491726684575 -0.40327407213056982 0 -0.0077369809005463173 -0.4119955959783772 0 -0.00031398565266066398 -0.4075760124889195 0 -0.0077369809005463173 -0.4119955959783772 0 -0.00031398565266066398 -0.4075760124889195 0 0.00017534408918685581 -0.41611203081565978 0 -0.018531163369258561 -0.42589964100384448 0 -0.00221554126391115 -0.43280229380844998 0 -0.00048210730025116671 -0.44442473075288202 0 -0.022023643510526322 -0.42095997655606088 0 -0.00221554126391115 -0.43280229380844998 0 -0.018531163369258561 -0.42589964100384448 0 -0.00048210730025116671 -0.44442473075288202 0 -0.022023643510526322 -0.42095997655606088 0 -0.0085434850621756118 -0.42102360703694602 0 -0.00221554126391115 -0.43280229380844998 0 -0.018531163369258561 -0.42589964100384448 0 -0.022023643510526322 -0.42095997655606088 0 -0.00221554126391115 -0.43280229380844998 0 -0.0085434850621756118 -0.42102360703694602 0 -0.00221554126391115 -0.43280229380844998 0 0.00063694402566210717 -0.42438670491271929 0 -0.018531163369258561 -0.42589964100384448 0 -0.00048210730025116671 -0.44442473075288202 0 -0.021973113805399149 -0.44887933617817288 0 -0.00048210730025116671 -0.44442473075288202 0 -0.021973113805399149 -0.44887933617817288 0 -0.012238425120645879 -0.47307840444724808 0 -0.021973113805399149 -0.44887933617817288 0 -0.012238425120645879 -0.47307840444724808 0 -0.040339556569445281 -0.46073482969122981 0 -0.018531163369258561 -0.42589964100384448 0 -0.021973113805399149 -0.44887933617817288 0 -0.038274316667394871 -0.44025907499566019 0 -0.0024779569576354739 -0.5 0 -0.012238425120645879 -0.47307840444724808 0 -0.03054946588983776 -0.5 0 -0.0024779569576354739 -0.5 0 -0.012238425120645879 -0.47307840444724808 0 0.01281202470056105 -0.48350062704002489 0 -0.012238425120645879 -0.47307840444724808 0 -0.0392418930802182 -0.48099920707355198 0 -0.040339556569445281 -0.46073482969122981 0 -0.012238425120645879 -0.47307840444724808 0 -0.03054946588983776 -0.5 0 -0.0392418930802182 -0.48099920707355198 0 -0.03054946588983776 -0.5 0 -0.0392418930802182 -0.48099920707355198 0 -0.05862097482204004 -0.5 0 -0.0392418930802182 -0.48099920707355198 0 -0.061518013239533403 -0.47730921651113939 0 -0.040339556569445281 -0.46073482969122981 0 -0.0392418930802182 -0.48099920707355198 0 -0.061518013239533403 -0.47730921651113939 0 -0.05862097482204004 -0.5 0 -0.021973113805399149 -0.44887933617817288 0 -0.038274316667394871 -0.44025907499566019 0 -0.040339556569445281 -0.46073482969122981 0 -0.061518013239533403 -0.47730921651113939 0 -0.040339556569445281 -0.46073482969122981 0 -0.063010670249745229 -0.45073191656371642 0 -0.052981620299442277 -0.43252453172678218 0 -0.038274316667394871 -0.44025907499566019 0 -0.063010670249745229 -0.45073191656371642 0 -0.052981620299442277 -0.43252453172678218 0 -0.063010670249745229 -0.45073191656371642 0 -0.068126676714850259 -0.42951638332557368 0 -0.038274316667394871 -0.44025907499566019 0 -0.040339556569445281 -0.46073482969122981 0 -0.063010670249745229 -0.45073191656371642 0 -0.063010670249745229 -0.45073191656371642 0 -0.077790306525482675 -0.44082689830447869 0 -0.068126676714850259 -0.42951638332557368 0 -0.063010670249745229 -0.45073191656371642 0 -0.077790306525482675 -0.44082689830447869 0 -0.090443899107087194 -0.45549879161132878 0 -0.061518013239533403 -0.47730921651113939 0 -0.063010670249745229 -0.45073191656371642 0 -0.081202500961509411 -0.47138934573833852 0 -0.090443899107087194 -0.45549879161132878 0 -0.081202500961509411 -0.47138934573833852 0 -0.1046235984044931 -0.47598349060681322 0 -0.063010670249745229 -0.45073191656371642 0 -0.090443899107087194 -0.45549879161132878 0 -0.081202500961509411 -0.47138934573833852 0 -0.077790306525482675 -0.44082689830447869 0 -0.090443899107087194 -0.45549879161132878 0 -0.097119474174166609 -0.4394682047994572 0 -0.061518013239533403 -0.47730921651113939 0 -0.05862097482204004 -0.5 0 -0.086692483754242267 -0.5 0 -0.061518013239533403 -0.47730921651113939 0 -0.081202500961509411 -0.47138934573833852 0 -0.086692483754242267 -0.5 0 -0.081202500961509411 -0.47138934573833852 0 -0.086692483754242267 -0.5 0 -0.1046235984044931 -0.47598349060681322 0 -0.086692483754242267 -0.5 0 -0.1046235984044931 -0.47598349060681322 0 -0.11476399268644449 -0.50000000000000167 0 -0.12729202578966831 -0.4831759291026454 0 -0.1046235984044931 -0.47598349060681322 0 -0.1220489925167305 -0.46643990420365711 0 -0.12729202578966831 -0.4831759291026454 0 -0.1046235984044931 -0.47598349060681322 0 -0.11476399268644449 -0.50000000000000167 0 -0.12729202578966831 -0.4831759291026454 0 -0.11476399268644449 -0.50000000000000167 0 -0.090443899107087194 -0.45549879161132878 0 -0.097119474174166609 -0.4394682047994572 0 -0.1096822959949276 -0.4549942184325344 0 -0.097119474174166609 -0.4394682047994572 0 -0.1096822959949276 -0.4549942184325344 0 -0.1154164459652562 -0.43829713099076612 0 -0.090443899107087194 -0.45549879161132878 0 -0.1046235984044931 -0.47598349060681322 0 -0.1096822959949276 -0.4549942184325344 0 -0.12882698350167229 -0.45169402467100378 0 -0.1220489925167305 -0.46643990420365711 0 -0.1096822959949276 -0.4549942184325344 0 -0.1046235984044931 -0.47598349060681322 0 -0.1220489925167305 -0.46643990420365711 0 -0.1096822959949276 -0.4549942184325344 0 -0.12882698350167229 -0.45169402467100378 0 -0.1096822959949276 -0.4549942184325344 0 -0.1154164459652562 -0.43829713099076612 0 -0.1154164459652562 -0.43829713099076612 0 -0.1216405933855734 -0.42288700884673402 0 -0.10387320224947311 -0.42312564454051232 0 -0.1339486460680567 -0.43414346506432072 0 -0.1154164459652562 -0.43829713099076612 0 -0.1216405933855734 -0.42288700884673402 0 -0.097119474174166609 -0.4394682047994572 0 -0.1154164459652562 -0.43829713099076612 0 -0.10387320224947311 -0.42312564454051232 0 -0.097119474174166609 -0.4394682047994572 0 -0.10387320224947311 -0.42312564454051232 0 -0.08496906675798846 -0.42409008357945921 0 -0.10387320224947311 -0.42312564454051232 0 -0.08496906675798846 -0.42409008357945921 0 -0.093126177182689576 -0.40907519589153118 0 -0.10387320224947311 -0.42312564454051232 0 -0.1107951772178406 -0.40545462232238888 0 -0.093126177182689576 -0.40907519589153118 0 -0.1216405933855734 -0.42288700884673402 0 -0.10387320224947311 -0.42312564454051232 0 -0.1107951772178406 -0.40545462232238888 0 -0.1275555901096283 -0.40990658073806868 0 -0.1216405933855734 -0.42288700884673402 0 -0.1107951772178406 -0.40545462232238888 0 -0.1275555901096283 -0.40990658073806868 0 -0.1241683352337546 -0.39229059470534827 0 -0.1107951772178406 -0.40545462232238888 0 -0.1241683352337546 -0.39229059470534827 0 -0.1107951772178406 -0.40545462232238888 0 -0.108926963305555 -0.39256340930063088 0 -0.13222362800553769 -0.38242543790900979 0 -0.10850511895856239 -0.37016109115723472 0 -0.1241683352337546 -0.39229059470534827 0 -0.1241683352337546 -0.39229059470534827 0 -0.1029559312216393 -0.37671021796627319 0 -0.13222362800553769 -0.38242543790900979 0 -0.10850511895856239 -0.37016109115723472 0 -0.10850511895856239 -0.37016109115723472 0 -0.1241683352337546 -0.39229059470534827 0 -0.1029559312216393 -0.37671021796627319 0 -0.1241683352337546 -0.39229059470534827 0 -0.1029559312216393 -0.37671021796627319 0 -0.108926963305555 -0.39256340930063088 0 -0.1029559312216393 -0.37671021796627319 0 -0.10027253993479909 -0.38886218743480438 0 -0.108926963305555 -0.39256340930063088 0 -0.1029559312216393 -0.37671021796627319 0 -0.10027253993479909 -0.38886218743480438 0 -0.090400000269817274 -0.3805948035143325 0 -0.090600739707181993 -0.37208256062103229 0 -0.1029559312216393 -0.37671021796627319 0 -0.090400000269817274 -0.3805948035143325 0 -0.1107951772178406 -0.40545462232238888 0 -0.1006895718889739 -0.39870463486473612 0 -0.093126177182689576 -0.40907519589153118 0 -0.1107951772178406 -0.40545462232238888 0 -0.108926963305555 -0.39256340930063088 0 -0.1006895718889739 -0.39870463486473612 0 -0.10027253993479909 -0.38886218743480438 0 -0.108926963305555 -0.39256340930063088 0 -0.1006895718889739 -0.39870463486473612 0 -0.10027253993479909 -0.38886218743480438 0 -0.1006895718889739 -0.39870463486473612 0 -0.090327001803985313 -0.39756775937432492 0 -0.1006895718889739 -0.39870463486473612 0 -0.090327001803985313 -0.39756775937432492 0 -0.093126177182689576 -0.40907519589153118 0 -0.090327001803985313 -0.39756775937432492 0 -0.07932517626756605 -0.40237048895976241 0 -0.093126177182689576 -0.40907519589153118 0 -0.10027253993479909 -0.38886218743480438 0 -0.090327001803985313 -0.39756775937432492 0 -0.078524956415583477 -0.3877534483468339 0 -0.090327001803985313 -0.39756775937432492 0 -0.07932517626756605 -0.40237048895976241 0 -0.078524956415583477 -0.3877534483468339 0 -0.10027253993479909 -0.38886218743480438 0 -0.090400000269817274 -0.3805948035143325 0 -0.078524956415583477 -0.3877534483468339 0 -0.10027253993479909 -0.38886218743480438 0 -0.078524956415583477 -0.3877534483468339 0 -0.090600739707181993 -0.37208256062103229 0 -0.090400000269817274 -0.3805948035143325 0 -0.079645834069882473 -0.37756560320271859 0 -0.090400000269817274 -0.3805948035143325 0 -0.078524956415583477 -0.3877534483468339 0 -0.079645834069882473 -0.37756560320271859 0 -0.073877437060769241 -0.36909364054099503 0 -0.079645834069882473 -0.37756560320271859 0 -0.062968264209951955 -0.38029053667653162 0 -0.056777372896367737 -0.38664470925886402 0 -0.078524956415583477 -0.3877534483468339 0 -0.06298372854321975 -0.38385260481934008 0 -0.061901910662932033 -0.39338275752924379 0 -0.056777372896367737 -0.38664470925886402 0 -0.078524956415583477 -0.3877534483468339 0 -0.078524956415583477 -0.3877534483468339 0 -0.079645834069882473 -0.37756560320271859 0 -0.062968264209951955 -0.38029053667653162 0 -0.056777372896367737 -0.38664470925886402 0 -0.078524956415583477 -0.3877534483468339 0 -0.078524956415583477 -0.3877534483468339 0 -0.06298372854321975 -0.38385260481934008 0 -0.062968264209951955 -0.38029053667653162 0 -0.06298372854321975 -0.38385260481934008 0 -0.062968264209951955 -0.38029053667653162 0 -0.061901910662932033 -0.39338275752924379 0 -0.078524956415583477 -0.3877534483468339 0 -0.068843268985865583 -0.39775767959441011 0 -0.07932517626756605 -0.40237048895976241 0 -0.068843268985865583 -0.39775767959441011 0 -0.069640113670853987 -0.40504738107098459 0 -0.07932517626756605 -0.40237048895976241 0 -0.078524956415583477 -0.3877534483468339 0 -0.068843268985865583 -0.39775767959441011 0 -0.058739110419776683 -0.40586122179274819 0 -0.061901910662932033 -0.39338275752924379 0 -0.068843268985865583 -0.39775767959441011 0 -0.058739110419776683 -0.40586122179274819 0 -0.068843268985865583 -0.39775767959441011 0 -0.069640113670853987 -0.40504738107098459 0 -0.058739110419776683 -0.40586122179274819 0 -0.059151384532393603 -0.42079433257988108 0 -0.071652899010207619 -0.41420013393701788 0 -0.058739110419776683 -0.40586122179274819 0 -0.069640113670853987 -0.40504738107098459 0 -0.071652899010207619 -0.41420013393701788 0 -0.07932517626756605 -0.40237048895976241 0 -0.069640113670853987 -0.40504738107098459 0 -0.071652899010207619 -0.41420013393701788 0 -0.07932517626756605 -0.40237048895976241 0 -0.071652899010207619 -0.41420013393701788 0 -0.082268329804612919 -0.41243397559194273 0 -0.059151384532393603 -0.42079433257988108 0 -0.071652899010207619 -0.41420013393701788 0 -0.068126676714850259 -0.42951638332557368 0 -0.077790306525482675 -0.44082689830447869 0 -0.068126676714850259 -0.42951638332557368 0 -0.08496906675798846 -0.42409008357945921 0 -0.071652899010207619 -0.41420013393701788 0 -0.068126676714850259 -0.42951638332557368 0 -0.08496906675798846 -0.42409008357945921 0 -0.077790306525482675 -0.44082689830447869 0 -0.097119474174166609 -0.4394682047994572 0 -0.08496906675798846 -0.42409008357945921 0 -0.08496906675798846 -0.42409008357945921 0 -0.093126177182689576 -0.40907519589153118 0 -0.082268329804612919 -0.41243397559194273 0 -0.07932517626756605 -0.40237048895976241 0 -0.093126177182689576 -0.40907519589153118 0 -0.082268329804612919 -0.41243397559194273 0 -0.071652899010207619 -0.41420013393701788 0 -0.08496906675798846 -0.42409008357945921 0 -0.082268329804612919 -0.41243397559194273 0 -0.090496941276776863 -0.087242069770194844 0 -0.08624535764174672 -0.069873296170499519 0 -0.094074551139029114 -0.077974286359428061 0 -0.08624535764174672 -0.069873296170499519 0 -0.075883415293302378 -0.09643136688735067 0 -0.090496941276776863 -0.087242069770194844 0 -0.08624535764174672 -0.069873296170499519 0 -0.075883415293302378 -0.09643136688735067 0 -0.08624535764174672 -0.069873296170499519 0 -0.072563998721828393 -0.07847456277561439 0 -0.075883415293302378 -0.09643136688735067 0 -0.087924979341268125 -0.070172115611517497 0 -0.08624535764174672 -0.069873296170499519 0 -0.094074551139029114 -0.077974286359428061 0 -0.087924979341268125 -0.070172115611517497 0 -0.095413667427129284 -0.070768623647744625 0 -0.094074551139029114 -0.077974286359428061 0 -0.087924979341268125 -0.070172115611517497 0 -0.096336092373044885 -0.062734058665787004 0 -0.095413667427129284 -0.070768623647744625 0 -0.087924979341268125 -0.070172115611517497 0 -0.08624535764174672 -0.069873296170499519 0 -0.096336092373044885 -0.062734058665787004 0 -0.087924979341268125 -0.070172115611517497 0 -0.08624535764174672 -0.069873296170499519 0 -0.08624535764174672 -0.069873296170499519 0 -0.066448840310219678 -0.066351321999264884 0 -0.077596668251134093 -0.056356397928116593 0 -0.08624535764174672 -0.069873296170499519 0 -0.066448840310219678 -0.066351321999264884 0 -0.08624535764174672 -0.069873296170499519 0 -0.066448840310219678 -0.066351321999264884 0 -0.072563998721828393 -0.07847456277561439 0 -0.066448840310219678 -0.066351321999264884 0 -0.072563998721828393 -0.07847456277561439 0 -0.061678381642044783 -0.081242266045342487 0 -0.072563998721828393 -0.07847456277561439 0 -0.075883415293302378 -0.09643136688735067 0 -0.061678381642044783 -0.081242266045342487 0 -0.075883415293302378 -0.09643136688735067 0 -0.052049590629986459 -0.090136306966430324 0 -0.061678381642044783 -0.081242266045342487 0 -0.075883415293302378 -0.09643136688735067 0 -0.065521472944857551 -0.12298943760420181 0 -0.059502187482761398 -0.10556155930763091 0 -0.075883415293302378 -0.09643136688735067 0 -0.065521472944857551 -0.12298943760420181 0 -0.075883415293302378 -0.09643136688735067 0 -0.065521472944857551 -0.12298943760420181 0 -0.086787129056474177 -0.1222569838747076 0 -0.090496941276776863 -0.087242069770194844 0 -0.075883415293302378 -0.09643136688735067 0 -0.09845660845410216 -0.10431593218213581 0 -0.075883415293302378 -0.09643136688735067 0 -0.086787129056474177 -0.1222569838747076 0 -0.09845660845410216 -0.10431593218213581 0 -0.086787129056474177 -0.1222569838747076 0 -0.09845660845410216 -0.10431593218213581 0 -0.1073362515709181 -0.1277794998058534 0 -0.1226369458670467 -0.1058670221672716 0 -0.1073362515709181 -0.1277794998058534 0 -0.1314488688137643 -0.1362196443282766 0 -0.1226369458670467 -0.1058670221672716 0 -0.1073362515709181 -0.1277794998058534 0 -0.09845660845410216 -0.10431593218213581 0 -0.1226369458670467 -0.1058670221672716 0 -0.1073362515709181 -0.1277794998058534 0 -0.09845660845410216 -0.10431593218213581 0 -0.1226369458670467 -0.1058670221672716 0 -0.10759896766009459 -0.086318650587436679 0 -0.10759896766009459 -0.086318650587436679 0 -0.1154452591200615 -0.07511106034241527 0 -0.1259519491418635 -0.087784010130696394 0 -0.1226369458670467 -0.1058670221672716 0 -0.10759896766009459 -0.086318650587436679 0 -0.1259519491418635 -0.087784010130696394 0 -0.090496941276776863 -0.087242069770194844 0 -0.10759896766009459 -0.086318650587436679 0 -0.094074551139029114 -0.077974286359428061 0 -0.090496941276776863 -0.087242069770194844 0 -0.09845660845410216 -0.10431593218213581 0 -0.10759896766009459 -0.086318650587436679 0 -0.10759896766009459 -0.086318650587436679 0 -0.094074551139029114 -0.077974286359428061 0 -0.1033190468551749 -0.072194033954245895 0 -0.096336092373044885 -0.062734058665787004 0 -0.095413667427129284 -0.070768623647744625 0 -0.1033190468551749 -0.072194033954245895 0 -0.095413667427129284 -0.070768623647744625 0 -0.094074551139029114 -0.077974286359428061 0 -0.1033190468551749 -0.072194033954245895 0 -0.10759896766009459 -0.086318650587436679 0 -0.1033190468551749 -0.072194033954245895 0 -0.1154452591200615 -0.07511106034241527 0 -0.096336092373044885 -0.062734058665787004 0 -0.1033190468551749 -0.072194033954245895 0 -0.1109542799618945 -0.060770903511806203 0 -0.1154452591200615 -0.07511106034241527 0 -0.1286665627980676 -0.0696011763657267 0 -0.1259519491418635 -0.087784010130696394 0 -0.1033190468551749 -0.072194033954245895 0 -0.1154452591200615 -0.07511106034241527 0 -0.1109542799618945 -0.060770903511806203 0 -0.1109542799618945 -0.060770903511806203 0 -0.1286665627980676 -0.0696011763657267 0 -0.1154452591200615 -0.07511106034241527 0 -0.1109542799618945 -0.060770903511806203 0 -0.1286665627980676 -0.0696011763657267 0 -0.1109542799618945 -0.060770903511806203 0 -0.1286665627980676 -0.0696011763657267 0 -0.12505841558431399 -0.055217977963911022 0 -0.1109542799618945 -0.060770903511806203 0 -0.11194394166885401 -0.046528879627222922 0 -0.12505841558431399 -0.055217977963911022 0 -0.11194394166885401 -0.046528879627222922 0 -0.1274641216212257 -0.041567935705182982 0 -0.12505841558431399 -0.055217977963911022 0 -0.11415522843741351 -0.032726021567084387 0 -0.12636284755821889 -0.02392892502945132 0 -0.1274641216212257 -0.041567935705182982 0 -0.11415522843741351 -0.032726021567084387 0 -0.11194394166885401 -0.046528879627222922 0 -0.1274641216212257 -0.041567935705182982 0 -0.11194394166885401 -0.046528879627222922 0 -0.099441056982276274 -0.03605219347958602 0 -0.093241997125721426 -0.051940630657885893 0 -0.099441056982276274 -0.03605219347958602 0 -0.093241997125721426 -0.051940630657885893 0 -0.11415522843741351 -0.032726021567084387 0 -0.11194394166885401 -0.046528879627222922 0 -0.099441056982276274 -0.03605219347958602 0 -0.096336092373044885 -0.062734058665787004 0 -0.1109542799618945 -0.060770903511806203 0 -0.093241997125721426 -0.051940630657885893 0 -0.1109542799618945 -0.060770903511806203 0 -0.093241997125721426 -0.051940630657885893 0 -0.1109542799618945 -0.060770903511806203 0 -0.11194394166885401 -0.046528879627222922 0 -0.093241997125721426 -0.051940630657885893 0 -0.1242992269838297 -0.0053247601474538716 0 -0.097982231086673213 -0.008971380909732771 0 -0.110460897291617 0.0016123891933633621 0 -0.1242992269838297 -0.0053247601474538716 0 -0.097982231086673213 -0.008971380909732771 0 -0.11415522843741351 -0.032726021567084387 0 -0.1056401168388329 -0.020163756301286809 0 -0.12636284755821889 -0.02392892502945132 0 -0.1242992269838297 -0.0053247601474538716 0 -0.1056401168388329 -0.020163756301286809 0 -0.12636284755821889 -0.02392892502945132 0 -0.099441056982276274 -0.03605219347958602 0 -0.1056401168388329 -0.020163756301286809 0 -0.099441056982276274 -0.03605219347958602 0 -0.1056401168388329 -0.020163756301286809 0 -0.089781666654482228 -0.022798224690457041 0 -0.1056401168388329 -0.020163756301286809 0 -0.097982231086673213 -0.008971380909732771 0 -0.089781666654482228 -0.022798224690457041 0 -0.11415522843741351 -0.032726021567084387 0 -0.099441056982276274 -0.03605219347958602 0 -0.1056401168388329 -0.020163756301286809 0 -0.1242992269838297 -0.0053247601474538716 0 -0.1056401168388329 -0.020163756301286809 0 -0.097982231086673213 -0.008971380909732771 0 -0.097982231086673213 -0.008971380909732771 0 -0.091032061260426261 -0.00099156679185264133 0 -0.1015459284357709 0.0030346131989636509 0 -0.097982231086673213 -0.008971380909732771 0 -0.1015459284357709 0.0030346131989636509 0 -0.110460897291617 0.0016123891933633621 0 -0.097982231086673213 -0.008971380909732771 0 -0.0791299325250511 -0.010757816641766151 0 -0.089781666654482228 -0.022798224690457041 0 -0.097982231086673213 -0.008971380909732771 0 -0.091032061260426261 -0.00099156679185264133 0 -0.0791299325250511 -0.010757816641766151 0 -0.081495733312382579 -0.0010375144257807689 0 -0.091032061260426261 -0.00099156679185264133 0 -0.0791299325250511 -0.010757816641766151 0 -0.0791299325250511 -0.010757816641766151 0 -0.089781666654482228 -0.022798224690457041 0 -0.070856757451664393 -0.024963520541105979 0 -0.089781666654482228 -0.022798224690457041 0 -0.070856757451664393 -0.024963520541105979 0 -0.085068608640463395 -0.03542319522596387 0 -0.0791299325250511 -0.010757816641766151 0 -0.070856757451664393 -0.024963520541105979 0 -0.060453402734564017 -0.01345746322819597 0 -0.0791299325250511 -0.010757816641766151 0 -0.060453402734564017 -0.01345746322819597 0 -0.068327608385552213 0.0047956494306700837 0 -0.081495733312382579 -0.0010375144257807689 0 -0.0791299325250511 -0.010757816641766151 0 -0.068327608385552213 0.0047956494306700837 0 -0.08624535764174672 -0.069873296170499519 0 -0.093241997125721426 -0.051940630657885893 0 -0.077596668251134093 -0.056356397928116593 0 -0.08624535764174672 -0.069873296170499519 0 -0.093241997125721426 -0.051940630657885893 0 -0.093241997125721426 -0.051940630657885893 0 -0.072021564988172623 -0.041361406760784411 0 -0.077596668251134093 -0.056356397928116593 0 -0.08624535764174672 -0.069873296170499519 0 -0.096336092373044885 -0.062734058665787004 0 -0.093241997125721426 -0.051940630657885893 0 -0.099441056982276274 -0.03605219347958602 0 -0.093241997125721426 -0.051940630657885893 0 -0.085068608640463395 -0.03542319522596387 0 -0.093241997125721426 -0.051940630657885893 0 -0.085068608640463395 -0.03542319522596387 0 -0.072021564988172623 -0.041361406760784411 0 -0.093241997125721426 -0.051940630657885893 0 -0.072021564988172623 -0.041361406760784411 0 -0.099441056982276274 -0.03605219347958602 0 -0.089781666654482228 -0.022798224690457041 0 -0.085068608640463395 -0.03542319522596387 0 -0.070856757451664393 -0.024963520541105979 0 -0.085068608640463395 -0.03542319522596387 0 -0.072021564988172623 -0.041361406760784411 0 -0.070856757451664393 -0.024963520541105979 0 -0.072021564988172623 -0.041361406760784411 0 -0.050801132850623702 -0.030782182863683061 0 -0.066448840310219678 -0.066351321999264884 0 -0.077596668251134093 -0.056356397928116593 0 -0.058394035501346461 -0.050398660171213291 0 -0.072021564988172623 -0.041361406760784411 0 -0.077596668251134093 -0.056356397928116593 0 -0.058394035501346461 -0.050398660171213291 0 -0.066448840310219678 -0.066351321999264884 0 -0.058394035501346461 -0.050398660171213291 0 -0.04665232297869229 -0.062829347828032525 0 -0.048057604301918813 -0.05316796580979375 0 -0.058394035501346461 -0.050398660171213291 0 -0.04665232297869229 -0.062829347828032525 0 -0.048057604301918813 -0.05316796580979375 0 -0.058394035501346461 -0.050398660171213291 0 -0.045383558157120807 -0.043790864712148943 0 -0.058394035501346461 -0.050398660171213291 0 -0.045383558157120807 -0.043790864712148943 0 -0.050801132850623702 -0.030782182863683061 0 -0.072021564988172623 -0.041361406760784411 0 -0.058394035501346461 -0.050398660171213291 0 -0.050801132850623702 -0.030782182863683061 0 -0.072021564988172623 -0.041361406760784411 0 -0.050801132850623702 -0.030782182863683061 0 -0.045383558157120807 -0.043790864712148943 0 -0.039159025541422629 -0.03472842514417171 0 -0.036178032908842188 -0.043746953751204187 0 -0.045383558157120807 -0.043790864712148943 0 -0.036178032908842188 -0.043746953751204187 0 -0.039711517838571048 -0.049921000532827657 0 -0.045383558157120807 -0.043790864712148943 0 -0.039159025541422629 -0.03472842514417171 0 -0.050801132850623702 -0.030782182863683061 0 -0.039159025541422629 -0.03472842514417171 0 -0.03021623109624897 -0.029873800874257221 0 -0.030487767192343789 -0.034678310894681909 0 -0.039159025541422629 -0.03472842514417171 0 -0.03048433226545947 -0.039682717510868527 0 -0.030487767192343789 -0.034678310894681909 0 -0.039159025541422629 -0.03472842514417171 0 -0.036178032908842188 -0.043746953751204187 0 -0.03048433226545947 -0.039682717510868527 0 -0.036178032908842188 -0.043746953751204187 0 -0.030544845413810771 -0.045260025532224281 0 -0.03048433226545947 -0.039682717510868527 0 -0.036178032908842188 -0.043746953751204187 0 -0.033318596962772923 -0.048414190651137577 0 -0.030544845413810771 -0.045260025532224281 0 -0.035837125994468942 -0.058948527384935112 0 -0.02685580564716453 -0.059307373656801742 0 -0.04665232297869229 -0.062829347828032525 0 -0.02685580564716453 -0.059307373656801742 0 -0.04665232297869229 -0.062829347828032525 0 -0.033318596962772923 -0.048414190651137577 0 -0.02995295522911743 -0.048941072990686681 0 -0.030544845413810771 -0.045260025532224281 0 -0.033318596962772923 -0.048414190651137577 0 -0.031658491135934309 -0.051647485361165382 0 -0.02995295522911743 -0.048941072990686681 0 -0.033318596962772923 -0.048414190651137577 0 -0.035300063976757043 -0.05206636425784858 0 -0.031658491135934309 -0.051647485361165382 0 -0.036178032908842188 -0.043746953751204187 0 -0.033318596962772923 -0.048414190651137577 0 -0.039711517838571048 -0.049921000532827657 0 -0.033318596962772923 -0.048414190651137577 0 -0.035300063976757043 -0.05206636425784858 0 -0.039711517838571048 -0.049921000532827657 0 -0.035300063976757043 -0.05206636425784858 0 -0.032922369282317149 -0.055344789699214601 0 -0.037879709534062167 -0.054777595673574993 0 -0.035300063976757043 -0.05206636425784858 0 -0.037879709534062167 -0.054777595673574993 0 -0.039711517838571048 -0.049921000532827657 0 -0.035300063976757043 -0.05206636425784858 0 -0.031658491135934309 -0.051647485361165382 0 -0.032922369282317149 -0.055344789699214601 0 -0.031658491135934309 -0.051647485361165382 0 -0.032922369282317149 -0.055344789699214601 0 -0.03054611725268758 -0.053743082718523377 0 -0.035837125994468942 -0.058948527384935112 0 -0.028866229293302691 -0.057851324992436087 0 -0.03035150284406599 -0.056775616111892073 0 -0.032922369282317149 -0.055344789699214601 0 -0.035837125994468942 -0.058948527384935112 0 -0.03035150284406599 -0.056775616111892073 0 -0.035837125994468942 -0.058948527384935112 0 -0.037879709534062167 -0.054777595673574993 0 -0.041463750634226998 -0.057882977127616232 0 -0.032922369282317149 -0.055344789699214601 0 -0.035837125994468942 -0.058948527384935112 0 -0.037879709534062167 -0.054777595673574993 0 -0.037879709534062167 -0.054777595673574993 0 -0.041463750634226998 -0.057882977127616232 0 -0.042456995802747893 -0.054778303791585298 0 -0.035837125994468942 -0.058948527384935112 0 -0.041463750634226998 -0.057882977127616232 0 -0.04665232297869229 -0.062829347828032525 0 -0.048057604301918813 -0.05316796580979375 0 -0.044804733650986181 -0.057443886117787502 0 -0.04665232297869229 -0.062829347828032525 0 -0.041463750634226998 -0.057882977127616232 0 -0.042456995802747893 -0.054778303791585298 0 -0.044804733650986181 -0.057443886117787502 0 -0.041463750634226998 -0.057882977127616232 0 -0.044804733650986181 -0.057443886117787502 0 -0.04665232297869229 -0.062829347828032525 0 -0.048057604301918813 -0.05316796580979375 0 -0.042456995802747893 -0.054778303791585298 0 -0.044804733650986181 -0.057443886117787502 0 -0.048057604301918813 -0.05316796580979375 0 -0.042456995802747893 -0.054778303791585298 0 -0.039711517838571048 -0.049921000532827657 0 -0.048057604301918813 -0.05316796580979375 0 -0.045383558157120807 -0.043790864712148943 0 -0.039711517838571048 -0.049921000532827657 0 -0.037879709534062167 -0.054777595673574993 0 -0.042456995802747893 -0.054778303791585298 0 -0.039711517838571048 -0.049921000532827657 0 -0.060453402734564017 -0.01345746322819597 0 -0.046100481137226847 -0.0057373065412040002 0 -0.068327608385552213 0.0047956494306700837 0 -0.046100481137226847 -0.0057373065412040002 0 -0.068327608385552213 0.0047956494306700837 0 -0.060453402734564017 -0.01345746322819597 0 -0.045757472733254617 -0.01802453568263148 0 -0.046100481137226847 -0.0057373065412040002 0 -0.060453402734564017 -0.01345746322819597 0 -0.050801132850623702 -0.030782182863683061 0 -0.045757472733254617 -0.01802453568263148 0 -0.070856757451664393 -0.024963520541105979 0 -0.060453402734564017 -0.01345746322819597 0 -0.050801132850623702 -0.030782182863683061 0 -0.050801132850623702 -0.030782182863683061 0 -0.045757472733254617 -0.01802453568263148 0 -0.029580700713074871 -0.02020295896658177 0 -0.039159025541422629 -0.03472842514417171 0 -0.050801132850623702 -0.030782182863683061 0 -0.029580700713074871 -0.02020295896658177 0 -0.050801132850623702 -0.030782182863683061 0 -0.029580700713074871 -0.02020295896658177 0 -0.039159025541422629 -0.03472842514417171 0 -0.029580700713074871 -0.02020295896658177 0 -0.03021623109624897 -0.029873800874257221 0 -0.045757472733254617 -0.01802453568263148 0 -0.046100481137226847 -0.0057373065412040002 0 -0.029580700713074871 -0.02020295896658177 0 -0.046100481137226847 -0.0057373065412040002 0 -0.02387335388890147 -0.016270262513078091 0 -0.046100481137226847 -0.0057373065412040002 0 -0.02387335388890147 -0.016270262513078091 0 -0.029580700713074871 -0.02020295896658177 0 -0.031443162359465093 -0.003896848075800229 0 -0.046100481137226847 -0.0057373065412040002 0 -0.02387335388890147 -0.016270262513078091 0 -0.02157043614933421 -0.007769548615831753 0 -0.01088115654502052 -0.01077866291625758 0 -0.01850142328265492 0.0010908944807749251 0 -0.031443162359465093 -0.003896848075800229 0 -0.02157043614933421 -0.007769548615831753 0 -0.01850142328265492 0.0010908944807749251 0 -0.031443162359465093 -0.003896848075800229 0 -0.02157043614933421 -0.007769548615831753 0 -0.02387335388890147 -0.016270262513078091 0 -0.02157043614933421 -0.007769548615831753 0 -0.015983735771185979 -0.015450719080123619 0 -0.02387335388890147 -0.016270262513078091 0 -0.02157043614933421 -0.007769548615831753 0 -0.015983735771185979 -0.015450719080123619 0 -0.01088115654502052 -0.01077866291625758 0 -0.02387335388890147 -0.016270262513078091 0 -0.02478531820671754 -0.025670349635668201 0 -0.017773221622611159 -0.023790988007021389 0 -0.015983735771185979 -0.015450719080123619 0 -0.02387335388890147 -0.016270262513078091 0 -0.017773221622611159 -0.023790988007021389 0 -0.02387335388890147 -0.016270262513078091 0 -0.029580700713074871 -0.02020295896658177 0 -0.02478531820671754 -0.025670349635668201 0 -0.02478531820671754 -0.025670349635668201 0 -0.0202636696460523 -0.03017470867979781 0 -0.02571502713131547 -0.034414543866802802 0 -0.02478531820671754 -0.025670349635668201 0 -0.03021623109624897 -0.029873800874257221 0 -0.02571502713131547 -0.034414543866802802 0 -0.029580700713074871 -0.02020295896658177 0 -0.02478531820671754 -0.025670349635668201 0 -0.03021623109624897 -0.029873800874257221 0 -0.0202636696460523 -0.03017470867979781 0 -0.017773221622611159 -0.023790988007021389 0 -0.012888348369881029 -0.032130482750277918 0 -0.02478531820671754 -0.025670349635668201 0 -0.0202636696460523 -0.03017470867979781 0 -0.017773221622611159 -0.023790988007021389 0 -0.017773221622611159 -0.023790988007021389 0 -0.0078667496667635464 -0.024261840255784279 0 -0.012888348369881029 -0.032130482750277918 0 -0.0078667496667635464 -0.024261840255784279 0 -0.012888348369881029 -0.032130482750277918 0 -0.001213146997671962 -0.034964638412731022 0 -0.0078667496667635464 -0.024261840255784279 0 -0.001213146997671962 -0.034964638412731022 0 0.0051040728730160929 -0.025740162193506479 0 -0.0078667496667635464 -0.024261840255784279 0 -0.0044881976089260842 -0.017107483418868499 0 0.0051040728730160929 -0.025740162193506479 0 -0.015983735771185979 -0.015450719080123619 0 -0.0078667496667635464 -0.024261840255784279 0 -0.0044881976089260842 -0.017107483418868499 0 -0.015983735771185979 -0.015450719080123619 0 -0.017773221622611159 -0.023790988007021389 0 -0.0078667496667635464 -0.024261840255784279 0 -0.01088115654502052 -0.01077866291625758 0 -0.01850142328265492 0.0010908944807749251 0 0.0044324222003585823 -0.012327944391671871 0 -0.0012366189011378649 -0.0020531284498746041 0 -0.01850142328265492 0.0010908944807749251 0 0.0044324222003585823 -0.012327944391671871 0 -0.01850142328265492 0.0010908944807749251 0 0.0044324222003585823 -0.012327944391671871 0 -0.015983735771185979 -0.015450719080123619 0 -0.0044881976089260842 -0.017107483418868499 0 -0.01088115654502052 -0.01077866291625758 0 -0.0044881976089260842 -0.017107483418868499 0 -0.01088115654502052 -0.01077866291625758 0 0.0044324222003585823 -0.012327944391671871 0 -0.022539790610575549 -0.054418010189990033 0 -0.021280461545385911 -0.04970731378970137 0 -0.016508487493813239 -0.052655106421773602 0 -0.022539790610575549 -0.054418010189990033 0 -0.021280461545385911 -0.04970731378970137 0 -0.024793132499893639 -0.051644617663843782 0 -0.021280461545385911 -0.04970731378970137 0 -0.026343341985969701 -0.04781340259332275 0 -0.02245587964942547 -0.044142421906934362 0 -0.021280461545385911 -0.04970731378970137 0 -0.016508487493813239 -0.052655106421773602 0 -0.016519583420532839 -0.04621275367758837 0 -0.022539790610575549 -0.054418010189990033 0 -0.016508487493813239 -0.052655106421773602 0 -0.02685580564716453 -0.059307373656801742 0 -0.022539790610575549 -0.054418010189990033 0 -0.025835003422726179 -0.056780843246166057 0 -0.0264294418063406 -0.054662218424180002 0 -0.022539790610575549 -0.054418010189990033 0 -0.025835003422726179 -0.056780843246166057 0 -0.02685580564716453 -0.059307373656801742 0 -0.035837125994468942 -0.058948527384935112 0 -0.02685580564716453 -0.059307373656801742 0 -0.028866229293302691 -0.057851324992436087 0 -0.025835003422726179 -0.056780843246166057 0 -0.02685580564716453 -0.059307373656801742 0 -0.02806830944052769 -0.056261870188114703 0 -0.025835003422726179 -0.056780843246166057 0 -0.02806830944052769 -0.056261870188114703 0 -0.0264294418063406 -0.054662218424180002 0 -0.02806830944052769 -0.056261870188114703 0 -0.028507704763441021 -0.054138176447263632 0 -0.0264294418063406 -0.054662218424180002 0 -0.02806830944052769 -0.056261870188114703 0 -0.030079200716607881 -0.055252707033001683 0 -0.028507704763441021 -0.054138176447263632 0 -0.02806830944052769 -0.056261870188114703 0 -0.028866229293302691 -0.057851324992436087 0 -0.03035150284406599 -0.056775616111892073 0 -0.02685580564716453 -0.059307373656801742 0 -0.02806830944052769 -0.056261870188114703 0 -0.028866229293302691 -0.057851324992436087 0 -0.032922369282317149 -0.055344789699214601 0 -0.030079200716607881 -0.055252707033001683 0 -0.03054611725268758 -0.053743082718523377 0 -0.032922369282317149 -0.055344789699214601 0 -0.03035150284406599 -0.056775616111892073 0 -0.030079200716607881 -0.055252707033001683 0 -0.02806830944052769 -0.056261870188114703 0 -0.03035150284406599 -0.056775616111892073 0 -0.030079200716607881 -0.055252707033001683 0 -0.030079200716607881 -0.055252707033001683 0 -0.03054611725268758 -0.053743082718523377 0 -0.028507704763441021 -0.054138176447263632 0 -0.031658491135934309 -0.051647485361165382 0 -0.028307813039988739 -0.051758917604207109 0 -0.02995295522911743 -0.048941072990686681 0 -0.031658491135934309 -0.051647485361165382 0 -0.03054611725268758 -0.053743082718523377 0 -0.028307813039988739 -0.051758917604207109 0 -0.028307813039988739 -0.051758917604207109 0 -0.028507704763441021 -0.054138176447263632 0 -0.0264294418063406 -0.054662218424180002 0 -0.03054611725268758 -0.053743082718523377 0 -0.028307813039988739 -0.051758917604207109 0 -0.028507704763441021 -0.054138176447263632 0 -0.028307813039988739 -0.051758917604207109 0 -0.0264294418063406 -0.054662218424180002 0 -0.024793132499893639 -0.051644617663843782 0 -0.022539790610575549 -0.054418010189990033 0 -0.0264294418063406 -0.054662218424180002 0 -0.024793132499893639 -0.051644617663843782 0 -0.021280461545385911 -0.04970731378970137 0 -0.024793132499893639 -0.051644617663843782 0 -0.026343341985969701 -0.04781340259332275 0 -0.028307813039988739 -0.051758917604207109 0 -0.024793132499893639 -0.051644617663843782 0 -0.026343341985969701 -0.04781340259332275 0 -0.028307813039988739 -0.051758917604207109 0 -0.026343341985969701 -0.04781340259332275 0 -0.02995295522911743 -0.048941072990686681 0 -0.026343341985969701 -0.04781340259332275 0 -0.02995295522911743 -0.048941072990686681 0 -0.030544845413810771 -0.045260025532224281 0 -0.026343341985969701 -0.04781340259332275 0 -0.030544845413810771 -0.045260025532224281 0 -0.027068306524165971 -0.043239448665661727 0 -0.030544845413810771 -0.045260025532224281 0 -0.03048433226545947 -0.039682717510868527 0 -0.027068306524165971 -0.043239448665661727 0 -0.03048433226545947 -0.039682717510868527 0 -0.02519504965899989 -0.039634821268808823 0 -0.027068306524165971 -0.043239448665661727 0 -0.02519504965899989 -0.039634821268808823 0 -0.027068306524165971 -0.043239448665661727 0 -0.02245587964942547 -0.044142421906934362 0 -0.026343341985969701 -0.04781340259332275 0 -0.027068306524165971 -0.043239448665661727 0 -0.02245587964942547 -0.044142421906934362 0 -0.03021623109624897 -0.029873800874257221 0 -0.030487767192343789 -0.034678310894681909 0 -0.02571502713131547 -0.034414543866802802 0 -0.03048433226545947 -0.039682717510868527 0 -0.030487767192343789 -0.034678310894681909 0 -0.02571502713131547 -0.034414543866802802 0 -0.03048433226545947 -0.039682717510868527 0 -0.02519504965899989 -0.039634821268808823 0 -0.02571502713131547 -0.034414543866802802 0 -0.0202636696460523 -0.03017470867979781 0 -0.02571502713131547 -0.034414543866802802 0 -0.019096337779180329 -0.037479183041791167 0 -0.02519504965899989 -0.039634821268808823 0 -0.02571502713131547 -0.034414543866802802 0 -0.019096337779180329 -0.037479183041791167 0 -0.0202636696460523 -0.03017470867979781 0 -0.019096337779180329 -0.037479183041791167 0 -0.012888348369881029 -0.032130482750277918 0 -0.019096337779180329 -0.037479183041791167 0 -0.02245587964942547 -0.044142421906934362 0 -0.016519583420532839 -0.04621275367758837 0 -0.021280461545385911 -0.04970731378970137 0 -0.02245587964942547 -0.044142421906934362 0 -0.016519583420532839 -0.04621275367758837 0 -0.02519504965899989 -0.039634821268808823 0 -0.019096337779180329 -0.037479183041791167 0 -0.02245587964942547 -0.044142421906934362 0 -0.016519583420532839 -0.04621275367758837 0 -0.01111696450700691 -0.042111538104541851 0 -0.0091518163857544216 -0.049819292348083313 0 -0.01111696450700691 -0.042111538104541851 0 -0.001213146997671962 -0.034964638412731022 0 0.0046217232020452203 -0.046509366228621743 0 -0.01111696450700691 -0.042111538104541851 0 -0.0091518163857544216 -0.049819292348083313 0 0.0046217232020452203 -0.046509366228621743 0 -0.01111696450700691 -0.042111538104541851 0 0.0046217232020452203 -0.046509366228621743 0 -0.019096337779180329 -0.037479183041791167 0 -0.016519583420532839 -0.04621275367758837 0 -0.01111696450700691 -0.042111538104541851 0 -0.01111696450700691 -0.042111538104541851 0 -0.012888348369881029 -0.032130482750277918 0 -0.001213146997671962 -0.034964638412731022 0 -0.019096337779180329 -0.037479183041791167 0 -0.01111696450700691 -0.042111538104541851 0 -0.012888348369881029 -0.032130482750277918 0 -0.0091518163857544216 -0.049819292348083313 0 -0.0032476973680337019 -0.05510728400475115 0 0.0046217232020452203 -0.046509366228621743 0 -0.02685580564716453 -0.059307373656801742 0 -0.0032476973680337019 -0.05510728400475115 0 -0.01263574992483614 -0.067721528632741806 0 -0.02685580564716453 -0.059307373656801742 0 -0.0032476973680337019 -0.05510728400475115 0 -0.016508487493813239 -0.052655106421773602 0 -0.02685580564716453 -0.059307373656801742 0 -0.0032476973680337019 -0.05510728400475115 0 -0.016508487493813239 -0.052655106421773602 0 -0.0091518163857544216 -0.049819292348083313 0 -0.0032476973680337019 -0.05510728400475115 0 -0.016508487493813239 -0.052655106421773602 0 -0.016519583420532839 -0.04621275367758837 0 -0.0091518163857544216 -0.049819292348083313 0 -0.01263574992483614 -0.067721528632741806 0 -0.0038160673774811919 -0.078706034850113737 0 -0.024369857759590059 -0.08357682597725874 0 -0.0032476973680337019 -0.05510728400475115 0 -0.01263574992483614 -0.067721528632741806 0 0.001638539968095381 -0.067471197349701681 0 -0.01263574992483614 -0.067721528632741806 0 -0.0038160673774811919 -0.078706034850113737 0 0.001638539968095381 -0.067471197349701681 0 -0.0038160673774811919 -0.078706034850113737 0 -0.024369857759590059 -0.08357682597725874 0 -0.0038160673774811919 -0.078706034850113737 0 -0.01357526809358519 -0.096317297895695514 0 0.00065304885141945798 -0.1023903550299885 0 -0.0038160673774811919 -0.078706034850113737 0 -0.024369857759590059 -0.08357682597725874 0 -0.01357526809358519 -0.096317297895695514 0 -0.02685580564716453 -0.059307373656801742 0 -0.01263574992483614 -0.067721528632741806 0 -0.024369857759590059 -0.08357682597725874 0 -0.02685580564716453 -0.059307373656801742 0 -0.024369857759590059 -0.08357682597725874 0 -0.03185448905057283 -0.070472886668048462 0 -0.02685580564716453 -0.059307373656801742 0 -0.024369857759590059 -0.08357682597725874 0 -0.024369857759590059 -0.08357682597725874 0 -0.03185448905057283 -0.070472886668048462 0 -0.033255131103616997 -0.077537206926474866 0 -0.02685580564716453 -0.059307373656801742 0 -0.04024984746802051 -0.065768630125309424 0 -0.04665232297869229 -0.062829347828032525 0 -0.04024984746802051 -0.065768630125309424 0 -0.036654039157125541 -0.075339338269019035 0 -0.041256689006291827 -0.087578629356243373 0 -0.04024984746802051 -0.065768630125309424 0 -0.046765888152771988 -0.07038084642247712 0 -0.041256689006291827 -0.087578629356243373 0 -0.04024984746802051 -0.065768630125309424 0 -0.041256689006291827 -0.087578629356243373 0 -0.02685580564716453 -0.059307373656801742 0 -0.04024984746802051 -0.065768630125309424 0 -0.03185448905057283 -0.070472886668048462 0 -0.04024984746802051 -0.065768630125309424 0 -0.04665232297869229 -0.062829347828032525 0 -0.046765888152771988 -0.07038084642247712 0 -0.04024984746802051 -0.065768630125309424 0 -0.036654039157125541 -0.075339338269019035 0 -0.03185448905057283 -0.070472886668048462 0 -0.036654039157125541 -0.075339338269019035 0 -0.03185448905057283 -0.070472886668048462 0 -0.033255131103616997 -0.077537206926474866 0 -0.036654039157125541 -0.075339338269019035 0 -0.033255131103616997 -0.077537206926474866 0 -0.041256689006291827 -0.087578629356243373 0 -0.024369857759590059 -0.08357682597725874 0 -0.041256689006291827 -0.087578629356243373 0 -0.024369857759590059 -0.08357682597725874 0 -0.033255131103616997 -0.077537206926474866 0 -0.041256689006291827 -0.087578629356243373 0 -0.024369857759590059 -0.08357682597725874 0 -0.041256689006291827 -0.087578629356243373 0 -0.032355332378644117 -0.097710849198916164 0 -0.046765888152771988 -0.07038084642247712 0 -0.041256689006291827 -0.087578629356243373 0 -0.049981965837793893 -0.076637562453002128 0 -0.041256689006291827 -0.087578629356243373 0 -0.052049590629986459 -0.090136306966430324 0 -0.050272514918799097 -0.0838728893703512 0 -0.052049590629986459 -0.090136306966430324 0 -0.061678381642044783 -0.081242266045342487 0 -0.041256689006291827 -0.087578629356243373 0 -0.050272514918799097 -0.0838728893703512 0 -0.049981965837793893 -0.076637562453002128 0 -0.050272514918799097 -0.0838728893703512 0 -0.061678381642044783 -0.081242266045342487 0 -0.049981965837793893 -0.076637562453002128 0 -0.041256689006291827 -0.087578629356243373 0 -0.050272514918799097 -0.0838728893703512 0 -0.052049590629986459 -0.090136306966430324 0 -0.066448840310219678 -0.066351321999264884 0 -0.061678381642044783 -0.081242266045342487 0 -0.049981965837793893 -0.076637562453002128 0 -0.066448840310219678 -0.066351321999264884 0 -0.046765888152771988 -0.07038084642247712 0 -0.049981965837793893 -0.076637562453002128 0 -0.066448840310219678 -0.066351321999264884 0 -0.04665232297869229 -0.062829347828032525 0 -0.046765888152771988 -0.07038084642247712 0 -0.066448840310219678 -0.066351321999264884 0 -0.04665232297869229 -0.062829347828032525 0 -0.065521472944857551 -0.12298943760420181 0 -0.042232031487891682 -0.1087063023465108 0 -0.043207373969492091 -0.12983397533677821 0 -0.065521472944857551 -0.12298943760420181 0 -0.059502187482761398 -0.10556155930763091 0 -0.042232031487891682 -0.1087063023465108 0 -0.052049590629986459 -0.090136306966430324 0 -0.059502187482761398 -0.10556155930763091 0 -0.042232031487891682 -0.1087063023465108 0 -0.075883415293302378 -0.09643136688735067 0 -0.052049590629986459 -0.090136306966430324 0 -0.059502187482761398 -0.10556155930763091 0 -0.041256689006291827 -0.087578629356243373 0 -0.042232031487891682 -0.1087063023465108 0 -0.032355332378644117 -0.097710849198916164 0 -0.042232031487891682 -0.1087063023465108 0 -0.021562751260802929 -0.1109816391156518 0 -0.041256689006291827 -0.087578629356243373 0 -0.052049590629986459 -0.090136306966430324 0 -0.042232031487891682 -0.1087063023465108 0 -0.041256689006291827 -0.087578629356243373 0 -0.032355332378644117 -0.097710849198916164 0 -0.042232031487891682 -0.1087063023465108 0 -0.042232031487891682 -0.1087063023465108 0 -0.021562751260802929 -0.1109816391156518 0 -0.043207373969492091 -0.12983397533677821 0 -0.042232031487891682 -0.1087063023465108 0 -0.043207373969492091 -0.12983397533677821 0 -0.021562751260802929 -0.1109816391156518 0 -0.01875564476201581 -0.13838645225404489 0 -0.024369857759590059 -0.08357682597725874 0 -0.021562751260802929 -0.1109816391156518 0 -0.024369857759590059 -0.08357682597725874 0 -0.021562751260802929 -0.1109816391156518 0 -0.01357526809358519 -0.096317297895695514 0 -0.024369857759590059 -0.08357682597725874 0 -0.032355332378644117 -0.097710849198916164 0 -0.021562751260802929 -0.1109816391156518 0 -0.021562751260802929 -0.1109816391156518 0 -0.01357526809358519 -0.096317297895695514 0 0.00065304885141945798 -0.1023903550299885 0 -0.021562751260802929 -0.1109816391156518 0 -0.0049868459187064782 -0.12089393076142101 0 -0.01875564476201581 -0.13838645225404489 0 -0.021562751260802929 -0.1109816391156518 0 -0.0049868459187064782 -0.12089393076142101 0 0.00065304885141945798 -0.1023903550299885 0 -0.0049868459187064782 -0.12089393076142101 0 -0.004994569159410607 -0.1348214239729186 0 -0.01875564476201581 -0.13838645225404489 0 -0.004994569159410607 -0.1348214239729186 0 -0.01875564476201581 -0.13838645225404489 0 -0.0070676483669210701 -0.14644638784317651 0 -0.021562751260802929 -0.1109816391156518 0 -0.01875564476201581 -0.13838645225404489 0 -0.043207373969492091 -0.12983397533677821 0 -0.01875564476201581 -0.13838645225404489 0 -0.015681418231718289 -0.1521238754878402 0 -0.028475031445544589 -0.15790271097993469 0 -0.01875564476201581 -0.13838645225404489 0 -0.028475031445544589 -0.15790271097993469 0 -0.044182716451092507 -0.15096164832704559 0 -0.015681418231718289 -0.1521238754878402 0 -0.0070676483669210701 -0.14644638784317651 0 -0.0075338945383573511 -0.15700710538509319 0 -0.01875564476201581 -0.13838645225404489 0 -0.015681418231718289 -0.1521238754878402 0 -0.0070676483669210701 -0.14644638784317651 0 -0.0070676483669210701 -0.14644638784317651 0 0.00081836894937297908 -0.15343424783023521 0 0.001884657043067488 -0.143349624844469 0 -0.004994569159410607 -0.1348214239729186 0 -0.0070676483669210701 -0.14644638784317651 0 0.001884657043067488 -0.143349624844469 0 -0.0070676483669210701 -0.14644638784317651 0 -0.0075338945383573511 -0.15700710538509319 0 0.00081836894937297908 -0.15343424783023521 0 -0.0075338945383573511 -0.15700710538509319 0 -0.00072690233441538891 -0.16097335060465459 0 -0.0065070377568897881 -0.1667697295440437 0 -0.0075338945383573511 -0.15700710538509319 0 -0.00072690233441538891 -0.16097335060465459 0 0.00081836894937297908 -0.15343424783023521 0 -0.00072690233441538891 -0.16097335060465459 0 -0.0065070377568897881 -0.1667697295440437 0 0.00063827455712116483 -0.1668973949739043 0 -0.0065070377568897881 -0.1667697295440437 0 -0.0034684930453481662 -0.17380879252231579 0 0.00063827455712116483 -0.1668973949739043 0 -0.0065070377568897881 -0.1667697295440437 0 -0.013719331424214221 -0.1756452191216234 0 -0.016693363881369268 -0.1635249642982621 0 -0.015681418231718289 -0.1521238754878402 0 -0.0075338945383573511 -0.15700710538509319 0 -0.016693363881369268 -0.1635249642982621 0 -0.0075338945383573511 -0.15700710538509319 0 -0.0065070377568897881 -0.1667697295440437 0 -0.016693363881369268 -0.1635249642982621 0 -0.00020742762622789299 -0.1865663821935809 0 -0.0034684930453481662 -0.17380879252231579 0 -0.0090490611848797545 -0.18798050201876809 0 -0.0034684930453481662 -0.17380879252231579 0 -0.013719331424214221 -0.1756452191216234 0 -0.0090490611848797545 -0.18798050201876809 0 -0.0065070377568897881 -0.1667697295440437 0 -0.0034684930453481662 -0.17380879252231579 0 -0.013719331424214221 -0.1756452191216234 0 -0.013719331424214221 -0.1756452191216234 0 -0.02171179011954711 -0.1867947938227944 0 -0.0090490611848797545 -0.18798050201876809 0 -0.013719331424214221 -0.1756452191216234 0 -0.02171179011954711 -0.1867947938227944 0 -0.0277443321253973 -0.1735365487791978 0 -0.02171179011954711 -0.1867947938227944 0 -0.0277443321253973 -0.1735365487791978 0 -0.037040438958715692 -0.18673970313110719 0 -0.0277443321253973 -0.1735365487791978 0 -0.016693363881369268 -0.1635249642982621 0 -0.028475031445544589 -0.15790271097993469 0 -0.015681418231718289 -0.1521238754878402 0 -0.016693363881369268 -0.1635249642982621 0 -0.028475031445544589 -0.15790271097993469 0 -0.013719331424214221 -0.1756452191216234 0 -0.0277443321253973 -0.1735365487791978 0 -0.016693363881369268 -0.1635249642982621 0 -0.028475031445544589 -0.15790271097993469 0 -0.047817399020761188 -0.16943449409182421 0 -0.044182716451092507 -0.15096164832704559 0 -0.0277443321253973 -0.1735365487791978 0 -0.028475031445544589 -0.15790271097993469 0 -0.047817399020761188 -0.16943449409182421 0 -0.0277443321253973 -0.1735365487791978 0 -0.037040438958715692 -0.18673970313110719 0 -0.047817399020761188 -0.16943449409182421 0 -0.037040438958715692 -0.18673970313110719 0 -0.047817399020761188 -0.16943449409182421 0 -0.055550473004413292 -0.1889389742528535 0 -0.047817399020761188 -0.16943449409182421 0 -0.055550473004413292 -0.1889389742528535 0 -0.076734862978660973 -0.1716044550830168 0 -0.043207373969492091 -0.12983397533677821 0 -0.044182716451092507 -0.15096164832704559 0 -0.065183787385161132 -0.14525328168028701 0 -0.047817399020761188 -0.16943449409182421 0 -0.044182716451092507 -0.15096164832704559 0 -0.065183787385161132 -0.14525328168028701 0 -0.065521472944857551 -0.12298943760420181 0 -0.043207373969492091 -0.12983397533677821 0 -0.065183787385161132 -0.14525328168028701 0 -0.043207373969492091 -0.12983397533677821 0 -0.044182716451092507 -0.15096164832704559 0 -0.01875564476201581 -0.13838645225404489 0 -0.043207373969492091 -0.12983397533677821 0 -0.044182716451092507 -0.15096164832704559 0 -0.018702325639984609 -0.24986848551028271 0 -0.016593430330663659 -0.22940447217103249 0 -0.033663591369986277 -0.24353736627565789 0 -0.018702325639984609 -0.24986848551028271 0 -0.0058852010461819503 -0.24072601223504581 0 0.001493640475220439 -0.25857443167614802 0 -0.018702325639984609 -0.24986848551028271 0 -0.0058852010461819503 -0.24072601223504581 0 -0.016593430330663659 -0.22940447217103249 0 -0.0058852010461819503 -0.24072601223504581 0 -0.0041063050267637893 -0.2280355466079268 0 -0.016593430330663659 -0.22940447217103249 0 -0.0058852010461819503 -0.24072601223504581 0 -0.0041063050267637893 -0.2280355466079268 0 0.00666389650501882 -0.2312189805693822 0 -0.0041063050267637893 -0.2280355466079268 0 -0.0082689724913803594 -0.21713975630035109 0 0.0048010455329387204 -0.2187537637929122 0 -0.0041063050267637893 -0.2280355466079268 0 -0.016593430330663659 -0.22940447217103249 0 -0.0082689724913803594 -0.21713975630035109 0 -0.016593430330663659 -0.22940447217103249 0 -0.022356998799257059 -0.21210234255416499 0 -0.038379138134872592 -0.22799110750658649 0 -0.016593430330663659 -0.22940447217103249 0 -0.038379138134872592 -0.22799110750658649 0 -0.033663591369986277 -0.24353736627565789 0 -0.016593430330663659 -0.22940447217103249 0 -0.022356998799257059 -0.21210234255416499 0 -0.0082689724913803594 -0.21713975630035109 0 -0.022356998799257059 -0.21210234255416499 0 -0.027952370258210998 -0.1989930944588835 0 -0.043149654924965267 -0.20641571329368691 0 -0.022356998799257059 -0.21210234255416499 0 -0.01584158499827866 -0.1984091695135059 0 -0.027952370258210998 -0.1989930944588835 0 -0.022356998799257059 -0.21210234255416499 0 -0.0096344501176149778 -0.20706853074631429 0 -0.01584158499827866 -0.1984091695135059 0 -0.022356998799257059 -0.21210234255416499 0 -0.0082689724913803594 -0.21713975630035109 0 -0.0096344501176149778 -0.20706853074631429 0 -0.0082689724913803594 -0.21713975630035109 0 -0.0017236962069214019 -0.2074738819297561 0 0.0048010455329387204 -0.2187537637929122 0 -0.0082689724913803594 -0.21713975630035109 0 -0.0017236962069214019 -0.2074738819297561 0 -0.0096344501176149778 -0.20706853074631429 0 -0.0017236962069214019 -0.2074738819297561 0 -0.0096344501176149778 -0.20706853074631429 0 -0.0043448395101620511 -0.19751575348011011 0 -0.0096344501176149778 -0.20706853074631429 0 -0.0043448395101620511 -0.19751575348011011 0 -0.01584158499827866 -0.1984091695135059 0 -0.00020742762622789299 -0.1865663821935809 0 -0.0043448395101620511 -0.19751575348011011 0 -0.0090490611848797545 -0.18798050201876809 0 -0.0043448395101620511 -0.19751575348011011 0 -0.0090490611848797545 -0.18798050201876809 0 -0.01584158499827866 -0.1984091695135059 0 -0.02171179011954711 -0.1867947938227944 0 -0.0090490611848797545 -0.18798050201876809 0 -0.01584158499827866 -0.1984091695135059 0 -0.02171179011954711 -0.1867947938227944 0 -0.01584158499827866 -0.1984091695135059 0 -0.027952370258210998 -0.1989930944588835 0 -0.02171179011954711 -0.1867947938227944 0 -0.037040438958715692 -0.18673970313110719 0 -0.027952370258210998 -0.1989930944588835 0 -0.037040438958715692 -0.18673970313110719 0 -0.027952370258210998 -0.1989930944588835 0 -0.043149654924965267 -0.20641571329368691 0 -0.037040438958715692 -0.18673970313110719 0 -0.055550473004413292 -0.1889389742528535 0 -0.043149654924965267 -0.20641571329368691 0 -0.055550473004413292 -0.1889389742528535 0 -0.043149654924965267 -0.20641571329368691 0 -0.064990155581431674 -0.20593880431091829 0 -0.043149654924965267 -0.20641571329368691 0 -0.057928356517161488 -0.22286300210302051 0 -0.064990155581431674 -0.20593880431091829 0 -0.022356998799257059 -0.21210234255416499 0 -0.043149654924965267 -0.20641571329368691 0 -0.038379138134872592 -0.22799110750658649 0 -0.043149654924965267 -0.20641571329368691 0 -0.038379138134872592 -0.22799110750658649 0 -0.057928356517161488 -0.22286300210302051 0 -0.038379138134872592 -0.22799110750658649 0 -0.057928356517161488 -0.22286300210302051 0 -0.052401822247863272 -0.24607235700039851 0 -0.038379138134872592 -0.22799110750658649 0 -0.057928356517161488 -0.22286300210302051 0 -0.057928356517161488 -0.22286300210302051 0 -0.052401822247863272 -0.24607235700039851 0 -0.072335588550341362 -0.23857068070964499 0 -0.038379138134872592 -0.22799110750658649 0 -0.052401822247863272 -0.24607235700039851 0 -0.033663591369986277 -0.24353736627565789 0 -0.036600359035300817 -0.25873915583872231 0 -0.052401822247863272 -0.24607235700039851 0 -0.033663591369986277 -0.24353736627565789 0 -0.086803194063947486 -0.25213535243165319 0 -0.086068006564567839 -0.2324676422012816 0 -0.1013228556206739 -0.24264687255654899 0 -0.086803194063947486 -0.25213535243165319 0 -0.072335588550341362 -0.23857068070964499 0 -0.086068006564567839 -0.2324676422012816 0 -0.074743786071307008 -0.26294577086424958 0 -0.052401822247863272 -0.24607235700039851 0 -0.072335588550341362 -0.23857068070964499 0 -0.057928356517161488 -0.22286300210302051 0 -0.077477574899450383 -0.21773489669945439 0 -0.057928356517161488 -0.22286300210302051 0 -0.072335588550341362 -0.23857068070964499 0 -0.077477574899450383 -0.21773489669945439 0 -0.072335588550341362 -0.23857068070964499 0 -0.086068006564567839 -0.2324676422012816 0 -0.077477574899450383 -0.21773489669945439 0 -0.086068006564567839 -0.2324676422012816 0 -0.09062736026112253 -0.2215476745302605 0 -0.077477574899450383 -0.21773489669945439 0 -0.086068006564567839 -0.2324676422012816 0 -0.09062736026112253 -0.2215476745302605 0 -0.093894015803773129 -0.22866470745954229 0 -0.093169637505459993 -0.20648459089116999 0 -0.077477574899450383 -0.21773489669945439 0 -0.097026793281739299 -0.21260679129588869 0 -0.077477574899450383 -0.21773489669945439 0 -0.097026793281739299 -0.21260679129588869 0 -0.09062736026112253 -0.2215476745302605 0 -0.077477574899450383 -0.21773489669945439 0 -0.097026793281739299 -0.21260679129588869 0 -0.093169637505459993 -0.20648459089116999 0 -0.079950920195969541 -0.20504076874604529 0 -0.077477574899450383 -0.21773489669945439 0 -0.093169637505459993 -0.20648459089116999 0 -0.079950920195969541 -0.20504076874604529 0 -0.087099488821292023 -0.198664032998705 0 -0.057928356517161488 -0.22286300210302051 0 -0.077477574899450383 -0.21773489669945439 0 -0.064990155581431674 -0.20593880431091829 0 -0.079950920195969541 -0.20504076874604529 0 -0.077477574899450383 -0.21773489669945439 0 -0.064990155581431674 -0.20593880431091829 0 -0.055550473004413292 -0.1889389742528535 0 -0.064990155581431674 -0.20593880431091829 0 -0.07499045428053186 -0.1938181190013942 0 -0.079950920195969541 -0.20504076874604529 0 -0.064990155581431674 -0.20593880431091829 0 -0.07499045428053186 -0.1938181190013942 0 -0.07499045428053186 -0.1938181190013942 0 -0.087099488821292023 -0.198664032998705 0 -0.087688120100693712 -0.18840098999239649 0 -0.079950920195969541 -0.20504076874604529 0 -0.07499045428053186 -0.1938181190013942 0 -0.087099488821292023 -0.198664032998705 0 -0.093169637505459993 -0.20648459089116999 0 -0.087099488821292023 -0.198664032998705 0 -0.098544917338276042 -0.19515635416824059 0 -0.087099488821292023 -0.198664032998705 0 -0.087688120100693712 -0.18840098999239649 0 -0.098544917338276042 -0.19515635416824059 0 -0.098544917338276042 -0.19515635416824059 0 -0.1056659694117819 -0.20288771344514761 0 -0.1152468428803291 -0.19362027738717649 0 -0.098544917338276042 -0.19515635416824059 0 -0.1152468428803291 -0.19362027738717649 0 -0.10215915475061441 -0.1799598240043733 0 -0.087688120100693712 -0.18840098999239649 0 -0.098544917338276042 -0.19515635416824059 0 -0.10215915475061441 -0.1799598240043733 0 -0.093169637505459993 -0.20648459089116999 0 -0.098544917338276042 -0.19515635416824059 0 -0.1056659694117819 -0.20288771344514761 0 -0.1152468428803291 -0.19362027738717649 0 -0.1179634539069693 -0.2071147352768026 0 -0.1389001145321995 -0.20162267925771679 0 -0.1056659694117819 -0.20288771344514761 0 -0.1152468428803291 -0.19362027738717649 0 -0.1179634539069693 -0.2071147352768026 0 -0.1179634539069693 -0.2071147352768026 0 -0.11222095263681831 -0.21987942785499751 0 -0.123582065680392 -0.22610348793862131 0 -0.1179634539069693 -0.2071147352768026 0 -0.123582065680392 -0.22610348793862131 0 -0.13039469334439641 -0.21475230899752579 0 -0.1179634539069693 -0.2071147352768026 0 -0.097026793281739299 -0.21260679129588869 0 -0.1056659694117819 -0.20288771344514761 0 -0.1179634539069693 -0.2071147352768026 0 -0.097026793281739299 -0.21260679129588869 0 -0.1179634539069693 -0.2071147352768026 0 -0.097026793281739299 -0.21260679129588869 0 -0.11222095263681831 -0.21987942785499751 0 -0.093169637505459993 -0.20648459089116999 0 -0.1056659694117819 -0.20288771344514761 0 -0.097026793281739299 -0.21260679129588869 0 -0.093169637505459993 -0.20648459089116999 0 -0.097026793281739299 -0.21260679129588869 0 -0.09062736026112253 -0.2215476745302605 0 -0.097557840768728282 -0.21799664055007831 0 -0.097026793281739299 -0.21260679129588869 0 -0.097557840768728282 -0.21799664055007831 0 -0.1013228556206739 -0.24264687255654899 0 -0.097026793281739299 -0.21260679129588869 0 -0.11222095263681831 -0.21987942785499751 0 -0.1103114976781726 -0.23369269690867761 0 -0.097557840768728282 -0.21799664055007831 0 -0.093894015803773129 -0.22866470745954229 0 -0.1013228556206739 -0.24264687255654899 0 -0.097557840768728282 -0.21799664055007831 0 -0.1103114976781726 -0.23369269690867761 0 -0.1013228556206739 -0.24264687255654899 0 -0.097557840768728282 -0.21799664055007831 0 -0.097026793281739299 -0.21260679129588869 0 -0.1103114976781726 -0.23369269690867761 0 -0.097026793281739299 -0.21260679129588869 0 -0.1103114976781726 -0.23369269690867761 0 -0.09062736026112253 -0.2215476745302605 0 -0.097557840768728282 -0.21799664055007831 0 -0.093894015803773129 -0.22866470745954229 0 -0.123582065680392 -0.22610348793862131 0 -0.1103114976781726 -0.23369269690867761 0 -0.12663580409156841 -0.23755139194787059 0 -0.11222095263681831 -0.21987942785499751 0 -0.123582065680392 -0.22610348793862131 0 -0.1103114976781726 -0.23369269690867761 0 -0.123596202074607 -0.25477860252146589 0 -0.1103114976781726 -0.23369269690867761 0 -0.1013228556206739 -0.24264687255654899 0 -0.123596202074607 -0.25477860252146589 0 -0.1103114976781726 -0.23369269690867761 0 -0.123596202074607 -0.25477860252146589 0 -0.1103114976781726 -0.23369269690867761 0 -0.12663580409156841 -0.23755139194787059 0 -0.086068006564567839 -0.2324676422012816 0 -0.093894015803773129 -0.22866470745954229 0 -0.1013228556206739 -0.24264687255654899 0 -0.086787129056474177 -0.1222569838747076 0 -0.092035557274789515 -0.1496919774444351 0 -0.065183787385161132 -0.14525328168028701 0 -0.065521472944857551 -0.12298943760420181 0 -0.086787129056474177 -0.1222569838747076 0 -0.065183787385161132 -0.14525328168028701 0 -0.092035557274789515 -0.1496919774444351 0 -0.065183787385161132 -0.14525328168028701 0 -0.076734862978660973 -0.1716044550830168 0 -0.047817399020761188 -0.16943449409182421 0 -0.065183787385161132 -0.14525328168028701 0 -0.076734862978660973 -0.1716044550830168 0 -0.055550473004413292 -0.1889389742528535 0 -0.07499045428053186 -0.1938181190013942 0 -0.076734862978660973 -0.1716044550830168 0 -0.087688120100693712 -0.18840098999239649 0 -0.076734862978660973 -0.1716044550830168 0 -0.10215915475061441 -0.1799598240043733 0 -0.07499045428053186 -0.1938181190013942 0 -0.087688120100693712 -0.18840098999239649 0 -0.076734862978660973 -0.1716044550830168 0 -0.092035557274789515 -0.1496919774444351 0 -0.076734862978660973 -0.1716044550830168 0 -0.092035557274789515 -0.1496919774444351 0 -0.076734862978660973 -0.1716044550830168 0 -0.10215915475061441 -0.1799598240043733 0 -0.092035557274789515 -0.1496919774444351 0 -0.10215915475061441 -0.1799598240043733 0 -0.1165224854116335 -0.1583537221524432 0 -0.10215915475061441 -0.1799598240043733 0 -0.1165224854116335 -0.1583537221524432 0 -0.1291645115125086 -0.18164751008023669 0 -0.1152468428803291 -0.19362027738717649 0 -0.10215915475061441 -0.1799598240043733 0 -0.1291645115125086 -0.18164751008023669 0 -0.1165224854116335 -0.1583537221524432 0 -0.1073362515709181 -0.1277794998058534 0 -0.1314488688137643 -0.1362196443282766 0 -0.092035557274789515 -0.1496919774444351 0 -0.1165224854116335 -0.1583537221524432 0 -0.1073362515709181 -0.1277794998058534 0 -0.092035557274789515 -0.1496919774444351 0 -0.1073362515709181 -0.1277794998058534 0 -0.086787129056474177 -0.1222569838747076 0 -0.092035557274789515 -0.1496919774444351 0 -0.1073362515709181 -0.1277794998058534 0 -0.1314488688137643 -0.1362196443282766 0 -0.15646234973971759 -0.13838016355940941 0 -0.14799778996401611 -0.11441230934164411 0 -0.1428134306261131 -0.16001383681982301 0 -0.15646234973971759 -0.13838016355940941 0 -0.1428134306261131 -0.16001383681982301 0 -0.16557290344232231 -0.15844025326830599 0 -0.15646234973971759 -0.13838016355940941 0 -0.1314488688137643 -0.1362196443282766 0 -0.1428134306261131 -0.16001383681982301 0 -0.15646234973971759 -0.13838016355940941 0 -0.1165224854116335 -0.1583537221524432 0 -0.1314488688137643 -0.1362196443282766 0 -0.1428134306261131 -0.16001383681982301 0 -0.1165224854116335 -0.1583537221524432 0 -0.1291645115125086 -0.18164751008023669 0 -0.1428134306261131 -0.16001383681982301 0 -0.1291645115125086 -0.18164751008023669 0 -0.1428134306261131 -0.16001383681982301 0 -0.1291645115125086 -0.18164751008023669 0 -0.14578606836982769 -0.17755828598996959 0 -0.1428134306261131 -0.16001383681982301 0 -0.1291645115125086 -0.18164751008023669 0 -0.14578606836982769 -0.17755828598996959 0 -0.14762658476998999 -0.18831788657722939 0 -0.14578606836982769 -0.17755828598996959 0 -0.15470328444531409 -0.16887592663954601 0 -0.15710053835824569 -0.176913360544424 0 -0.14578606836982769 -0.17755828598996959 0 -0.15457109065409319 -0.18532266277036269 0 -0.14762658476998999 -0.18831788657722939 0 -0.15457109065409319 -0.18532266277036269 0 -0.14762658476998999 -0.18831788657722939 0 -0.15750094839388179 -0.1876255581264597 0 -0.14578606836982769 -0.17755828598996959 0 -0.15457109065409319 -0.18532266277036269 0 -0.15710053835824569 -0.176913360544424 0 -0.1428134306261131 -0.16001383681982301 0 -0.15470328444531409 -0.16887592663954601 0 -0.16557290344232231 -0.15844025326830599 0 -0.14578606836982769 -0.17755828598996959 0 -0.1428134306261131 -0.16001383681982301 0 -0.15470328444531409 -0.16887592663954601 0 -0.15470328444531409 -0.16887592663954601 0 -0.1641033749395959 -0.17020595796630081 0 -0.16557290344232231 -0.15844025326830599 0 -0.1641033749395959 -0.17020595796630081 0 -0.16557290344232231 -0.15844025326830599 0 -0.17491240153731841 -0.17287086344244601 0 -0.1638490028637852 -0.1795131907421226 0 -0.17491240153731841 -0.17287086344244601 0 -0.1677949031397708 -0.19192032516392729 0 -0.17491240153731841 -0.17287086344244601 0 -0.1677949031397708 -0.19192032516392729 0 -0.15457109065409319 -0.18532266277036269 0 -0.1638490028637852 -0.1795131907421226 0 -0.1677949031397708 -0.19192032516392729 0 -0.15457109065409319 -0.18532266277036269 0 -0.1638490028637852 -0.1795131907421226 0 -0.15710053835824569 -0.176913360544424 0 -0.1641033749395959 -0.17020595796630081 0 -0.1638490028637852 -0.1795131907421226 0 -0.15710053835824569 -0.176913360544424 0 -0.15470328444531409 -0.16887592663954601 0 -0.1641033749395959 -0.17020595796630081 0 -0.15710053835824569 -0.176913360544424 0 -0.1641033749395959 -0.17020595796630081 0 -0.1638490028637852 -0.1795131907421226 0 -0.17491240153731841 -0.17287086344244601 0 -0.17491240153731841 -0.17287086344244601 0 -0.1677949031397708 -0.19192032516392729 0 -0.17647798214726351 -0.19176534060596359 0 -0.17491240153731841 -0.17287086344244601 0 -0.18480461676286269 -0.18158167763812849 0 -0.17647798214726351 -0.19176534060596359 0 -0.17491240153731841 -0.17287086344244601 0 -0.18480461676286269 -0.18158167763812849 0 -0.18641537174421391 -0.17041967364783461 0 -0.17491240153731841 -0.17287086344244601 0 -0.18641537174421391 -0.17041967364783461 0 -0.18202989993486601 -0.1538214017209647 0 -0.17491240153731841 -0.17287086344244601 0 -0.18202989993486601 -0.1538214017209647 0 -0.16557290344232231 -0.15844025326830599 0 -0.17491240153731841 -0.17287086344244601 0 -0.18202989993486601 -0.1538214017209647 0 -0.16557290344232231 -0.15844025326830599 0 -0.18202989993486601 -0.1538214017209647 0 -0.17301915940316831 -0.1398512801828847 0 -0.18202989993486601 -0.1538214017209647 0 -0.17301915940316831 -0.1398512801828847 0 -0.18914739833241359 -0.13477193999948331 0 -0.18202989993486601 -0.1538214017209647 0 -0.18914739833241359 -0.13477193999948331 0 -0.17301915940316831 -0.1398512801828847 0 -0.18914739833241359 -0.13477193999948331 0 -0.17011126885332201 -0.11674649029899579 0 -0.15646234973971759 -0.13838016355940941 0 -0.17011126885332201 -0.11674649029899579 0 -0.17301915940316831 -0.1398512801828847 0 -0.15646234973971759 -0.13838016355940941 0 -0.17011126885332201 -0.11674649029899579 0 -0.16557290344232231 -0.15844025326830599 0 -0.17301915940316831 -0.1398512801828847 0 -0.15646234973971759 -0.13838016355940941 0 -0.14465089884745799 -0.25965303512988958 0 -0.1513457192101508 -0.2448063678238897 0 -0.1378763090635933 -0.24360624003131881 0 -0.1513457192101508 -0.2448063678238897 0 -0.14664880917348841 -0.2355066600782427 0 -0.1559683954198782 -0.2329558509478708 0 -0.1513457192101508 -0.2448063678238897 0 -0.14664880917348841 -0.2355066600782427 0 -0.1378763090635933 -0.24360624003131881 0 -0.14664880917348841 -0.2355066600782427 0 -0.1378763090635933 -0.24360624003131881 0 -0.1378129459610771 -0.22957593233926901 0 -0.123596202074607 -0.25477860252146589 0 -0.1378763090635933 -0.24360624003131881 0 -0.12663580409156841 -0.23755139194787059 0 -0.1378763090635933 -0.24360624003131881 0 -0.12663580409156841 -0.23755139194787059 0 -0.1378129459610771 -0.22957593233926901 0 -0.123582065680392 -0.22610348793862131 0 -0.12663580409156841 -0.23755139194787059 0 -0.1378129459610771 -0.22957593233926901 0 -0.123582065680392 -0.22610348793862131 0 -0.1378129459610771 -0.22957593233926901 0 -0.13039469334439641 -0.21475230899752579 0 -0.1378129459610771 -0.22957593233926901 0 -0.142951353418278 -0.21524666600264261 0 -0.13039469334439641 -0.21475230899752579 0 -0.1378129459610771 -0.22957593233926901 0 -0.14925923190246609 -0.22501831007375439 0 -0.142951353418278 -0.21524666600264261 0 -0.14664880917348841 -0.2355066600782427 0 -0.1378129459610771 -0.22957593233926901 0 -0.14925923190246609 -0.22501831007375439 0 -0.1559683954198782 -0.2329558509478708 0 -0.14925923190246609 -0.22501831007375439 0 -0.15743965409409241 -0.22292605635394919 0 -0.14664880917348841 -0.2355066600782427 0 -0.1559683954198782 -0.2329558509478708 0 -0.14925923190246609 -0.22501831007375439 0 -0.14925923190246609 -0.22501831007375439 0 -0.15226985270117099 -0.21568284861136819 0 -0.15743965409409241 -0.22292605635394919 0 -0.15226985270117099 -0.21568284861136819 0 -0.15051560862996699 -0.20491543622708031 0 -0.142951353418278 -0.21524666600264261 0 -0.15226985270117099 -0.21568284861136819 0 -0.15051560862996699 -0.20491543622708031 0 -0.1602933755255499 -0.21199761287908531 0 -0.15051560862996699 -0.20491543622708031 0 -0.15756913011956411 -0.20353229366896811 0 -0.1602933755255499 -0.21199761287908531 0 -0.15051560862996699 -0.20491543622708031 0 -0.142951353418278 -0.21524666600264261 0 -0.1389001145321995 -0.20162267925771679 0 -0.14925923190246609 -0.22501831007375439 0 -0.15226985270117099 -0.21568284861136819 0 -0.142951353418278 -0.21524666600264261 0 -0.1179634539069693 -0.2071147352768026 0 -0.13039469334439641 -0.21475230899752579 0 -0.1389001145321995 -0.20162267925771679 0 -0.1179634539069693 -0.2071147352768026 0 -0.1389001145321995 -0.20162267925771679 0 -0.142951353418278 -0.21524666600264261 0 -0.13039469334439641 -0.21475230899752579 0 -0.1389001145321995 -0.20162267925771679 0 -0.1152468428803291 -0.19362027738717649 0 -0.1291645115125086 -0.18164751008023669 0 -0.1389001145321995 -0.20162267925771679 0 -0.1291645115125086 -0.18164751008023669 0 -0.1389001145321995 -0.20162267925771679 0 -0.14762658476998999 -0.18831788657722939 0 -0.1389001145321995 -0.20162267925771679 0 -0.15983677515742969 -0.19613062323863109 0 -0.15051560862996699 -0.20491543622708031 0 -0.1389001145321995 -0.20162267925771679 0 -0.15983677515742969 -0.19613062323863109 0 -0.1389001145321995 -0.20162267925771679 0 -0.14762658476998999 -0.18831788657722939 0 -0.15983677515742969 -0.19613062323863109 0 -0.15051560862996699 -0.20491543622708031 0 -0.15983677515742969 -0.19613062323863109 0 -0.15756913011956411 -0.20353229366896811 0 -0.14762658476998999 -0.18831788657722939 0 -0.15750094839388179 -0.1876255581264597 0 -0.15983677515742969 -0.19613062323863109 0 -0.15750094839388179 -0.1876255581264597 0 -0.16301205595133719 -0.19248755742255519 0 -0.15983677515742969 -0.19613062323863109 0 -0.15457109065409319 -0.18532266277036269 0 -0.1677949031397708 -0.19192032516392729 0 -0.15750094839388179 -0.1876255581264597 0 -0.16301205595133719 -0.19248755742255519 0 -0.1677949031397708 -0.19192032516392729 0 -0.15457109065409319 -0.18532266277036269 0 -0.15750094839388179 -0.1876255581264597 0 -0.1677949031397708 -0.19192032516392729 0 -0.15750094839388179 -0.1876255581264597 0 -0.15983677515742969 -0.19613062323863109 0 -0.15983677515742969 -0.19613062323863109 0 -0.1669155971142659 -0.19427372316120101 0 -0.16301205595133719 -0.19248755742255519 0 -0.15983677515742969 -0.19613062323863109 0 -0.1669155971142659 -0.19427372316120101 0 -0.15983677515742969 -0.19613062323863109 0 -0.15756913011956411 -0.20353229366896811 0 -0.1625417811308468 -0.20597992040904209 0 -0.15983677515742969 -0.19613062323863109 0 -0.1669155971142659 -0.19427372316120101 0 -0.1625417811308468 -0.20597992040904209 0 -0.15983677515742969 -0.19613062323863109 0 -0.1625417811308468 -0.20597992040904209 0 -0.17102852793402451 -0.2024806464391235 0 -0.1669155971142659 -0.19427372316120101 0 -0.1625417811308468 -0.20597992040904209 0 -0.17102852793402451 -0.2024806464391235 0 -0.17058343107286381 -0.19331158550563909 0 -0.1669155971142659 -0.19427372316120101 0 -0.1669155971142659 -0.19427372316120101 0 -0.1625417811308468 -0.20597992040904209 0 -0.17058343107286381 -0.19331158550563909 0 -0.1677949031397708 -0.19192032516392729 0 -0.17647798214726351 -0.19176534060596359 0 -0.17058343107286381 -0.19331158550563909 0 -0.1677949031397708 -0.19192032516392729 0 -0.17058343107286381 -0.19331158550563909 0 -0.1669155971142659 -0.19427372316120101 0 -0.1677949031397708 -0.19192032516392729 0 -0.17058343107286381 -0.19331158550563909 0 -0.1669155971142659 -0.19427372316120101 0 -0.16301205595133719 -0.19248755742255519 0 -0.1669155971142659 -0.19427372316120101 0 -0.1677949031397708 -0.19192032516392729 0 -0.1669155971142659 -0.19427372316120101 0 -0.1677949031397708 -0.19192032516392729 0 -0.17058343107286381 -0.19331158550563909 0 -0.17647798214726351 -0.19176534060596359 0 -0.19330237709508019 -0.20464658711388151 0 -0.17647798214726351 -0.19176534060596359 0 -0.19330237709508019 -0.20464658711388151 0 -0.19092104003756441 -0.19111193330327739 0 -0.17058343107286381 -0.19331158550563909 0 -0.1816764813361571 -0.20859204179229729 0 -0.19330237709508019 -0.20464658711388151 0 -0.17058343107286381 -0.19331158550563909 0 -0.19330237709508019 -0.20464658711388151 0 -0.17058343107286381 -0.19331158550563909 0 -0.17647798214726351 -0.19176534060596359 0 -0.18480461676286269 -0.18158167763812849 0 -0.17647798214726351 -0.19176534060596359 0 -0.19092104003756441 -0.19111193330327739 0 -0.17102852793402451 -0.2024806464391235 0 -0.17058343107286381 -0.19331158550563909 0 -0.1816764813361571 -0.20859204179229729 0 -0.17102852793402451 -0.2024806464391235 0 -0.1816764813361571 -0.20859204179229729 0 -0.1735869660750935 -0.21320606607457851 0 -0.1816764813361571 -0.20859204179229729 0 -0.1735869660750935 -0.21320606607457851 0 -0.18426206936331879 -0.22157266164987341 0 -0.1625417811308468 -0.20597992040904209 0 -0.16842597061112041 -0.22740506008255629 0 -0.1625417811308468 -0.20597992040904209 0 -0.1602933755255499 -0.21199761287908531 0 -0.16842597061112041 -0.22740506008255629 0 -0.1735869660750935 -0.21320606607457851 0 -0.1625417811308468 -0.20597992040904209 0 -0.16842597061112041 -0.22740506008255629 0 -0.17102852793402451 -0.2024806464391235 0 -0.1735869660750935 -0.21320606607457851 0 -0.1625417811308468 -0.20597992040904209 0 -0.1625417811308468 -0.20597992040904209 0 -0.1602933755255499 -0.21199761287908531 0 -0.15756913011956411 -0.20353229366896811 0 -0.1625417811308468 -0.20597992040904209 0 -0.1602933755255499 -0.21199761287908531 0 -0.15226985270117099 -0.21568284861136819 0 -0.1602933755255499 -0.21199761287908531 0 -0.15743965409409241 -0.22292605635394919 0 -0.1602933755255499 -0.21199761287908531 0 -0.15743965409409241 -0.22292605635394919 0 -0.16842597061112041 -0.22740506008255629 0 -0.1559683954198782 -0.2329558509478708 0 -0.15743965409409241 -0.22292605635394919 0 -0.16842597061112041 -0.22740506008255629 0 -0.1559683954198782 -0.2329558509478708 0 -0.16842597061112041 -0.22740506008255629 0 -0.16269098752795089 -0.24207265127483241 0 -0.1735869660750935 -0.21320606607457851 0 -0.16842597061112041 -0.22740506008255629 0 -0.18426206936331879 -0.22157266164987341 0 -0.16842597061112041 -0.22740506008255629 0 -0.18426206936331879 -0.22157266164987341 0 -0.18315470126187131 -0.23584054239898219 0 -0.18315470126187131 -0.23584054239898219 0 -0.17431016009139391 -0.2488301997560706 0 -0.19054804706596259 -0.24750041955575999 0 -0.16842597061112041 -0.22740506008255629 0 -0.18315470126187131 -0.23584054239898219 0 -0.17431016009139391 -0.2488301997560706 0 -0.16842597061112041 -0.22740506008255629 0 -0.17431016009139391 -0.2488301997560706 0 -0.16842597061112041 -0.22740506008255629 0 -0.17431016009139391 -0.2488301997560706 0 -0.16269098752795089 -0.24207265127483241 0 -0.16153193887691589 -0.25498623807777449 0 -0.17431016009139391 -0.2488301997560706 0 -0.16269098752795089 -0.24207265127483241 0 -0.1513457192101508 -0.2448063678238897 0 -0.1559683954198782 -0.2329558509478708 0 -0.16269098752795089 -0.24207265127483241 0 -0.16153193887691589 -0.25498623807777449 0 -0.1513457192101508 -0.2448063678238897 0 -0.16269098752795089 -0.24207265127483241 0 -0.21649768948809109 -0.24850514420996581 0 -0.1982272591775609 -0.23389437095065049 0 -0.21959652078390229 -0.23219448984558069 0 -0.21649768948809109 -0.24850514420996581 0 -0.19054804706596259 -0.24750041955575999 0 -0.1982272591775609 -0.23389437095065049 0 -0.18315470126187131 -0.23584054239898219 0 -0.19054804706596259 -0.24750041955575999 0 -0.1982272591775609 -0.23389437095065049 0 -0.18426206936331879 -0.22157266164987341 0 -0.18315470126187131 -0.23584054239898219 0 -0.1982272591775609 -0.23389437095065049 0 -0.18426206936331879 -0.22157266164987341 0 -0.1982272591775609 -0.23389437095065049 0 -0.19858420677170699 -0.21905538470257169 0 -0.19858420677170699 -0.21905538470257169 0 -0.2160213231172976 -0.21598158872212209 0 -0.21959652078390229 -0.23219448984558069 0 -0.1982272591775609 -0.23389437095065049 0 -0.19858420677170699 -0.21905538470257169 0 -0.21959652078390229 -0.23219448984558069 0 -0.2160213231172976 -0.21598158872212209 0 -0.19330237709508019 -0.20464658711388151 0 -0.2160213231172976 -0.21598158872212209 0 -0.19330237709508019 -0.20464658711388151 0 -0.209347347095619 -0.19306536608852429 0 -0.19858420677170699 -0.21905538470257169 0 -0.2160213231172976 -0.21598158872212209 0 -0.19330237709508019 -0.20464658711388151 0 -0.1816764813361571 -0.20859204179229729 0 -0.19858420677170699 -0.21905538470257169 0 -0.19330237709508019 -0.20464658711388151 0 -0.1816764813361571 -0.20859204179229729 0 -0.18426206936331879 -0.22157266164987341 0 -0.19858420677170699 -0.21905538470257169 0 -0.19330237709508019 -0.20464658711388151 0 -0.19092104003756441 -0.19111193330327739 0 -0.209347347095619 -0.19306536608852429 0 -0.19092104003756441 -0.19111193330327739 0 -0.209347347095619 -0.19306536608852429 0 -0.19560355199739249 -0.1794748828707646 0 -0.209347347095619 -0.19306536608852429 0 -0.2379761953037241 -0.19960238450046641 0 -0.23706675124755139 -0.17647760169858809 0 -0.2160213231172976 -0.21598158872212209 0 -0.209347347095619 -0.19306536608852429 0 -0.2379761953037241 -0.19960238450046641 0 -0.2379761953037241 -0.19960238450046641 0 -0.23706675124755139 -0.17647760169858809 0 -0.26205110545212018 -0.1917562231512322 0 -0.2379761953037241 -0.19960238450046641 0 -0.24310361909074019 -0.21384686187916069 0 -0.26026702581901662 -0.20648666546317121 0 -0.2160213231172976 -0.21598158872212209 0 -0.2379761953037241 -0.19960238450046641 0 -0.24310361909074019 -0.21384686187916069 0 -0.2160213231172976 -0.21598158872212209 0 -0.21959652078390229 -0.23219448984558069 0 -0.23874026913951499 -0.22731659033036269 0 -0.2160213231172976 -0.21598158872212209 0 -0.24310361909074019 -0.21384686187916069 0 -0.23874026913951499 -0.22731659033036269 0 -0.21959652078390229 -0.23219448984558069 0 -0.23874026913951499 -0.22731659033036269 0 -0.23603337893394161 -0.23453327058558721 0 -0.2160213231172976 -0.21598158872212209 0 -0.23874026913951499 -0.22731659033036269 0 -0.24310361909074019 -0.21384686187916069 0 -0.23874026913951499 -0.22731659033036269 0 -0.25556906837979199 -0.22056139696120849 0 -0.23874026913951499 -0.22731659033036269 0 -0.23603337893394161 -0.23453327058558721 0 -0.25556906837979199 -0.22056139696120849 0 -0.23603337893394161 -0.23453327058558721 0 -0.24723816798344209 -0.23566628734214351 0 -0.25556906837979199 -0.22056139696120849 0 -0.23603337893394161 -0.23453327058558721 0 -0.25556906837979199 -0.22056139696120849 0 -0.23603337893394161 -0.23453327058558721 0 -0.24723816798344209 -0.23566628734214351 0 -0.24295490279806459 -0.24609637562437539 0 -0.24723816798344209 -0.23566628734214351 0 -0.24295490279806459 -0.24609637562437539 0 -0.25544097330045951 -0.2410257805755778 0 -0.21649768948809109 -0.24850514420996581 0 -0.23603337893394161 -0.23453327058558721 0 -0.24295490279806459 -0.24609637562437539 0 -0.21649768948809109 -0.24850514420996581 0 -0.21959652078390229 -0.23219448984558069 0 -0.23603337893394161 -0.23453327058558721 0 -0.21649768948809109 -0.24850514420996581 0 -0.23603337893394161 -0.23453327058558721 0 -0.20523566479385491 -0.1516374348420472 0 -0.20583962411069701 -0.13342541011952391 0 -0.22714939794778699 -0.13533891249085861 0 -0.22714939794778699 -0.13533891249085861 0 -0.20894435182398591 -0.11698101106774771 0 -0.20583962411069701 -0.13342541011952391 0 -0.22714939794778699 -0.13533891249085861 0 -0.20894435182398591 -0.11698101106774771 0 -0.20583962411069701 -0.13342541011952391 0 -0.18914739833241359 -0.13477193999948331 0 -0.18827930417446129 -0.1166242441655702 0 -0.20523566479385491 -0.1516374348420472 0 -0.20583962411069701 -0.13342541011952391 0 -0.18914739833241359 -0.13477193999948331 0 -0.18202989993486601 -0.1538214017209647 0 -0.20523566479385491 -0.1516374348420472 0 -0.18914739833241359 -0.13477193999948331 0 -0.18641537174421391 -0.17041967364783461 0 -0.18202989993486601 -0.1538214017209647 0 -0.19472638848862961 -0.1643495425668694 0 -0.18202989993486601 -0.1538214017209647 0 -0.20523566479385491 -0.1516374348420472 0 -0.19472638848862961 -0.1643495425668694 0 -0.19472638848862961 -0.1643495425668694 0 -0.19560355199739249 -0.1794748828707646 0 -0.2108757340086434 -0.17055682293952229 0 -0.18641537174421391 -0.17041967364783461 0 -0.19472638848862961 -0.1643495425668694 0 -0.19560355199739249 -0.1794748828707646 0 -0.18480461676286269 -0.18158167763812849 0 -0.19092104003756441 -0.19111193330327739 0 -0.19560355199739249 -0.1794748828707646 0 -0.18480461676286269 -0.18158167763812849 0 -0.18641537174421391 -0.17041967364783461 0 -0.19560355199739249 -0.1794748828707646 0 -0.209347347095619 -0.19306536608852429 0 -0.19560355199739249 -0.1794748828707646 0 -0.2108757340086434 -0.17055682293952229 0 -0.20523566479385491 -0.1516374348420472 0 -0.2108757340086434 -0.17055682293952229 0 -0.225072973891212 -0.15699347708702319 0 -0.20523566479385491 -0.1516374348420472 0 -0.19472638848862961 -0.1643495425668694 0 -0.2108757340086434 -0.17055682293952229 0 -0.2108757340086434 -0.17055682293952229 0 -0.225072973891212 -0.15699347708702319 0 -0.23706675124755139 -0.17647760169858809 0 -0.209347347095619 -0.19306536608852429 0 -0.2108757340086434 -0.17055682293952229 0 -0.23706675124755139 -0.17647760169858809 0 -0.225072973891212 -0.15699347708702319 0 -0.23706675124755139 -0.17647760169858809 0 -0.2453544440715881 -0.1536968139139695 0 -0.23706675124755139 -0.17647760169858809 0 -0.2453544440715881 -0.1536968139139695 0 -0.26355949019538932 -0.1720547153370805 0 -0.2453544440715881 -0.1536968139139695 0 -0.22714939794778699 -0.13533891249085861 0 -0.24532577742890421 -0.1355195593753423 0 -0.2453544440715881 -0.1536968139139695 0 -0.22714939794778699 -0.13533891249085861 0 -0.20523566479385491 -0.1516374348420472 0 -0.225072973891212 -0.15699347708702319 0 -0.22714939794778699 -0.13533891249085861 0 -0.225072973891212 -0.15699347708702319 0 -0.2453544440715881 -0.1536968139139695 0 -0.22714939794778699 -0.13533891249085861 0 -0.22714939794778699 -0.13533891249085861 0 -0.24532577742890421 -0.1355195593753423 0 -0.23266406962496211 -0.11082318804042129 0 -0.24532577742890421 -0.1355195593753423 0 -0.23266406962496211 -0.11082318804042129 0 -0.25348625434191002 -0.1198986045966407 0 -0.23266406962496211 -0.11082318804042129 0 -0.25348625434191002 -0.1198986045966407 0 -0.25341679293696973 -0.1031678188344637 0 -0.23266406962496211 -0.11082318804042129 0 -0.24252509632100899 -0.090682867292582875 0 -0.25341679293696973 -0.1031678188344637 0 -0.23266406962496211 -0.11082318804042129 0 -0.24252509632100899 -0.090682867292582875 0 -0.22442181942811409 -0.089333021532075313 0 -0.23266406962496211 -0.11082318804042129 0 -0.22442181942811409 -0.089333021532075313 0 -0.2138089213788405 -0.097905190490710003 0 -0.22714939794778699 -0.13533891249085861 0 -0.23266406962496211 -0.11082318804042129 0 -0.20894435182398591 -0.11698101106774771 0 -0.238837638259708 -0.06473795582425125 0 -0.24252509632100899 -0.090682867292582875 0 -0.22932270347709979 -0.078244299637111367 0 -0.238837638259708 -0.06473795582425125 0 -0.24252509632100899 -0.090682867292582875 0 -0.238837638259708 -0.06473795582425125 0 -0.24981163660231859 -0.073509596811936237 0 -0.24252509632100899 -0.090682867292582875 0 -0.24252509632100899 -0.090682867292582875 0 -0.22442181942811409 -0.089333021532075313 0 -0.22932270347709979 -0.078244299637111367 0 -0.22442181942811409 -0.089333021532075313 0 -0.22932270347709979 -0.078244299637111367 0 -0.21892345257349269 -0.076229172503671561 0 -0.238837638259708 -0.06473795582425125 0 -0.22932270347709979 -0.078244299637111367 0 -0.22437144447790869 -0.067966710623714066 0 -0.22932270347709979 -0.078244299637111367 0 -0.21892345257349269 -0.076229172503671561 0 -0.22437144447790869 -0.067966710623714066 0 -0.21892345257349269 -0.076229172503671561 0 -0.22437144447790869 -0.067966710623714066 0 -0.21424859280560751 -0.064038537530720349 0 -0.238837638259708 -0.06473795582425125 0 -0.22437144447790869 -0.067966710623714066 0 -0.2276781170511927 -0.058965708070329137 0 -0.20899583328681001 -0.073267191209518939 0 -0.19694867679097111 -0.06890609842081373 0 -0.20394887276132731 -0.06033493640287408 0 -0.21424859280560751 -0.064038537530720349 0 -0.20899583328681001 -0.073267191209518939 0 -0.20394887276132731 -0.06033493640287408 0 -0.21892345257349269 -0.076229172503671561 0 -0.21424859280560751 -0.064038537530720349 0 -0.20899583328681001 -0.073267191209518939 0 -0.21892345257349269 -0.076229172503671561 0 -0.20899583328681001 -0.073267191209518939 0 -0.21235388148644169 -0.084365380738237544 0 -0.20899583328681001 -0.073267191209518939 0 -0.21235388148644169 -0.084365380738237544 0 -0.201029868519947 -0.079949601226720429 0 -0.21235388148644169 -0.084365380738237544 0 -0.20432815488037731 -0.089664229501679474 0 -0.201029868519947 -0.079949601226720429 0 -0.22442181942811409 -0.089333021532075313 0 -0.21892345257349269 -0.076229172503671561 0 -0.21235388148644169 -0.084365380738237544 0 -0.22442181942811409 -0.089333021532075313 0 -0.21235388148644169 -0.084365380738237544 0 -0.2138089213788405 -0.097905190490710003 0 -0.21235388148644169 -0.084365380738237544 0 -0.20432815488037731 -0.089664229501679474 0 -0.2138089213788405 -0.097905190490710003 0 -0.20432815488037731 -0.089664229501679474 0 -0.19295502978724821 -0.086896248499350848 0 -0.20215515271412729 -0.098013957840824978 0 -0.19295502978724821 -0.086896248499350848 0 -0.201029868519947 -0.079949601226720429 0 -0.18962070259133659 -0.076258574535187071 0 -0.20432815488037731 -0.089664229501679474 0 -0.19295502978724821 -0.086896248499350848 0 -0.201029868519947 -0.079949601226720429 0 -0.201029868519947 -0.079949601226720429 0 -0.18962070259133659 -0.076258574535187071 0 -0.19694867679097111 -0.06890609842081373 0 -0.20899583328681001 -0.073267191209518939 0 -0.201029868519947 -0.079949601226720429 0 -0.19694867679097111 -0.06890609842081373 0 -0.18962070259133659 -0.076258574535187071 0 -0.19694867679097111 -0.06890609842081373 0 -0.1814642425545781 -0.061830360647210592 0 -0.19694867679097111 -0.06890609842081373 0 -0.1814642425545781 -0.061830360647210592 0 -0.19194926421319619 -0.057444787992509252 0 -0.20894435182398591 -0.11698101106774771 0 -0.2138089213788405 -0.097905190490710003 0 -0.20215515271412729 -0.098013957840824978 0 -0.23266406962496211 -0.11082318804042129 0 -0.20894435182398591 -0.11698101106774771 0 -0.2138089213788405 -0.097905190490710003 0 -0.20432815488037731 -0.089664229501679474 0 -0.2138089213788405 -0.097905190490710003 0 -0.20215515271412729 -0.098013957840824978 0 -0.20894435182398591 -0.11698101106774771 0 -0.20215515271412729 -0.098013957840824978 0 -0.1907393057001848 -0.09862310964463683 0 -0.1907393057001848 -0.09862310964463683 0 -0.18827930417446129 -0.1166242441655702 0 -0.18376018796692639 -0.095112817038582376 0 -0.20894435182398591 -0.11698101106774771 0 -0.1907393057001848 -0.09862310964463683 0 -0.19295502978724821 -0.086896248499350848 0 -0.20215515271412729 -0.098013957840824978 0 -0.1907393057001848 -0.09862310964463683 0 -0.20894435182398591 -0.11698101106774771 0 -0.1907393057001848 -0.09862310964463683 0 -0.18827930417446129 -0.1166242441655702 0 -0.20583962411069701 -0.13342541011952391 0 -0.20894435182398591 -0.11698101106774771 0 -0.18827930417446129 -0.1166242441655702 0 -0.18827930417446129 -0.1166242441655702 0 -0.17011126885332201 -0.11674649029899579 0 -0.18376018796692639 -0.095112817038582376 0 -0.18914739833241359 -0.13477193999948331 0 -0.18827930417446129 -0.1166242441655702 0 -0.17011126885332201 -0.11674649029899579 0 -0.17011126885332201 -0.11674649029899579 0 -0.16319524863884771 -0.097437505894585275 0 -0.14799778996401611 -0.11441230934164411 0 -0.15646234973971759 -0.13838016355940941 0 -0.17011126885332201 -0.11674649029899579 0 -0.14799778996401611 -0.11441230934164411 0 -0.17011126885332201 -0.11674649029899579 0 -0.16319524863884771 -0.097437505894585275 0 -0.18376018796692639 -0.095112817038582376 0 -0.17011126885332201 -0.11674649029899579 0 -0.18376018796692639 -0.095112817038582376 0 -0.19295502978724821 -0.086896248499350848 0 -0.1907393057001848 -0.09862310964463683 0 -0.17253425957638369 -0.080265208221525941 0 -0.1907393057001848 -0.09862310964463683 0 -0.18376018796692639 -0.095112817038582376 0 -0.17253425957638369 -0.080265208221525941 0 -0.1907393057001848 -0.09862310964463683 0 -0.17253425957638369 -0.080265208221525941 0 -0.16319524863884771 -0.097437505894585275 0 -0.18376018796692639 -0.095112817038582376 0 -0.17253425957638369 -0.080265208221525941 0 -0.19295502978724821 -0.086896248499350848 0 -0.18962070259133659 -0.076258574535187071 0 -0.17253425957638369 -0.080265208221525941 0 -0.18962070259133659 -0.076258574535187071 0 -0.17253425957638369 -0.080265208221525941 0 -0.1814642425545781 -0.061830360647210592 0 -0.17253425957638369 -0.080265208221525941 0 -0.16631381483612029 -0.059855831833788092 0 -0.1814642425545781 -0.061830360647210592 0 -0.17253425957638369 -0.080265208221525941 0 -0.15822082266500609 -0.084405235605453557 0 -0.1525366289792765 -0.069290851421351107 0 -0.17253425957638369 -0.080265208221525941 0 -0.1525366289792765 -0.069290851421351107 0 -0.16631381483612029 -0.059855831833788092 0 -0.16319524863884771 -0.097437505894585275 0 -0.17253425957638369 -0.080265208221525941 0 -0.15822082266500609 -0.084405235605453557 0 -0.15822082266500609 -0.084405235605453557 0 -0.14461715346551671 -0.090627376884351935 0 -0.1525366289792765 -0.069290851421351107 0 -0.16319524863884771 -0.097437505894585275 0 -0.15822082266500609 -0.084405235605453557 0 -0.14461715346551671 -0.090627376884351935 0 -0.14461715346551671 -0.090627376884351935 0 -0.1525366289792765 -0.069290851421351107 0 -0.1286665627980676 -0.0696011763657267 0 -0.1525366289792765 -0.069290851421351107 0 -0.1286665627980676 -0.0696011763657267 0 -0.13979013043018909 -0.053312443195787047 0 -0.14461715346551671 -0.090627376884351935 0 -0.1286665627980676 -0.0696011763657267 0 -0.1259519491418635 -0.087784010130696394 0 -0.1226369458670467 -0.1058670221672716 0 -0.14461715346551671 -0.090627376884351935 0 -0.1259519491418635 -0.087784010130696394 0 -0.1226369458670467 -0.1058670221672716 0 -0.14461715346551671 -0.090627376884351935 0 -0.14799778996401611 -0.11441230934164411 0 -0.1226369458670467 -0.1058670221672716 0 -0.1314488688137643 -0.1362196443282766 0 -0.14799778996401611 -0.11441230934164411 0 -0.16319524863884771 -0.097437505894585275 0 -0.14461715346551671 -0.090627376884351935 0 -0.14799778996401611 -0.11441230934164411 0 -0.14569711047196751 -0.018317567964162399 0 -0.14309675464670021 -0.035699130611057048 0 -0.1619345756806792 -0.030232919919342051 0 -0.14569711047196751 -0.018317567964162399 0 -0.15061622288098611 -0.001678139385174976 0 -0.1660048469895502 -0.014675482469855431 0 -0.1242992269838297 -0.0053247601474538716 0 -0.15061622288098611 -0.001678139385174976 0 -0.1242992269838297 -0.0053247601474538716 0 -0.14569711047196751 -0.018317567964162399 0 -0.15061622288098611 -0.001678139385174976 0 -0.14569711047196751 -0.018317567964162399 0 -0.12636284755821889 -0.02392892502945132 0 -0.14309675464670021 -0.035699130611057048 0 -0.1242992269838297 -0.0053247601474538716 0 -0.14569711047196751 -0.018317567964162399 0 -0.12636284755821889 -0.02392892502945132 0 -0.12636284755821889 -0.02392892502945132 0 -0.1274641216212257 -0.041567935705182982 0 -0.14309675464670021 -0.035699130611057048 0 -0.1274641216212257 -0.041567935705182982 0 -0.13979013043018909 -0.053312443195787047 0 -0.14309675464670021 -0.035699130611057048 0 -0.1286665627980676 -0.0696011763657267 0 -0.12505841558431399 -0.055217977963911022 0 -0.13979013043018909 -0.053312443195787047 0 -0.1274641216212257 -0.041567935705182982 0 -0.12505841558431399 -0.055217977963911022 0 -0.13979013043018909 -0.053312443195787047 0 -0.1525366289792765 -0.069290851421351107 0 -0.13979013043018909 -0.053312443195787047 0 -0.15733174211792059 -0.046834991852416533 0 -0.14309675464670021 -0.035699130611057048 0 -0.15733174211792059 -0.046834991852416533 0 -0.1619345756806792 -0.030232919919342051 0 -0.13979013043018909 -0.053312443195787047 0 -0.14309675464670021 -0.035699130611057048 0 -0.15733174211792059 -0.046834991852416533 0 -0.15733174211792059 -0.046834991852416533 0 -0.17786738868274629 -0.045795157178417159 0 -0.1619345756806792 -0.030232919919342051 0 -0.15733174211792059 -0.046834991852416533 0 -0.16631381483612029 -0.059855831833788092 0 -0.17786738868274629 -0.045795157178417159 0 -0.1525366289792765 -0.069290851421351107 0 -0.15733174211792059 -0.046834991852416533 0 -0.16631381483612029 -0.059855831833788092 0 -0.1814642425545781 -0.061830360647210592 0 -0.17786738868274629 -0.045795157178417159 0 -0.19194926421319619 -0.057444787992509252 0 -0.16631381483612029 -0.059855831833788092 0 -0.1814642425545781 -0.061830360647210592 0 -0.17786738868274629 -0.045795157178417159 0 -0.17786738868274629 -0.045795157178417159 0 -0.1780768446935069 -0.02648994030233456 0 -0.1619345756806792 -0.030232919919342051 0 -0.17786738868274629 -0.045795157178417159 0 -0.1780768446935069 -0.02648994030233456 0 -0.18871266998270561 -0.035382202341233633 0 -0.1780768446935069 -0.02648994030233456 0 -0.19379876824309131 -0.02335826564827324 0 -0.18871266998270561 -0.035382202341233633 0 -0.1780768446935069 -0.02648994030233456 0 -0.1660048469895502 -0.014675482469855431 0 -0.18277110943201921 -0.013302808625222529 0 -0.1780768446935069 -0.02648994030233456 0 -0.18277110943201921 -0.013302808625222529 0 -0.19379876824309131 -0.02335826564827324 0 -0.1780768446935069 -0.02648994030233456 0 -0.1619345756806792 -0.030232919919342051 0 -0.1660048469895502 -0.014675482469855431 0 -0.14569711047196751 -0.018317567964162399 0 -0.1619345756806792 -0.030232919919342051 0 -0.1660048469895502 -0.014675482469855431 0 -0.15061622288098611 -0.001678139385174976 0 -0.1660048469895502 -0.014675482469855431 0 -0.17693321877814261 0.0019684813771039221 0 -0.1660048469895502 -0.014675482469855431 0 -0.18277110943201921 -0.013302808625222529 0 -0.17693321877814261 0.0019684813771039221 0 -0.18277110943201921 -0.013302808625222529 0 -0.1962508196272241 -0.006377239940657177 0 -0.17693321877814261 0.0019684813771039221 0 -0.18277110943201921 -0.013302808625222529 0 -0.1962508196272241 -0.006377239940657177 0 -0.19379876824309131 -0.02335826564827324 0 -0.1962508196272241 -0.006377239940657177 0 -0.2085153298746486 -0.004304286883201898 0 -0.20325021467529919 0.0056151021393816107 0 -0.1962508196272241 -0.006377239940657177 0 -0.20325021467529919 0.0056151021393816107 0 -0.1962508196272241 -0.006377239940657177 0 -0.19379876824309131 -0.02335826564827324 0 -0.20595448307267511 -0.01817414662190011 0 -0.19379876824309131 -0.02335826564827324 0 -0.18871266998270561 -0.035382202341233633 0 -0.20256292378612351 -0.032627594747690662 0 -0.19379876824309131 -0.02335826564827324 0 -0.20595448307267511 -0.01817414662190011 0 -0.20256292378612351 -0.032627594747690662 0 -0.20595448307267511 -0.01817414662190011 0 -0.21158009104502329 -0.028016349640127291 0 -0.20256292378612351 -0.032627594747690662 0 -0.21158009104502329 -0.028016349640127291 0 -0.21634996294218381 -0.021485503886282179 0 -0.2195982302903163 -0.03129226372962722 0 -0.20595448307267511 -0.01817414662190011 0 -0.21634996294218381 -0.021485503886282179 0 -0.21495497969866881 -0.012095522117372991 0 -0.21634996294218381 -0.021485503886282179 0 -0.21495497969866881 -0.012095522117372991 0 -0.2230687205463617 -0.017128033986290529 0 -0.20595448307267511 -0.01817414662190011 0 -0.21158009104502329 -0.028016349640127291 0 -0.21634996294218381 -0.021485503886282179 0 -0.21495497969866881 -0.012095522117372991 0 -0.2180049782313338 -0.0021568108708838189 0 -0.22290842167670949 -0.0089671747498560883 0 -0.21495497969866881 -0.012095522117372991 0 -0.2180049782313338 -0.0021568108708838189 0 -0.2085153298746486 -0.004304286883201898 0 -0.1962508196272241 -0.006377239940657177 0 -0.20595448307267511 -0.01817414662190011 0 -0.2085153298746486 -0.004304286883201898 0 -0.20595448307267511 -0.01817414662190011 0 -0.21495497969866881 -0.012095522117372991 0 -0.2085153298746486 -0.004304286883201898 0 -0.17786738868274629 -0.045795157178417159 0 -0.19194926421319619 -0.057444787992509252 0 -0.1976098455636138 -0.046297469883674287 0 -0.19694867679097111 -0.06890609842081373 0 -0.19194926421319619 -0.057444787992509252 0 -0.20394887276132731 -0.06033493640287408 0 -0.19194926421319619 -0.057444787992509252 0 -0.1976098455636138 -0.046297469883674287 0 -0.20394887276132731 -0.06033493640287408 0 -0.17786738868274629 -0.045795157178417159 0 -0.1976098455636138 -0.046297469883674287 0 -0.18871266998270561 -0.035382202341233633 0 -0.1976098455636138 -0.046297469883674287 0 -0.20256292378612351 -0.032627594747690662 0 -0.2081445307662565 -0.042503581439920182 0 -0.1976098455636138 -0.046297469883674287 0 -0.18871266998270561 -0.035382202341233633 0 -0.20256292378612351 -0.032627594747690662 0 -0.20256292378612351 -0.032627594747690662 0 -0.21427343074836139 -0.036277383883823691 0 -0.2081445307662565 -0.042503581439920182 0 -0.21158009104502329 -0.028016349640127291 0 -0.20256292378612351 -0.032627594747690662 0 -0.21427343074836139 -0.036277383883823691 0 -0.21427343074836139 -0.036277383883823691 0 -0.22133009504987691 -0.03938768838367665 0 -0.2195982302903163 -0.03129226372962722 0 -0.21158009104502329 -0.028016349640127291 0 -0.21427343074836139 -0.036277383883823691 0 -0.2195982302903163 -0.03129226372962722 0 -0.21668653892055389 -0.046335059006259012 0 -0.2081445307662565 -0.042503581439920182 0 -0.20994640299018061 -0.051532766873250667 0 -0.21427343074836139 -0.036277383883823691 0 -0.21668653892055389 -0.046335059006259012 0 -0.2081445307662565 -0.042503581439920182 0 -0.21427343074836139 -0.036277383883823691 0 -0.21668653892055389 -0.046335059006259012 0 -0.22133009504987691 -0.03938768838367665 0 -0.1976098455636138 -0.046297469883674287 0 -0.2081445307662565 -0.042503581439920182 0 -0.20994640299018061 -0.051532766873250667 0 -0.1976098455636138 -0.046297469883674287 0 -0.20994640299018061 -0.051532766873250667 0 -0.20394887276132731 -0.06033493640287408 0 -0.21668653892055389 -0.046335059006259012 0 -0.20994640299018061 -0.051532766873250667 0 -0.2197053968358364 -0.055004034511575879 0 -0.21424859280560751 -0.064038537530720349 0 -0.20994640299018061 -0.051532766873250667 0 -0.2197053968358364 -0.055004034511575879 0 -0.21424859280560751 -0.064038537530720349 0 -0.20994640299018061 -0.051532766873250667 0 -0.20394887276132731 -0.06033493640287408 0 -0.238837638259708 -0.06473795582425125 0 -0.22779798863131759 -0.048154131321775318 0 -0.23515018019840689 -0.038793044355919577 0 -0.238837638259708 -0.06473795582425125 0 -0.2276781170511927 -0.058965708070329137 0 -0.22779798863131759 -0.048154131321775318 0 -0.22437144447790869 -0.067966710623714066 0 -0.21424859280560751 -0.064038537530720349 0 -0.2197053968358364 -0.055004034511575879 0 -0.22437144447790869 -0.067966710623714066 0 -0.2276781170511927 -0.058965708070329137 0 -0.2197053968358364 -0.055004034511575879 0 -0.2276781170511927 -0.058965708070329137 0 -0.2197053968358364 -0.055004034511575879 0 -0.22779798863131759 -0.048154131321775318 0 -0.21668653892055389 -0.046335059006259012 0 -0.2197053968358364 -0.055004034511575879 0 -0.22779798863131759 -0.048154131321775318 0 -0.22779798863131759 -0.048154131321775318 0 -0.2271466028508741 -0.035856849261714278 0 -0.23515018019840689 -0.038793044355919577 0 -0.21668653892055389 -0.046335059006259012 0 -0.22779798863131759 -0.048154131321775318 0 -0.22133009504987691 -0.03938768838367665 0 -0.22779798863131759 -0.048154131321775318 0 -0.22133009504987691 -0.03938768838367665 0 -0.2271466028508741 -0.035856849261714278 0 -0.22133009504987691 -0.03938768838367665 0 -0.2195982302903163 -0.03129226372962722 0 -0.2271466028508741 -0.035856849261714278 0 -0.2195982302903163 -0.03129226372962722 0 -0.2271466028508741 -0.035856849261714278 0 -0.22690919910557869 -0.026729807322139278 0 -0.2271466028508741 -0.035856849261714278 0 -0.23515018019840689 -0.038793044355919577 0 -0.22690919910557869 -0.026729807322139278 0 -0.23515018019840689 -0.038793044355919577 0 -0.24341520327007971 -0.044946458581539422 0 -0.23701876993784091 -0.01638332035114258 0 -0.24341520327007971 -0.044946458581539422 0 -0.24912906457380671 -0.026169302833257479 0 -0.25471936585064903 -0.037941529353284188 0 -0.238837638259708 -0.06473795582425125 0 -0.23515018019840689 -0.038793044355919577 0 -0.24341520327007971 -0.044946458581539422 0 -0.238837638259708 -0.06473795582425125 0 -0.24981163660231859 -0.073509596811936237 0 -0.24341520327007971 -0.044946458581539422 0 -0.238837638259708 -0.06473795582425125 0 -0.23515018019840689 -0.038793044355919577 0 -0.24981163660231859 -0.073509596811936237 0 -0.24341520327007971 -0.044946458581539422 0 -0.23146272213710589 -0.012848132887587949 0 -0.22667777111703549 -0.00029370258196139229 0 -0.2277752640758047 0.01309677858074366 0 -0.23146272213710589 -0.012848132887587949 0 -0.23701876993784091 -0.01638332035114258 0 -0.23062233660560241 0.012179817879254351 0 -0.23701876993784091 -0.01638332035114258 0 -0.23062233660560241 0.012179817879254351 0 -0.23146272213710589 -0.012848132887587949 0 -0.22667777111703549 -0.00029370258196139229 0 -0.22290842167670949 -0.0089671747498560883 0 -0.2180049782313338 -0.0021568108708838189 0 -0.22667777111703549 -0.00029370258196139229 0 -0.22290842167670949 -0.0089671747498560883 0 -0.21495497969866881 -0.012095522117372991 0 -0.22290842167670949 -0.0089671747498560883 0 -0.2230687205463617 -0.017128033986290529 0 -0.23146272213710589 -0.012848132887587949 0 -0.22290842167670949 -0.0089671747498560883 0 -0.2230687205463617 -0.017128033986290529 0 -0.23515018019840689 -0.038793044355919577 0 -0.23146272213710589 -0.012848132887587949 0 -0.21634996294218381 -0.021485503886282179 0 -0.2230687205463617 -0.017128033986290529 0 -0.22690919910557869 -0.026729807322139278 0 -0.23515018019840689 -0.038793044355919577 0 -0.23146272213710589 -0.012848132887587949 0 -0.22690919910557869 -0.026729807322139278 0 -0.21634996294218381 -0.021485503886282179 0 -0.2195982302903163 -0.03129226372962722 0 -0.22690919910557869 -0.026729807322139278 0 -0.23146272213710589 -0.012848132887587949 0 -0.2230687205463617 -0.017128033986290529 0 -0.22690919910557869 -0.026729807322139278 0 -0.23515018019840689 -0.038793044355919577 0 -0.23146272213710589 -0.012848132887587949 0 -0.23701876993784091 -0.01638332035114258 0 -0.24341520327007971 -0.044946458581539422 0 -0.23701876993784091 -0.01638332035114258 0 -0.24912906457380671 -0.026169302833257479 0 -0.24341520327007971 -0.044946458581539422 0 -0.23701876993784091 -0.01638332035114258 0 -0.23701876993784091 -0.01638332035114258 0 -0.24912906457380671 -0.026169302833257479 0 -0.2458672373183339 -0.017310321510699649 0 -0.24912906457380671 -0.026169302833257479 0 -0.2458672373183339 -0.017310321510699649 0 -0.25308799947352212 -0.0121126970502683 0 -0.24198795673268869 -0.002713611435314994 0 -0.25308799947352212 -0.0121126970502683 0 -0.25465169794768239 0.0044406472743774329 0 -0.23701876993784091 -0.01638332035114258 0 -0.24198795673268869 -0.002713611435314994 0 -0.23062233660560241 0.012179817879254351 0 -0.2444904908655964 -0.01212998758685638 0 -0.24198795673268869 -0.002713611435314994 0 -0.25308799947352212 -0.0121126970502683 0 -0.2458672373183339 -0.017310321510699649 0 -0.2444904908655964 -0.01212998758685638 0 -0.25308799947352212 -0.0121126970502683 0 -0.23701876993784091 -0.01638332035114258 0 -0.2458672373183339 -0.017310321510699649 0 -0.2444904908655964 -0.01212998758685638 0 -0.23701876993784091 -0.01638332035114258 0 -0.2444904908655964 -0.01212998758685638 0 -0.24198795673268869 -0.002713611435314994 0 -0.25308799947352212 -0.0121126970502683 0 -0.27868105928976239 -0.0032985233304997528 0 -0.25465169794768239 0.0044406472743774329 0 -0.25308799947352212 -0.0121126970502683 0 -0.26495675104947047 -0.029721774345192891 0 -0.27571043787832211 -0.019709607133528349 0 -0.24912906457380671 -0.026169302833257479 0 -0.25308799947352212 -0.0121126970502683 0 -0.26495675104947047 -0.029721774345192891 0 -0.26495675104947047 -0.029721774345192891 0 -0.27571043787832211 -0.019709607133528349 0 -0.28416624157786818 -0.031907650411738653 0 -0.25308799947352212 -0.0121126970502683 0 -0.27571043787832211 -0.019709607133528349 0 -0.27868105928976239 -0.0032985233304997528 0 -0.27571043787832211 -0.019709607133528349 0 -0.27868105928976239 -0.0032985233304997528 0 -0.29320165352773409 -0.02380565455427848 0 -0.27868105928976239 -0.0032985233304997528 0 -0.30271042063184261 -0.01103769393537698 0 -0.27868105928976239 -0.0032985233304997528 0 -0.30271042063184261 -0.01103769393537698 0 -0.30705329739300669 0.0029514169300618948 0 -0.27868105928976239 -0.0032985233304997528 0 -0.29320165352773409 -0.02380565455427848 0 -0.30271042063184261 -0.01103769393537698 0 -0.27571043787832211 -0.019709607133528349 0 -0.29320165352773409 -0.02380565455427848 0 -0.28416624157786818 -0.031907650411738653 0 -0.30271042063184261 -0.01103769393537698 0 -0.3063471982732105 -0.033943972892489793 0 -0.31901161954841428 -0.031009580893475251 0 -0.29320165352773409 -0.02380565455427848 0 -0.30271042063184261 -0.01103769393537698 0 -0.3063471982732105 -0.033943972892489793 0 -0.30271042063184261 -0.01103769393537698 0 -0.32631626556482007 -0.0022951976739116341 0 -0.30705329739300669 0.0029514169300618948 0 -0.3043085617631206 -0.048164826066216179 0 -0.29918539976911013 -0.055308418268762552 0 -0.29494774108636679 -0.042794120013829498 0 -0.3043085617631206 -0.048164826066216179 0 -0.29918539976911013 -0.055308418268762552 0 -0.30947473034566192 -0.05461729000886794 0 -0.29918539976911013 -0.055308418268762552 0 -0.30181345476879801 -0.066803507950686611 0 -0.30604486474318021 -0.062861603886958065 0 -0.29918539976911013 -0.055308418268762552 0 -0.29224903144011599 -0.062118572961809469 0 -0.30181345476879801 -0.066803507950686611 0 -0.29918539976911013 -0.055308418268762552 0 -0.30947473034566192 -0.05461729000886794 0 -0.30604486474318021 -0.062861603886958065 0 -0.3043085617631206 -0.048164826066216179 0 -0.30947473034566192 -0.05461729000886794 0 -0.31567805304525609 -0.050994592576164323 0 -0.3043085617631206 -0.048164826066216179 0 -0.3063471982732105 -0.033943972892489793 0 -0.31567805304525609 -0.050994592576164323 0 -0.29320165352773409 -0.02380565455427848 0 -0.3063471982732105 -0.033943972892489793 0 -0.29494774108636679 -0.042794120013829498 0 -0.3063471982732105 -0.033943972892489793 0 -0.31567805304525609 -0.050994592576164323 0 -0.3043085617631206 -0.048164826066216179 0 -0.3063471982732105 -0.033943972892489793 0 -0.29494774108636679 -0.042794120013829498 0 -0.29320165352773409 -0.02380565455427848 0 -0.29494774108636679 -0.042794120013829498 0 -0.28416624157786818 -0.031907650411738653 0 -0.29494774108636679 -0.042794120013829498 0 -0.28358371110826469 -0.044324352985905521 0 -0.28839125731842258 -0.052844753970233832 0 -0.29494774108636679 -0.042794120013829498 0 -0.28416624157786818 -0.031907650411738653 0 -0.28358371110826469 -0.044324352985905521 0 -0.28358371110826469 -0.044324352985905521 0 -0.28839125731842258 -0.052844753970233832 0 -0.27689518438286648 -0.05249380615640787 0 -0.29918539976911013 -0.055308418268762552 0 -0.29494774108636679 -0.042794120013829498 0 -0.28839125731842258 -0.052844753970233832 0 -0.29918539976911013 -0.055308418268762552 0 -0.28839125731842258 -0.052844753970233832 0 -0.29224903144011599 -0.062118572961809469 0 -0.28839125731842258 -0.052844753970233832 0 -0.29224903144011599 -0.062118572961809469 0 -0.2810624642222615 -0.061829657613470618 0 -0.28839125731842258 -0.052844753970233832 0 -0.2810624642222615 -0.061829657613470618 0 -0.27689518438286648 -0.05249380615640787 0 -0.2810624642222615 -0.061829657613470618 0 -0.27689518438286648 -0.05249380615640787 0 -0.26918698842953981 -0.060942339922839428 0 -0.27689518438286648 -0.05249380615640787 0 -0.26638532909147877 -0.05140775372963341 0 -0.27351813117579937 -0.04158143437731774 0 -0.27689518438286648 -0.05249380615640787 0 -0.26638532909147877 -0.05140775372963341 0 -0.26918698842953981 -0.060942339922839428 0 -0.26495675104947047 -0.029721774345192891 0 -0.28416624157786818 -0.031907650411738653 0 -0.27351813117579937 -0.04158143437731774 0 -0.28358371110826469 -0.044324352985905521 0 -0.27689518438286648 -0.05249380615640787 0 -0.27351813117579937 -0.04158143437731774 0 -0.28416624157786818 -0.031907650411738653 0 -0.28358371110826469 -0.044324352985905521 0 -0.27351813117579937 -0.04158143437731774 0 -0.26638532909147877 -0.05140775372963341 0 -0.27351813117579937 -0.04158143437731774 0 -0.26269755794329752 -0.041433672813810718 0 -0.26495675104947047 -0.029721774345192891 0 -0.27351813117579937 -0.04158143437731774 0 -0.26269755794329752 -0.041433672813810718 0 -0.24912906457380671 -0.026169302833257479 0 -0.26495675104947047 -0.029721774345192891 0 -0.25471936585064903 -0.037941529353284188 0 -0.26495675104947047 -0.029721774345192891 0 -0.26269755794329752 -0.041433672813810718 0 -0.25471936585064903 -0.037941529353284188 0 -0.26638532909147877 -0.05140775372963341 0 -0.26269755794329752 -0.041433672813810718 0 -0.25680078803393608 -0.046880987136768609 0 -0.26269755794329752 -0.041433672813810718 0 -0.25471936585064903 -0.037941529353284188 0 -0.25680078803393608 -0.046880987136768609 0 -0.24341520327007971 -0.044946458581539422 0 -0.25471936585064903 -0.037941529353284188 0 -0.25680078803393608 -0.046880987136768609 0 -0.24981163660231859 -0.073509596811936237 0 -0.24341520327007971 -0.044946458581539422 0 -0.25679003249489668 -0.057897591836364302 0 -0.26638532909147877 -0.05140775372963341 0 -0.26918698842953981 -0.060942339922839428 0 -0.25679003249489668 -0.057897591836364302 0 -0.26638532909147877 -0.05140775372963341 0 -0.25680078803393608 -0.046880987136768609 0 -0.25679003249489668 -0.057897591836364302 0 -0.24341520327007971 -0.044946458581539422 0 -0.25680078803393608 -0.046880987136768609 0 -0.25679003249489668 -0.057897591836364302 0 -0.24981163660231859 -0.073509596811936237 0 -0.26241194592521322 -0.070809007830991852 0 -0.26152018664048959 -0.088147927779076735 0 -0.24981163660231859 -0.073509596811936237 0 -0.25679003249489668 -0.057897591836364302 0 -0.26241194592521322 -0.070809007830991852 0 -0.26918698842953981 -0.060942339922839428 0 -0.25679003249489668 -0.057897591836364302 0 -0.26241194592521322 -0.070809007830991852 0 -0.24981163660231859 -0.073509596811936237 0 -0.24252509632100899 -0.090682867292582875 0 -0.26152018664048959 -0.088147927779076735 0 -0.26152018664048959 -0.088147927779076735 0 -0.28065991119242112 -0.085980283649332606 0 -0.27475088545882143 -0.073547582804742592 0 -0.26152018664048959 -0.088147927779076735 0 -0.28065991119242112 -0.085980283649332606 0 -0.28297952885929228 -0.1005220312371841 0 -0.26241194592521322 -0.070809007830991852 0 -0.26152018664048959 -0.088147927779076735 0 -0.27475088545882143 -0.073547582804742592 0 -0.2810624642222615 -0.061829657613470618 0 -0.27475088545882143 -0.073547582804742592 0 -0.28710921993385929 -0.068522333260444448 0 -0.2810624642222615 -0.061829657613470618 0 -0.26918698842953981 -0.060942339922839428 0 -0.27475088545882143 -0.073547582804742592 0 -0.26918698842953981 -0.060942339922839428 0 -0.26241194592521322 -0.070809007830991852 0 -0.27475088545882143 -0.073547582804742592 0 -0.25348625434191002 -0.1198986045966407 0 -0.26898459341111258 -0.110632137103 0 -0.26583070391883168 -0.14273027233458549 0 -0.25348625434191002 -0.1198986045966407 0 -0.25341679293696973 -0.1031678188344637 0 -0.26898459341111258 -0.110632137103 0 -0.24252509632100899 -0.090682867292582875 0 -0.26152018664048959 -0.088147927779076735 0 -0.25341679293696973 -0.1031678188344637 0 -0.26152018664048959 -0.088147927779076735 0 -0.25341679293696973 -0.1031678188344637 0 -0.26898459341111258 -0.110632137103 0 -0.26152018664048959 -0.088147927779076735 0 -0.26898459341111258 -0.110632137103 0 -0.28297952885929228 -0.1005220312371841 0 -0.26898459341111258 -0.110632137103 0 -0.28297952885929228 -0.1005220312371841 0 -0.28466357087597971 -0.12742326967883699 0 -0.28297952885929228 -0.1005220312371841 0 -0.28466357087597971 -0.12742326967883699 0 -0.29629992599414878 -0.1193465629629096 0 -0.28297952885929228 -0.1005220312371841 0 -0.28466357087597971 -0.12742326967883699 0 -0.28297952885929228 -0.1005220312371841 0 -0.30321064601681857 -0.10565770794768441 0 -0.29457478435274292 -0.089692127399665533 0 -0.29629992599414878 -0.1193465629629096 0 -0.28297952885929228 -0.1005220312371841 0 -0.30321064601681857 -0.10565770794768441 0 -0.30321064601681857 -0.10565770794768441 0 -0.30664944418802131 -0.08889553563890891 0 -0.31842225312353228 -0.097122202933860396 0 -0.30321064601681857 -0.10565770794768441 0 -0.29457478435274292 -0.089692127399665533 0 -0.30664944418802131 -0.08889553563890891 0 -0.30321064601681857 -0.10565770794768441 0 -0.30908667857538857 -0.1211923840432011 0 -0.31285259145766681 -0.1213349827201962 0 -0.30321064601681857 -0.10565770794768441 0 -0.31285259145766681 -0.1213349827201962 0 -0.31594113333466251 -0.1079082812767518 0 -0.29629992599414878 -0.1193465629629096 0 -0.30321064601681857 -0.10565770794768441 0 -0.30908667857538857 -0.1211923840432011 0 -0.30908667857538857 -0.1211923840432011 0 -0.30432540446311929 -0.1236888179439139 0 -0.31285259145766681 -0.1213349827201962 0 -0.30908667857538857 -0.1211923840432011 0 -0.31285259145766681 -0.1213349827201962 0 -0.29629992599414878 -0.1193465629629096 0 -0.30908667857538857 -0.1211923840432011 0 -0.30432540446311929 -0.1236888179439139 0 -0.2894741706507592 -0.077991749025994123 0 -0.29543101687824308 -0.070740775529245153 0 -0.30333366335786272 -0.077288440593818841 0 -0.2894741706507592 -0.077991749025994123 0 -0.29543101687824308 -0.070740775529245153 0 -0.28710921993385929 -0.068522333260444448 0 -0.29224903144011599 -0.062118572961809469 0 -0.29543101687824308 -0.070740775529245153 0 -0.28710921993385929 -0.068522333260444448 0 -0.29224903144011599 -0.062118572961809469 0 -0.29543101687824308 -0.070740775529245153 0 -0.30181345476879801 -0.066803507950686611 0 -0.29224903144011599 -0.062118572961809469 0 -0.2810624642222615 -0.061829657613470618 0 -0.28710921993385929 -0.068522333260444448 0 -0.27475088545882143 -0.073547582804742592 0 -0.2894741706507592 -0.077991749025994123 0 -0.28710921993385929 -0.068522333260444448 0 -0.28065991119242112 -0.085980283649332606 0 -0.2894741706507592 -0.077991749025994123 0 -0.29457478435274292 -0.089692127399665533 0 -0.28065991119242112 -0.085980283649332606 0 -0.27475088545882143 -0.073547582804742592 0 -0.2894741706507592 -0.077991749025994123 0 -0.28065991119242112 -0.085980283649332606 0 -0.28297952885929228 -0.1005220312371841 0 -0.29457478435274292 -0.089692127399665533 0 -0.2894741706507592 -0.077991749025994123 0 -0.29457478435274292 -0.089692127399665533 0 -0.30333366335786272 -0.077288440593818841 0 -0.29457478435274292 -0.089692127399665533 0 -0.30664944418802131 -0.08889553563890891 0 -0.30333366335786272 -0.077288440593818841 0 -0.30664944418802131 -0.08889553563890891 0 -0.30333366335786272 -0.077288440593818841 0 -0.31370587408915068 -0.074717199319515204 0 -0.30947473034566192 -0.05461729000886794 0 -0.30604486474318021 -0.062861603886958065 0 -0.31370587408915068 -0.074717199319515204 0 -0.30333366335786272 -0.077288440593818841 0 -0.30181345476879801 -0.066803507950686611 0 -0.31370587408915068 -0.074717199319515204 0 -0.30947473034566192 -0.05461729000886794 0 -0.31370587408915068 -0.074717199319515204 0 -0.30333366335786272 -0.077288440593818841 0 -0.31370587408915068 -0.074717199319515204 0 -0.29543101687824308 -0.070740775529245153 0 -0.30333366335786272 -0.077288440593818841 0 -0.30181345476879801 -0.066803507950686611 0 -0.30181345476879801 -0.066803507950686611 0 -0.30604486474318021 -0.062861603886958065 0 -0.31370587408915068 -0.074717199319515204 0 -0.30947473034566192 -0.05461729000886794 0 -0.31790458241416708 -0.068210121155475673 0 -0.31370587408915068 -0.074717199319515204 0 -0.31790458241416708 -0.068210121155475673 0 -0.32504470848186501 -0.068110632152314651 0 -0.31744488221128592 -0.061142496660610723 0 -0.31790458241416708 -0.068210121155475673 0 -0.32504470848186501 -0.068110632152314651 0 -0.32419552944045732 -0.072116843860943136 0 -0.32504470848186501 -0.068110632152314651 0 -0.32419552944045732 -0.072116843860943136 0 -0.32504470848186501 -0.068110632152314651 0 -0.32687375606571062 -0.071452919166467177 0 -0.32504470848186501 -0.068110632152314651 0 -0.32687375606571062 -0.071452919166467177 0 -0.32419552944045732 -0.072116843860943136 0 -0.32687375606571062 -0.071452919166467177 0 -0.32419552944045732 -0.072116843860943136 0 -0.31790458241416708 -0.068210121155475673 0 -0.32419552944045732 -0.072116843860943136 0 -0.31370587408915068 -0.074717199319515204 0 -0.32419552944045732 -0.072116843860943136 0 -0.31370587408915068 -0.074717199319515204 0 -0.32419552944045732 -0.072116843860943136 0 -0.31890644623671582 -0.099422346406610462 0 -0.31842225312353228 -0.097122202933860396 0 -0.30664944418802131 -0.08889553563890891 0 -0.31370587408915068 -0.074717199319515204 0 -0.31842225312353228 -0.097122202933860396 0 -0.32419552944045732 -0.072116843860943136 0 -0.31370587408915068 -0.074717199319515204 0 -0.31842225312353228 -0.097122202933860396 0 -0.32419552944045732 -0.072116843860943136 0 -0.31842225312353228 -0.097122202933860396 0 -0.31370587408915068 -0.074717199319515204 0 -0.31842225312353228 -0.097122202933860396 0 -0.32419552944045732 -0.072116843860943136 0 -0.31890644623671582 -0.099422346406610462 0 -0.32419552944045732 -0.072116843860943136 0 -0.3371033441195202 -0.090145827767794673 0 -0.31890644623671582 -0.099422346406610462 0 -0.32687375606571062 -0.071452919166467177 0 -0.3371033441195202 -0.090145827767794673 0 -0.32687375606571062 -0.071452919166467177 0 -0.3371033441195202 -0.090145827767794673 0 -0.34300580143005083 -0.076081804262373806 0 -0.32687375606571062 -0.071452919166467177 0 -0.32419552944045732 -0.072116843860943136 0 -0.3371033441195202 -0.090145827767794673 0 -0.32687375606571062 -0.071452919166467177 0 -0.34300580143005083 -0.076081804262373806 0 -0.35335835181337671 -0.064887463885626731 0 -0.33542171474987792 -0.064862390240221821 0 -0.35335835181337671 -0.064887463885626731 0 -0.3402891570118054 -0.06050917475802986 0 -0.32687375606571062 -0.071452919166467177 0 -0.33542171474987792 -0.064862390240221821 0 -0.35335835181337671 -0.064887463885626731 0 -0.32687375606571062 -0.071452919166467177 0 -0.35335835181337671 -0.064887463885626731 0 -0.32504470848186501 -0.068110632152314651 0 -0.32687375606571062 -0.071452919166467177 0 -0.33542171474987792 -0.064862390240221821 0 -0.32504470848186501 -0.068110632152314651 0 -0.33542171474987792 -0.064862390240221821 0 -0.33269025050232087 -0.059752179363143018 0 -0.32360488495206802 -0.1217421251249437 0 -0.31890644623671582 -0.099422346406610462 0 -0.32360488495206802 -0.1217421251249437 0 -0.31663491887584611 -0.1111018986297293 0 -0.31890644623671582 -0.099422346406610462 0 -0.32360488495206802 -0.1217421251249437 0 -0.31890644623671582 -0.099422346406610462 0 -0.33310697135318917 -0.1084550443453004 0 -0.32360488495206802 -0.1217421251249437 0 -0.3182901302089266 -0.12154087856969489 0 -0.3182901302089266 -0.12154087856969489 0 -0.31463161014709989 -0.12140234638988071 0 -0.31663491887584611 -0.1111018986297293 0 -0.32360488495206802 -0.1217421251249437 0 -0.3182901302089266 -0.12154087856969489 0 -0.31663491887584611 -0.1111018986297293 0 -0.31463161014709989 -0.12140234638988071 0 -0.31285259145766681 -0.1213349827201962 0 -0.31663491887584611 -0.1111018986297293 0 -0.3182901302089266 -0.12154087856969489 0 -0.31463161014709989 -0.12140234638988071 0 -0.3182901302089266 -0.12154087856969489 0 -0.31463161014709989 -0.12140234638988071 0 -0.31624162956489632 -0.1272615753788994 0 -0.31463161014709989 -0.12140234638988071 0 -0.31285259145766681 -0.1213349827201962 0 -0.31463161014709989 -0.12140234638988071 0 -0.31663491887584611 -0.1111018986297293 0 -0.31285259145766681 -0.1213349827201962 0 -0.31663491887584611 -0.1111018986297293 0 -0.31594113333466251 -0.1079082812767518 0 -0.31285259145766681 -0.1213349827201962 0 -0.31594113333466251 -0.1079082812767518 0 -0.3182901302089266 -0.12154087856969489 0 -0.31663491887584611 -0.1111018986297293 0 -0.31663491887584611 -0.1111018986297293 0 -0.31594113333466251 -0.1079082812767518 0 -0.31594113333466251 -0.1079082812767518 0 -0.31842225312353228 -0.097122202933860396 0 -0.31663491887584611 -0.1111018986297293 0 -0.31594113333466251 -0.1079082812767518 0 -0.31890644623671582 -0.099422346406610462 0 -0.30321064601681857 -0.10565770794768441 0 -0.31594113333466251 -0.1079082812767518 0 -0.31842225312353228 -0.097122202933860396 0 -0.31663491887584611 -0.1111018986297293 0 -0.31890644623671582 -0.099422346406610462 0 -0.31594113333466251 -0.1079082812767518 0 -0.31890644623671582 -0.099422346406610462 0 -0.31842225312353228 -0.097122202933860396 0 -0.31890644623671582 -0.099422346406610462 0 -0.31842225312353228 -0.097122202933860396 0 -0.3371033441195202 -0.090145827767794673 0 -0.33310697135318917 -0.1084550443453004 0 -0.34733293217332711 -0.1088387363691236 0 -0.3371033441195202 -0.090145827767794673 0 -0.31890644623671582 -0.099422346406610462 0 -0.33310697135318917 -0.1084550443453004 0 -0.3371033441195202 -0.090145827767794673 0 -0.34733293217332711 -0.1088387363691236 0 -0.32360488495206802 -0.1217421251249437 0 -0.33310697135318917 -0.1084550443453004 0 -0.35075451097622218 -0.1227701629136449 0 -0.32360488495206802 -0.1217421251249437 0 -0.35075451097622218 -0.1227701629136449 0 -0.33681304958721042 -0.1296272296220253 0 -0.32360488495206802 -0.1217421251249437 0 -0.35075451097622218 -0.1227701629136449 0 -0.33310697135318917 -0.1084550443453004 0 -0.35075451097622218 -0.1227701629136449 0 -0.34733293217332711 -0.1088387363691236 0 -0.35075451097622218 -0.1227701629136449 0 -0.34733293217332711 -0.1088387363691236 0 -0.3624406571532468 -0.1073149247960111 0 -0.3371033441195202 -0.090145827767794673 0 -0.34733293217332711 -0.1088387363691236 0 -0.35301835816175742 -0.095608197247800716 0 -0.34733293217332711 -0.1088387363691236 0 -0.35301835816175742 -0.095608197247800716 0 -0.3624406571532468 -0.1073149247960111 0 -0.35301835816175742 -0.095608197247800716 0 -0.3624406571532468 -0.1073149247960111 0 -0.36553018683651878 -0.089906741686629016 0 -0.3624406571532468 -0.1073149247960111 0 -0.36553018683651878 -0.089906741686629016 0 -0.38166314943969187 -0.1002759247976107 0 -0.35075451097622218 -0.1227701629136449 0 -0.37790413700037639 -0.1237982007023469 0 -0.35075451097622218 -0.1227701629136449 0 -0.3624406571532468 -0.1073149247960111 0 -0.37790413700037639 -0.1237982007023469 0 -0.3624406571532468 -0.1073149247960111 0 -0.37790413700037639 -0.1237982007023469 0 -0.38166314943969187 -0.1002759247976107 0 -0.34300580143005083 -0.076081804262373806 0 -0.35335835181337671 -0.064887463885626731 0 -0.35268467052617419 -0.081834755619445157 0 -0.35335835181337671 -0.064887463885626731 0 -0.35268467052617419 -0.081834755619445157 0 -0.36820814574110022 -0.074152225216530532 0 -0.3371033441195202 -0.090145827767794673 0 -0.34300580143005083 -0.076081804262373806 0 -0.35268467052617419 -0.081834755619445157 0 -0.3371033441195202 -0.090145827767794673 0 -0.35301835816175742 -0.095608197247800716 0 -0.35268467052617419 -0.081834755619445157 0 -0.35301835816175742 -0.095608197247800716 0 -0.35268467052617419 -0.081834755619445157 0 -0.36553018683651878 -0.089906741686629016 0 -0.35268467052617419 -0.081834755619445157 0 -0.36553018683651878 -0.089906741686629016 0 -0.36820814574110022 -0.074152225216530532 0 -0.36553018683651878 -0.089906741686629016 0 -0.36820814574110022 -0.074152225216530532 0 -0.38147809458406429 -0.082363583363761705 0 -0.35335835181337671 -0.064887463885626731 0 -0.36820814574110022 -0.074152225216530532 0 -0.37984294756104259 -0.05832200860478557 0 -0.35335835181337671 -0.064887463885626731 0 -0.37984294756104259 -0.05832200860478557 0 -0.35335835181337671 -0.064887463885626731 0 -0.35643829968709317 -0.0515664940327758 0 -0.37984294756104259 -0.05832200860478557 0 -0.35643829968709317 -0.0515664940327758 0 -0.3677444234279601 -0.044994244812789908 0 -0.37984294756104259 -0.05832200860478557 0 -0.35643829968709317 -0.0515664940327758 0 -0.37984294756104259 -0.05832200860478557 0 -0.35335835181337671 -0.064887463885626731 0 -0.35643829968709317 -0.0515664940327758 0 -0.34659883979640937 -0.058449632085258253 0 -0.35643829968709317 -0.0515664940327758 0 -0.34659883979640937 -0.058449632085258253 0 -0.33935831185797788 -0.05461989700104658 0 -0.35643829968709317 -0.0515664940327758 0 -0.33303365181314359 -0.044810979460766003 0 -0.35335835181337671 -0.064887463885626731 0 -0.34659883979640937 -0.058449632085258253 0 -0.3402891570118054 -0.06050917475802986 0 -0.35643829968709317 -0.0515664940327758 0 -0.34181804124755022 -0.041059902574927573 0 -0.33303365181314359 -0.044810979460766003 0 -0.34906738965972173 -0.039255347830254722 0 -0.35230835942566863 -0.03197483157440812 0 -0.34154628943640752 -0.033347053128707491 0 -0.34906738965972173 -0.039255347830254722 0 -0.34181804124755022 -0.041059902574927573 0 -0.34154628943640752 -0.033347053128707491 0 -0.35643829968709317 -0.0515664940327758 0 -0.34906738965972173 -0.039255347830254722 0 -0.34181804124755022 -0.041059902574927573 0 -0.35643829968709317 -0.0515664940327758 0 -0.34906738965972173 -0.039255347830254722 0 -0.35797579705759691 -0.040698442480533108 0 -0.34906738965972173 -0.039255347830254722 0 -0.35797579705759691 -0.040698442480533108 0 -0.35230835942566863 -0.03197483157440812 0 -0.35797579705759691 -0.040698442480533108 0 -0.35230835942566863 -0.03197483157440812 0 -0.36562880323297192 -0.03377839914573337 0 -0.36562880323297192 -0.03377839914573337 0 -0.37859898773684447 -0.024811381814073361 0 -0.37883626960109579 -0.04060587980012173 0 -0.35643829968709317 -0.0515664940327758 0 -0.35797579705759691 -0.040698442480533108 0 -0.3677444234279601 -0.044994244812789908 0 -0.35797579705759691 -0.040698442480533108 0 -0.36562880323297192 -0.03377839914573337 0 -0.3677444234279601 -0.044994244812789908 0 -0.36562880323297192 -0.03377839914573337 0 -0.3677444234279601 -0.044994244812789908 0 -0.37883626960109579 -0.04060587980012173 0 -0.37296446378657722 -0.0055451131559014029 0 -0.35874576592037882 -0.01963233615066973 0 -0.37859898773684447 -0.024811381814073361 0 -0.36562880323297192 -0.03377839914573337 0 -0.35874576592037882 -0.01963233615066973 0 -0.37859898773684447 -0.024811381814073361 0 -0.37296446378657722 -0.0055451131559014029 0 -0.35753001358517389 -0.0041859259126475262 0 -0.35874576592037882 -0.01963233615066973 0 -0.35753001358517389 -0.0041859259126475262 0 -0.35874576592037882 -0.01963233615066973 0 -0.34284272101458257 -0.011213318109437081 0 -0.35753001358517389 -0.0041859259126475262 0 -0.34284272101458257 -0.011213318109437081 0 -0.34548341596956522 0.0015523649070951751 0 -0.35874576592037882 -0.01963233615066973 0 -0.34224108307363499 -0.023941949286234578 0 -0.34284272101458257 -0.011213318109437081 0 -0.35230835942566863 -0.03197483157440812 0 -0.35874576592037882 -0.01963233615066973 0 -0.34224108307363499 -0.023941949286234578 0 -0.35230835942566863 -0.03197483157440812 0 -0.36562880323297192 -0.03377839914573337 0 -0.35874576592037882 -0.01963233615066973 0 -0.35230835942566863 -0.03197483157440812 0 -0.34224108307363499 -0.023941949286234578 0 -0.34154628943640752 -0.033347053128707491 0 -0.34224108307363499 -0.023941949286234578 0 -0.33035086667745911 -0.029231900600078489 0 -0.34154628943640752 -0.033347053128707491 0 -0.34224108307363499 -0.023941949286234578 0 -0.34284272101458257 -0.011213318109437081 0 -0.32673978197392262 -0.0187768645402542 0 -0.34224108307363499 -0.023941949286234578 0 -0.33035086667745911 -0.029231900600078489 0 -0.32673978197392262 -0.0187768645402542 0 -0.34284272101458257 -0.011213318109437081 0 -0.32631626556482007 -0.0022951976739116341 0 -0.34548341596956522 0.0015523649070951751 0 -0.34284272101458257 -0.011213318109437081 0 -0.32631626556482007 -0.0022951976739116341 0 -0.32673978197392262 -0.0187768645402542 0 -0.30271042063184261 -0.01103769393537698 0 -0.32631626556482007 -0.0022951976739116341 0 -0.32673978197392262 -0.0187768645402542 0 -0.30271042063184261 -0.01103769393537698 0 -0.32673978197392262 -0.0187768645402542 0 -0.30271042063184261 -0.01103769393537698 0 -0.32673978197392262 -0.0187768645402542 0 -0.31901161954841428 -0.031009580893475251 0 -0.33035086667745911 -0.029231900600078489 0 -0.32673978197392262 -0.0187768645402542 0 -0.31901161954841428 -0.031009580893475251 0 -0.3063471982732105 -0.033943972892489793 0 -0.31901161954841428 -0.031009580893475251 0 -0.31997937586840508 -0.040881556258643661 0 -0.3063471982732105 -0.033943972892489793 0 -0.31997937586840508 -0.040881556258643661 0 -0.31567805304525609 -0.050994592576164323 0 -0.31901161954841428 -0.031009580893475251 0 -0.32634317726270951 -0.03595913808952058 0 -0.31997937586840508 -0.040881556258643661 0 -0.33035086667745911 -0.029231900600078489 0 -0.31901161954841428 -0.031009580893475251 0 -0.32634317726270951 -0.03595913808952058 0 -0.31997937586840508 -0.040881556258643661 0 -0.31567805304525609 -0.050994592576164323 0 -0.33022653058819867 -0.041217669399015777 0 -0.32634317726270951 -0.03595913808952058 0 -0.31997937586840508 -0.040881556258643661 0 -0.33022653058819867 -0.041217669399015777 0 -0.32504470848186501 -0.068110632152314651 0 -0.31567805304525609 -0.050994592576164323 0 -0.32504470848186501 -0.068110632152314651 0 -0.31567805304525609 -0.050994592576164323 0 -0.31744488221128592 -0.061142496660610723 0 -0.32504470848186501 -0.068110632152314651 0 -0.31567805304525609 -0.050994592576164323 0 -0.32802462944450522 -0.052645241443879193 0 -0.30947473034566192 -0.05461729000886794 0 -0.31790458241416708 -0.068210121155475673 0 -0.31744488221128592 -0.061142496660610723 0 -0.30947473034566192 -0.05461729000886794 0 -0.31567805304525609 -0.050994592576164323 0 -0.31744488221128592 -0.061142496660610723 0 -0.32504470848186501 -0.068110632152314651 0 -0.32802462944450522 -0.052645241443879193 0 -0.31567805304525609 -0.050994592576164323 0 -0.32802462944450522 -0.052645241443879193 0 -0.33022653058819867 -0.041217669399015777 0 -0.35643829968709317 -0.0515664940327758 0 -0.33935831185797788 -0.05461989700104658 0 -0.33303365181314359 -0.044810979460766003 0 -0.32802462944450522 -0.052645241443879193 0 -0.33935831185797788 -0.05461989700104658 0 -0.33303365181314359 -0.044810979460766003 0 -0.32802462944450522 -0.052645241443879193 0 -0.33022653058819867 -0.041217669399015777 0 -0.32504470848186501 -0.068110632152314651 0 -0.32802462944450522 -0.052645241443879193 0 -0.33269025050232087 -0.059752179363143018 0 -0.32802462944450522 -0.052645241443879193 0 -0.33269025050232087 -0.059752179363143018 0 -0.33935831185797788 -0.05461989700104658 0 -0.33542171474987792 -0.064862390240221821 0 -0.33269025050232087 -0.059752179363143018 0 -0.3402891570118054 -0.06050917475802986 0 -0.33269025050232087 -0.059752179363143018 0 -0.3402891570118054 -0.06050917475802986 0 -0.33935831185797788 -0.05461989700104658 0 -0.34659883979640937 -0.058449632085258253 0 -0.3402891570118054 -0.06050917475802986 0 -0.33935831185797788 -0.05461989700104658 0 -0.34181804124755022 -0.041059902574927573 0 -0.34154628943640752 -0.033347053128707491 0 -0.33214749363107038 -0.037454983296389743 0 -0.33035086667745911 -0.029231900600078489 0 -0.32634317726270951 -0.03595913808952058 0 -0.33214749363107038 -0.037454983296389743 0 -0.33035086667745911 -0.029231900600078489 0 -0.34154628943640752 -0.033347053128707491 0 -0.33214749363107038 -0.037454983296389743 0 -0.32634317726270951 -0.03595913808952058 0 -0.33214749363107038 -0.037454983296389743 0 -0.33022653058819867 -0.041217669399015777 0 -0.34181804124755022 -0.041059902574927573 0 -0.33214749363107038 -0.037454983296389743 0 -0.33303365181314359 -0.044810979460766003 0 -0.32802462944450522 -0.052645241443879193 0 -0.33214749363107038 -0.037454983296389743 0 -0.33303365181314359 -0.044810979460766003 0 -0.32802462944450522 -0.052645241443879193 0 -0.33214749363107038 -0.037454983296389743 0 -0.33022653058819867 -0.041217669399015777 0 -0.32802462944450522 -0.052645241443879193 0 -0.33214749363107038 -0.037454983296389743 0 -0.30295576989058498 -0.25923432597990181 0 -0.30619616970019281 -0.23440862166906551 0 -0.28946068327166308 -0.24798612466053549 0 -0.31842307187710722 -0.25405741130472698 0 -0.30295576989058498 -0.25923432597990181 0 -0.30619616970019281 -0.23440862166906551 0 -0.2941600848072774 -0.21811580189554891 0 -0.32102297522300283 -0.21995932545614019 0 -0.30619616970019281 -0.23440862166906551 0 -0.2941600848072774 -0.21811580189554891 0 -0.32102297522300283 -0.21995932545614019 0 -0.30619616970019281 -0.23440862166906551 0 -0.29039635246356021 -0.23322282176023329 0 -0.2941600848072774 -0.21811580189554891 0 -0.29039635246356021 -0.23322282176023329 0 -0.27956102492774382 -0.2271237840502224 0 -0.2941600848072774 -0.21811580189554891 0 -0.29039635246356021 -0.23322282176023329 0 -0.27874434108215562 -0.2363773153209156 0 -0.27956102492774382 -0.2271237840502224 0 -0.30619616970019281 -0.23440862166906551 0 -0.29039635246356021 -0.23322282176023329 0 -0.28946068327166308 -0.24798612466053549 0 -0.29039635246356021 -0.23322282176023329 0 -0.28946068327166308 -0.24798612466053549 0 -0.27874434108215562 -0.2363773153209156 0 -0.28946068327166308 -0.24798612466053549 0 -0.27874434108215562 -0.2363773153209156 0 -0.26865853484675578 -0.24535303177873821 0 -0.27874434108215562 -0.2363773153209156 0 -0.26865853484675578 -0.24535303177873821 0 -0.26527742262978971 -0.23057947233701739 0 -0.25376413621451421 -0.25480509811548918 0 -0.26865853484675578 -0.24535303177873821 0 -0.25544097330045951 -0.2410257805755778 0 -0.26865853484675578 -0.24535303177873821 0 -0.25544097330045951 -0.2410257805755778 0 -0.26527742262978971 -0.23057947233701739 0 -0.25544097330045951 -0.2410257805755778 0 -0.25588140807337079 -0.23195823430398679 0 -0.26527742262978971 -0.23057947233701739 0 -0.24723816798344209 -0.23566628734214351 0 -0.25544097330045951 -0.2410257805755778 0 -0.25588140807337079 -0.23195823430398679 0 -0.25376413621451421 -0.25480509811548918 0 -0.24295490279806459 -0.24609637562437539 0 -0.25544097330045951 -0.2410257805755778 0 -0.24723816798344209 -0.23566628734214351 0 -0.25556906837979199 -0.22056139696120849 0 -0.25588140807337079 -0.23195823430398679 0 -0.25556906837979199 -0.22056139696120849 0 -0.25588140807337079 -0.23195823430398679 0 -0.26527742262978971 -0.23057947233701739 0 -0.25556906837979199 -0.22056139696120849 0 -0.26527742262978971 -0.23057947233701739 0 -0.26729719439155197 -0.21627227833495749 0 -0.27956102492774382 -0.2271237840502224 0 -0.26729719439155197 -0.21627227833495749 0 -0.2941600848072774 -0.21811580189554891 0 -0.26527742262978971 -0.23057947233701739 0 -0.27956102492774382 -0.2271237840502224 0 -0.26729719439155197 -0.21627227833495749 0 -0.27874434108215562 -0.2363773153209156 0 -0.26527742262978971 -0.23057947233701739 0 -0.27956102492774382 -0.2271237840502224 0 -0.25556906837979199 -0.22056139696120849 0 -0.27510475782564248 -0.20658952333682989 0 -0.26729719439155197 -0.21627227833495749 0 -0.26729719439155197 -0.21627227833495749 0 -0.2941600848072774 -0.21811580189554891 0 -0.27510475782564248 -0.20658952333682989 0 -0.26729719439155197 -0.21627227833495749 0 -0.2941600848072774 -0.21811580189554891 0 -0.27510475782564248 -0.20658952333682989 0 -0.26026702581901662 -0.20648666546317121 0 -0.27289190470652291 -0.19774944806911829 0 -0.25556906837979199 -0.22056139696120849 0 -0.27510475782564248 -0.20658952333682989 0 -0.26026702581901662 -0.20648666546317121 0 -0.24310361909074019 -0.21384686187916069 0 -0.25556906837979199 -0.22056139696120849 0 -0.26026702581901662 -0.20648666546317121 0 -0.25556906837979199 -0.22056139696120849 0 -0.27510475782564248 -0.20658952333682989 0 -0.2379761953037241 -0.19960238450046641 0 -0.26026702581901662 -0.20648666546317121 0 -0.26205110545212018 -0.1917562231512322 0 -0.26026702581901662 -0.20648666546317121 0 -0.26205110545212018 -0.1917562231512322 0 -0.27289190470652291 -0.19774944806911829 0 -0.26205110545212018 -0.1917562231512322 0 -0.27289190470652291 -0.19774944806911829 0 -0.28176453631919052 -0.1904126167601915 0 -0.27510475782564248 -0.20658952333682989 0 -0.27289190470652291 -0.19774944806911829 0 -0.28840370803655863 -0.20213658888491581 0 -0.27289190470652291 -0.19774944806911829 0 -0.28176453631919052 -0.1904126167601915 0 -0.28840370803655863 -0.20213658888491581 0 -0.29282474843387019 -0.19065328321772629 0 -0.28840370803655863 -0.20213658888491581 0 -0.30419445234583348 -0.19829731825200339 0 -0.28176453631919052 -0.1904126167601915 0 -0.29282474843387019 -0.19065328321772629 0 -0.28840370803655863 -0.20213658888491581 0 -0.27510475782564248 -0.20658952333682989 0 -0.28840370803655863 -0.20213658888491581 0 -0.2941600848072774 -0.21811580189554891 0 -0.28840370803655863 -0.20213658888491581 0 -0.2941600848072774 -0.21811580189554891 0 -0.30419445234583348 -0.19829731825200339 0 -0.2941600848072774 -0.21811580189554891 0 -0.30419445234583348 -0.19829731825200339 0 -0.32102297522300283 -0.21995932545614019 0 -0.29282474843387019 -0.19065328321772629 0 -0.30419445234583348 -0.19829731825200339 0 -0.30124328566001279 -0.17971589501832461 0 -0.30419445234583348 -0.19829731825200339 0 -0.30124328566001279 -0.17971589501832461 0 -0.31468729705844301 -0.18383042451593121 0 -0.30124328566001279 -0.17971589501832461 0 -0.31267546298497229 -0.17302291258389091 0 -0.31468729705844301 -0.18383042451593121 0 -0.30124328566001279 -0.17971589501832461 0 -0.30558763723787852 -0.1668928394571727 0 -0.31267546298497229 -0.17302291258389091 0 -0.30558763723787852 -0.1668928394571727 0 -0.31568338150551051 -0.1634022381517469 0 -0.31267546298497229 -0.17302291258389091 0 -0.30558763723787852 -0.1668928394571727 0 -0.30893726934834498 -0.15875585320958471 0 -0.31568338150551051 -0.1634022381517469 0 -0.30558763723787852 -0.1668928394571727 0 -0.30893726934834498 -0.15875585320958471 0 -0.29963927638938892 -0.15671626594362689 0 -0.30558763723787852 -0.1668928394571727 0 -0.29963927638938892 -0.15671626594362689 0 -0.29616989341786032 -0.16777505102035151 0 -0.30124328566001279 -0.17971589501832461 0 -0.30558763723787852 -0.1668928394571727 0 -0.29616989341786032 -0.16777505102035151 0 -0.28803165490935428 -0.1812257465621433 0 -0.28634761289266702 -0.15432450812049009 0 -0.29616989341786032 -0.16777505102035151 0 -0.28803165490935428 -0.1812257465621433 0 -0.28634761289266702 -0.15432450812049009 0 -0.28803165490935428 -0.1812257465621433 0 -0.27710679964708662 -0.16814957182289819 0 -0.28634761289266702 -0.15432450812049009 0 -0.29963927638938892 -0.15671626594362689 0 -0.29616989341786032 -0.16777505102035151 0 -0.28634761289266702 -0.15432450812049009 0 -0.28176453631919052 -0.1904126167601915 0 -0.28803165490935428 -0.1812257465621433 0 -0.27710679964708662 -0.16814957182289819 0 -0.30124328566001279 -0.17971589501832461 0 -0.29616989341786032 -0.16777505102035151 0 -0.28803165490935428 -0.1812257465621433 0 -0.29282474843387019 -0.19065328321772629 0 -0.30124328566001279 -0.17971589501832461 0 -0.28803165490935428 -0.1812257465621433 0 -0.28176453631919052 -0.1904126167601915 0 -0.29282474843387019 -0.19065328321772629 0 -0.28803165490935428 -0.1812257465621433 0 -0.28176453631919052 -0.1904126167601915 0 -0.26355949019538932 -0.1720547153370805 0 -0.28176453631919052 -0.1904126167601915 0 -0.26355949019538932 -0.1720547153370805 0 -0.27710679964708662 -0.16814957182289819 0 -0.26205110545212018 -0.1917562231512322 0 -0.28176453631919052 -0.1904126167601915 0 -0.26355949019538932 -0.1720547153370805 0 -0.23706675124755139 -0.17647760169858809 0 -0.26205110545212018 -0.1917562231512322 0 -0.26355949019538932 -0.1720547153370805 0 -0.2453544440715881 -0.1536968139139695 0 -0.26355949019538932 -0.1720547153370805 0 -0.26355949019538932 -0.1720547153370805 0 -0.27710679964708662 -0.16814957182289819 0 -0.26583070391883168 -0.14273027233458549 0 -0.27710679964708662 -0.16814957182289819 0 -0.26583070391883168 -0.14273027233458549 0 -0.28634761289266702 -0.15432450812049009 0 -0.26898459341111258 -0.110632137103 0 -0.26583070391883168 -0.14273027233458549 0 -0.28466357087597971 -0.12742326967883699 0 -0.26583070391883168 -0.14273027233458549 0 -0.28466357087597971 -0.12742326967883699 0 -0.28634761289266702 -0.15432450812049009 0 -0.2453544440715881 -0.1536968139139695 0 -0.24532577742890421 -0.1355195593753423 0 -0.26583070391883168 -0.14273027233458549 0 -0.2453544440715881 -0.1536968139139695 0 -0.26355949019538932 -0.1720547153370805 0 -0.26583070391883168 -0.14273027233458549 0 -0.24532577742890421 -0.1355195593753423 0 -0.25348625434191002 -0.1198986045966407 0 -0.26583070391883168 -0.14273027233458549 0 -0.28466357087597971 -0.12742326967883699 0 -0.29689910504324651 -0.14434436477298071 0 -0.29906242182527337 -0.1328813420493494 0 -0.29629992599414878 -0.1193465629629096 0 -0.28466357087597971 -0.12742326967883699 0 -0.29906242182527337 -0.1328813420493494 0 -0.28466357087597971 -0.12742326967883699 0 -0.28634761289266702 -0.15432450812049009 0 -0.28466357087597971 -0.12742326967883699 0 -0.28634761289266702 -0.15432450812049009 0 -0.29689910504324651 -0.14434436477298071 0 -0.29963927638938892 -0.15671626594362689 0 -0.28634761289266702 -0.15432450812049009 0 -0.29689910504324651 -0.14434436477298071 0 -0.29689910504324651 -0.14434436477298071 0 -0.30648728195367148 -0.1515313469442659 0 -0.30718769785697753 -0.14596176069977271 0 -0.29689910504324651 -0.14434436477298071 0 -0.30718769785697753 -0.14596176069977271 0 -0.30136510652586468 -0.14051479669579869 0 -0.29963927638938892 -0.15671626594362689 0 -0.29689910504324651 -0.14434436477298071 0 -0.30648728195367148 -0.1515313469442659 0 -0.30893726934834498 -0.15875585320958471 0 -0.29963927638938892 -0.15671626594362689 0 -0.30648728195367148 -0.1515313469442659 0 -0.30648728195367148 -0.1515313469442659 0 -0.31128426026347972 -0.14702081001229469 0 -0.31389745184612788 -0.15284850804974151 0 -0.30893726934834498 -0.15875585320958471 0 -0.30648728195367148 -0.1515313469442659 0 -0.31389745184612788 -0.15284850804974151 0 -0.30648728195367148 -0.1515313469442659 0 -0.30718769785697753 -0.14596176069977271 0 -0.31128426026347972 -0.14702081001229469 0 -0.30718769785697753 -0.14596176069977271 0 -0.31128426026347972 -0.14702081001229469 0 -0.31026038645762272 -0.14387794419237479 0 -0.31128426026347972 -0.14702081001229469 0 -0.31026038645762272 -0.14387794419237479 0 -0.31315851389555061 -0.14410841523660919 0 -0.31463161014709989 -0.12140234638988071 0 -0.31026038645762272 -0.14387794419237479 0 -0.31285259145766681 -0.1213349827201962 0 -0.30718769785697753 -0.14596176069977271 0 -0.31026038645762272 -0.14387794419237479 0 -0.31285259145766681 -0.1213349827201962 0 -0.30718769785697753 -0.14596176069977271 0 -0.30136510652586468 -0.14051479669579869 0 -0.31285259145766681 -0.1213349827201962 0 -0.30136510652586468 -0.14051479669579869 0 -0.29906242182527337 -0.1328813420493494 0 -0.31285259145766681 -0.1213349827201962 0 -0.30718769785697753 -0.14596176069977271 0 -0.30432540446311929 -0.1236888179439139 0 -0.31285259145766681 -0.1213349827201962 0 -0.29906242182527337 -0.1328813420493494 0 -0.29629992599414878 -0.1193465629629096 0 -0.30432540446311929 -0.1236888179439139 0 -0.29906242182527337 -0.1328813420493494 0 -0.29689910504324651 -0.14434436477298071 0 -0.30136510652586468 -0.14051479669579869 0 -0.29906242182527337 -0.1328813420493494 0 -0.32360488495206802 -0.1217421251249437 0 -0.32713732199645568 -0.13852285122225441 0 -0.31463161014709989 -0.12140234638988071 0 -0.31285259145766681 -0.1213349827201962 0 -0.31026038645762272 -0.14387794419237479 0 -0.3182901302089266 -0.12154087856969489 0 -0.32713732199645568 -0.13852285122225441 0 -0.32223292183597119 -0.14640702217298709 0 -0.31463161014709989 -0.12140234638988071 0 -0.31026038645762272 -0.14387794419237479 0 -0.31624162956489632 -0.1272615753788994 0 -0.3182901302089266 -0.12154087856969489 0 -0.3160117073222759 -0.13333363126087119 0 -0.32223292183597119 -0.14640702217298709 0 -0.31026038645762272 -0.14387794419237479 0 -0.31624162956489632 -0.1272615753788994 0 -0.3160117073222759 -0.13333363126087119 0 -0.3182901302089266 -0.12154087856969489 0 -0.32223292183597119 -0.14640702217298709 0 -0.32360488495206802 -0.1217421251249437 0 -0.3182901302089266 -0.12154087856969489 0 -0.32713732199645568 -0.13852285122225441 0 -0.3182901302089266 -0.12154087856969489 0 -0.31624162956489632 -0.1272615753788994 0 -0.3160117073222759 -0.13333363126087119 0 -0.3160117073222759 -0.13333363126087119 0 -0.31484512034987971 -0.14038122475230569 0 -0.32223292183597119 -0.14640702217298709 0 -0.31026038645762272 -0.14387794419237479 0 -0.3160117073222759 -0.13333363126087119 0 -0.31484512034987971 -0.14038122475230569 0 -0.32713732199645568 -0.13852285122225441 0 -0.32223292183597119 -0.14640702217298709 0 -0.33066975904084711 -0.1553035773195646 0 -0.31026038645762272 -0.14387794419237479 0 -0.31484512034987971 -0.14038122475230569 0 -0.31315851389555061 -0.14410841523660919 0 -0.31389745184612788 -0.15284850804974151 0 -0.32223292183597119 -0.14640702217298709 0 -0.31568338150551051 -0.1634022381517469 0 -0.31484512034987971 -0.14038122475230569 0 -0.31315851389555061 -0.14410841523660919 0 -0.31624428851122027 -0.14515368198946171 0 -0.31624428851122027 -0.14515368198946171 0 -0.31389745184612788 -0.15284850804974151 0 -0.32223292183597119 -0.14640702217298709 0 -0.31128426026347972 -0.14702081001229469 0 -0.31624428851122027 -0.14515368198946171 0 -0.31389745184612788 -0.15284850804974151 0 -0.31128426026347972 -0.14702081001229469 0 -0.31315851389555061 -0.14410841523660919 0 -0.31624428851122027 -0.14515368198946171 0 -0.31484512034987971 -0.14038122475230569 0 -0.31624428851122027 -0.14515368198946171 0 -0.32223292183597119 -0.14640702217298709 0 -0.32713732199645568 -0.13852285122225441 0 -0.33066975904084711 -0.1553035773195646 0 -0.33614220371454928 -0.14538943503294419 0 -0.32713732199645568 -0.13852285122225441 0 -0.33066975904084711 -0.1553035773195646 0 -0.33066975904084711 -0.1553035773195646 0 -0.34107923067946833 -0.15428311797903879 0 -0.33614220371454928 -0.14538943503294419 0 -0.33614220371454928 -0.14538943503294419 0 -0.33875312494653442 -0.13781354037360541 0 -0.34722355908976771 -0.14305674751975239 0 -0.34107923067946833 -0.15428311797903879 0 -0.33614220371454928 -0.14538943503294419 0 -0.34722355908976771 -0.14305674751975239 0 -0.32360488495206802 -0.1217421251249437 0 -0.32713732199645568 -0.13852285122225441 0 -0.33681304958721042 -0.1296272296220253 0 -0.33875312494653442 -0.13781354037360541 0 -0.33681304958721042 -0.1296272296220253 0 -0.3465815518739141 -0.13282808145174221 0 -0.32713732199645568 -0.13852285122225441 0 -0.33614220371454928 -0.14538943503294419 0 -0.33875312494653442 -0.13781354037360541 0 -0.32713732199645568 -0.13852285122225441 0 -0.33875312494653442 -0.13781354037360541 0 -0.33681304958721042 -0.1296272296220253 0 -0.35075451097622218 -0.1227701629136449 0 -0.33681304958721042 -0.1296272296220253 0 -0.3465815518739141 -0.13282808145174221 0 -0.33875312494653442 -0.13781354037360541 0 -0.3465815518739141 -0.13282808145174221 0 -0.34722355908976771 -0.14305674751975239 0 -0.3465815518739141 -0.13282808145174221 0 -0.36123984497706851 -0.1359399102993499 0 -0.34722355908976771 -0.14305674751975239 0 -0.35075451097622218 -0.1227701629136449 0 -0.3465815518739141 -0.13282808145174221 0 -0.36123984497706851 -0.1359399102993499 0 -0.35075451097622218 -0.1227701629136449 0 -0.36123984497706851 -0.1359399102993499 0 -0.37790413700037639 -0.1237982007023469 0 -0.36123984497706851 -0.1359399102993499 0 -0.37432286095130618 -0.14900945550246561 0 -0.37790413700037639 -0.1237982007023469 0 -0.36123984497706851 -0.1359399102993499 0 -0.37432286095130618 -0.14900945550246561 0 -0.35654991416120441 -0.1525393484424292 0 -0.36123984497706851 -0.1359399102993499 0 -0.35654991416120441 -0.1525393484424292 0 -0.34722355908976771 -0.14305674751975239 0 -0.34107923067946833 -0.15428311797903879 0 -0.35654991416120441 -0.1525393484424292 0 -0.34722355908976771 -0.14305674751975239 0 -0.34107923067946833 -0.15428311797903879 0 -0.35654991416120441 -0.1525393484424292 0 -0.34843548499012861 -0.1644149647411482 0 -0.35654991416120441 -0.1525393484424292 0 -0.34843548499012861 -0.1644149647411482 0 -0.36300348809424898 -0.1704604229058875 0 -0.34843548499012861 -0.1644149647411482 0 -0.36300348809424898 -0.1704604229058875 0 -0.34352755988377898 -0.1799922117369939 0 -0.37432286095130618 -0.14900945550246561 0 -0.36300348809424898 -0.1704604229058875 0 -0.3814654939380171 -0.1679916841631223 0 -0.37432286095130618 -0.14900945550246561 0 -0.35654991416120441 -0.1525393484424292 0 -0.36300348809424898 -0.1704604229058875 0 -0.36300348809424898 -0.1704604229058875 0 -0.37763408119820918 -0.18420756526862619 0 -0.3814654939380171 -0.1679916841631223 0 -0.36300348809424898 -0.1704604229058875 0 -0.36395481494366388 -0.19688807812134509 0 -0.37763408119820918 -0.18420756526862619 0 -0.36300348809424898 -0.1704604229058875 0 -0.34352755988377898 -0.1799922117369939 0 -0.36395481494366388 -0.19688807812134509 0 -0.32617571346301649 -0.1712731657762791 0 -0.3301185050900618 -0.19613930937957111 0 -0.34352755988377898 -0.1799922117369939 0 -0.32617571346301649 -0.1712731657762791 0 -0.3301185050900618 -0.19613930937957111 0 -0.34352755988377898 -0.1799922117369939 0 -0.33728760791242041 -0.16532630393476519 0 -0.32617571346301649 -0.1712731657762791 0 -0.34843548499012861 -0.1644149647411482 0 -0.34352755988377898 -0.1799922117369939 0 -0.33728760791242041 -0.16532630393476519 0 -0.33066975904084711 -0.1553035773195646 0 -0.33728760791242041 -0.16532630393476519 0 -0.32617571346301649 -0.1712731657762791 0 -0.33066975904084711 -0.1553035773195646 0 -0.34107923067946833 -0.15428311797903879 0 -0.33728760791242041 -0.16532630393476519 0 -0.34107923067946833 -0.15428311797903879 0 -0.34843548499012861 -0.1644149647411482 0 -0.33728760791242041 -0.16532630393476519 0 -0.32223292183597119 -0.14640702217298709 0 -0.32617571346301649 -0.1712731657762791 0 -0.31568338150551051 -0.1634022381517469 0 -0.32223292183597119 -0.14640702217298709 0 -0.32617571346301649 -0.1712731657762791 0 -0.32223292183597119 -0.14640702217298709 0 -0.33066975904084711 -0.1553035773195646 0 -0.32617571346301649 -0.1712731657762791 0 -0.30893726934834498 -0.15875585320958471 0 -0.31389745184612788 -0.15284850804974151 0 -0.31568338150551051 -0.1634022381517469 0 -0.32617571346301649 -0.1712731657762791 0 -0.31568338150551051 -0.1634022381517469 0 -0.31267546298497229 -0.17302291258389091 0 -0.32617571346301649 -0.1712731657762791 0 -0.31468729705844301 -0.18383042451593121 0 -0.3301185050900618 -0.19613930937957111 0 -0.32617571346301649 -0.1712731657762791 0 -0.31267546298497229 -0.17302291258389091 0 -0.31468729705844301 -0.18383042451593121 0 -0.30419445234583348 -0.19829731825200339 0 -0.31468729705844301 -0.18383042451593121 0 -0.3301185050900618 -0.19613930937957111 0 -0.30419445234583348 -0.19829731825200339 0 -0.3301185050900618 -0.19613930937957111 0 -0.32102297522300283 -0.21995932545614019 0 -0.3301185050900618 -0.19613930937957111 0 -0.34536497044489339 -0.20427626507450011 0 -0.32102297522300283 -0.21995932545614019 0 -0.34536497044489339 -0.20427626507450011 0 -0.34788586563872831 -0.2218028490167315 0 -0.32102297522300283 -0.21995932545614019 0 -0.34352755988377898 -0.1799922117369939 0 -0.3301185050900618 -0.19613930937957111 0 -0.34536497044489339 -0.20427626507450011 0 -0.34352755988377898 -0.1799922117369939 0 -0.36395481494366388 -0.19688807812134509 0 -0.34536497044489339 -0.20427626507450011 0 -0.36395481494366388 -0.19688807812134509 0 -0.35798860177043479 -0.21165339119747481 0 -0.37474875605445379 -0.22364637257732281 0 -0.34536497044489339 -0.20427626507450011 0 -0.35798860177043479 -0.21165339119747481 0 -0.34788586563872831 -0.2218028490167315 0 -0.36395481494366388 -0.19688807812134509 0 -0.34536497044489339 -0.20427626507450011 0 -0.35798860177043479 -0.21165339119747481 0 -0.34788586563872831 -0.2218028490167315 0 -0.3441892442844553 -0.2304631974536466 0 -0.36065520472781371 -0.23237248538486061 0 -0.34788586563872831 -0.2218028490167315 0 -0.37474875605445379 -0.22364637257732281 0 -0.36065520472781371 -0.23237248538486061 0 -0.35798860177043479 -0.21165339119747481 0 -0.34788586563872831 -0.2218028490167315 0 -0.37474875605445379 -0.22364637257732281 0 -0.37474875605445379 -0.22364637257732281 0 -0.36065520472781371 -0.23237248538486061 0 -0.3771588361068961 -0.24654124474883099 0 -0.34788586563872831 -0.2218028490167315 0 -0.37474875605445379 -0.22364637257732281 0 -0.34783403830403531 -0.25907477684970182 0 -0.36065520472781371 -0.23237248538486061 0 -0.3771588361068961 -0.24654124474883099 0 -0.34783403830403531 -0.25907477684970182 0 -0.3441892442844553 -0.2304631974536466 0 -0.34783403830403531 -0.25907477684970182 0 -0.3441892442844553 -0.2304631974536466 0 -0.36065520472781371 -0.23237248538486061 0 -0.34783403830403531 -0.25907477684970182 0 -0.3441892442844553 -0.2304631974536466 0 -0.33626113388988121 -0.2433267744279238 0 -0.33285528621675797 -0.25366544236987482 0 -0.33626113388988121 -0.2433267744279238 0 -0.32474474360340427 -0.2425494890601281 0 -0.33626113388988121 -0.2433267744279238 0 -0.33168235704075327 -0.2308809664062676 0 -0.32474474360340427 -0.2425494890601281 0 -0.3441892442844553 -0.2304631974536466 0 -0.33626113388988121 -0.2433267744279238 0 -0.33168235704075327 -0.2308809664062676 0 -0.34788586563872831 -0.2218028490167315 0 -0.33168235704075327 -0.2308809664062676 0 -0.32102297522300283 -0.21995932545614019 0 -0.34788586563872831 -0.2218028490167315 0 -0.32102297522300283 -0.21995932545614019 0 -0.34788586563872831 -0.2218028490167315 0 -0.3441892442844553 -0.2304631974536466 0 -0.33168235704075327 -0.2308809664062676 0 -0.33168235704075327 -0.2308809664062676 0 -0.32102297522300283 -0.21995932545614019 0 -0.31924305316778812 -0.23202180177345569 0 -0.30619616970019281 -0.23440862166906551 0 -0.32102297522300283 -0.21995932545614019 0 -0.31924305316778812 -0.23202180177345569 0 -0.31842307187710722 -0.25405741130472698 0 -0.30619616970019281 -0.23440862166906551 0 -0.32474474360340427 -0.2425494890601281 0 -0.30619616970019281 -0.23440862166906551 0 -0.31924305316778812 -0.23202180177345569 0 -0.32474474360340427 -0.2425494890601281 0 -0.33168235704075327 -0.2308809664062676 0 -0.31924305316778812 -0.23202180177345569 0 -0.32474474360340427 -0.2425494890601281 0 -0.42651272049937422 -0.247930454917801 0 -0.42996599217462689 -0.2272948848388873 0 -0.44516322090945432 -0.24155538902785709 0 -0.42651272049937422 -0.247930454917801 0 -0.42996599217462689 -0.2272948848388873 0 -0.41111456103740052 -0.239572168162098 0 -0.42996599217462689 -0.2272948848388873 0 -0.40662566156579782 -0.2204833830786721 0 -0.41111456103740052 -0.239572168162098 0 -0.4155038567201193 -0.2621199728217708 0 -0.42651272049937422 -0.247930454917801 0 -0.41111456103740052 -0.239572168162098 0 -0.41111456103740052 -0.239572168162098 0 -0.39693797107832218 -0.248358685632352 0 -0.39147322279631752 -0.23104962721628189 0 -0.39693797107832218 -0.248358685632352 0 -0.3771588361068961 -0.24654124474883099 0 -0.39147322279631752 -0.23104962721628189 0 -0.37474875605445379 -0.22364637257732281 0 -0.39147322279631752 -0.23104962721628189 0 -0.38791501741472789 -0.20435417953926771 0 -0.37474875605445379 -0.22364637257732281 0 -0.3771588361068961 -0.24654124474883099 0 -0.39147322279631752 -0.23104962721628189 0 -0.40662566156579782 -0.2204833830786721 0 -0.41111456103740052 -0.239572168162098 0 -0.39147322279631752 -0.23104962721628189 0 -0.40662566156579782 -0.2204833830786721 0 -0.39147322279631752 -0.23104962721628189 0 -0.38791501741472789 -0.20435417953926771 0 -0.40662566156579782 -0.2204833830786721 0 -0.38791501741472789 -0.20435417953926771 0 -0.41645991381927688 -0.202532977481234 0 -0.36395481494366388 -0.19688807812134509 0 -0.37474875605445379 -0.22364637257732281 0 -0.38791501741472789 -0.20435417953926771 0 -0.36395481494366388 -0.19688807812134509 0 -0.38791501741472789 -0.20435417953926771 0 -0.37763408119820918 -0.18420756526862619 0 -0.38791501741472789 -0.20435417953926771 0 -0.395889199341937 -0.18061154825204739 0 -0.37763408119820918 -0.18420756526862619 0 -0.38791501741472789 -0.20435417953926771 0 -0.41645991381927688 -0.202532977481234 0 -0.395889199341937 -0.18061154825204739 0 -0.41645991381927688 -0.202532977481234 0 -0.4220018247837739 -0.1834702053928387 0 -0.395889199341937 -0.18061154825204739 0 -0.42996599217462689 -0.2272948848388873 0 -0.40662566156579782 -0.2204833830786721 0 -0.41645991381927688 -0.202532977481234 0 -0.42996599217462689 -0.2272948848388873 0 -0.41645991381927688 -0.202532977481234 0 -0.43473366727762769 -0.2070072774133053 0 -0.42996599217462689 -0.2272948848388873 0 -0.43473366727762769 -0.2070072774133053 0 -0.44076230051867921 -0.2192171278895966 0 -0.4337112527407751 -0.1959321248209635 0 -0.4220018247837739 -0.1834702053928387 0 -0.44811445022561092 -0.18632886253363001 0 -0.41645991381927688 -0.202532977481234 0 -0.43473366727762769 -0.2070072774133053 0 -0.4337112527407751 -0.1959321248209635 0 -0.41645991381927688 -0.202532977481234 0 -0.4337112527407751 -0.1959321248209635 0 -0.4220018247837739 -0.1834702053928387 0 -0.4220018247837739 -0.1834702053928387 0 -0.43836503851586239 -0.16219658965168859 0 -0.44811445022561092 -0.18632886253363001 0 -0.4220018247837739 -0.1834702053928387 0 -0.44811445022561092 -0.18632886253363001 0 -0.4220018247837739 -0.1834702053928387 0 -0.4146335845372055 -0.1661297793646965 0 -0.43836503851586239 -0.16219658965168859 0 -0.4146335845372055 -0.1661297793646965 0 -0.42043401994006963 -0.1487011246403227 0 -0.43836503851586239 -0.16219658965168859 0 -0.4146335845372055 -0.1661297793646965 0 -0.39647784010438408 -0.155669428886585 0 -0.42043401994006963 -0.1487011246403227 0 -0.4220018247837739 -0.1834702053928387 0 -0.4146335845372055 -0.1661297793646965 0 -0.395889199341937 -0.18061154825204739 0 -0.4220018247837739 -0.1834702053928387 0 -0.395889199341937 -0.18061154825204739 0 -0.395889199341937 -0.18061154825204739 0 -0.37763408119820918 -0.18420756526862619 0 -0.3814654939380171 -0.1679916841631223 0 -0.37432286095130618 -0.14900945550246561 0 -0.3814654939380171 -0.1679916841631223 0 -0.39647784010438408 -0.155669428886585 0 -0.395889199341937 -0.18061154825204739 0 -0.3814654939380171 -0.1679916841631223 0 -0.39647784010438408 -0.155669428886585 0 -0.4146335845372055 -0.1661297793646965 0 -0.395889199341937 -0.18061154825204739 0 -0.39647784010438408 -0.155669428886585 0 -0.37432286095130618 -0.14900945550246561 0 -0.39647784010438408 -0.155669428886585 0 -0.38843965027014937 -0.1383258308956116 0 -0.37432286095130618 -0.14900945550246561 0 -0.38843965027014937 -0.1383258308956116 0 -0.37790413700037639 -0.1237982007023469 0 -0.38843965027014937 -0.1383258308956116 0 -0.37790413700037639 -0.1237982007023469 0 -0.40505376302453061 -0.124826238491049 0 -0.39647784010438408 -0.155669428886585 0 -0.38843965027014937 -0.1383258308956116 0 -0.40505376302453061 -0.124826238491049 0 -0.42043401994006963 -0.1487011246403227 0 -0.43220338904868488 -0.12585427627975099 0 -0.40505376302453061 -0.124826238491049 0 -0.43220338904868488 -0.12585427627975099 0 -0.40505376302453061 -0.124826238491049 0 -0.39647784010438408 -0.155669428886585 0 -0.42043401994006963 -0.1487011246403227 0 -0.40505376302453061 -0.124826238491049 0 -0.42043401994006963 -0.1487011246403227 0 -0.4425111155463467 -0.14280014950761349 0 -0.43836503851586239 -0.16219658965168859 0 -0.42043401994006963 -0.1487011246403227 0 -0.43836503851586239 -0.16219658965168859 0 -0.42043401994006963 -0.1487011246403227 0 -0.43220338904868488 -0.12585427627975099 0 -0.4425111155463467 -0.14280014950761349 0 -0.43220338904868488 -0.12585427627975099 0 -0.4425111155463467 -0.14280014950761349 0 -0.45935301507283932 -0.1268823140684531 0 -0.43220338904868488 -0.12585427627975099 0 -0.45935301507283932 -0.1268823140684531 0 -0.4425111155463467 -0.14280014950761349 0 -0.45621599926225798 -0.1571384899743041 0 -0.43836503851586239 -0.16219658965168859 0 -0.4425111155463467 -0.14280014950761349 0 -0.45935301507283932 -0.1268823140684531 0 -0.45621599926225798 -0.1571384899743041 0 -0.45935301507283932 -0.1268823140684531 0 -0.47556972741901471 -0.15085806082308681 0 -0.45621599926225798 -0.1571384899743041 0 -0.45935301507283932 -0.1268823140684531 0 -0.48065637648481069 -0.12773569434300269 0 -0.47556972741901471 -0.15085806082308681 0 -0.48065637648481069 -0.12773569434300269 0 -0.5 -0.13635323778478831 0 -0.47556972741901471 -0.15085806082308681 0 -0.5 -0.13635323778478831 0 -0.47556972741901471 -0.15085806082308681 0 -0.49999999999999911 -0.16629367303144499 0 -0.47556972741901471 -0.15085806082308681 0 -0.47401486613325489 -0.16984481784846039 0 -0.49999999999999911 -0.16629367303144499 0 -0.47401486613325489 -0.16984481784846039 0 -0.49999999999999911 -0.16629367303144499 0 -0.48178033735915499 -0.17989910892445149 0 -0.49999999999999911 -0.16629367303144499 0 -0.48714510035771819 -0.1906017092819732 0 -0.49999999999999911 -0.16629367303144499 0 -0.48714510035771819 -0.1906017092819732 0 -0.5 -0.192008988329361 0 -0.49999999999999911 -0.16629367303144499 0 -0.48178033735915499 -0.17989910892445149 0 -0.48714510035771819 -0.1906017092819732 0 -0.47401486613325489 -0.16984481784846039 0 -0.48178033735915499 -0.17989910892445149 0 -0.47422707566744798 -0.1891875196744208 0 -0.48178033735915499 -0.17989910892445149 0 -0.47422707566744798 -0.1891875196744208 0 -0.48714510035771819 -0.1906017092819732 0 -0.45629605709165533 -0.17569205466305449 0 -0.47422707566744798 -0.1891875196744208 0 -0.45629605709165533 -0.17569205466305449 0 -0.44811445022561092 -0.18632886253363001 0 -0.47422707566744798 -0.1891875196744208 0 -0.47401486613325489 -0.16984481784846039 0 -0.45629605709165533 -0.17569205466305449 0 -0.47422707566744798 -0.1891875196744208 0 -0.47556972741901471 -0.15085806082308681 0 -0.47401486613325489 -0.16984481784846039 0 -0.45621599926225798 -0.1571384899743041 0 -0.47401486613325489 -0.16984481784846039 0 -0.45629605709165533 -0.17569205466305449 0 -0.45621599926225798 -0.1571384899743041 0 -0.45629605709165533 -0.17569205466305449 0 -0.43836503851586239 -0.16219658965168859 0 -0.45629605709165533 -0.17569205466305449 0 -0.45621599926225798 -0.1571384899743041 0 -0.43836503851586239 -0.16219658965168859 0 -0.45629605709165533 -0.17569205466305449 0 -0.43836503851586239 -0.16219658965168859 0 -0.44811445022561092 -0.18632886253363001 0 -0.44811445022561092 -0.18632886253363001 0 -0.44724640759758638 -0.20032130128380951 0 -0.46223186053444659 -0.20006456190887631 0 -0.4337112527407751 -0.1959321248209635 0 -0.44811445022561092 -0.18632886253363001 0 -0.44724640759758638 -0.20032130128380951 0 -0.43473366727762769 -0.2070072774133053 0 -0.4337112527407751 -0.1959321248209635 0 -0.44724640759758638 -0.20032130128380951 0 -0.43473366727762769 -0.2070072774133053 0 -0.45306402577379912 -0.21369644070961599 0 -0.44076230051867921 -0.2192171278895966 0 -0.43473366727762769 -0.2070072774133053 0 -0.45306402577379912 -0.21369644070961599 0 -0.43473366727762769 -0.2070072774133053 0 -0.44724640759758638 -0.20032130128380951 0 -0.45306402577379912 -0.21369644070961599 0 -0.45306402577379912 -0.21369644070961599 0 -0.46846828503014759 -0.2085458164965259 0 -0.47139438426997188 -0.2203856040059228 0 -0.44724640759758638 -0.20032130128380951 0 -0.45306402577379912 -0.21369644070961599 0 -0.46223186053444659 -0.20006456190887631 0 -0.45306402577379912 -0.21369644070961599 0 -0.47139438426997188 -0.2203856040059228 0 -0.45306402577379912 -0.21369644070961599 0 -0.46846828503014759 -0.2085458164965259 0 -0.46223186053444659 -0.20006456190887631 0 -0.44811445022561092 -0.18632886253363001 0 -0.46223186053444659 -0.20006456190887631 0 -0.47422707566744798 -0.1891875196744208 0 -0.44811445022561092 -0.18632886253363001 0 -0.47422707566744798 -0.1891875196744208 0 -0.46846828503014759 -0.2085458164965259 0 -0.46223186053444659 -0.20006456190887631 0 -0.47385213710437091 -0.20022321593176201 0 -0.46223186053444659 -0.20006456190887631 0 -0.47422707566744798 -0.1891875196744208 0 -0.47385213710437091 -0.20022321593176201 0 -0.48402106723425681 -0.19650911521481679 0 -0.47926974231384389 -0.20549365664394739 0 -0.47385213710437091 -0.20022321593176201 0 -0.48402106723425681 -0.19650911521481679 0 -0.47926974231384389 -0.20549365664394739 0 -0.47422707566744798 -0.1891875196744208 0 -0.47385213710437091 -0.20022321593176201 0 -0.48402106723425681 -0.19650911521481679 0 -0.47422707566744798 -0.1891875196744208 0 -0.48714510035771819 -0.1906017092819732 0 -0.47422707566744798 -0.1891875196744208 0 -0.48402106723425681 -0.19650911521481679 0 -0.48714510035771819 -0.1906017092819732 0 -0.47422707566744798 -0.1891875196744208 0 -0.48402106723425681 -0.19650911521481679 0 -0.4918407069872201 -0.2004038628262613 0 -0.5 -0.192008988329361 0 -0.5 -0.21141671494905109 0 -0.48402106723425681 -0.19650911521481679 0 -0.48714510035771819 -0.1906017092819732 0 -0.48402106723425681 -0.19650911521481679 0 -0.48714510035771819 -0.1906017092819732 0 -0.4918407069872201 -0.2004038628262613 0 -0.48402106723425681 -0.19650911521481679 0 -0.4918407069872201 -0.2004038628262613 0 -0.47926974231384389 -0.20549365664394739 0 -0.48714510035771819 -0.1906017092819732 0 -0.5 -0.192008988329361 0 -0.48714510035771819 -0.1906017092819732 0 -0.4918407069872201 -0.2004038628262613 0 -0.5 -0.192008988329361 0 -0.5 -0.21141671494905109 0 -0.47926974231384389 -0.20549365664394739 0 -0.48569719213498569 -0.22560502278733391 0 -0.4918407069872201 -0.2004038628262613 0 -0.5 -0.21141671494905109 0 -0.47926974231384389 -0.20549365664394739 0 -0.47926974231384389 -0.20549365664394739 0 -0.47139438426997188 -0.2203856040059228 0 -0.48569719213498569 -0.22560502278733391 0 -0.46846828503014759 -0.2085458164965259 0 -0.47385213710437091 -0.20022321593176201 0 -0.47926974231384389 -0.20549365664394739 0 -0.46846828503014759 -0.2085458164965259 0 -0.47926974231384389 -0.20549365664394739 0 -0.47139438426997188 -0.2203856040059228 0 -0.47926974231384389 -0.20549365664394739 0 -0.47139438426997188 -0.2203856040059228 0 -0.47618336325656768 -0.2341231862599632 0 -0.48569719213498569 -0.22560502278733391 0 -0.48512312604368729 -0.2424185057973908 0 -0.47139438426997188 -0.2203856040059228 0 -0.47618336325656768 -0.2341231862599632 0 -0.46443304705112642 -0.23354917915444021 0 -0.47139438426997188 -0.2203856040059228 0 -0.47618336325656768 -0.2341231862599632 0 -0.48569719213498569 -0.22560502278733391 0 -0.47139438426997188 -0.2203856040059228 0 -0.48569719213498569 -0.22560502278733391 0 -0.48569719213498569 -0.22560502278733391 0 -0.50000000000000078 -0.2308244415687413 0 -0.48512312604368729 -0.2424185057973908 0 -0.5 -0.21141671494905109 0 -0.48569719213498569 -0.22560502278733391 0 -0.50000000000000078 -0.2308244415687413 0 -0.48569719213498569 -0.22560502278733391 0 -0.50000000000000078 -0.2308244415687413 0 -0.5 -0.26068686590540718 0 -0.50000000000000078 -0.2308244415687413 0 -0.48512312604368729 -0.2424185057973908 0 -0.47827606622265872 -0.25858177826393641 0 -0.48512312604368729 -0.2424185057973908 0 -0.47101012542757698 -0.24588932588837159 0 -0.47618336325656768 -0.2341231862599632 0 -0.48512312604368729 -0.2424185057973908 0 -0.47101012542757698 -0.24588932588837159 0 -0.47618336325656768 -0.2341231862599632 0 -0.47101012542757698 -0.24588932588837159 0 -0.46443304705112642 -0.23354917915444021 0 -0.46443304705112642 -0.23354917915444021 0 -0.45088234334296129 -0.2281275243132343 0 -0.44516322090945432 -0.24155538902785709 0 -0.47101012542757698 -0.24588932588837159 0 -0.4581530983886718 -0.2480328079409195 0 -0.46443304705112642 -0.23354917915444021 0 -0.4581530983886718 -0.2480328079409195 0 -0.46443304705112642 -0.23354917915444021 0 -0.44516322090945432 -0.24155538902785709 0 -0.45306402577379912 -0.21369644070961599 0 -0.47139438426997188 -0.2203856040059228 0 -0.45088234334296129 -0.2281275243132343 0 -0.47139438426997188 -0.2203856040059228 0 -0.46443304705112642 -0.23354917915444021 0 -0.45088234334296129 -0.2281275243132343 0 -0.47139438426997188 -0.2203856040059228 0 -0.46443304705112642 -0.23354917915444021 0 -0.42996599217462689 -0.2272948848388873 0 -0.45088234334296129 -0.2281275243132343 0 -0.44516322090945432 -0.24155538902785709 0 -0.42996599217462689 -0.2272948848388873 0 -0.45088234334296129 -0.2281275243132343 0 -0.44076230051867921 -0.2192171278895966 0 -0.45306402577379912 -0.21369644070961599 0 -0.45088234334296129 -0.2281275243132343 0 -0.44076230051867921 -0.2192171278895966 0 -0.44144573889681982 -0.25402770002028169 0 -0.42651272049937422 -0.247930454917801 0 -0.44516322090945432 -0.24155538902785709 0 -0.44144573889681982 -0.25402770002028169 0 -0.4581530983886718 -0.2480328079409195 0 -0.44516322090945432 -0.24155538902785709 0 -0.41388230717172908 -0.046737492522397353 0 -0.42285495035606341 -0.039145652078222418 0 -0.42225296063336981 -0.027743964376746401 0 -0.41469976541952619 -0.035756472351410808 0 -0.41388230717172908 -0.046737492522397353 0 -0.42225296063336981 -0.027743964376746401 0 -0.41388230717172908 -0.046737492522397353 0 -0.42225296063336981 -0.027743964376746401 0 -0.41388230717172908 -0.046737492522397353 0 -0.42285495035606341 -0.039145652078222418 0 -0.42188617592852468 -0.045894139567213117 0 -0.41469976541952619 -0.035756472351410808 0 -0.408200145240881 -0.035954271723635058 0 -0.41067259012953189 -0.040078474219028083 0 -0.41469976541952619 -0.035756472351410808 0 -0.41528966065904682 -0.02927310446470445 0 -0.40883372871200041 -0.02882636361537903 0 -0.41469976541952619 -0.035756472351410808 0 -0.408200145240881 -0.035954271723635058 0 -0.40883372871200041 -0.02882636361537903 0 -0.41388230717172908 -0.046737492522397353 0 -0.41067259012953189 -0.040078474219028083 0 -0.40546737630869711 -0.042100747184535978 0 -0.41469976541952619 -0.035756472351410808 0 -0.41388230717172908 -0.046737492522397353 0 -0.41067259012953189 -0.040078474219028083 0 -0.408200145240881 -0.035954271723635058 0 -0.41067259012953189 -0.040078474219028083 0 -0.40546737630869711 -0.042100747184535978 0 -0.41388230717172908 -0.046737492522397353 0 -0.40849299251915611 -0.051219744679040717 0 -0.40546737630869711 -0.042100747184535978 0 -0.41388230717172908 -0.046737492522397353 0 -0.40551165371008913 -0.065731020668048729 0 -0.41388230717172908 -0.046737492522397353 0 -0.41236197453494738 -0.060185908593610171 0 -0.40551165371008913 -0.065731020668048729 0 -0.41388230717172908 -0.046737492522397353 0 -0.40849299251915611 -0.051219744679040717 0 -0.40551165371008913 -0.065731020668048729 0 -0.41236197453494738 -0.060185908593610171 0 -0.41582799922653257 -0.062098041357892653 0 -0.4125018164667098 -0.06493387652168478 0 -0.41388230717172908 -0.046737492522397353 0 -0.41236197453494738 -0.060185908593610171 0 -0.41723938229383428 -0.057237795279986667 0 -0.41236197453494738 -0.060185908593610171 0 -0.41582799922653257 -0.062098041357892653 0 -0.41723938229383428 -0.057237795279986667 0 -0.41723938229383428 -0.057237795279986667 0 -0.4198847564894938 -0.051134379928791121 0 -0.42403754308884029 -0.05633646211198301 0 -0.41582799922653257 -0.062098041357892653 0 -0.41723938229383428 -0.057237795279986667 0 -0.42170085708460298 -0.062582729832726197 0 -0.41723938229383428 -0.057237795279986667 0 -0.42403754308884029 -0.05633646211198301 0 -0.42170085708460298 -0.062582729832726197 0 -0.41388230717172908 -0.046737492522397353 0 -0.41723938229383428 -0.057237795279986667 0 -0.4198847564894938 -0.051134379928791121 0 -0.41388230717172908 -0.046737492522397353 0 -0.4198847564894938 -0.051134379928791121 0 -0.42188617592852468 -0.045894139567213117 0 -0.4198847564894938 -0.051134379928791121 0 -0.42523491776245448 -0.049995628976916617 0 -0.42188617592852468 -0.045894139567213117 0 -0.42523491776245448 -0.049995628976916617 0 -0.4311334983841878 -0.054382231837354057 0 -0.43079365183987689 -0.043596606813581622 0 -0.4198847564894938 -0.051134379928791121 0 -0.42523491776245448 -0.049995628976916617 0 -0.42403754308884029 -0.05633646211198301 0 -0.42523491776245448 -0.049995628976916617 0 -0.42403754308884029 -0.05633646211198301 0 -0.4311334983841878 -0.054382231837354057 0 -0.42403754308884029 -0.05633646211198301 0 -0.42916811437686342 -0.062457279011423901 0 -0.4311334983841878 -0.054382231837354057 0 -0.42403754308884029 -0.05633646211198301 0 -0.42916811437686342 -0.062457279011423901 0 -0.42170085708460298 -0.062582729832726197 0 -0.4373797841591936 -0.061956620475112752 0 -0.4311334983841878 -0.054382231837354057 0 -0.44018697907789861 -0.051950793635106518 0 -0.42916811437686342 -0.062457279011423901 0 -0.4373797841591936 -0.061956620475112752 0 -0.4311334983841878 -0.054382231837354057 0 -0.4311334983841878 -0.054382231837354057 0 -0.43079365183987689 -0.043596606813581622 0 -0.44018697907789861 -0.051950793635106518 0 -0.43079365183987689 -0.043596606813581622 0 -0.43635700370743219 -0.032911132149884489 0 -0.44368345546836357 -0.041414614553795727 0 -0.42523491776245448 -0.049995628976916617 0 -0.43079365183987689 -0.043596606813581622 0 -0.42188617592852468 -0.045894139567213117 0 -0.43079365183987689 -0.043596606813581622 0 -0.42285495035606341 -0.039145652078222418 0 -0.42188617592852468 -0.045894139567213117 0 -0.43079365183987689 -0.043596606813581622 0 -0.42285495035606341 -0.039145652078222418 0 -0.42850688902526862 -0.033182051855733023 0 -0.42285495035606341 -0.039145652078222418 0 -0.42850688902526862 -0.033182051855733023 0 -0.42225296063336981 -0.027743964376746401 0 -0.43079365183987689 -0.043596606813581622 0 -0.42850688902526862 -0.033182051855733023 0 -0.43635700370743219 -0.032911132149884489 0 -0.43377294887817219 -0.02203807727693163 0 -0.42225296063336981 -0.027743964376746401 0 -0.43062361409501038 -0.0087504362310954539 0 -0.42225296063336981 -0.027743964376746401 0 -0.43062361409501038 -0.0087504362310954539 0 -0.42850688902526862 -0.033182051855733023 0 -0.43635700370743219 -0.032911132149884489 0 -0.43377294887817219 -0.02203807727693163 0 -0.43062361409501038 -0.0087504362310954539 0 -0.41537218787129071 -0.024765617515281561 0 -0.42225296063336981 -0.027743964376746401 0 -0.43062361409501038 -0.0087504362310954539 0 -0.41537218787129071 -0.024765617515281561 0 -0.42850688902526862 -0.033182051855733023 0 -0.43377294887817219 -0.02203807727693163 0 -0.42225296063336981 -0.027743964376746401 0 -0.43062361409501038 -0.0087504362310954539 0 -0.41344510949837732 -0.0077660454777063407 0 -0.4270377381973694 0.003578377932654813 0 -0.43062361409501038 -0.0087504362310954539 0 -0.44404773438302642 0.0053459319930814391 0 -0.43377294887817219 -0.02203807727693163 0 -0.43062361409501038 -0.0087504362310954539 0 -0.44248027680107471 -0.01347163858281631 0 -0.43062361409501038 -0.0087504362310954539 0 -0.41344510949837732 -0.0077660454777063407 0 -0.41537218787129071 -0.024765617515281561 0 -0.41344510949837732 -0.0077660454777063407 0 -0.41537218787129071 -0.024765617515281561 0 -0.40834982604288422 -0.017773326977078261 0 -0.41469976541952619 -0.035756472351410808 0 -0.42225296063336981 -0.027743964376746401 0 -0.41528966065904682 -0.02927310446470445 0 -0.42225296063336981 -0.027743964376746401 0 -0.41537218787129071 -0.024765617515281561 0 -0.41528966065904682 -0.02927310446470445 0 -0.41537218787129071 -0.024765617515281561 0 -0.40834982604288422 -0.017773326977078261 0 -0.40883372871200041 -0.02882636361537903 0 -0.41537218787129071 -0.024765617515281561 0 -0.41528966065904682 -0.02927310446470445 0 -0.40883372871200041 -0.02882636361537903 0 -0.40883372871200041 -0.02882636361537903 0 -0.40079083791983727 -0.021569936287424641 0 -0.3992115870236369 -0.034137718395982522 0 -0.40834982604288422 -0.017773326977078261 0 -0.40079083791983727 -0.021569936287424641 0 -0.39460289999769821 -0.01086459394867394 0 -0.40834982604288422 -0.017773326977078261 0 -0.40883372871200041 -0.02882636361537903 0 -0.40079083791983727 -0.021569936287424641 0 -0.40079083791983727 -0.021569936287424641 0 -0.39218387894841772 -0.02571079307160503 0 -0.39460289999769821 -0.01086459394867394 0 -0.40079083791983727 -0.021569936287424641 0 -0.39218387894841772 -0.02571079307160503 0 -0.3992115870236369 -0.034137718395982522 0 -0.41344510949837732 -0.0077660454777063407 0 -0.39460289999769821 -0.01086459394867394 0 -0.40304345966158361 0.0075616688737657131 0 -0.41344510949837732 -0.0077660454777063407 0 -0.40834982604288422 -0.017773326977078261 0 -0.39460289999769821 -0.01086459394867394 0 -0.37296446378657722 -0.0055451131559014029 0 -0.39460289999769821 -0.01086459394867394 0 -0.37859898773684447 -0.024811381814073361 0 -0.37296446378657722 -0.0055451131559014029 0 -0.39460289999769821 -0.01086459394867394 0 -0.38403372220648302 0.0093561054383379007 0 -0.39218387894841772 -0.02571079307160503 0 -0.39460289999769821 -0.01086459394867394 0 -0.37859898773684447 -0.024811381814073361 0 -0.39218387894841772 -0.02571079307160503 0 -0.37859898773684447 -0.024811381814073361 0 -0.3887329454057798 -0.034992564876815083 0 -0.37859898773684447 -0.024811381814073361 0 -0.37883626960109579 -0.04060587980012173 0 -0.3887329454057798 -0.034992564876815083 0 -0.37883626960109579 -0.04060587980012173 0 -0.3887329454057798 -0.034992564876815083 0 -0.39349985214227612 -0.043528714339181249 0 -0.3887329454057798 -0.034992564876815083 0 -0.39349985214227612 -0.043528714339181249 0 -0.3992115870236369 -0.034137718395982522 0 -0.39218387894841772 -0.02571079307160503 0 -0.3887329454057798 -0.034992564876815083 0 -0.3992115870236369 -0.034137718395982522 0 -0.40849299251915611 -0.051219744679040717 0 -0.39349985214227612 -0.043528714339181249 0 -0.40546737630869711 -0.042100747184535978 0 -0.39349985214227612 -0.043528714339181249 0 -0.40546737630869711 -0.042100747184535978 0 -0.3992115870236369 -0.034137718395982522 0 -0.408200145240881 -0.035954271723635058 0 -0.40883372871200041 -0.02882636361537903 0 -0.3992115870236369 -0.034137718395982522 0 -0.408200145240881 -0.035954271723635058 0 -0.40546737630869711 -0.042100747184535978 0 -0.3992115870236369 -0.034137718395982522 0 -0.40849299251915611 -0.051219744679040717 0 -0.37984294756104259 -0.05832200860478557 0 -0.40551165371008913 -0.065731020668048729 0 -0.40849299251915611 -0.051219744679040717 0 -0.37984294756104259 -0.05832200860478557 0 -0.40849299251915611 -0.051219744679040717 0 -0.39349985214227612 -0.043528714339181249 0 -0.37984294756104259 -0.05832200860478557 0 -0.37984294756104259 -0.05832200860478557 0 -0.40551165371008913 -0.065731020668048729 0 -0.37883626960109579 -0.04060587980012173 0 -0.39349985214227612 -0.043528714339181249 0 -0.37984294756104259 -0.05832200860478557 0 -0.3677444234279601 -0.044994244812789908 0 -0.37883626960109579 -0.04060587980012173 0 -0.37984294756104259 -0.05832200860478557 0 -0.37984294756104259 -0.05832200860478557 0 -0.38147809458406429 -0.082363583363761705 0 -0.39487602932310628 -0.076261432766026954 0 -0.36820814574110022 -0.074152225216530532 0 -0.37984294756104259 -0.05832200860478557 0 -0.38147809458406429 -0.082363583363761705 0 -0.38147809458406429 -0.082363583363761705 0 -0.39863999202232669 -0.090242988415225073 0 -0.38166314943969187 -0.1002759247976107 0 -0.36553018683651878 -0.089906741686629016 0 -0.38147809458406429 -0.082363583363761705 0 -0.38166314943969187 -0.1002759247976107 0 -0.38147809458406429 -0.082363583363761705 0 -0.39863999202232669 -0.090242988415225073 0 -0.39487602932310628 -0.076261432766026954 0 -0.39863999202232669 -0.090242988415225073 0 -0.40232353841233642 -0.08166021799709898 0 -0.39487602932310628 -0.076261432766026954 0 -0.39863999202232669 -0.090242988415225073 0 -0.40232353841233642 -0.08166021799709898 0 -0.41002225352883359 -0.084137197964767041 0 -0.37984294756104259 -0.05832200860478557 0 -0.40469965688068232 -0.067573491474440917 0 -0.39487602932310628 -0.076261432766026954 0 -0.40232353841233642 -0.08166021799709898 0 -0.40163811495990992 -0.074100916048228813 0 -0.40748137822559533 -0.075574880491828311 0 -0.37984294756104259 -0.05832200860478557 0 -0.40469965688068232 -0.067573491474440917 0 -0.40551165371008913 -0.065731020668048729 0 -0.40163811495990992 -0.074100916048228813 0 -0.40469965688068232 -0.067573491474440917 0 -0.39487602932310628 -0.076261432766026954 0 -0.40232353841233642 -0.08166021799709898 0 -0.40163811495990992 -0.074100916048228813 0 -0.39487602932310628 -0.076261432766026954 0 -0.40163811495990992 -0.074100916048228813 0 -0.40526175269623149 -0.071755687083165293 0 -0.40469965688068232 -0.067573491474440917 0 -0.40163811495990992 -0.074100916048228813 0 -0.40526175269623149 -0.071755687083165293 0 -0.40748137822559533 -0.075574880491828311 0 -0.40526175269623149 -0.071755687083165293 0 -0.40469965688068232 -0.067573491474440917 0 -0.40722786071873879 -0.069773460318163144 0 -0.40469965688068232 -0.067573491474440917 0 -0.4065802921467998 -0.067302144494836333 0 -0.40722786071873879 -0.069773460318163144 0 -0.40469965688068232 -0.067573491474440917 0 -0.40551165371008913 -0.065731020668048729 0 -0.4065802921467998 -0.067302144494836333 0 -0.40469965688068232 -0.067573491474440917 0 -0.40551165371008913 -0.065731020668048729 0 -0.37790413700037639 -0.1237982007023469 0 -0.38166314943969187 -0.1002759247976107 0 -0.3993803674162939 -0.10753424873725149 0 -0.39863999202232669 -0.090242988415225073 0 -0.3993803674162939 -0.10753424873725149 0 -0.41369349132019279 -0.095592581807333279 0 -0.39863999202232669 -0.090242988415225073 0 -0.38166314943969187 -0.1002759247976107 0 -0.3993803674162939 -0.10753424873725149 0 -0.37790413700037639 -0.1237982007023469 0 -0.40505376302453061 -0.124826238491049 0 -0.37790413700037639 -0.1237982007023469 0 -0.3993803674162939 -0.10753424873725149 0 -0.40505376302453061 -0.124826238491049 0 -0.43220338904868488 -0.12585427627975099 0 -0.40505376302453061 -0.124826238491049 0 -0.41932767169064489 -0.110469558209944 0 -0.3993803674162939 -0.10753424873725149 0 -0.40505376302453061 -0.124826238491049 0 -0.41932767169064489 -0.110469558209944 0 -0.3993803674162939 -0.10753424873725149 0 -0.41932767169064489 -0.110469558209944 0 -0.41369349132019279 -0.095592581807333279 0 -0.41932767169064489 -0.110469558209944 0 -0.41369349132019279 -0.095592581807333279 0 -0.4273527041934167 -0.095122668707982222 0 -0.4273527041934167 -0.095122668707982222 0 -0.43419037039963843 -0.1066974139910522 0 -0.44207990806437852 -0.093557900875310684 0 -0.41932767169064489 -0.110469558209944 0 -0.4273527041934167 -0.095122668707982222 0 -0.43419037039963843 -0.1066974139910522 0 -0.43220338904868488 -0.12585427627975099 0 -0.41932767169064489 -0.110469558209944 0 -0.43419037039963843 -0.1066974139910522 0 -0.41428190876527521 -0.077148189452016291 0 -0.42040272420325198 -0.072357338663294177 0 -0.42107605503005319 -0.083183331104114536 0 -0.41428190876527521 -0.077148189452016291 0 -0.42040272420325198 -0.072357338663294177 0 -0.4124271328386413 -0.070488199036077392 0 -0.42040272420325198 -0.072357338663294177 0 -0.41649551437549409 -0.066559324162263553 0 -0.4124271328386413 -0.070488199036077392 0 -0.42040272420325198 -0.072357338663294177 0 -0.42170085708460298 -0.062582729832726197 0 -0.41649551437549409 -0.066559324162263553 0 -0.41582799922653257 -0.062098041357892653 0 -0.42170085708460298 -0.062582729832726197 0 -0.41649551437549409 -0.066559324162263553 0 -0.41582799922653257 -0.062098041357892653 0 -0.41649551437549409 -0.066559324162263553 0 -0.4125018164667098 -0.06493387652168478 0 -0.4125018164667098 -0.06493387652168478 0 -0.40832178790266171 -0.066542137442352337 0 -0.4124271328386413 -0.070488199036077392 0 -0.41649551437549409 -0.066559324162263553 0 -0.4125018164667098 -0.06493387652168478 0 -0.4124271328386413 -0.070488199036077392 0 -0.41236197453494738 -0.060185908593610171 0 -0.4125018164667098 -0.06493387652168478 0 -0.40967430815360201 -0.064348235806424001 0 -0.4125018164667098 -0.06493387652168478 0 -0.40967430815360201 -0.064348235806424001 0 -0.40832178790266171 -0.066542137442352337 0 -0.41236197453494738 -0.060185908593610171 0 -0.40551165371008913 -0.065731020668048729 0 -0.40967430815360201 -0.064348235806424001 0 -0.40551165371008913 -0.065731020668048729 0 -0.40967430815360201 -0.064348235806424001 0 -0.40832178790266171 -0.066542137442352337 0 -0.40551165371008913 -0.065731020668048729 0 -0.40832178790266171 -0.066542137442352337 0 -0.40832178790266171 -0.066542137442352337 0 -0.40722786071873879 -0.069773460318163144 0 -0.4124271328386413 -0.070488199036077392 0 -0.40832178790266171 -0.066542137442352337 0 -0.4065802921467998 -0.067302144494836333 0 -0.40722786071873879 -0.069773460318163144 0 -0.40551165371008913 -0.065731020668048729 0 -0.40832178790266171 -0.066542137442352337 0 -0.4065802921467998 -0.067302144494836333 0 -0.40526175269623149 -0.071755687083165293 0 -0.40722786071873879 -0.069773460318163144 0 -0.40748137822559533 -0.075574880491828311 0 -0.40722786071873879 -0.069773460318163144 0 -0.4124271328386413 -0.070488199036077392 0 -0.40748137822559533 -0.075574880491828311 0 -0.41428190876527521 -0.077148189452016291 0 -0.4124271328386413 -0.070488199036077392 0 -0.40748137822559533 -0.075574880491828311 0 -0.41428190876527521 -0.077148189452016291 0 -0.40748137822559533 -0.075574880491828311 0 -0.41002225352883359 -0.084137197964767041 0 -0.40232353841233642 -0.08166021799709898 0 -0.40748137822559533 -0.075574880491828311 0 -0.41002225352883359 -0.084137197964767041 0 -0.39863999202232669 -0.090242988415225073 0 -0.41369349132019279 -0.095592581807333279 0 -0.41002225352883359 -0.084137197964767041 0 -0.41369349132019279 -0.095592581807333279 0 -0.41002225352883359 -0.084137197964767041 0 -0.42107605503005319 -0.083183331104114536 0 -0.41369349132019279 -0.095592581807333279 0 -0.4273527041934167 -0.095122668707982222 0 -0.42107605503005319 -0.083183331104114536 0 -0.41428190876527521 -0.077148189452016291 0 -0.41002225352883359 -0.084137197964767041 0 -0.42107605503005319 -0.083183331104114536 0 -0.42107605503005319 -0.083183331104114536 0 -0.43344828592675511 -0.083108786921714431 0 -0.42765238685597712 -0.076156097605265982 0 -0.4273527041934167 -0.095122668707982222 0 -0.42107605503005319 -0.083183331104114536 0 -0.43344828592675511 -0.083108786921714431 0 -0.4273527041934167 -0.095122668707982222 0 -0.43344828592675511 -0.083108786921714431 0 -0.44207990806437852 -0.093557900875310684 0 -0.43344828592675511 -0.083108786921714431 0 -0.43524381298301301 -0.071518383856432319 0 -0.42765238685597712 -0.076156097605265982 0 -0.43524381298301301 -0.071518383856432319 0 -0.42765238685597712 -0.076156097605265982 0 -0.42686177365311989 -0.069050201706091871 0 -0.42040272420325198 -0.072357338663294177 0 -0.42107605503005319 -0.083183331104114536 0 -0.42765238685597712 -0.076156097605265982 0 -0.42040272420325198 -0.072357338663294177 0 -0.42765238685597712 -0.076156097605265982 0 -0.42686177365311989 -0.069050201706091871 0 -0.42040272420325198 -0.072357338663294177 0 -0.42170085708460298 -0.062582729832726197 0 -0.42686177365311989 -0.069050201706091871 0 -0.42916811437686342 -0.062457279011423901 0 -0.42170085708460298 -0.062582729832726197 0 -0.42686177365311989 -0.069050201706091871 0 -0.42916811437686342 -0.062457279011423901 0 -0.4373797841591936 -0.061956620475112752 0 -0.43524381298301301 -0.071518383856432319 0 -0.42916811437686342 -0.062457279011423901 0 -0.43524381298301301 -0.071518383856432319 0 -0.42686177365311989 -0.069050201706091871 0 -0.4373797841591936 -0.061956620475112752 0 -0.44693808673634072 -0.068301174112197952 0 -0.44683672826792992 -0.059593310269410442 0 -0.4373797841591936 -0.061956620475112752 0 -0.43524381298301301 -0.071518383856432319 0 -0.44693808673634072 -0.068301174112197952 0 -0.44693808673634072 -0.068301174112197952 0 -0.45698180124511478 -0.063821173257039801 0 -0.44683672826792992 -0.059593310269410442 0 -0.44693808673634072 -0.068301174112197952 0 -0.44599780262603939 -0.080273057564622149 0 -0.45734314671897391 -0.075198704614053841 0 -0.43524381298301301 -0.071518383856432319 0 -0.44693808673634072 -0.068301174112197952 0 -0.44599780262603939 -0.080273057564622149 0 -0.44207990806437852 -0.093557900875310684 0 -0.44599780262603939 -0.080273057564622149 0 -0.46089771096048282 -0.090344369137151173 0 -0.43344828592675511 -0.083108786921714431 0 -0.43524381298301301 -0.071518383856432319 0 -0.44599780262603939 -0.080273057564622149 0 -0.43344828592675511 -0.083108786921714431 0 -0.44207990806437852 -0.093557900875310684 0 -0.44599780262603939 -0.080273057564622149 0 -0.44599780262603939 -0.080273057564622149 0 -0.46089771096048282 -0.090344369137151173 0 -0.45734314671897391 -0.075198704614053841 0 -0.46089771096048282 -0.090344369137151173 0 -0.45734314671897391 -0.075198704614053841 0 -0.47042059928676438 -0.073512514434660198 0 -0.45698180124511478 -0.063821173257039801 0 -0.45734314671897391 -0.075198704614053841 0 -0.47042059928676438 -0.073512514434660198 0 -0.45698180124511478 -0.063821173257039801 0 -0.47042059928676438 -0.073512514434660198 0 -0.46922869925919319 -0.055987144390826138 0 -0.44693808673634072 -0.068301174112197952 0 -0.45698180124511478 -0.063821173257039801 0 -0.45734314671897391 -0.075198704614053841 0 -0.43220338904868488 -0.12585427627975099 0 -0.45935301507283932 -0.1268823140684531 0 -0.45011481765004341 -0.10864459765627239 0 -0.43220338904868488 -0.12585427627975099 0 -0.43419037039963843 -0.1066974139910522 0 -0.45011481765004341 -0.10864459765627239 0 -0.43419037039963843 -0.1066974139910522 0 -0.44207990806437852 -0.093557900875310684 0 -0.45011481765004341 -0.10864459765627239 0 -0.44207990806437852 -0.093557900875310684 0 -0.46089771096048282 -0.090344369137151173 0 -0.45011481765004341 -0.10864459765627239 0 -0.46089771096048282 -0.090344369137151173 0 -0.45011481765004341 -0.10864459765627239 0 -0.4719645123542367 -0.1085313115859164 0 -0.45935301507283932 -0.1268823140684531 0 -0.45011481765004341 -0.10864459765627239 0 -0.4719645123542367 -0.1085313115859164 0 -0.48065637648481069 -0.12773569434300269 0 -0.4719645123542367 -0.1085313115859164 0 -0.5 -0.1064128025381313 0 -0.45935301507283932 -0.1268823140684531 0 -0.48065637648481069 -0.12773569434300269 0 -0.4719645123542367 -0.1085313115859164 0 -0.46089771096048282 -0.090344369137151173 0 -0.4719645123542367 -0.1085313115859164 0 -0.48221526800871578 -0.088410557766442743 0 -0.4719645123542367 -0.1085313115859164 0 -0.5 -0.1064128025381313 0 -0.48221526800871578 -0.088410557766442743 0 -0.48065637648481069 -0.12773569434300269 0 -0.5 -0.13635323778478831 0 -0.5 -0.1064128025381313 0 -0.48271871511202907 -0.070435848204489976 0 -0.47042059928676438 -0.073512514434660198 0 -0.48221526800871578 -0.088410557766442743 0 -0.48271871511202907 -0.070435848204489976 0 -0.47042059928676438 -0.073512514434660198 0 -0.46922869925919319 -0.055987144390826138 0 -0.46089771096048282 -0.090344369137151173 0 -0.47042059928676438 -0.073512514434660198 0 -0.48221526800871578 -0.088410557766442743 0 -0.5 -0.1064128025381313 0 -0.48221526800871578 -0.088410557766442743 0 -0.50000000000000222 -0.07647236729147458 0 -0.48271871511202907 -0.070435848204489976 0 -0.48221526800871578 -0.088410557766442743 0 -0.50000000000000222 -0.07647236729147458 0 -0.48271871511202907 -0.070435848204489976 0 -0.50000000000000222 -0.07647236729147458 0 -0.48601193359575923 -0.056017792470335039 0 -0.50000000000000222 -0.07647236729147458 0 -0.48601193359575923 -0.056017792470335039 0 -0.50000000000000222 -0.07647236729147458 0 -0.48601193359575923 -0.056017792470335039 0 -0.5 -0.047367643023023209 0 -0.5 -0.047367643023023209 0 -0.48845397682861508 -0.036325562322768262 0 -0.5 -0.018262918754571759 0 -0.48601193359575923 -0.056017792470335039 0 -0.5 -0.047367643023023209 0 -0.48845397682861508 -0.036325562322768262 0 -0.48601193359575923 -0.056017792470335039 0 -0.48845397682861508 -0.036325562322768262 0 -0.47202386719151462 -0.035563217649196427 0 -0.48601193359575923 -0.056017792470335039 0 -0.47202386719151462 -0.035563217649196427 0 -0.48845397682861508 -0.036325562322768262 0 -0.47202386719151462 -0.035563217649196427 0 -0.4826358430012867 -0.023792193395166701 0 -0.48601193359575923 -0.056017792470335039 0 -0.47202386719151462 -0.035563217649196427 0 -0.46922869925919319 -0.055987144390826138 0 -0.48271871511202907 -0.070435848204489976 0 -0.48601193359575923 -0.056017792470335039 0 -0.46922869925919319 -0.055987144390826138 0 -0.46922869925919319 -0.055987144390826138 0 -0.45693168311488941 -0.037802896310091573 0 -0.45269699012110132 -0.05193678986759518 0 -0.45698180124511478 -0.063821173257039801 0 -0.46922869925919319 -0.055987144390826138 0 -0.45269699012110132 -0.05193678986759518 0 -0.47202386719151462 -0.035563217649196427 0 -0.46922869925919319 -0.055987144390826138 0 -0.45693168311488941 -0.037802896310091573 0 -0.45693168311488941 -0.037802896310091573 0 -0.44368345546836357 -0.041414614553795727 0 -0.45269699012110132 -0.05193678986759518 0 -0.45693168311488941 -0.037802896310091573 0 -0.44368345546836357 -0.041414614553795727 0 -0.44592128586189389 -0.026806968571078081 0 -0.43635700370743219 -0.032911132149884489 0 -0.44368345546836357 -0.041414614553795727 0 -0.44592128586189389 -0.026806968571078081 0 -0.43079365183987689 -0.043596606813581622 0 -0.44368345546836357 -0.041414614553795727 0 -0.44018697907789861 -0.051950793635106518 0 -0.4373797841591936 -0.061956620475112752 0 -0.44018697907789861 -0.051950793635106518 0 -0.44683672826792992 -0.059593310269410442 0 -0.45698180124511478 -0.063821173257039801 0 -0.44683672826792992 -0.059593310269410442 0 -0.45269699012110132 -0.05193678986759518 0 -0.44018697907789861 -0.051950793635106518 0 -0.44683672826792992 -0.059593310269410442 0 -0.45269699012110132 -0.05193678986759518 0 -0.44368345546836357 -0.041414614553795727 0 -0.44018697907789861 -0.051950793635106518 0 -0.45269699012110132 -0.05193678986759518 0 -0.45803580078727008 -0.015108642828057829 0 -0.44404773438302642 0.0053459319930814391 0 -0.43062361409501038 -0.0087504362310954539 0 -0.44248027680107471 -0.01347163858281631 0 -0.44404773438302642 0.0053459319930814391 0 -0.44248027680107471 -0.01347163858281631 0 -0.45803580078727008 -0.015108642828057829 0 -0.44404773438302642 0.0053459319930814391 0 -0.43377294887817219 -0.02203807727693163 0 -0.44248027680107471 -0.01347163858281631 0 -0.44592128586189389 -0.026806968571078081 0 -0.43635700370743219 -0.032911132149884489 0 -0.43377294887817219 -0.02203807727693163 0 -0.44592128586189389 -0.026806968571078081 0 -0.44248027680107471 -0.01347163858281631 0 -0.44592128586189389 -0.026806968571078081 0 -0.45803580078727008 -0.015108642828057829 0 -0.47202386719151462 -0.035563217649196427 0 -0.45803580078727008 -0.015108642828057829 0 -0.45693168311488941 -0.037802896310091573 0 -0.44592128586189389 -0.026806968571078081 0 -0.45803580078727008 -0.015108642828057829 0 -0.47202386719151462 -0.035563217649196427 0 -0.45693168311488941 -0.037802896310091573 0 -0.45803580078727008 -0.015108642828057829 0 -0.45803580078727008 -0.015108642828057829 0 -0.48072891430766662 -0.0082589414973393213 0 -0.4618904186100945 0.0025376035323009661 0 -0.45803580078727008 -0.015108642828057829 0 -0.4618904186100945 0.0025376035323009661 0 -0.44404773438302642 0.0053459319930814391 0 -0.45803580078727008 -0.015108642828057829 0 -0.48072891430766662 -0.0082589414973393213 0 -0.4826358430012867 -0.023792193395166701 0 -0.47202386719151462 -0.035563217649196427 0 -0.45803580078727008 -0.015108642828057829 0 -0.4826358430012867 -0.023792193395166701 0 -0.48072891430766662 -0.0082589414973393213 0 -0.4826358430012867 -0.023792193395166701 0 -0.5 -0.018262918754571759 0 -0.48845397682861508 -0.036325562322768262 0 -0.4826358430012867 -0.023792193395166701 0 -0.5 -0.018262918754571759 0 -0.5 -0.018262918754571759 0 -0.5 0.01084180551387964 0 -0.48684281087137632 0.0031234858984709882 0 -0.48072891430766662 -0.0082589414973393213 0 -0.5 -0.018262918754571759 0 -0.48684281087137632 0.0031234858984709882 0 -0.5 0.01084180551387964 0 -0.48684281087137632 0.0031234858984709882 0 -0.48123516479005912 0.02039378599535354 0 -0.5 0.01084180551387964 0 -0.48794983573080752 0.032505115290832602 0 -0.5 0.039946529782331042 0 -0.5 0.01084180551387964 0 -0.48123516479005912 0.02039378599535354 0 -0.48794983573080752 0.032505115290832602 0 -0.48123516479005912 0.02039378599535354 0 -0.48794983573080752 0.032505115290832602 0 -0.47471625660254652 0.037550260680697209 0 -0.47112757003087541 0.02190332204019832 0 -0.47471625660254652 0.037550260680697209 0 -0.46296268055184819 0.02520809356608044 0 -0.48123516479005912 0.02039378599535354 0 -0.47112757003087541 0.02190332204019832 0 -0.47471625660254652 0.037550260680697209 0 -0.48123516479005912 0.02039378599535354 0 -0.47112757003087541 0.02190332204019832 0 -0.47224997525915557 0.01090369823503283 0 -0.48684281087137632 0.0031234858984709882 0 -0.48123516479005912 0.02039378599535354 0 -0.47224997525915557 0.01090369823503283 0 -0.48072891430766662 -0.0082589414973393213 0 -0.47224997525915557 0.01090369823503283 0 -0.4618904186100945 0.0025376035323009661 0 -0.48072891430766662 -0.0082589414973393213 0 -0.48684281087137632 0.0031234858984709882 0 -0.47224997525915557 0.01090369823503283 0 -0.48646983265324462 0.049892427795314172 0 -0.48284852088645308 0.066932857453568598 0 -0.5 0.06905125405078244 0 -0.48646983265324462 0.049892427795314172 0 -0.5 0.039946529782331042 0 -0.5 0.06905125405078244 0 -0.48646983265324462 0.049892427795314172 0 -0.48794983573080752 0.032505115290832602 0 -0.5 0.039946529782331042 0 -0.48646983265324462 0.049892427795314172 0 -0.48794983573080752 0.032505115290832602 0 -0.47471625660254652 0.037550260680697209 0 -0.48646983265324462 0.049892427795314172 0 -0.47471625660254652 0.037550260680697209 0 -0.46611606841120329 0.051899002602003461 0 -0.47471625660254652 0.037550260680697209 0 -0.46296268055184819 0.02520809356608044 0 -0.48646983265324462 0.049892427795314172 0 -0.47471625660254652 0.037550260680697209 0 -0.48646983265324462 0.049892427795314172 0 -0.46611606841120329 0.051899002602003461 0 -0.48284852088645308 0.066932857453568598 0 -0.46611606841120329 0.051899002602003461 0 -0.4510932298714414 0.039891717222864873 0 -0.45060163675428 0.056085469986763031 0 -0.46611606841120329 0.051899002602003461 0 -0.45060163675428 0.056085469986763031 0 -0.46926945627055888 0.078589911637926543 0 -0.46611606841120329 0.051899002602003461 0 -0.46296268055184819 0.02520809356608044 0 -0.46611606841120329 0.051899002602003461 0 -0.4510932298714414 0.039891717222864873 0 -0.46296268055184819 0.02520809356608044 0 -0.47471625660254652 0.037550260680697209 0 -0.46611606841120329 0.051899002602003461 0 -0.46296268055184819 0.02520809356608044 0 -0.44015698384511548 0.034341889428199823 0 -0.4510932298714414 0.039891717222864873 0 -0.43414601398158809 0.046092599364169443 0 -0.44015698384511548 0.034341889428199823 0 -0.4510932298714414 0.039891717222864873 0 -0.44579631951258902 0.025161291310856829 0 -0.4510932298714414 0.039891717222864873 0 -0.45060163675428 0.056085469986763031 0 -0.43414601398158809 0.046092599364169443 0 -0.45060163675428 0.056085469986763031 0 -0.43414601398158809 0.046092599364169443 0 -0.44252343619518841 0.070429654146284312 0 -0.45420542666366831 0.011796905056591639 0 -0.4618904186100945 0.0025376035323009661 0 -0.44404773438302642 0.0053459319930814391 0 -0.46296268055184819 0.02520809356608044 0 -0.44404773438302642 0.0053459319930814391 0 -0.45420542666366831 0.011796905056591639 0 -0.46296268055184819 0.02520809356608044 0 -0.44404773438302642 0.0053459319930814391 0 -0.45420542666366831 0.011796905056591639 0 -0.4618904186100945 0.0025376035323009661 0 -0.46276508116725301 0.01203631657698135 0 -0.45420542666366831 0.011796905056591639 0 -0.46276508116725301 0.01203631657698135 0 -0.45995318188305201 0.017046738727143941 0 -0.47224997525915557 0.01090369823503283 0 -0.4618904186100945 0.0025376035323009661 0 -0.46276508116725301 0.01203631657698135 0 -0.47224997525915557 0.01090369823503283 0 -0.46276508116725301 0.01203631657698135 0 -0.46241734396016282 0.020592254978561899 0 -0.4510932298714414 0.039891717222864873 0 -0.46296268055184819 0.02520809356608044 0 -0.44579631951258902 0.025161291310856829 0 -0.47112757003087541 0.02190332204019832 0 -0.47224997525915557 0.01090369823503283 0 -0.46241734396016282 0.020592254978561899 0 -0.47112757003087541 0.02190332204019832 0 -0.46241734396016282 0.020592254978561899 0 -0.46296268055184819 0.02520809356608044 0 -0.46276508116725301 0.01203631657698135 0 -0.46241734396016282 0.020592254978561899 0 -0.45995318188305201 0.017046738727143941 0 -0.46241734396016282 0.020592254978561899 0 -0.46296268055184819 0.02520809356608044 0 -0.45995318188305201 0.017046738727143941 0 -0.46241734396016282 0.020592254978561899 0 -0.46296268055184819 0.02520809356608044 0 -0.45420542666366831 0.011796905056591639 0 -0.46296268055184819 0.02520809356608044 0 -0.45995318188305201 0.017046738727143941 0 -0.44579631951258902 0.025161291310856829 0 -0.43980724582823377 0.011546745451892231 0 -0.42943994289388909 0.026706723066782401 0 -0.44015698384511548 0.034341889428199823 0 -0.44579631951258902 0.025161291310856829 0 -0.42943994289388909 0.026706723066782401 0 -0.46296268055184819 0.02520809356608044 0 -0.44579631951258902 0.025161291310856829 0 -0.44404773438302642 0.0053459319930814391 0 -0.44579631951258902 0.025161291310856829 0 -0.43980724582823377 0.011546745451892231 0 -0.44404773438302642 0.0053459319930814391 0 -0.43062361409501038 -0.0087504362310954539 0 -0.43980724582823377 0.011546745451892231 0 -0.44404773438302642 0.0053459319930814391 0 -0.43980724582823377 0.011546745451892231 0 -0.44404773438302642 0.0053459319930814391 0 -0.43062361409501038 -0.0087504362310954539 0 -0.43980724582823377 0.011546745451892231 0 -0.43062361409501038 -0.0087504362310954539 0 -0.43980724582823377 0.011546745451892231 0 -0.4270377381973694 0.003578377932654813 0 -0.43980724582823377 0.011546745451892231 0 -0.42640880437122208 0.01456853592420719 0 -0.4270377381973694 0.003578377932654813 0 -0.42640880437122208 0.01456853592420719 0 -0.4270377381973694 0.003578377932654813 0 -0.41765430851171531 0.0079157437894960322 0 -0.41344510949837732 -0.0077660454777063407 0 -0.41765430851171531 0.0079157437894960322 0 -0.40304345966158361 0.0075616688737657131 0 -0.41344510949837732 -0.0077660454777063407 0 -0.4270377381973694 0.003578377932654813 0 -0.41765430851171531 0.0079157437894960322 0 -0.42640880437122208 0.01456853592420719 0 -0.41765430851171531 0.0079157437894960322 0 -0.41425164612696602 0.022192171507557951 0 -0.41765430851171531 0.0079157437894960322 0 -0.41425164612696602 0.022192171507557951 0 -0.40304345966158361 0.0075616688737657131 0 -0.41425164612696602 0.022192171507557951 0 -0.41483215140475271 0.048067514140483977 0 -0.3958724191784701 0.022230883046203461 0 -0.42640880437122208 0.01456853592420719 0 -0.41425164612696602 0.022192171507557951 0 -0.42943994289388909 0.026706723066782401 0 -0.43980724582823377 0.011546745451892231 0 -0.42943994289388909 0.026706723066782401 0 -0.43980724582823377 0.011546745451892231 0 -0.42640880437122208 0.01456853592420719 0 -0.42943994289388909 0.026706723066782401 0 -0.44015698384511548 0.034341889428199823 0 -0.42943994289388909 0.026706723066782401 0 -0.43414601398158809 0.046092599364169443 0 -0.42943994289388909 0.026706723066782401 0 -0.43414601398158809 0.046092599364169443 0 -0.41483215140475271 0.048067514140483977 0 -0.42943994289388909 0.026706723066782401 0 -0.41483215140475271 0.048067514140483977 0 -0.43414601398158809 0.046092599364169443 0 -0.41483215140475271 0.048067514140483977 0 -0.42150882489535618 0.065025494342456566 0 -0.43414601398158809 0.046092599364169443 0 -0.42150882489535618 0.065025494342456566 0 -0.44252343619518841 0.070429654146284312 0 -0.41483215140475271 0.048067514140483977 0 -0.3996542284078804 0.059612223638133233 0 -0.42150882489535618 0.065025494342456566 0 -0.41425164612696602 0.022192171507557951 0 -0.42943994289388909 0.026706723066782401 0 -0.41483215140475271 0.048067514140483977 0 -0.41483215140475271 0.048067514140483977 0 -0.3858550821149187 0.045740644487038573 0 -0.3958724191784701 0.022230883046203461 0 -0.3858550821149187 0.045740644487038573 0 -0.3958724191784701 0.022230883046203461 0 -0.41483215140475271 0.048067514140483977 0 -0.3996542284078804 0.059612223638133233 0 -0.3858550821149187 0.045740644487038573 0 -0.3858550821149187 0.045740644487038573 0 -0.37583774505136719 0.069250405927873793 0 -0.3996542284078804 0.059612223638133233 0 -0.3858550821149187 0.045740644487038573 0 -0.37583774505136719 0.069250405927873793 0 -0.3858550821149187 0.045740644487038573 0 -0.3958724191784701 0.022230883046203461 0 -0.37421772156953242 0.028710292874888351 0 -0.38403372220648302 0.0093561054383379007 0 -0.3958724191784701 0.022230883046203461 0 -0.37421772156953242 0.028710292874888351 0 -0.39460289999769821 -0.01086459394867394 0 -0.38403372220648302 0.0093561054383379007 0 -0.40304345966158361 0.0075616688737657131 0 -0.38403372220648302 0.0093561054383379007 0 -0.40304345966158361 0.0075616688737657131 0 -0.3958724191784701 0.022230883046203461 0 -0.41425164612696602 0.022192171507557951 0 -0.40304345966158361 0.0075616688737657131 0 -0.3958724191784701 0.022230883046203461 0 -0.38133564847368351 0.1119315111385806 0 -0.38694345385207918 0.091958716316328099 0 -0.40800046725492511 0.1072986818761323 0 -0.38133564847368351 0.1119315111385806 0 -0.40800046725492511 0.1072986818761323 0 -0.39879853185549419 0.12439574633446519 0 -0.38133564847368351 0.1119315111385806 0 -0.40800046725492511 0.1072986818761323 0 -0.39879853185549419 0.12439574633446519 0 -0.38133564847368351 0.1119315111385806 0 -0.38365627454868878 0.13271589770618619 0 -0.38133564847368351 0.1119315111385806 0 -0.38694345385207918 0.091958716316328099 0 -0.36582040798781579 0.092760167368708846 0 -0.38694345385207918 0.091958716316328099 0 -0.37583774505136719 0.069250405927873793 0 -0.40372300049260418 0.078552815270344967 0 -0.38694345385207918 0.091958716316328099 0 -0.37583774505136719 0.069250405927873793 0 -0.36582040798781579 0.092760167368708846 0 -0.3996542284078804 0.059612223638133233 0 -0.37583774505136719 0.069250405927873793 0 -0.40372300049260418 0.078552815270344967 0 -0.38694345385207918 0.091958716316328099 0 -0.40372300049260418 0.078552815270344967 0 -0.40800046725492511 0.1072986818761323 0 -0.40372300049260418 0.078552815270344967 0 -0.42545142303175448 0.083558156300388625 0 -0.40800046725492511 0.1072986818761323 0 -0.3996542284078804 0.059612223638133233 0 -0.40372300049260418 0.078552815270344967 0 -0.42150882489535618 0.065025494342456566 0 -0.40372300049260418 0.078552815270344967 0 -0.42150882489535618 0.065025494342456566 0 -0.42545142303175448 0.083558156300388625 0 -0.42150882489535618 0.065025494342456566 0 -0.42545142303175448 0.083558156300388625 0 -0.44252343619518841 0.070429654146284312 0 -0.42545142303175448 0.083558156300388625 0 -0.43466528603616672 0.10266585261368399 0 -0.40800046725492511 0.1072986818761323 0 -0.43466528603616672 0.10266585261368399 0 -0.40800046725492511 0.1072986818761323 0 -0.39879853185549419 0.12439574633446519 0 -0.40800046725492511 0.1072986818761323 0 -0.41940393738153819 0.12763849132851141 0 -0.43466528603616672 0.10266585261368399 0 -0.40800046725492511 0.1072986818761323 0 -0.41940393738153819 0.12763849132851141 0 -0.43466528603616672 0.10266585261368399 0 -0.43863740216431779 0.1232285659589564 0 -0.41940393738153819 0.12763849132851141 0 -0.43466528603616672 0.10266585261368399 0 -0.43863740216431779 0.1232285659589564 0 -0.45673798779794689 0.1194486123560707 0 -0.43466528603616672 0.10266585261368399 0 -0.45673798779794689 0.1194486123560707 0 -0.4531841504140553 0.09374915183226698 0 -0.45673798779794689 0.1194486123560707 0 -0.4531841504140553 0.09374915183226698 0 -0.47242284412991442 0.1052808206738494 0 -0.45673798779794689 0.1194486123560707 0 -0.47242284412991442 0.1052808206738494 0 -0.47557623198926979 0.13197172970977231 0 -0.42545142303175448 0.083558156300388625 0 -0.43466528603616672 0.10266585261368399 0 -0.4531841504140553 0.09374915183226698 0 -0.42545142303175448 0.083558156300388625 0 -0.44252343619518841 0.070429654146284312 0 -0.4531841504140553 0.09374915183226698 0 -0.4531841504140553 0.09374915183226698 0 -0.46926945627055888 0.078589911637926543 0 -0.47242284412991442 0.1052808206738494 0 -0.44252343619518841 0.070429654146284312 0 -0.4531841504140553 0.09374915183226698 0 -0.46926945627055888 0.078589911637926543 0 -0.45060163675428 0.056085469986763031 0 -0.44252343619518841 0.070429654146284312 0 -0.46926945627055888 0.078589911637926543 0 -0.46611606841120329 0.051899002602003461 0 -0.46926945627055888 0.078589911637926543 0 -0.46611606841120329 0.051899002602003461 0 -0.48284852088645308 0.066932857453568598 0 -0.46926945627055888 0.078589911637926543 0 -0.48284852088645308 0.066932857453568598 0 -0.46926945627055888 0.078589911637926543 0 -0.4923872470972589 0.085231691181816324 0 -0.46926945627055888 0.078589911637926543 0 -0.47242284412991442 0.1052808206738494 0 -0.48447415158908202 0.097323926689273491 0 -0.46926945627055888 0.078589911637926543 0 -0.4923872470972589 0.085231691181816324 0 -0.48447415158908202 0.097323926689273491 0 -0.46926945627055888 0.078589911637926543 0 -0.47242284412991442 0.1052808206738494 0 -0.4923872470972589 0.085231691181816324 0 -0.5 0.06905125405078244 0 -0.5 0.098155978319233839 0 -0.48284852088645308 0.066932857453568598 0 -0.4923872470972589 0.085231691181816324 0 -0.5 0.06905125405078244 0 -0.47242284412991442 0.1052808206738494 0 -0.48648747298575168 0.1235249918683476 0 -0.47557623198926979 0.13197172970977231 0 -0.47242284412991442 0.1052808206738494 0 -0.49379060777471939 0.1102922771875301 0 -0.48648747298575168 0.1235249918683476 0 -0.47242284412991442 0.1052808206738494 0 -0.47557623198926979 0.13197172970977231 0 -0.47242284412991442 0.1052808206738494 0 -0.48447415158908202 0.097323926689273491 0 -0.49379060777471939 0.1102922771875301 0 -0.4923872470972589 0.085231691181816324 0 -0.48447415158908202 0.097323926689273491 0 -0.49379060777471939 0.1102922771875301 0 -0.4923872470972589 0.085231691181816324 0 -0.5 0.098155978319233839 0 -0.49379060777471939 0.1102922771875301 0 -0.4923872470972589 0.085231691181816324 0 -0.49379060777471939 0.1102922771875301 0 -0.49379060777471939 0.1102922771875301 0 -0.48648747298575168 0.1235249918683476 0 -0.49519396845217978 0.13535286319324391 0 -0.49379060777471939 0.1102922771875301 0 -0.49519396845217978 0.13535286319324391 0 -0.49379060777471939 0.1102922771875301 0 -0.5 0.12726070258768521 0 -0.49519396845217978 0.13535286319324391 0 -0.5 0.098155978319233839 0 -0.49379060777471939 0.1102922771875301 0 -0.5 0.12726070258768521 0 -0.5 0.12726070258768521 0 -0.49519396845217978 0.13535286319324391 0 -0.5 0.15636542685613661 0 -0.49519396845217978 0.13535286319324391 0 -0.48466407502094722 0.13683184663325179 0 -0.48885208706629341 0.1481129942861642 0 -0.48648747298575168 0.1235249918683476 0 -0.49519396845217978 0.13535286319324391 0 -0.48466407502094722 0.13683184663325179 0 -0.48648747298575168 0.1235249918683476 0 -0.48466407502094722 0.13683184663325179 0 -0.47557623198926979 0.13197172970977231 0 -0.47557623198926979 0.13197172970977231 0 -0.47721061461124148 0.14519665410873131 0 -0.45721868883947198 0.1413692629921742 0 -0.48466407502094722 0.13683184663325179 0 -0.47557623198926979 0.13197172970977231 0 -0.47721061461124148 0.14519665410873131 0 -0.47721061461124148 0.14519665410873131 0 -0.47954675738528713 0.15766908838739949 0 -0.46796303725085681 0.15410290552694789 0 -0.48466407502094722 0.13683184663325179 0 -0.47721061461124148 0.14519665410873131 0 -0.48885208706629341 0.1481129942861642 0 -0.48364715122351692 0.15200408902997969 0 -0.48755607703692061 0.15753968137430449 0 -0.47954675738528713 0.15766908838739949 0 -0.47721061461124148 0.14519665410873131 0 -0.48364715122351692 0.15200408902997969 0 -0.47954675738528713 0.15766908838739949 0 -0.47721061461124148 0.14519665410873131 0 -0.48364715122351692 0.15200408902997969 0 -0.48885208706629341 0.1481129942861642 0 -0.49519396845217978 0.13535286319324391 0 -0.49659732912964022 0.1604134491989577 0 -0.48364715122351692 0.15200408902997969 0 -0.48885208706629341 0.1481129942861642 0 -0.48755607703692061 0.15753968137430449 0 -0.49519396845217978 0.13535286319324391 0 -0.48885208706629341 0.1481129942861642 0 -0.49659732912964022 0.1604134491989577 0 -0.49519396845217978 0.13535286319324391 0 -0.5 0.15636542685613661 0 -0.49659732912964022 0.1604134491989577 0 -0.48885208706629341 0.1481129942861642 0 -0.49659732912964022 0.1604134491989577 0 -0.48755607703692061 0.15753968137430449 0 -0.49659732912964022 0.1604134491989577 0 -0.49370169696121019 0.17109131161259791 0 -0.49553823025861349 0.17856256621328451 0 -0.5 0.15636542685613661 0 -0.49659732912964022 0.1604134491989577 0 -0.49999999999999861 0.1854701511245879 0 -0.49659732912964022 0.1604134491989577 0 -0.49263388205517639 0.1677255636236589 0 -0.49005939332785969 0.1635894441255078 0 -0.49659732912964022 0.1604134491989577 0 -0.49370169696121019 0.17109131161259791 0 -0.49263388205517639 0.1677255636236589 0 -0.49370169696121019 0.17109131161259791 0 -0.49263388205517639 0.1677255636236589 0 -0.49080243774702498 0.17300232260524179 0 -0.49263388205517639 0.1677255636236589 0 -0.48873928581296322 0.1688410143560686 0 -0.49005939332785969 0.1635894441255078 0 -0.48873928581296322 0.1688410143560686 0 -0.49080243774702498 0.17300232260524179 0 -0.48577034202041242 0.1732973462330954 0 -0.49263388205517639 0.1677255636236589 0 -0.48873928581296322 0.1688410143560686 0 -0.49080243774702498 0.17300232260524179 0 -0.48873928581296322 0.1688410143560686 0 -0.48577034202041242 0.1732973462330954 0 -0.48288103333955879 0.1684455515013015 0 -0.48873928581296322 0.1688410143560686 0 -0.4847703926045982 0.1634275120745495 0 -0.48288103333955879 0.1684455515013015 0 -0.48873928581296322 0.1688410143560686 0 -0.4847703926045982 0.1634275120745495 0 -0.49005939332785969 0.1635894441255078 0 -0.4847703926045982 0.1634275120745495 0 -0.48755607703692061 0.15753968137430449 0 -0.49005939332785969 0.1635894441255078 0 -0.49659732912964022 0.1604134491989577 0 -0.48755607703692061 0.15753968137430449 0 -0.49005939332785969 0.1635894441255078 0 -0.49800068980710088 0.18547403520467151 0 -0.47466896017739052 0.18551936199117081 0 -0.49659732912964022 0.1604134491989577 0 -0.49800068980710088 0.18547403520467151 0 -0.49659732912964022 0.1604134491989577 0 -0.49999999999999861 0.1854701511245879 0 -0.49800068980710088 0.18547403520467151 0 -0.49800068980710088 0.18547403520467151 0 -0.47466896017739052 0.18551936199117081 0 -0.48633989974609082 0.18810890197259181 0 -0.49659732912964022 0.1604134491989577 0 -0.49800068980710088 0.18547403520467151 0 -0.49553823025861349 0.17856256621328451 0 -0.49800068980710088 0.18547403520467151 0 -0.4875787755448871 0.18400710820597549 0 -0.47466896017739052 0.18551936199117081 0 -0.49800068980710088 0.18547403520467151 0 -0.49318189401397922 0.1824413909819407 0 -0.4875787755448871 0.18400710820597549 0 -0.49999999999999861 0.1854701511245879 0 -0.49800068980710088 0.18547403520467151 0 -0.49827358411681189 0.19034725947896361 0 -0.49999999999999861 0.1854701511245879 0 -0.49800068980710088 0.18547403520467151 0 -0.49800068980710088 0.18547403520467151 0 -0.49535604356172441 0.18249831836010269 0 -0.49553823025861349 0.17856256621328451 0 -0.49535604356172441 0.18249831836010269 0 -0.49356112865695562 0.18050925562528111 0 -0.49553823025861349 0.17856256621328451 0 -0.49800068980710088 0.18547403520467151 0 -0.49535604356172441 0.18249831836010269 0 -0.49318189401397922 0.1824413909819407 0 -0.49535604356172441 0.18249831836010269 0 -0.49318189401397922 0.1824413909819407 0 -0.49356112865695562 0.18050925562528111 0 -0.49318189401397922 0.1824413909819407 0 -0.49356112865695562 0.18050925562528111 0 -0.49141405260139281 0.18148006482155279 0 -0.49356112865695562 0.18050925562528111 0 -0.49294545537419021 0.1781826891392839 0 -0.49116926938030719 0.17933629804417811 0 -0.49356112865695562 0.18050925562528111 0 -0.49294545537419021 0.1781826891392839 0 -0.49553823025861349 0.17856256621328451 0 -0.49294545537419021 0.1781826891392839 0 -0.49293660561559588 0.1757526564218469 0 -0.49078506359873969 0.17669870414537719 0 -0.49294545537419021 0.1781826891392839 0 -0.49553823025861349 0.17856256621328451 0 -0.49293660561559588 0.1757526564218469 0 -0.49370169696121019 0.17109131161259791 0 -0.49553823025861349 0.17856256621328451 0 -0.49293660561559588 0.1757526564218469 0 -0.49370169696121019 0.17109131161259791 0 -0.49293660561559588 0.1757526564218469 0 -0.49080243774702498 0.17300232260524179 0 -0.49293660561559588 0.1757526564218469 0 -0.49080243774702498 0.17300232260524179 0 -0.49078506359873969 0.17669870414537719 0 -0.49080243774702498 0.17300232260524179 0 -0.4881269509755336 0.17581965333311239 0 -0.49078506359873969 0.17669870414537719 0 -0.48577034202041242 0.1732973462330954 0 -0.4881269509755336 0.17581965333311239 0 -0.48533056470824998 0.17802082352612331 0 -0.49080243774702498 0.17300232260524179 0 -0.48577034202041242 0.1732973462330954 0 -0.4881269509755336 0.17581965333311239 0 -0.48577034202041242 0.1732973462330954 0 -0.48533056470824998 0.17802082352612331 0 -0.48224094703605042 0.17619117004324919 0 -0.4881269509755336 0.17581965333311239 0 -0.48533056470824998 0.17802082352612331 0 -0.48834986233068178 0.17869314646384971 0 -0.48533056470824998 0.17802082352612331 0 -0.48834986233068178 0.17869314646384971 0 -0.48545699682154031 0.18064469893902149 0 -0.48834986233068178 0.17869314646384971 0 -0.49078506359873969 0.17669870414537719 0 -0.49116926938030719 0.17933629804417811 0 -0.4881269509755336 0.17581965333311239 0 -0.48834986233068178 0.17869314646384971 0 -0.49078506359873969 0.17669870414537719 0 -0.49294545537419021 0.1781826891392839 0 -0.49078506359873969 0.17669870414537719 0 -0.49116926938030719 0.17933629804417811 0 -0.49318189401397922 0.1824413909819407 0 -0.49141405260139281 0.18148006482155279 0 -0.4875787755448871 0.18400710820597549 0 -0.49116926938030719 0.17933629804417811 0 -0.49141405260139281 0.18148006482155279 0 -0.48907597353489368 0.18142822824225871 0 -0.49356112865695562 0.18050925562528111 0 -0.49116926938030719 0.17933629804417811 0 -0.49141405260139281 0.18148006482155279 0 -0.49141405260139281 0.18148006482155279 0 -0.48907597353489368 0.18142822824225871 0 -0.4875787755448871 0.18400710820597549 0 -0.48834986233068178 0.17869314646384971 0 -0.49116926938030719 0.17933629804417811 0 -0.48907597353489368 0.18142822824225871 0 -0.48834986233068178 0.17869314646384971 0 -0.48907597353489368 0.18142822824225871 0 -0.48545699682154031 0.18064469893902149 0 -0.48545699682154031 0.18064469893902149 0 -0.4875787755448871 0.18400710820597549 0 -0.48016589437207358 0.18204835147626491 0 -0.48907597353489368 0.18142822824225871 0 -0.48545699682154031 0.18064469893902149 0 -0.4875787755448871 0.18400710820597549 0 -0.4875787755448871 0.18400710820597549 0 -0.48016589437207358 0.18204835147626491 0 -0.47466896017739052 0.18551936199117081 0 -0.48545699682154031 0.18064469893902149 0 -0.48016589437207358 0.18204835147626491 0 -0.48225176558668759 0.17943055398268981 0 -0.48016589437207358 0.18204835147626491 0 -0.47796463437184888 0.17770314011601651 0 -0.47591786943484887 0.1811781909481022 0 -0.48016589437207358 0.18204835147626491 0 -0.47796463437184888 0.17770314011601651 0 -0.48225176558668759 0.17943055398268981 0 -0.48016589437207358 0.18204835147626491 0 -0.47591786943484887 0.1811781909481022 0 -0.47466896017739052 0.18551936199117081 0 -0.47796463437184888 0.17770314011601651 0 -0.48225176558668759 0.17943055398268981 0 -0.48224094703605042 0.17619117004324919 0 -0.48533056470824998 0.17802082352612331 0 -0.48545699682154031 0.18064469893902149 0 -0.48225176558668759 0.17943055398268981 0 -0.48533056470824998 0.17802082352612331 0 -0.48225176558668759 0.17943055398268981 0 -0.48224094703605042 0.17619117004324919 0 -0.48577034202041242 0.1732973462330954 0 -0.48224094703605042 0.17619117004324919 0 -0.47989828364128517 0.17226400462135369 0 -0.47796463437184888 0.17770314011601651 0 -0.48224094703605042 0.17619117004324919 0 -0.47989828364128517 0.17226400462135369 0 -0.47796463437184888 0.17770314011601651 0 -0.47989828364128517 0.17226400462135369 0 -0.47334844315586849 0.1723877845677044 0 -0.47334844315586849 0.1723877845677044 0 -0.47193785552659828 0.17901089196342021 0 -0.46651771443592438 0.1713850156091018 0 -0.47796463437184888 0.17770314011601651 0 -0.47193785552659828 0.17901089196342021 0 -0.47591786943484887 0.1811781909481022 0 -0.47796463437184888 0.17770314011601651 0 -0.47334844315586849 0.1723877845677044 0 -0.47193785552659828 0.17901089196342021 0 -0.47193785552659828 0.17901089196342021 0 -0.47466896017739052 0.18551936199117081 0 -0.46282732851055869 0.17909358982431831 0 -0.47193785552659828 0.17901089196342021 0 -0.47591786943484887 0.1811781909481022 0 -0.47466896017739052 0.18551936199117081 0 -0.4847703926045982 0.1634275120745495 0 -0.48755607703692061 0.15753968137430449 0 -0.47954675738528713 0.15766908838739949 0 -0.4847703926045982 0.1634275120745495 0 -0.47954675738528713 0.15766908838739949 0 -0.47522686261853497 0.16439788022144031 0 -0.4847703926045982 0.1634275120745495 0 -0.48288103333955879 0.1684455515013015 0 -0.47522686261853497 0.16439788022144031 0 -0.47989828364128517 0.17226400462135369 0 -0.48288103333955879 0.1684455515013015 0 -0.47522686261853497 0.16439788022144031 0 -0.48577034202041242 0.1732973462330954 0 -0.47989828364128517 0.17226400462135369 0 -0.48288103333955879 0.1684455515013015 0 -0.47334844315586849 0.1723877845677044 0 -0.47522686261853497 0.16439788022144031 0 -0.46651771443592438 0.1713850156091018 0 -0.47989828364128517 0.17226400462135369 0 -0.47334844315586849 0.1723877845677044 0 -0.47522686261853497 0.16439788022144031 0 -0.47954675738528713 0.15766908838739949 0 -0.47522686261853497 0.16439788022144031 0 -0.46796303725085681 0.15410290552694789 0 -0.46252534449282201 0.16278877979425271 0 -0.45312264889717879 0.1560262565773341 0 -0.46796303725085681 0.15410290552694789 0 -0.47522686261853497 0.16439788022144031 0 -0.46252534449282201 0.16278877979425271 0 -0.46796303725085681 0.15410290552694789 0 -0.47522686261853497 0.16439788022144031 0 -0.46252534449282201 0.16278877979425271 0 -0.46651771443592438 0.1713850156091018 0 -0.46252534449282201 0.16278877979425271 0 -0.46651771443592438 0.1713850156091018 0 -0.45324045231116378 0.1706311672834753 0 -0.46252534449282201 0.16278877979425271 0 -0.45324045231116378 0.1706311672834753 0 -0.45312264889717879 0.1560262565773341 0 -0.47466896017739052 0.18551936199117081 0 -0.45133723054768021 0.1855646887776744 0 -0.47466896017739052 0.18551936199117081 0 -0.46282732851055869 0.17909358982431831 0 -0.45133723054768021 0.1855646887776744 0 -0.47466896017739052 0.18551936199117081 0 -0.45133723054768021 0.1855646887776744 0 -0.4716026191524913 0.18808284728837379 0 -0.47193785552659828 0.17901089196342021 0 -0.46651771443592438 0.1713850156091018 0 -0.46282732851055869 0.17909358982431831 0 -0.45324045231116378 0.1706311672834753 0 -0.46282732851055869 0.17909358982431831 0 -0.45133723054768021 0.1855646887776744 0 -0.46651771443592438 0.1713850156091018 0 -0.45324045231116378 0.1706311672834753 0 -0.46282732851055869 0.17909358982431831 0 -0.45133723054768021 0.1855646887776744 0 -0.42800550091796968 0.185610015564178 0 -0.45133723054768021 0.1855646887776744 0 -0.44025815031634602 0.1744953908298551 0 -0.42800550091796968 0.185610015564178 0 -0.45324045231116378 0.1706311672834753 0 -0.45133723054768021 0.1855646887776744 0 -0.44025815031634602 0.1744953908298551 0 -0.45324045231116378 0.1706311672834753 0 -0.44103597160760838 0.16240367580849899 0 -0.45312264889717879 0.1560262565773341 0 -0.45324045231116378 0.1706311672834753 0 -0.44025815031634602 0.1744953908298551 0 -0.44103597160760838 0.16240367580849899 0 -0.44103597160760838 0.16240367580849899 0 -0.45312264889717879 0.1560262565773341 0 -0.43553268777256482 0.14604111844184101 0 -0.45312264889717879 0.1560262565773341 0 -0.45721868883947198 0.1413692629921742 0 -0.43553268777256482 0.14604111844184101 0 -0.43863740216431779 0.1232285659589564 0 -0.45673798779794689 0.1194486123560707 0 -0.45721868883947198 0.1413692629921742 0 -0.43863740216431779 0.1232285659589564 0 -0.45721868883947198 0.1413692629921742 0 -0.43553268777256482 0.14604111844184101 0 -0.45673798779794689 0.1194486123560707 0 -0.47557623198926979 0.13197172970977231 0 -0.45721868883947198 0.1413692629921742 0 -0.47721061461124148 0.14519665410873131 0 -0.46796303725085681 0.15410290552694789 0 -0.45721868883947198 0.1413692629921742 0 -0.45312264889717879 0.1560262565773341 0 -0.46796303725085681 0.15410290552694789 0 -0.45721868883947198 0.1413692629921742 0 -0.47937347788333468 0.23934215084887581 0 -0.45874695576666902 0.2358370997938643 0 -0.47937347788333468 0.23934215084887581 0 -0.46720724980550937 0.2498841062250354 0 -0.48145540272589082 0.25821466465537318 0 -0.47937347788333468 0.23934215084887581 0 -0.50000000000000056 0.24284720190388731 0 -0.48353075721928601 0.22210570954403369 0 -0.47937347788333468 0.23934215084887581 0 -0.50000000000000056 0.24284720190388731 0 -0.48145540272589082 0.25821466465537318 0 -0.47937347788333468 0.23934215084887581 0 -0.50000000000000056 0.24284720190388731 0 -0.50000000000000056 0.24284720190388731 0 -0.48353075721928601 0.22210570954403369 0 -0.5 0.21415867651423759 0 -0.47937347788333468 0.23934215084887581 0 -0.48353075721928601 0.22210570954403369 0 -0.46838372860635868 0.2233907816391256 0 -0.47937347788333468 0.23934215084887581 0 -0.46838372860635868 0.2233907816391256 0 -0.45874695576666902 0.2358370997938643 0 -0.48353075721928601 0.22210570954403369 0 -0.4760459766282939 0.2084689384867934 0 -0.46838372860635868 0.2233907816391256 0 -0.4760459766282939 0.2084689384867934 0 -0.48714146533322189 0.20896724754267099 0 -0.4840360602635968 0.19983958274442001 0 -0.48353075721928601 0.22210570954403369 0 -0.4760459766282939 0.2084689384867934 0 -0.48714146533322189 0.20896724754267099 0 -0.48353075721928601 0.22210570954403369 0 -0.5 0.21415867651423759 0 -0.48714146533322189 0.20896724754267099 0 -0.5 0.21415867651423759 0 -0.48714146533322189 0.20896724754267099 0 -0.49250837412265519 0.19712361197075789 0 -0.49250837412265519 0.19712361197075789 0 -0.48933093404850919 0.1926800326908478 0 -0.4840360602635968 0.19983958274442001 0 -0.49999999999999861 0.1854701511245879 0 -0.5 0.21415867651423759 0 -0.49827358411681189 0.19034725947896361 0 -0.5 0.21415867651423759 0 -0.49250837412265519 0.19712361197075789 0 -0.49827358411681189 0.19034725947896361 0 -0.48714146533322189 0.20896724754267099 0 -0.49250837412265519 0.19712361197075789 0 -0.4840360602635968 0.19983958274442001 0 -0.49800068980710088 0.18547403520467151 0 -0.49321736280831607 0.18985656083720201 0 -0.48633989974609082 0.18810890197259181 0 -0.49800068980710088 0.18547403520467151 0 -0.49827358411681189 0.19034725947896361 0 -0.49800068980710088 0.18547403520467151 0 -0.49827358411681189 0.19034725947896361 0 -0.49321736280831607 0.18985656083720201 0 -0.49250837412265519 0.19712361197075789 0 -0.49827358411681189 0.19034725947896361 0 -0.49333256377407309 0.19250186624444279 0 -0.49827358411681189 0.19034725947896361 0 -0.49333256377407309 0.19250186624444279 0 -0.49321736280831607 0.18985656083720201 0 -0.49321736280831607 0.18985656083720201 0 -0.48933093404850919 0.1926800326908478 0 -0.48633989974609082 0.18810890197259181 0 -0.49250837412265519 0.19712361197075789 0 -0.49333256377407309 0.19250186624444279 0 -0.48933093404850919 0.1926800326908478 0 -0.49333256377407309 0.19250186624444279 0 -0.49321736280831607 0.18985656083720201 0 -0.48933093404850919 0.1926800326908478 0 -0.48933093404850919 0.1926800326908478 0 -0.48370596464593718 0.1930091116312499 0 -0.4840360602635968 0.19983958274442001 0 -0.48933093404850919 0.1926800326908478 0 -0.48633989974609082 0.18810890197259181 0 -0.48370596464593718 0.1930091116312499 0 -0.48633989974609082 0.18810890197259181 0 -0.47993382689588759 0.19014794239793681 0 -0.48370596464593718 0.1930091116312499 0 -0.47466896017739052 0.18551936199117081 0 -0.48633989974609082 0.18810890197259181 0 -0.47993382689588759 0.19014794239793681 0 -0.47466896017739052 0.18551936199117081 0 -0.47993382689588759 0.19014794239793681 0 -0.47595186805132728 0.19004157133652169 0 -0.47993382689588759 0.19014794239793681 0 -0.47888910227560172 0.19426909835045331 0 -0.47595186805132728 0.19004157133652169 0 -0.47993382689588759 0.19014794239793681 0 -0.47888910227560172 0.19426909835045331 0 -0.48370596464593718 0.1930091116312499 0 -0.4760459766282939 0.2084689384867934 0 -0.4840360602635968 0.19983958274442001 0 -0.47642433561780628 0.19961226574571109 0 -0.47888910227560172 0.19426909835045331 0 -0.48370596464593718 0.1930091116312499 0 -0.4840360602635968 0.19983958274442001 0 -0.47888910227560172 0.19426909835045331 0 -0.4840360602635968 0.19983958274442001 0 -0.47642433561780628 0.19961226574571109 0 -0.47888910227560172 0.19426909835045331 0 -0.47642433561780628 0.19961226574571109 0 -0.47425793504736891 0.19441043948121281 0 -0.4760459766282939 0.2084689384867934 0 -0.47642433561780628 0.19961226574571109 0 -0.46851393862233409 0.19943701618285661 0 -0.47642433561780628 0.19961226574571109 0 -0.47425793504736891 0.19441043948121281 0 -0.46851393862233409 0.19943701618285661 0 -0.4716026191524913 0.18808284728837379 0 -0.47425793504736891 0.19441043948121281 0 -0.46851393862233409 0.19943701618285661 0 -0.47466896017739052 0.18551936199117081 0 -0.4716026191524913 0.18808284728837379 0 -0.47595186805132728 0.19004157133652169 0 -0.4716026191524913 0.18808284728837379 0 -0.47595186805132728 0.19004157133652169 0 -0.47425793504736891 0.19441043948121281 0 -0.47888910227560172 0.19426909835045331 0 -0.47595186805132728 0.19004157133652169 0 -0.47425793504736891 0.19441043948121281 0 -0.4716026191524913 0.18808284728837379 0 -0.4442221188030524 0.19568241670165989 0 -0.45133723054768021 0.1855646887776744 0 -0.4716026191524913 0.18808284728837379 0 -0.4442221188030524 0.19568241670165989 0 -0.4716026191524913 0.18808284728837379 0 -0.45823739577480449 0.19978297141978291 0 -0.4442221188030524 0.19568241670165989 0 -0.4716026191524913 0.18808284728837379 0 -0.46851393862233409 0.19943701618285661 0 -0.45823739577480449 0.19978297141978291 0 -0.45133723054768021 0.1855646887776744 0 -0.4442221188030524 0.19568241670165989 0 -0.42800550091796968 0.185610015564178 0 -0.45823739577480449 0.19978297141978291 0 -0.4442221188030524 0.19568241670165989 0 -0.4484569399970999 0.20692834238854749 0 -0.4442221188030524 0.19568241670165989 0 -0.4484569399970999 0.20692834238854749 0 -0.4353945978892273 0.2125747035357026 0 -0.4484569399970999 0.20692834238854749 0 -0.44540282893978461 0.2159511482085415 0 -0.4353945978892273 0.2125747035357026 0 -0.44540282893978461 0.2159511482085415 0 -0.45902775857863071 0.21065047207705059 0 -0.45357744556193841 0.22394031908413589 0 -0.4484569399970999 0.20692834238854749 0 -0.44540282893978461 0.2159511482085415 0 -0.45902775857863071 0.21065047207705059 0 -0.4760459766282939 0.2084689384867934 0 -0.45902775857863071 0.21065047207705059 0 -0.46838372860635868 0.2233907816391256 0 -0.4760459766282939 0.2084689384867934 0 -0.46851393862233409 0.19943701618285661 0 -0.45902775857863071 0.21065047207705059 0 -0.45823739577480449 0.19978297141978291 0 -0.4484569399970999 0.20692834238854749 0 -0.45902775857863071 0.21065047207705059 0 -0.46851393862233409 0.19943701618285661 0 -0.45823739577480449 0.19978297141978291 0 -0.45902775857863071 0.21065047207705059 0 -0.46838372860635868 0.2233907816391256 0 -0.45357744556193841 0.22394031908413589 0 -0.45874695576666902 0.2358370997938643 0 -0.45902775857863071 0.21065047207705059 0 -0.46838372860635868 0.2233907816391256 0 -0.45357744556193841 0.22394031908413589 0 -0.44540282893978461 0.2159511482085415 0 -0.43812043365000308 0.2323320487388528 0 -0.4353945978892273 0.2125747035357026 0 -0.43812043365000308 0.2323320487388528 0 -0.45874695576666902 0.2358370997938643 0 -0.45357744556193841 0.22394031908413589 0 -0.43812043365000308 0.2323320487388528 0 -0.45874695576666902 0.2358370997938643 0 -0.44540282893978461 0.2159511482085415 0 -0.45357744556193841 0.22394031908413589 0 -0.43812043365000308 0.2323320487388528 0 -0.43812043365000308 0.2323320487388528 0 -0.43680991428077598 0.2478611834207117 0 -0.45159942092471678 0.25152992809953878 0 -0.43812043365000308 0.2323320487388528 0 -0.45874695576666902 0.2358370997938643 0 -0.45159942092471678 0.25152992809953878 0 -0.45874695576666902 0.2358370997938643 0 -0.46720724980550937 0.2498841062250354 0 -0.45159942092471678 0.25152992809953878 0 -0.47937347788333468 0.23934215084887581 0 -0.45874695576666902 0.2358370997938643 0 -0.46720724980550937 0.2498841062250354 0 -0.42166945912993159 0.24614193587749439 0 -0.40371363511914887 0.2294472787414783 0 -0.42166945912993159 0.24614193587749439 0 -0.40371363511914887 0.2294472787414783 0 -0.39914639003873531 0.24782195554532521 0 -0.43812043365000308 0.2323320487388528 0 -0.42166945912993159 0.24614193587749439 0 -0.43680991428077598 0.2478611834207117 0 -0.43812043365000308 0.2323320487388528 0 -0.42166945912993159 0.24614193587749439 0 -0.41996004377139579 0.22313851660124201 0 -0.43812043365000308 0.2323320487388528 0 -0.41996004377139579 0.22313851660124201 0 -0.4353945978892273 0.2125747035357026 0 -0.41996004377139579 0.22313851660124201 0 -0.40545192555368442 0.21749283429520941 0 -0.40371363511914887 0.2294472787414783 0 -0.42166945912993159 0.24614193587749439 0 -0.41996004377139579 0.22313851660124201 0 -0.40371363511914887 0.2294472787414783 0 -0.41996004377139579 0.22313851660124201 0 -0.41684161845361362 0.203281986114946 0 -0.40545192555368442 0.21749283429520941 0 -0.4442221188030524 0.19568241670165989 0 -0.41684161845361362 0.203281986114946 0 -0.4353945978892273 0.2125747035357026 0 -0.41996004377139579 0.22313851660124201 0 -0.41684161845361362 0.203281986114946 0 -0.4353945978892273 0.2125747035357026 0 -0.4442221188030524 0.19568241670165989 0 -0.41684161845361362 0.203281986114946 0 -0.42800550091796968 0.185610015564178 0 -0.4442221188030524 0.19568241670165989 0 -0.41684161845361362 0.203281986114946 0 -0.41684161845361362 0.203281986114946 0 -0.40967023102719508 0.1952193513191052 0 -0.40002129509105139 0.20004976670197741 0 -0.40967023102719508 0.1952193513191052 0 -0.42800550091796968 0.185610015564178 0 -0.40467377128825932 0.18565534235068171 0 -0.41684161845361362 0.203281986114946 0 -0.40967023102719508 0.1952193513191052 0 -0.42800550091796968 0.185610015564178 0 -0.38946111810417472 0.21088155552823259 0 -0.39382572755869261 0.1862490446149723 0 -0.40002129509105139 0.20004976670197741 0 -0.38946111810417472 0.21088155552823259 0 -0.39382572755869261 0.1862490446149723 0 -0.40967023102719508 0.1952193513191052 0 -0.40204775624129963 0.19179337624668411 0 -0.40467377128825932 0.18565534235068171 0 -0.40204775624129963 0.19179337624668411 0 -0.40467377128825932 0.18565534235068171 0 -0.39382572755869261 0.1862490446149723 0 -0.40204775624129963 0.19179337624668411 0 -0.40002129509105139 0.20004976670197741 0 -0.39382572755869261 0.1862490446149723 0 -0.40967023102719508 0.1952193513191052 0 -0.40204775624129963 0.19179337624668411 0 -0.40002129509105139 0.20004976670197741 0 -0.38055927120671179 0.19441646479378921 0 -0.38322527547754898 0.2017826411921729 0 -0.39382572755869261 0.1862490446149723 0 -0.38055927120671179 0.19441646479378921 0 -0.39382572755869261 0.1862490446149723 0 -0.38212852634366712 0.18386761915751471 0 -0.38322527547754898 0.2017826411921729 0 -0.38946111810417472 0.21088155552823259 0 -0.39382572755869261 0.1862490446149723 0 -0.38055927120671179 0.19441646479378921 0 -0.38212852634366712 0.18386761915751471 0 -0.37142334297707602 0.1902872533052937 0 -0.38055927120671179 0.19441646479378921 0 -0.38322527547754898 0.2017826411921729 0 -0.37183481320471862 0.2039822493400876 0 -0.38322527547754898 0.2017826411921729 0 -0.38946111810417472 0.21088155552823259 0 -0.38044544731344709 0.21338389168378291 0 -0.38322527547754898 0.2017826411921729 0 -0.38044544731344709 0.21338389168378291 0 -0.37183481320471862 0.2039822493400876 0 -0.38946111810417472 0.21088155552823259 0 -0.38044544731344709 0.21338389168378291 0 -0.37736657392715961 0.22409495455800571 0 -0.38044544731344709 0.21338389168378291 0 -0.37736657392715961 0.22409495455800571 0 -0.36992131199210831 0.21563503533014661 0 -0.38946111810417472 0.21088155552823259 0 -0.38044544731344709 0.21338389168378291 0 -0.41684161845361362 0.203281986114946 0 -0.38946111810417472 0.21088155552823259 0 -0.40545192555368442 0.21749283429520941 0 -0.41684161845361362 0.203281986114946 0 -0.38946111810417472 0.21088155552823259 0 -0.38946111810417472 0.21088155552823259 0 -0.40545192555368442 0.21749283429520941 0 -0.39595193468342349 0.22321463837049449 0 -0.41684161845361362 0.203281986114946 0 -0.40002129509105139 0.20004976670197741 0 -0.38946111810417472 0.21088155552823259 0 -0.40371363511914887 0.2294472787414783 0 -0.39595193468342349 0.22321463837049449 0 -0.38518105995668611 0.23503688491705771 0 -0.40545192555368442 0.21749283429520941 0 -0.40371363511914887 0.2294472787414783 0 -0.39595193468342349 0.22321463837049449 0 -0.38946111810417472 0.21088155552823259 0 -0.39595193468342349 0.22321463837049449 0 -0.38518105995668611 0.23503688491705771 0 -0.38946111810417472 0.21088155552823259 0 -0.37736657392715961 0.22409495455800571 0 -0.38518105995668611 0.23503688491705771 0 -0.37736657392715961 0.22409495455800571 0 -0.38518105995668611 0.23503688491705771 0 -0.36921482647819248 0.24062938766741859 0 -0.38946111810417472 0.21088155552823259 0 -0.38518105995668611 0.23503688491705771 0 -0.38518105995668611 0.23503688491705771 0 -0.39914639003873531 0.24782195554532521 0 -0.38090100180919628 0.25919221430588252 0 -0.38518105995668611 0.23503688491705771 0 -0.38090100180919628 0.25919221430588252 0 -0.38518105995668611 0.23503688491705771 0 -0.36921482647819248 0.24062938766741859 0 -0.38090100180919628 0.25919221430588252 0 -0.40371363511914887 0.2294472787414783 0 -0.38518105995668611 0.23503688491705771 0 -0.39914639003873531 0.24782195554532521 0 -0.41749639180547121 0.1503422764227485 0 -0.41940393738153819 0.12763849132851141 0 -0.40159633161863539 0.14239414962291561 0 -0.39879853185549419 0.12439574633446519 0 -0.41940393738153819 0.12763849132851141 0 -0.40159633161863539 0.14239414962291561 0 -0.43863740216431779 0.1232285659589564 0 -0.41940393738153819 0.12763849132851141 0 -0.43553268777256482 0.14604111844184101 0 -0.41749639180547121 0.1503422764227485 0 -0.43553268777256482 0.14604111844184101 0 -0.4286060959219134 0.16352010195622521 0 -0.41749639180547121 0.1503422764227485 0 -0.41940393738153819 0.12763849132851141 0 -0.43553268777256482 0.14604111844184101 0 -0.44103597160760838 0.16240367580849899 0 -0.43553268777256482 0.14604111844184101 0 -0.4286060959219134 0.16352010195622521 0 -0.44025815031634602 0.1744953908298551 0 -0.44103597160760838 0.16240367580849899 0 -0.4286060959219134 0.16352010195622521 0 -0.4286060959219134 0.16352010195622521 0 -0.42800550091796968 0.185610015564178 0 -0.41443765879279948 0.16786352555390091 0 -0.44025815031634602 0.1744953908298551 0 -0.4286060959219134 0.16352010195622521 0 -0.42800550091796968 0.185610015564178 0 -0.42800550091796968 0.185610015564178 0 -0.41240319468236958 0.17832208891956949 0 -0.41443765879279948 0.16786352555390091 0 -0.42800550091796968 0.185610015564178 0 -0.40467377128825932 0.18565534235068171 0 -0.42800550091796968 0.185610015564178 0 -0.41240319468236958 0.17832208891956949 0 -0.40467377128825932 0.18565534235068171 0 -0.41240319468236958 0.17832208891956949 0 -0.41443765879279948 0.16786352555390091 0 -0.40470613786706561 0.1759413070281671 0 -0.41240319468236958 0.17832208891956949 0 -0.40467377128825932 0.18565534235068171 0 -0.40470613786706561 0.1759413070281671 0 -0.41749639180547121 0.1503422764227485 0 -0.41443765879279948 0.16786352555390091 0 -0.39819033701320672 0.16161653370171131 0 -0.41443765879279948 0.16786352555390091 0 -0.39819033701320672 0.16161653370171131 0 -0.41749639180547121 0.1503422764227485 0 -0.4286060959219134 0.16352010195622521 0 -0.41443765879279948 0.16786352555390091 0 -0.41443765879279948 0.16786352555390091 0 -0.39819033701320672 0.16161653370171131 0 -0.40470613786706561 0.1759413070281671 0 -0.39819033701320672 0.16161653370171131 0 -0.40470613786706561 0.1759413070281671 0 -0.39382572755869261 0.1862490446149723 0 -0.39819033701320672 0.16161653370171131 0 -0.39382572755869261 0.1862490446149723 0 -0.38766786054388158 0.17292153381729 0 -0.39819033701320672 0.16161653370171131 0 -0.39382572755869261 0.1862490446149723 0 -0.40467377128825932 0.18565534235068171 0 -0.40470613786706561 0.1759413070281671 0 -0.39382572755869261 0.1862490446149723 0 -0.39382572755869261 0.1862490446149723 0 -0.38766786054388158 0.17292153381729 0 -0.38212852634366712 0.18386761915751471 0 -0.38766786054388158 0.17292153381729 0 -0.37531928193269581 0.1768499860236358 0 -0.38212852634366712 0.18386761915751471 0 -0.37531928193269581 0.1768499860236358 0 -0.38212852634366712 0.18386761915751471 0 -0.37142334297707602 0.1902872533052937 0 -0.39819033701320672 0.16161653370171131 0 -0.37608123302690288 0.15311572388608299 0 -0.39819033701320672 0.16161653370171131 0 -0.38766786054388158 0.17292153381729 0 -0.37608123302690288 0.15311572388608299 0 -0.38766786054388158 0.17292153381729 0 -0.37531928193269581 0.1768499860236358 0 -0.37608123302690288 0.15311572388608299 0 -0.37608123302690288 0.15311572388608299 0 -0.40159633161863539 0.14239414962291561 0 -0.38365627454868878 0.13271589770618619 0 -0.39819033701320672 0.16161653370171131 0 -0.37608123302690288 0.15311572388608299 0 -0.40159633161863539 0.14239414962291561 0 -0.39819033701320672 0.16161653370171131 0 -0.40159633161863539 0.14239414962291561 0 -0.41749639180547121 0.1503422764227485 0 -0.39819033701320672 0.16161653370171131 0 -0.40159633161863539 0.14239414962291561 0 -0.39879853185549419 0.12439574633446519 0 -0.40159633161863539 0.14239414962291561 0 -0.38365627454868878 0.13271589770618619 0 -0.37608123302690288 0.15311572388608299 0 -0.38365627454868878 0.13271589770618619 0 -0.36756773828955391 0.13133270284320189 0 -0.38133564847368351 0.1119315111385806 0 -0.38365627454868878 0.13271589770618619 0 -0.36756773828955391 0.13133270284320189 0 -0.36756773828955391 0.13133270284320189 0 -0.35397212904059933 0.14461491407045429 0 -0.35467082969244179 0.11656434040102891 0 -0.35397212904059933 0.14461491407045429 0 -0.3318630250542956 0.13611410425482551 0 -0.35467082969244179 0.11656434040102891 0 -0.35397212904059933 0.14461491407045429 0 -0.34474731493751398 0.1704009698690665 0 -0.33653812597840083 0.15226068472181731 0 -0.37608123302690288 0.15311572388608299 0 -0.35397212904059933 0.14461491407045429 0 -0.37608123302690288 0.15311572388608299 0 -0.35397212904059933 0.14461491407045429 0 -0.36213625915577252 0.16571100744465439 0 -0.37608123302690288 0.15311572388608299 0 -0.36756773828955391 0.13133270284320189 0 -0.35397212904059933 0.14461491407045429 0 -0.37531928193269581 0.1768499860236358 0 -0.37608123302690288 0.15311572388608299 0 -0.36213625915577252 0.16571100744465439 0 -0.37531928193269581 0.1768499860236358 0 -0.36213625915577252 0.16571100744465439 0 -0.36056133684115049 0.1835734433740325 0 -0.37531928193269581 0.1768499860236358 0 -0.36056133684115049 0.1835734433740325 0 -0.37142334297707602 0.1902872533052937 0 -0.36213625915577252 0.16571100744465439 0 -0.36056133684115049 0.1835734433740325 0 -0.34474731493751398 0.1704009698690665 0 -0.36056133684115049 0.1835734433740325 0 -0.34474731493751398 0.1704009698690665 0 -0.34629921684547937 0.1966563107492979 0 -0.35397212904059933 0.14461491407045429 0 -0.36213625915577252 0.16571100744465439 0 -0.34474731493751398 0.1704009698690665 0 -0.34474731493751398 0.1704009698690665 0 -0.31914236644927302 0.16496411965869931 0 -0.33653812597840083 0.15226068472181731 0 -0.34474731493751398 0.1704009698690665 0 -0.3297366473684043 0.1872917530586477 0 -0.31914236644927302 0.16496411965869931 0 -0.34474731493751398 0.1704009698690665 0 -0.3297366473684043 0.1872917530586477 0 -0.34629921684547937 0.1966563107492979 0 -0.3297366473684043 0.1872917530586477 0 -0.30365367548801497 0.18239283161483691 0 -0.3297366473684043 0.1872917530586477 0 -0.31914236644927302 0.16496411965869931 0 -0.30365367548801497 0.18239283161483691 0 -0.31914236644927302 0.16496411965869931 0 -0.31760363891553212 0.14421750593089089 0 -0.3037001573506572 0.15510539150649941 0 -0.31914236644927302 0.16496411965869931 0 -0.31760363891553212 0.14421750593089089 0 -0.33653812597840083 0.15226068472181731 0 -0.3318630250542956 0.13611410425482551 0 -0.30910302040648219 0.12726499447227321 0 -0.3318630250542956 0.13611410425482551 0 -0.30910302040648219 0.12726499447227321 0 -0.31365588817450779 0.1187566254702641 0 -0.31760363891553212 0.14421750593089089 0 -0.3318630250542956 0.13611410425482551 0 -0.30910302040648219 0.12726499447227321 0 -0.35397212904059933 0.14461491407045429 0 -0.3318630250542956 0.13611410425482551 0 -0.31760363891553212 0.14421750593089089 0 -0.3318630250542956 0.13611410425482551 0 -0.33653812597840083 0.15226068472181731 0 -0.35397212904059933 0.14461491407045429 0 -0.3318630250542956 0.13611410425482551 0 -0.33653812597840083 0.15226068472181731 0 -0.34378034018451309 0.23499290716498361 0 -0.3563961611915758 0.24797565259586621 0 -0.34257200970583163 0.25248948381028891 0 -0.34378034018451309 0.23499290716498361 0 -0.35659954484074852 0.23484136371198039 0 -0.3563961611915758 0.24797565259586621 0 -0.3563961611915758 0.24797565259586621 0 -0.36921482647819248 0.24062938766741859 0 -0.36537575547141449 0.2578204453320545 0 -0.35659954484074852 0.23484136371198039 0 -0.3563961611915758 0.24797565259586621 0 -0.36921482647819248 0.24062938766741859 0 -0.37736657392715961 0.22409495455800571 0 -0.36921482647819248 0.24062938766741859 0 -0.36306175904981741 0.22445852320520501 0 -0.35659954484074852 0.23484136371198039 0 -0.36921482647819248 0.24062938766741859 0 -0.36306175904981741 0.22445852320520501 0 -0.37736657392715961 0.22409495455800571 0 -0.36306175904981741 0.22445852320520501 0 -0.36992131199210831 0.21563503533014661 0 -0.35659954484074852 0.23484136371198039 0 -0.36306175904981741 0.22445852320520501 0 -0.34623371536767178 0.2198387935493086 0 -0.34378034018451309 0.23499290716498361 0 -0.35659954484074852 0.23484136371198039 0 -0.34623371536767178 0.2198387935493086 0 -0.34623371536767178 0.2198387935493086 0 -0.35815915592798953 0.21069630121058261 0 -0.34629921684547937 0.1966563107492979 0 -0.36306175904981741 0.22445852320520501 0 -0.34623371536767178 0.2198387935493086 0 -0.35815915592798953 0.21069630121058261 0 -0.36306175904981741 0.22445852320520501 0 -0.35815915592798953 0.21069630121058261 0 -0.36992131199210831 0.21563503533014661 0 -0.38044544731344709 0.21338389168378291 0 -0.36992131199210831 0.21563503533014661 0 -0.37183481320471862 0.2039822493400876 0 -0.35815915592798953 0.21069630121058261 0 -0.36992131199210831 0.21563503533014661 0 -0.37183481320471862 0.2039822493400876 0 -0.35815915592798953 0.21069630121058261 0 -0.37183481320471862 0.2039822493400876 0 -0.36065021749477699 0.1976090103235284 0 -0.37183481320471862 0.2039822493400876 0 -0.36065021749477699 0.1976090103235284 0 -0.37142334297707602 0.1902872533052937 0 -0.38055927120671179 0.19441646479378921 0 -0.37183481320471862 0.2039822493400876 0 -0.37142334297707602 0.1902872533052937 0 -0.36056133684115049 0.1835734433740325 0 -0.36065021749477699 0.1976090103235284 0 -0.37142334297707602 0.1902872533052937 0 -0.36056133684115049 0.1835734433740325 0 -0.36065021749477699 0.1976090103235284 0 -0.34629921684547937 0.1966563107492979 0 -0.35815915592798953 0.21069630121058261 0 -0.36065021749477699 0.1976090103235284 0 -0.34629921684547937 0.1966563107492979 0 -0.3297366473684043 0.1872917530586477 0 -0.34629921684547937 0.1966563107492979 0 -0.33135379776248403 0.21057468107693619 0 -0.3297366473684043 0.1872917530586477 0 -0.31641387432514062 0.20198548982781289 0 -0.33135379776248403 0.21057468107693619 0 -0.3297366473684043 0.1872917530586477 0 -0.31641387432514062 0.20198548982781289 0 -0.30365367548801497 0.18239283161483691 0 -0.31641387432514062 0.20198548982781289 0 -0.33135379776248403 0.21057468107693619 0 -0.31180948040000378 0.2187866735344724 0 -0.34623371536767178 0.2198387935493086 0 -0.34629921684547937 0.1966563107492979 0 -0.33135379776248403 0.21057468107693619 0 -0.34623371536767178 0.2198387935493086 0 -0.33135379776248403 0.21057468107693619 0 -0.32769827947456898 0.22880420912042029 0 -0.34378034018451309 0.23499290716498361 0 -0.34623371536767178 0.2198387935493086 0 -0.32769827947456898 0.22880420912042029 0 -0.32769827947456898 0.22880420912042029 0 -0.31205729184551811 0.23233520339787991 0 -0.31180948040000378 0.2187866735344724 0 -0.33135379776248403 0.21057468107693619 0 -0.32769827947456898 0.22880420912042029 0 -0.31180948040000378 0.2187866735344724 0 -0.32769827947456898 0.22880420912042029 0 -0.31729140884439411 0.24522652999362271 0 -0.31205729184551811 0.23233520339787991 0 -0.32769827947456898 0.22880420912042029 0 -0.31729140884439411 0.24522652999362271 0 -0.33202861639546088 0.24364741256705169 0 -0.31729140884439411 0.24522652999362271 0 -0.33202861639546088 0.24364741256705169 0 -0.32880104376799718 0.25672393274594318 0 -0.34378034018451309 0.23499290716498361 0 -0.33202861639546088 0.24364741256705169 0 -0.34257200970583163 0.25248948381028891 0 -0.34378034018451309 0.23499290716498361 0 -0.32769827947456898 0.22880420912042029 0 -0.33202861639546088 0.24364741256705169 0 -0.28184333947743517 0.23922374340090499 0 -0.29179662060540801 0.24928241604308141 0 -0.29802606822422262 0.23166086606222 0 -0.28184333947743517 0.23922374340090499 0 -0.29179662060540801 0.24928241604308141 0 -0.28034183904949411 0.25378490876330928 0 -0.29179662060540801 0.24928241604308141 0 -0.30507213254050369 0.24242267208482349 0 -0.3061892731829759 0.25360834492731388 0 -0.29179662060540801 0.24928241604308141 0 -0.30507213254050369 0.24242267208482349 0 -0.29802606822422262 0.23166086606222 0 -0.31729140884439411 0.24522652999362271 0 -0.30507213254050369 0.24242267208482349 0 -0.3061892731829759 0.25360834492731388 0 -0.31729140884439411 0.24522652999362271 0 -0.30507213254050369 0.24242267208482349 0 -0.31205729184551811 0.23233520339787991 0 -0.30507213254050369 0.24242267208482349 0 -0.29802606822422262 0.23166086606222 0 -0.31205729184551811 0.23233520339787991 0 -0.29802606822422262 0.23166086606222 0 -0.31180948040000378 0.2187866735344724 0 -0.29958388316059359 0.2095472487531671 0 -0.29802606822422262 0.23166086606222 0 -0.31205729184551811 0.23233520339787991 0 -0.31180948040000378 0.2187866735344724 0 -0.29802606822422262 0.23166086606222 0 -0.28342138459264549 0.2223797386749001 0 -0.29958388316059359 0.2095472487531671 0 -0.28184333947743517 0.23922374340090499 0 -0.29802606822422262 0.23166086606222 0 -0.28342138459264549 0.2223797386749001 0 -0.28342138459264549 0.2223797386749001 0 -0.29958388316059359 0.2095472487531671 0 -0.28417881593353461 0.2000778928047606 0 -0.31641387432514062 0.20198548982781289 0 -0.31180948040000378 0.2187866735344724 0 -0.29958388316059359 0.2095472487531671 0 -0.31641387432514062 0.20198548982781289 0 -0.29958388316059359 0.2095472487531671 0 -0.30365367548801497 0.18239283161483691 0 -0.29958388316059359 0.2095472487531671 0 -0.28417881593353461 0.2000778928047606 0 -0.30365367548801497 0.18239283161483691 0 -0.28417881593353461 0.2000778928047606 0 -0.27039506809433822 0.19478291576895679 0 -0.27757070360762559 0.1774939101710262 0 -0.28417881593353461 0.2000778928047606 0 -0.27039506809433822 0.19478291576895679 0 -0.26763201493291239 0.21312830885904971 0 -0.27039506809433822 0.19478291576895679 0 -0.25784580185565331 0.19850267435862559 0 -0.26763201493291239 0.21312830885904971 0 -0.27039506809433822 0.19478291576895679 0 -0.25784580185565331 0.19850267435862559 0 -0.26136797295925263 0.18574853214604481 0 -0.25784580185565331 0.19850267435862559 0 -0.26136797295925263 0.18574853214604481 0 -0.24966723326913901 0.1889247817648147 0 -0.25784580185565331 0.19850267435862559 0 -0.2434907974483847 0.20055257742558161 0 -0.24966723326913901 0.1889247817648147 0 -0.25784580185565331 0.19850267435862559 0 -0.25291740238654492 0.21520604469815369 0 -0.26763201493291239 0.21312830885904971 0 -0.25784580185565331 0.19850267435862559 0 -0.25291740238654492 0.21520604469815369 0 -0.2434907974483847 0.20055257742558161 0 -0.28342138459264549 0.2223797386749001 0 -0.28417881593353461 0.2000778928047606 0 -0.26763201493291239 0.21312830885904971 0 -0.28184333947743517 0.23922374340090499 0 -0.28342138459264549 0.2223797386749001 0 -0.26956755969968171 0.23198398592530919 0 -0.28342138459264549 0.2223797386749001 0 -0.26763201493291239 0.21312830885904971 0 -0.26956755969968171 0.23198398592530919 0 -0.26763201493291239 0.21312830885904971 0 -0.26956755969968171 0.23198398592530919 0 -0.25630247111366128 0.2283034728804052 0 -0.25291740238654492 0.21520604469815369 0 -0.26763201493291239 0.21312830885904971 0 -0.25630247111366128 0.2283034728804052 0 -0.25291740238654492 0.21520604469815369 0 -0.25630247111366128 0.2283034728804052 0 -0.24349571967915079 0.22608739020692609 0 -0.26956755969968171 0.23198398592530919 0 -0.25630247111366128 0.2283034728804052 0 -0.25860838703562572 0.24175840086169639 0 -0.25630247111366128 0.2283034728804052 0 -0.25860838703562572 0.24175840086169639 0 -0.24776690464871731 0.23760061941142729 0 -0.25860838703562572 0.24175840086169639 0 -0.25164740003836339 0.24717250052553011 0 -0.24776690464871731 0.23760061941142729 0 -0.25860838703562572 0.24175840086169639 0 -0.25164740003836339 0.24717250052553011 0 -0.25727060508159572 0.25446954409074501 0 -0.25860838703562572 0.24175840086169639 0 -0.26959776104581018 0.2471102508748988 0 -0.25727060508159572 0.25446954409074501 0 -0.26956755969968171 0.23198398592530919 0 -0.25860838703562572 0.24175840086169639 0 -0.26959776104581018 0.2471102508748988 0 -0.28184333947743517 0.23922374340090499 0 -0.26956755969968171 0.23198398592530919 0 -0.26959776104581018 0.2471102508748988 0 -0.28184333947743517 0.23922374340090499 0 -0.26959776104581018 0.2471102508748988 0 -0.28034183904949411 0.25378490876330928 0 -0.28533128500828359 0.15554248822190769 0 -0.28515925307843648 0.13806453288559209 0 -0.30296452146539149 0.13873658046386289 0 -0.28515925307843648 0.13806453288559209 0 -0.29785114968335608 0.1250105454506793 0 -0.2829196483779951 0.1203878985604523 0 -0.28515925307843648 0.13806453288559209 0 -0.30296452146539149 0.13873658046386289 0 -0.29785114968335608 0.1250105454506793 0 -0.31760363891553212 0.14421750593089089 0 -0.30296452146539149 0.13873658046386289 0 -0.30910302040648219 0.12726499447227321 0 -0.30296452146539149 0.13873658046386289 0 -0.29785114968335608 0.1250105454506793 0 -0.30910302040648219 0.12726499447227321 0 -0.30296452146539149 0.13873658046386289 0 -0.30910302040648219 0.12726499447227321 0 -0.28533128500828359 0.15554248822190769 0 -0.30296452146539149 0.13873658046386289 0 -0.3037001573506572 0.15510539150649941 0 -0.31760363891553212 0.14421750593089089 0 -0.30296452146539149 0.13873658046386289 0 -0.3037001573506572 0.15510539150649941 0 -0.31914236644927302 0.16496411965869931 0 -0.29787963758077091 0.16709974823459389 0 -0.30365367548801497 0.18239283161483691 0 -0.31914236644927302 0.16496411965869931 0 -0.3037001573506572 0.15510539150649941 0 -0.29787963758077091 0.16709974823459389 0 -0.29787963758077091 0.16709974823459389 0 -0.30365367548801497 0.18239283161483691 0 -0.27757070360762559 0.1774939101710262 0 -0.28417881593353461 0.2000778928047606 0 -0.30365367548801497 0.18239283161483691 0 -0.27757070360762559 0.1774939101710262 0 -0.30365367548801497 0.18239283161483691 0 -0.27757070360762559 0.1774939101710262 0 -0.28533128500828359 0.15554248822190769 0 -0.3037001573506572 0.15510539150649941 0 -0.29787963758077091 0.16709974823459389 0 -0.28533128500828359 0.15554248822190769 0 -0.29787963758077091 0.16709974823459389 0 -0.27757070360762559 0.1774939101710262 0 -0.28533128500828359 0.15554248822190769 0 -0.26603835488136318 0.16700945971390629 0 -0.27757070360762559 0.1774939101710262 0 -0.27039506809433822 0.19478291576895679 0 -0.27757070360762559 0.1774939101710262 0 -0.26136797295925263 0.18574853214604481 0 -0.26603835488136318 0.16700945971390629 0 -0.27757070360762559 0.1774939101710262 0 -0.25148773172723632 0.1725949887272154 0 -0.26136797295925263 0.18574853214604481 0 -0.25148773172723632 0.1725949887272154 0 -0.24966723326913901 0.1889247817648147 0 -0.27757070360762559 0.1774939101710262 0 -0.25148773172723632 0.1725949887272154 0 -0.27757070360762559 0.1774939101710262 0 -0.26136797295925263 0.18574853214604481 0 -0.25148773172723632 0.1725949887272154 0 -0.26603835488136318 0.16700945971390629 0 -0.2505058989168033 0.1657204367346955 0 -0.2667127736473992 0.14305416764757389 0 -0.26603835488136318 0.16700945971390629 0 -0.25148773172723632 0.1725949887272154 0 -0.2505058989168033 0.1657204367346955 0 -0.2505058989168033 0.1657204367346955 0 -0.2667127736473992 0.14305416764757389 0 -0.2667127736473992 0.14305416764757389 0 -0.2481911862042033 0.14741432454640699 0 -0.24948362260205911 0.15529617714909141 0 -0.2505058989168033 0.1657204367346955 0 -0.2667127736473992 0.14305416764757389 0 -0.24948362260205911 0.15529617714909141 0 -0.2667127736473992 0.14305416764757389 0 -0.24615225409916369 0.13513138609286421 0 -0.2481911862042033 0.14741432454640699 0 -0.28533128500828359 0.15554248822190769 0 -0.26603835488136318 0.16700945971390629 0 -0.2667127736473992 0.14305416764757389 0 -0.28533128500828359 0.15554248822190769 0 -0.28515925307843648 0.13806453288559209 0 -0.2667127736473992 0.14305416764757389 0 -0.2667127736473992 0.14305416764757389 0 -0.2829196483779951 0.1203878985604523 0 -0.2667127736473992 0.14305416764757389 0 -0.25533609785138472 0.1224946408246257 0 -0.2829196483779951 0.1203878985604523 0 -0.28515925307843648 0.13806453288559209 0 -0.2667127736473992 0.14305416764757389 0 -0.2829196483779951 0.1203878985604523 0 -0.2667127736473992 0.14305416764757389 0 -0.25533609785138472 0.1224946408246257 0 -0.24615225409916369 0.13513138609286421 0 -0.25533609785138472 0.1224946408246257 0 -0.25393261453884503 0.1043944632809921 0 -0.2677754167806054 0.1094877343965551 0 -0.25393261453884503 0.1043944632809921 0 -0.26614681162506071 0.09771662984350532 0 -0.25379198212240489 0.088586166724655385 0 -0.25393261453884503 0.1043944632809921 0 -0.25379198212240489 0.088586166724655385 0 -0.24257749345545079 0.09699121108247602 0 -0.25393261453884503 0.1043944632809921 0 -0.26614681162506071 0.09771662984350532 0 -0.2677754167806054 0.1094877343965551 0 -0.26614681162506071 0.09771662984350532 0 -0.28363596243005068 0.1014964883541126 0 -0.27316462747582249 0.085405142015301708 0 -0.26614681162506071 0.09771662984350532 0 -0.2677754167806054 0.1094877343965551 0 -0.28363596243005068 0.1014964883541126 0 -0.2677754167806054 0.1094877343965551 0 -0.2829196483779951 0.1203878985604523 0 -0.28363596243005068 0.1014964883541126 0 -0.25533609785138472 0.1224946408246257 0 -0.2677754167806054 0.1094877343965551 0 -0.2829196483779951 0.1203878985604523 0 -0.2829196483779951 0.1203878985604523 0 -0.28363596243005068 0.1014964883541126 0 -0.30238639068455042 0.1115046804797209 0 -0.29785114968335608 0.1250105454506793 0 -0.2829196483779951 0.1203878985604523 0 -0.30238639068455042 0.1115046804797209 0 -0.28363596243005068 0.1014964883541126 0 -0.30269562974424941 0.097969947662757975 0 -0.29217552503430932 0.087549647766195088 0 -0.28363596243005068 0.1014964883541126 0 -0.30269562974424941 0.097969947662757975 0 -0.30238639068455042 0.1115046804797209 0 -0.30269562974424941 0.097969947662757975 0 -0.30238639068455042 0.1115046804797209 0 -0.32434725488362398 0.098776670476665357 0 -0.29785114968335608 0.1250105454506793 0 -0.30238639068455042 0.1115046804797209 0 -0.31365588817450779 0.1187566254702641 0 -0.29785114968335608 0.1250105454506793 0 -0.30910302040648219 0.12726499447227321 0 -0.31365588817450779 0.1187566254702641 0 -0.30910302040648219 0.12726499447227321 0 -0.31365588817450779 0.1187566254702641 0 -0.30096474007654261 0.075368931379259083 0 -0.30826947083021139 0.060726297230441012 0 -0.31826917599726823 0.076570203463502642 0 -0.30096474007654261 0.075368931379259083 0 -0.29407610007009061 0.0625455250110276 0 -0.30826947083021139 0.060726297230441012 0 -0.30269562974424941 0.097969947662757975 0 -0.31068827735007581 0.088472455259440294 0 -0.29217552503430932 0.087549647766195088 0 -0.30096474007654261 0.075368931379259083 0 -0.31068827735007581 0.088472455259440294 0 -0.29217552503430932 0.087549647766195088 0 -0.30096474007654261 0.075368931379259083 0 -0.31068827735007581 0.088472455259440294 0 -0.31826917599726823 0.076570203463502642 0 -0.28363596243005068 0.1014964883541126 0 -0.29217552503430932 0.087549647766195088 0 -0.27316462747582249 0.085405142015301708 0 -0.30096474007654261 0.075368931379259083 0 -0.29217552503430932 0.087549647766195088 0 -0.28235746516287391 0.072440987329511236 0 -0.29217552503430932 0.087549647766195088 0 -0.28235746516287391 0.072440987329511236 0 -0.27316462747582249 0.085405142015301708 0 -0.30096474007654261 0.075368931379259083 0 -0.28235746516287391 0.072440987329511236 0 -0.29407610007009061 0.0625455250110276 0 -0.28235746516287391 0.072440987329511236 0 -0.29407610007009061 0.0625455250110276 0 -0.2778454273653716 0.057607420060252178 0 -0.28235746516287391 0.072440987329511236 0 -0.27316462747582249 0.085405142015301708 0 -0.25528139447155251 0.068408062380708859 0 -0.28235746516287391 0.072440987329511236 0 -0.25528139447155251 0.068408062380708859 0 -0.2778454273653716 0.057607420060252178 0 -0.25528139447155251 0.068408062380708859 0 -0.2778454273653716 0.057607420060252178 0 -0.26614681162506071 0.09771662984350532 0 -0.27316462747582249 0.085405142015301708 0 -0.25379198212240489 0.088586166724655385 0 -0.27316462747582249 0.085405142015301708 0 -0.25379198212240489 0.088586166724655385 0 -0.25528139447155251 0.068408062380708859 0 -0.25528139447155251 0.068408062380708859 0 -0.25458740501448979 0.049536469534905869 0 -0.27058865626876438 0.046461790950182109 0 -0.25528139447155251 0.068408062380708859 0 -0.25458740501448979 0.049536469534905869 0 -0.24186365753193359 0.050921932373258587 0 -0.25458740501448979 0.049536469534905869 0 -0.26152821621018302 0.03652276016267518 0 -0.24689817197336339 0.042037781249581477 0 -0.25458740501448979 0.049536469534905869 0 -0.26152821621018302 0.03652276016267518 0 -0.27058865626876438 0.046461790950182109 0 -0.25071788628901642 0.032434773548446802 0 -0.26152821621018302 0.03652276016267518 0 -0.24689817197336339 0.042037781249581477 0 -0.26152821621018302 0.03652276016267518 0 -0.27749731420813473 0.034676026896146052 0 -0.27373421099517542 0.024712342792707391 0 -0.27058865626876438 0.046461790950182109 0 -0.27749731420813473 0.034676026896146052 0 -0.29313479004712728 0.039144229914005978 0 -0.26152821621018302 0.03652276016267518 0 -0.27058865626876438 0.046461790950182109 0 -0.27749731420813473 0.034676026896146052 0 -0.27058865626876438 0.046461790950182109 0 -0.2778454273653716 0.057607420060252178 0 -0.29313479004712728 0.039144229914005978 0 -0.25528139447155251 0.068408062380708859 0 -0.27058865626876438 0.046461790950182109 0 -0.2778454273653716 0.057607420060252178 0 -0.25465169794768239 0.0044406472743774329 0 -0.25803654555547217 0.02222110816082893 0 -0.24750680766715891 0.018137293640790909 0 -0.25465169794768239 0.0044406472743774329 0 -0.25803654555547217 0.02222110816082893 0 -0.26883558492513548 0.012040285145960949 0 -0.26152821621018302 0.03652276016267518 0 -0.25803654555547217 0.02222110816082893 0 -0.27373421099517542 0.024712342792707391 0 -0.25803654555547217 0.02222110816082893 0 -0.24559115712407431 0.025891779836084941 0 -0.24750680766715891 0.018137293640790909 0 -0.25071788628901642 0.032434773548446802 0 -0.26152821621018302 0.03652276016267518 0 -0.25803654555547217 0.02222110816082893 0 -0.25071788628901642 0.032434773548446802 0 -0.25803654555547217 0.02222110816082893 0 -0.24559115712407431 0.025891779836084941 0 -0.25803654555547217 0.02222110816082893 0 -0.27373421099517542 0.024712342792707391 0 -0.26883558492513548 0.012040285145960949 0 -0.27749731420813473 0.034676026896146052 0 -0.27373421099517542 0.024712342792707391 0 -0.28850069751942342 0.026539010661159611 0 -0.27373421099517542 0.024712342792707391 0 -0.28122228706919378 0.01455523463594041 0 -0.28850069751942342 0.026539010661159611 0 -0.27373421099517542 0.024712342792707391 0 -0.26883558492513548 0.012040285145960949 0 -0.28122228706919378 0.01455523463594041 0 -0.27868105928976239 -0.0032985233304997528 0 -0.25465169794768239 0.0044406472743774329 0 -0.26883558492513548 0.012040285145960949 0 -0.27868105928976239 -0.0032985233304997528 0 -0.26883558492513548 0.012040285145960949 0 -0.28122228706919378 0.01455523463594041 0 -0.27868105928976239 -0.0032985233304997528 0 -0.25465169794768239 0.0044406472743774329 0 -0.27868105928976239 -0.0032985233304997528 0 -0.28122228706919378 0.01455523463594041 0 -0.29743382073227698 0.013997749812148691 0 -0.27868105928976239 -0.0032985233304997528 0 -0.29743382073227698 0.013997749812148691 0 -0.30705329739300669 0.0029514169300618948 0 -0.28122228706919378 0.01455523463594041 0 -0.28850069751942342 0.026539010661159611 0 -0.29743382073227698 0.013997749812148691 0 -0.28850069751942342 0.026539010661159611 0 -0.30135589518709821 0.026082051522778468 0 -0.29743382073227698 0.013997749812148691 0 -0.28850069751942342 0.026539010661159611 0 -0.30135589518709821 0.026082051522778468 0 -0.29313479004712728 0.039144229914005978 0 -0.30135589518709821 0.026082051522778468 0 -0.31128294000580031 0.017904858961173269 0 -0.31568092382549012 0.031826668877829888 0 -0.30135589518709821 0.026082051522778468 0 -0.31128294000580031 0.017904858961173269 0 -0.29743382073227698 0.013997749812148691 0 -0.31128294000580031 0.017904858961173269 0 -0.29743382073227698 0.013997749812148691 0 -0.30705329739300669 0.0029514169300618948 0 -0.29407610007009061 0.0625455250110276 0 -0.2778454273653716 0.057607420060252178 0 -0.30040946025919069 0.046806777739795531 0 -0.2778454273653716 0.057607420060252178 0 -0.29313479004712728 0.039144229914005978 0 -0.30040946025919069 0.046806777739795531 0 -0.2778454273653716 0.057607420060252178 0 -0.30040946025919069 0.046806777739795531 0 -0.27058865626876438 0.046461790950182109 0 -0.29313479004712728 0.039144229914005978 0 -0.27749731420813473 0.034676026896146052 0 -0.28850069751942342 0.026539010661159611 0 -0.29313479004712728 0.039144229914005978 0 -0.30040946025919069 0.046806777739795531 0 -0.32297349315300983 0.036006135419338912 0 -0.30135589518709821 0.026082051522778468 0 -0.29313479004712728 0.039144229914005978 0 -0.31568092382549012 0.031826668877829888 0 -0.29313479004712728 0.039144229914005978 0 -0.30040946025919069 0.046806777739795531 0 -0.31568092382549012 0.031826668877829888 0 -0.29313479004712728 0.039144229914005978 0 -0.31568092382549012 0.031826668877829888 0 -0.30040946025919069 0.046806777739795531 0 -0.30826947083021139 0.060726297230441012 0 -0.31673920190508392 0.050676422994538013 0 -0.29407610007009061 0.0625455250110276 0 -0.30040946025919069 0.046806777739795531 0 -0.30826947083021139 0.060726297230441012 0 -0.30826947083021139 0.060726297230441012 0 -0.32462469016715662 0.061347661086767299 0 -0.31673920190508392 0.050676422994538013 0 -0.32462469016715662 0.061347661086767299 0 -0.31673920190508392 0.050676422994538013 0 -0.33002856842699207 0.049721013819520821 0 -0.30040946025919069 0.046806777739795531 0 -0.31568092382549012 0.031826668877829888 0 -0.32297349315300983 0.036006135419338912 0 -0.30040946025919069 0.046806777739795531 0 -0.31673920190508392 0.050676422994538013 0 -0.32297349315300983 0.036006135419338912 0 -0.31673920190508392 0.050676422994538013 0 -0.32297349315300983 0.036006135419338912 0 -0.33002856842699207 0.049721013819520821 0 -0.32297349315300983 0.036006135419338912 0 -0.34007546860785398 0.041758089107491778 0 -0.3382270576038528 0.024509107841653818 0 -0.34007546860785398 0.041758089107491778 0 -0.3382270576038528 0.024509107841653818 0 -0.35289694119260451 0.032002765172613898 0 -0.32297349315300983 0.036006135419338912 0 -0.34007546860785398 0.041758089107491778 0 -0.33002856842699207 0.049721013819520821 0 -0.32462469016715662 0.061347661086767299 0 -0.33002856842699207 0.049721013819520821 0 -0.34572998830185642 0.058816760489468121 0 -0.34007546860785398 0.041758089107491778 0 -0.33002856842699207 0.049721013819520821 0 -0.34572998830185642 0.058816760489468121 0 -0.32631626556482007 -0.0022951976739116341 0 -0.30705329739300669 0.0029514169300618948 0 -0.32115342642190231 0.010361344275366899 0 -0.32631626556482007 -0.0022951976739116341 0 -0.32115342642190231 0.010361344275366899 0 -0.33599116962273978 0.01176891464955615 0 -0.31128294000580031 0.017904858961173269 0 -0.30705329739300669 0.0029514169300618948 0 -0.32115342642190231 0.010361344275366899 0 -0.32115342642190231 0.010361344275366899 0 -0.32399366079408293 0.019294321741654921 0 -0.33599116962273978 0.01176891464955615 0 -0.31568092382549012 0.031826668877829888 0 -0.32297349315300983 0.036006135419338912 0 -0.3382270576038528 0.024509107841653818 0 -0.31568092382549012 0.031826668877829888 0 -0.32399366079408293 0.019294321741654921 0 -0.3382270576038528 0.024509107841653818 0 -0.31568092382549012 0.031826668877829888 0 -0.3382270576038528 0.024509107841653818 0 -0.31128294000580031 0.017904858961173269 0 -0.32115342642190231 0.010361344275366899 0 -0.32399366079408293 0.019294321741654921 0 -0.31128294000580031 0.017904858961173269 0 -0.31568092382549012 0.031826668877829888 0 -0.32399366079408293 0.019294321741654921 0 -0.32399366079408293 0.019294321741654921 0 -0.3382270576038528 0.024509107841653818 0 -0.33599116962273978 0.01176891464955615 0 -0.32631626556482007 -0.0022951976739116341 0 -0.33599116962273978 0.01176891464955615 0 -0.34548341596956522 0.0015523649070951751 0 -0.33599116962273978 0.01176891464955615 0 -0.34548341596956522 0.0015523649070951751 0 -0.36077319138221547 0.017191546805477739 0 -0.35753001358517389 -0.0041859259126475262 0 -0.34548341596956522 0.0015523649070951751 0 -0.36077319138221547 0.017191546805477739 0 -0.3382270576038528 0.024509107841653818 0 -0.36077319138221547 0.017191546805477739 0 -0.35289694119260451 0.032002765172613898 0 -0.3382270576038528 0.024509107841653818 0 -0.33599116962273978 0.01176891464955615 0 -0.36077319138221547 0.017191546805477739 0 -0.3382270576038528 0.024509107841653818 0 -0.36077319138221547 0.017191546805477739 0 -0.36077319138221547 0.017191546805477739 0 -0.37421772156953242 0.028710292874888351 0 -0.35289694119260451 0.032002765172613898 0 -0.38403372220648302 0.0093561054383379007 0 -0.36077319138221547 0.017191546805477739 0 -0.37421772156953242 0.028710292874888351 0 -0.37296446378657722 -0.0055451131559014029 0 -0.35753001358517389 -0.0041859259126475262 0 -0.36077319138221547 0.017191546805477739 0 -0.37296446378657722 -0.0055451131559014029 0 -0.38403372220648302 0.0093561054383379007 0 -0.36077319138221547 0.017191546805477739 0 -0.34007546860785398 0.041758089107491778 0 -0.34572998830185642 0.058816760489468121 0 -0.36265854798136532 0.044645356074647237 0 -0.34007546860785398 0.041758089107491778 0 -0.35289694119260451 0.032002765172613898 0 -0.36265854798136532 0.044645356074647237 0 -0.3858550821149187 0.045740644487038573 0 -0.37421772156953242 0.028710292874888351 0 -0.36265854798136532 0.044645356074647237 0 -0.37421772156953242 0.028710292874888351 0 -0.35289694119260451 0.032002765172613898 0 -0.36265854798136532 0.044645356074647237 0 -0.3858550821149187 0.045740644487038573 0 -0.37583774505136719 0.069250405927873793 0 -0.36265854798136532 0.044645356074647237 0 -0.37583774505136719 0.069250405927873793 0 -0.34572998830185642 0.058816760489468121 0 -0.36265854798136532 0.044645356074647237 0 -0.34572998830185642 0.058816760489468121 0 -0.35342422365940301 0.079199852497266909 0 -0.33503862159274023 0.078796715483066743 0 -0.37583774505136719 0.069250405927873793 0 -0.34572998830185642 0.058816760489468121 0 -0.35342422365940301 0.079199852497266909 0 -0.35342422365940301 0.079199852497266909 0 -0.36582040798781579 0.092760167368708846 0 -0.34469435536323528 0.096375213217217037 0 -0.35342422365940301 0.079199852497266909 0 -0.34469435536323528 0.096375213217217037 0 -0.33503862159274023 0.078796715483066743 0 -0.37583774505136719 0.069250405927873793 0 -0.36582040798781579 0.092760167368708846 0 -0.37583774505136719 0.069250405927873793 0 -0.35342422365940301 0.079199852497266909 0 -0.36582040798781579 0.092760167368708846 0 -0.38133564847368351 0.1119315111385806 0 -0.36582040798781579 0.092760167368708846 0 -0.35467082969244179 0.11656434040102891 0 -0.38133564847368351 0.1119315111385806 0 -0.36756773828955391 0.13133270284320189 0 -0.35467082969244179 0.11656434040102891 0 -0.38133564847368351 0.1119315111385806 0 -0.35467082969244179 0.11656434040102891 0 -0.36582040798781579 0.092760167368708846 0 -0.35467082969244179 0.11656434040102891 0 -0.34469435536323528 0.096375213217217037 0 -0.35467082969244179 0.11656434040102891 0 -0.34469435536323528 0.096375213217217037 0 -0.33362653478780452 0.1149063280742971 0 -0.34469435536323528 0.096375213217217037 0 -0.33362653478780452 0.1149063280742971 0 -0.32434725488362398 0.098776670476665357 0 -0.3318630250542956 0.13611410425482551 0 -0.35467082969244179 0.11656434040102891 0 -0.33362653478780452 0.1149063280742971 0 -0.3318630250542956 0.13611410425482551 0 -0.33362653478780452 0.1149063280742971 0 -0.31365588817450779 0.1187566254702641 0 -0.30238639068455042 0.1115046804797209 0 -0.31365588817450779 0.1187566254702641 0 -0.32434725488362398 0.098776670476665357 0 -0.33362653478780452 0.1149063280742971 0 -0.31365588817450779 0.1187566254702641 0 -0.32434725488362398 0.098776670476665357 0 -0.31365588817450779 0.1187566254702641 0 -0.32434725488362398 0.098776670476665357 0 -0.30269562974424941 0.097969947662757975 0 -0.31068827735007581 0.088472455259440294 0 -0.32434725488362398 0.098776670476665357 0 -0.32434725488362398 0.098776670476665357 0 -0.31826917599726823 0.076570203463502642 0 -0.33503862159274023 0.078796715483066743 0 -0.31068827735007581 0.088472455259440294 0 -0.32434725488362398 0.098776670476665357 0 -0.31826917599726823 0.076570203463502642 0 -0.32462469016715662 0.061347661086767299 0 -0.31826917599726823 0.076570203463502642 0 -0.33503862159274023 0.078796715483066743 0 -0.30826947083021139 0.060726297230441012 0 -0.32462469016715662 0.061347661086767299 0 -0.31826917599726823 0.076570203463502642 0 -0.34572998830185642 0.058816760489468121 0 -0.33503862159274023 0.078796715483066743 0 -0.32462469016715662 0.061347661086767299 0 -0.34572998830185642 0.058816760489468121 0 -0.33503862159274023 0.078796715483066743 0 -0.32434725488362398 0.098776670476665357 0 -0.33503862159274023 0.078796715483066743 0 -0.34469435536323528 0.096375213217217037 0 -0.32434725488362398 0.098776670476665357 0 -0.33503862159274023 0.078796715483066743 0 -0.39712073857473218 0.48650036868341101 0 -0.37851879114690562 0.5 0 -0.43058012668013917 0.5 0 -0.39712073857473218 0.48650036868341101 0 -0.38800220619239839 0.46540238629210678 0 -0.4070463376016929 0.46576983618307621 0 -0.39712073857473218 0.48650036868341101 0 -0.37851879114690562 0.5 0 -0.37830138659936069 0.47624741141289012 0 -0.39712073857473218 0.48650036868341101 0 -0.37830138659936069 0.47624741141289012 0 -0.38800220619239839 0.46540238629210678 0 -0.37830138659936069 0.47624741141289012 0 -0.38800220619239839 0.46540238629210678 0 -0.37021283255742948 0.4587781548080006 0 -0.38800220619239839 0.46540238629210678 0 -0.38649991373666459 0.4511663231885501 0 -0.37021283255742948 0.4587781548080006 0 -0.38800220619239839 0.46540238629210678 0 -0.38649991373666459 0.4511663231885501 0 -0.38649991373666459 0.4511663231885501 0 -0.3841588919468969 0.42898227120943883 0 -0.38649991373666459 0.4511663231885501 0 -0.3841588919468969 0.42898227120943883 0 -0.36775155255336078 0.43784079569212991 0 -0.38649991373666459 0.4511663231885501 0 -0.36775155255336078 0.43784079569212991 0 -0.38649991373666459 0.4511663231885501 0 -0.40142040252766858 0.44131644421847988 0 -0.4070463376016929 0.46576983618307621 0 -0.38649991373666459 0.4511663231885501 0 -0.40142040252766858 0.44131644421847988 0 -0.3841588919468969 0.42898227120943883 0 -0.38649991373666459 0.4511663231885501 0 -0.4070463376016929 0.46576983618307621 0 -0.38800220619239839 0.46540238629210678 0 -0.38649991373666459 0.4511663231885501 0 -0.4070463376016929 0.46576983618307621 0 -0.4070463376016929 0.46576983618307621 0 -0.42955296274113219 0.45585978253851211 0 -0.42759276146671998 0.48037334917760383 0 -0.4070463376016929 0.46576983618307621 0 -0.41441192538684452 0.45003743623641662 0 -0.42955296274113219 0.45585978253851211 0 -0.41441192538684452 0.45003743623641662 0 -0.42482457259377898 0.43594279638328792 0 -0.41366921479919733 0.43373626734855308 0 -0.40142040252766858 0.44131644421847988 0 -0.4070463376016929 0.46576983618307621 0 -0.41441192538684452 0.45003743623641662 0 -0.40142040252766858 0.44131644421847988 0 -0.41441192538684452 0.45003743623641662 0 -0.41366921479919733 0.43373626734855308 0 -0.42955296274113219 0.45585978253851211 0 -0.44415170168738821 0.43696893525631042 0 -0.42482457259377898 0.43594279638328792 0 -0.41441192538684452 0.45003743623641662 0 -0.42955296274113219 0.45585978253851211 0 -0.42482457259377898 0.43594279638328792 0 -0.42955296274113219 0.45585978253851211 0 -0.42759276146671998 0.48037334917760383 0 -0.44821966463643892 0.47310797180735631 0 -0.39712073857473218 0.48650036868341101 0 -0.41558499108082109 0.48316088851102279 0 -0.43058012668013917 0.5 0 -0.4070463376016929 0.46576983618307621 0 -0.42759276146671998 0.48037334917760383 0 -0.41558499108082109 0.48316088851102279 0 -0.39712073857473218 0.48650036868341101 0 -0.4070463376016929 0.46576983618307621 0 -0.41558499108082109 0.48316088851102279 0 -0.4070463376016929 0.46576983618307621 0 -0.42759276146671998 0.48037334917760383 0 -0.42759276146671998 0.48037334917760383 0 -0.43058012668013917 0.5 0 -0.44813918533174713 0.49497686217213149 0 -0.42759276146671998 0.48037334917760383 0 -0.41558499108082109 0.48316088851102279 0 -0.43058012668013917 0.5 0 -0.43058012668013917 0.5 0 -0.44813918533174713 0.49497686217213149 0 -0.5 0.5 0 -0.5 0.5 0 -0.47517983787401791 0.47658721621639522 0 -0.5 0.42653678022486918 0 -0.42759276146671998 0.48037334917760383 0 -0.44813918533174713 0.49497686217213149 0 -0.42759276146671998 0.48037334917760383 0 -0.44813918533174713 0.49497686217213149 0 -0.44821966463643892 0.47310797180735631 0 -0.44813918533174713 0.49497686217213149 0 -0.44821966463643892 0.47310797180735631 0 -0.47517983787401791 0.47658721621639522 0 -0.44813918533174713 0.49497686217213149 0 -0.5 0.5 0 -0.47517983787401791 0.47658721621639522 0 -0.47517983787401791 0.47658721621639522 0 -0.46088909912187298 0.45528270119161701 0 -0.5 0.42653678022486918 0 -0.46088909912187298 0.45528270119161701 0 -0.44415170168738821 0.43696893525631042 0 -0.46493504417578768 0.42758536126784619 0 -0.42955296274113219 0.45585978253851211 0 -0.44821966463643892 0.47310797180735631 0 -0.46088909912187298 0.45528270119161701 0 -0.42955296274113219 0.45585978253851211 0 -0.46088909912187298 0.45528270119161701 0 -0.44415170168738821 0.43696893525631042 0 -0.44821966463643892 0.47310797180735631 0 -0.47517983787401791 0.47658721621639522 0 -0.46088909912187298 0.45528270119161701 0 -0.44415170168738821 0.43696893525631042 0 -0.44663097732065787 0.41601501127467561 0 -0.46493504417578768 0.42758536126784619 0 -0.44415170168738821 0.43696893525631042 0 -0.44663097732065787 0.41601501127467561 0 -0.43246600119380929 0.42267282284708618 0 -0.44663097732065787 0.41601501127467561 0 -0.46493504417578768 0.42758536126784619 0 -0.47300344274901912 0.40312337839175882 0 -0.46088909912187298 0.45528270119161701 0 -0.46493504417578768 0.42758536126784619 0 -0.5 0.42653678022486918 0 -0.46493504417578768 0.42758536126784619 0 -0.5 0.42653678022486918 0 -0.47300344274901912 0.40312337839175882 0 -0.5 0.42653678022486918 0 -0.47300344274901912 0.40312337839175882 0 -0.5 0.37189097842864488 0 -0.47300344274901912 0.40312337839175882 0 -0.45687859428798699 0.37720081950991702 0 -0.5 0.37189097842864488 0 -0.47300344274901912 0.40312337839175882 0 -0.45687859428798699 0.37720081950991702 0 -0.44481606927108058 0.39479367327571852 0 -0.44663097732065787 0.41601501127467561 0 -0.47300344274901912 0.40312337839175882 0 -0.44481606927108058 0.39479367327571852 0 -0.44663097732065787 0.41601501127467561 0 -0.44481606927108058 0.39479367327571852 0 -0.42832742565286741 0.40582699685501561 0 -0.45687859428798699 0.37720081950991702 0 -0.44481606927108058 0.39479367327571852 0 -0.43512039893916832 0.37732286147728888 0 -0.41676348331533719 0.38841738311786939 0 -0.42783609295977221 0.36195452612102208 0 -0.44481606927108058 0.39479367327571852 0 -0.43512039893916832 0.37732286147728888 0 -0.42901387459293111 0.39258753876621738 0 -0.43512039893916832 0.37732286147728888 0 -0.41676348331533719 0.38841738311786939 0 -0.42783609295977221 0.36195452612102208 0 -0.43512039893916832 0.37732286147728888 0 -0.41676348331533719 0.38841738311786939 0 -0.42901387459293111 0.39258753876621738 0 -0.41676348331533719 0.38841738311786939 0 -0.4063477996494429 0.38281045680019271 0 -0.42783609295977221 0.36195452612102208 0 -0.41676348331533719 0.38841738311786939 0 -0.41639987810791118 0.40706063322200858 0 -0.40569087367090229 0.41488024011471669 0 -0.41676348331533719 0.38841738311786939 0 -0.4063477996494429 0.38281045680019271 0 -0.40388410108855571 0.41206345050933629 0 -0.41676348331533719 0.38841738311786939 0 -0.40388410108855571 0.41206345050933629 0 -0.40569087367090229 0.41488024011471669 0 -0.41676348331533719 0.38841738311786939 0 -0.40569087367090229 0.41488024011471669 0 -0.41676348331533719 0.38841738311786939 0 -0.42229945770237243 0.39785051244423908 0 -0.41639987810791118 0.40706063322200858 0 -0.42832742565286741 0.40582699685501561 0 -0.42229945770237243 0.39785051244423908 0 -0.41639987810791118 0.40706063322200858 0 -0.42832742565286741 0.40582699685501561 0 -0.42229945770237243 0.39785051244423908 0 -0.42901387459293111 0.39258753876621738 0 -0.44481606927108058 0.39479367327571852 0 -0.42832742565286741 0.40582699685501561 0 -0.42901387459293111 0.39258753876621738 0 -0.41676348331533719 0.38841738311786939 0 -0.42229945770237243 0.39785051244423908 0 -0.42901387459293111 0.39258753876621738 0 -0.44663097732065787 0.41601501127467561 0 -0.42832742565286741 0.40582699685501561 0 -0.43246600119380929 0.42267282284708618 0 -0.42832742565286741 0.40582699685501561 0 -0.43246600119380929 0.42267282284708618 0 -0.41839532871435392 0.41861037446614158 0 -0.42482457259377898 0.43594279638328792 0 -0.43246600119380929 0.42267282284708618 0 -0.41839532871435392 0.41861037446614158 0 -0.44415170168738821 0.43696893525631042 0 -0.42482457259377898 0.43594279638328792 0 -0.43246600119380929 0.42267282284708618 0 -0.40142040252766858 0.44131644421847988 0 -0.41033983399280372 0.42481313849035501 0 -0.41366921479919733 0.43373626734855308 0 -0.42482457259377898 0.43594279638328792 0 -0.41366921479919733 0.43373626734855308 0 -0.41839532871435392 0.41861037446614158 0 -0.41033983399280372 0.42481313849035501 0 -0.41366921479919733 0.43373626734855308 0 -0.41839532871435392 0.41861037446614158 0 -0.42832742565286741 0.40582699685501561 0 -0.41639987810791118 0.40706063322200858 0 -0.41839532871435392 0.41861037446614158 0 -0.41639987810791118 0.40706063322200858 0 -0.41839532871435392 0.41861037446614158 0 -0.41252335025189668 0.41552236630388362 0 -0.41033983399280372 0.42481313849035501 0 -0.41839532871435392 0.41861037446614158 0 -0.41252335025189668 0.41552236630388362 0 -0.41033983399280372 0.42481313849035501 0 -0.41252335025189668 0.41552236630388362 0 -0.40569087367090229 0.41488024011471669 0 -0.41639987810791118 0.40706063322200858 0 -0.41252335025189668 0.41552236630388362 0 -0.40569087367090229 0.41488024011471669 0 -0.40388410108855571 0.41206345050933629 0 -0.39237206685325648 0.41672573846384819 0 -0.39545886560409438 0.42477197610027578 0 -0.40388410108855571 0.41206345050933629 0 -0.39237206685325648 0.41672573846384819 0 -0.39331534143937058 0.40802914853045869 0 -0.40142040252766858 0.44131644421847988 0 -0.39545886560409438 0.42477197610027578 0 -0.3841588919468969 0.42898227120943883 0 -0.40142040252766858 0.44131644421847988 0 -0.40388410108855571 0.41206345050933629 0 -0.40569087367090229 0.41488024011471669 0 -0.40142040252766858 0.44131644421847988 0 -0.40388410108855571 0.41206345050933629 0 -0.39545886560409438 0.42477197610027578 0 -0.40142040252766858 0.44131644421847988 0 -0.41033983399280372 0.42481313849035501 0 -0.40569087367090229 0.41488024011471669 0 -0.40142040252766858 0.44131644421847988 0 -0.40388410108855571 0.41206345050933629 0 -0.39237206685325648 0.41672573846384819 0 -0.39545886560409438 0.42477197610027578 0 -0.3841588919468969 0.42898227120943883 0 -0.39237206685325648 0.41672573846384819 0 -0.3841588919468969 0.42898227120943883 0 -0.38181787015713209 0.406798219230327 0 -0.3841588919468969 0.42898227120943883 0 -0.38181787015713209 0.406798219230327 0 -0.36903468033198628 0.4205936335556017 0 -0.3841588919468969 0.42898227120943883 0 -0.38181787015713209 0.406798219230327 0 -0.39237206685325648 0.41672573846384819 0 -0.39331534143937058 0.40802914853045869 0 -0.38181787015713209 0.406798219230327 0 -0.38181787015713209 0.406798219230327 0 -0.37947684836736739 0.38461416725121528 0 -0.38181787015713209 0.406798219230327 0 -0.37947684836736739 0.38461416725121528 0 -0.3951873276585382 0.39652918591832309 0 -0.39331534143937058 0.40802914853045869 0 -0.38181787015713209 0.406798219230327 0 -0.3951873276585382 0.39652918591832309 0 -0.37947684836736739 0.38461416725121528 0 -0.39290019487737571 0.38353161712049472 0 -0.39178066844904208 0.36685336363602089 0 -0.37947684836736739 0.38461416725121528 0 -0.39290019487737571 0.38353161712049472 0 -0.3951873276585382 0.39652918591832309 0 -0.4063477996494429 0.38281045680019271 0 -0.39290019487737571 0.38353161712049472 0 -0.3951873276585382 0.39652918591832309 0 -0.4063477996494429 0.38281045680019271 0 -0.39290019487737571 0.38353161712049472 0 -0.39178066844904208 0.36685336363602089 0 -0.4063477996494429 0.38281045680019271 0 -0.40388410108855571 0.41206345050933629 0 -0.4063477996494429 0.38281045680019271 0 -0.40388410108855571 0.41206345050933629 0 -0.3951873276585382 0.39652918591832309 0 -0.40388410108855571 0.41206345050933629 0 -0.39331534143937058 0.40802914853045869 0 -0.3951873276585382 0.39652918591832309 0 -0.39178066844904208 0.36685336363602089 0 -0.39292352398094621 0.33782348747786478 0 -0.40881149821033003 0.35355746309104907 0 -0.4063477996494429 0.38281045680019271 0 -0.39178066844904208 0.36685336363602089 0 -0.40881149821033003 0.35355746309104907 0 -0.39178066844904208 0.36685336363602089 0 -0.37582312251557087 0.36725601300637339 0 -0.37457185119067632 0.35134250557382463 0 -0.37947684836736739 0.38461416725121528 0 -0.39178066844904208 0.36685336363602089 0 -0.37582312251557087 0.36725601300637339 0 -0.39178066844904208 0.36685336363602089 0 -0.39292352398094621 0.33782348747786478 0 -0.37457185119067632 0.35134250557382463 0 -0.39292352398094621 0.33782348747786478 0 -0.37457185119067632 0.35134250557382463 0 -0.3773713786508589 0.33611207876566412 0 -0.39292352398094621 0.33782348747786478 0 -0.37457185119067632 0.35134250557382463 0 -0.3773713786508589 0.33611207876566412 0 -0.38079938591945062 0.31838336557805869 0 -0.39292352398094621 0.33782348747786478 0 -0.38079938591945062 0.31838336557805869 0 -0.39836187646537269 0.31695163612064892 0 -0.39292352398094621 0.33782348747786478 0 -0.39836187646537269 0.31695163612064892 0 -0.39292352398094621 0.33782348747786478 0 -0.41127519677121632 0.32430446938190538 0 -0.39292352398094621 0.33782348747786478 0 -0.41127519677121632 0.32430446938190538 0 -0.40881149821033003 0.35355746309104907 0 -0.39292352398094621 0.33782348747786478 0 -0.41127519677121632 0.32430446938190538 0 -0.42175699820780599 0.34006222328815838 0 -0.41127519677121632 0.32430446938190538 0 -0.40881149821033003 0.35355746309104907 0 -0.42175699820780599 0.34006222328815838 0 -0.41127519677121632 0.32430446938190538 0 -0.42801033607681688 0.32580255540448733 0 -0.41127519677121632 0.32430446938190538 0 -0.40881149821033003 0.35355746309104907 0 -0.41127519677121632 0.32430446938190538 0 -0.42044220125248449 0.30784924469735181 0 -0.41256173382349332 0.30902863130078012 0 -0.41127519677121632 0.32430446938190538 0 -0.43137054242811879 0.30950095012319861 0 -0.41127519677121632 0.32430446938190538 0 -0.43137054242811879 0.30950095012319861 0 -0.42044220125248449 0.30784924469735181 0 -0.41127519677121632 0.32430446938190538 0 -0.41256173382349332 0.30902863130078012 0 -0.39836187646537269 0.31695163612064892 0 -0.41127519677121632 0.32430446938190538 0 -0.41256173382349332 0.30902863130078012 0 -0.42801033607681688 0.32580255540448733 0 -0.43890870260420722 0.33549166912417472 0 -0.44000484111236288 0.31965165766234338 0 -0.41127519677121632 0.32430446938190538 0 -0.42801033607681688 0.32580255540448733 0 -0.43137054242811879 0.30950095012319861 0 -0.42801033607681688 0.32580255540448733 0 -0.44000484111236288 0.31965165766234338 0 -0.43137054242811879 0.30950095012319861 0 -0.42175699820780599 0.34006222328815838 0 -0.42801033607681688 0.32580255540448733 0 -0.43890870260420722 0.33549166912417472 0 -0.42175699820780599 0.34006222328815838 0 -0.42783609295977221 0.36195452612102208 0 -0.43890870260420722 0.33549166912417472 0 -0.42783609295977221 0.36195452612102208 0 -0.43890870260420722 0.33549166912417472 0 -0.42175699820780599 0.34006222328815838 0 -0.40881149821033003 0.35355746309104907 0 -0.42783609295977221 0.36195452612102208 0 -0.4063477996494429 0.38281045680019271 0 -0.40881149821033003 0.35355746309104907 0 -0.4063477996494429 0.38281045680019271 0 -0.40881149821033003 0.35355746309104907 0 -0.42783609295977221 0.36195452612102208 0 -0.43512039893916832 0.37732286147728888 0 -0.42783609295977221 0.36195452612102208 0 -0.44841725984504338 0.3563199321058837 0 -0.45687859428798699 0.37720081950991702 0 -0.43512039893916832 0.37732286147728888 0 -0.44841725984504338 0.3563199321058837 0 -0.42783609295977221 0.36195452612102208 0 -0.44841725984504338 0.3563199321058837 0 -0.43890870260420722 0.33549166912417472 0 -0.44841725984504338 0.3563199321058837 0 -0.47125239619199139 0.35180174150224253 0 -0.46253241104990311 0.33524203303281308 0 -0.45687859428798699 0.37720081950991702 0 -0.47125239619199139 0.35180174150224253 0 -0.45687859428798699 0.37720081950991702 0 -0.44841725984504338 0.3563199321058837 0 -0.47125239619199139 0.35180174150224253 0 -0.45687859428798699 0.37720081950991702 0 -0.47125239619199139 0.35180174150224253 0 -0.5 0.37189097842864488 0 -0.48760500288898762 0.34428924269920053 0 -0.5 0.37189097842864488 0 -0.5 0.33124280906121523 0 -0.47125239619199139 0.35180174150224253 0 -0.48760500288898762 0.34428924269920053 0 -0.5 0.37189097842864488 0 -0.48562619809599578 0.32640266349456792 0 -0.48241089702126277 0.31255413296515949 0 -0.50000000000000011 0.30100358548689338 0 -0.48562619809599578 0.32640266349456792 0 -0.5 0.33124280906121523 0 -0.50000000000000011 0.30100358548689338 0 -0.48562619809599578 0.32640266349456792 0 -0.50000000000000011 0.30100358548689338 0 -0.48760500288898762 0.34428924269920053 0 -0.48562619809599578 0.32640266349456792 0 -0.5 0.33124280906121523 0 -0.47125239619199139 0.35180174150224253 0 -0.48562619809599578 0.32640266349456792 0 -0.47125239619199139 0.35180174150224253 0 -0.48562619809599578 0.32640266349456792 0 -0.46253241104990311 0.33524203303281308 0 -0.47125239619199139 0.35180174150224253 0 -0.48760500288898762 0.34428924269920053 0 -0.48562619809599578 0.32640266349456792 0 -0.48562619809599578 0.32640266349456792 0 -0.47125898041042252 0.32002126982347801 0 -0.46253241104990311 0.33524203303281308 0 -0.48562619809599578 0.32640266349456792 0 -0.48241089702126277 0.31255413296515949 0 -0.47125898041042252 0.32002126982347801 0 -0.48241089702126277 0.31255413296515949 0 -0.47125898041042252 0.32002126982347801 0 -0.46773841270087901 0.31079285808893747 0 -0.47125898041042252 0.32002126982347801 0 -0.45576817666623448 0.31835153173916447 0 -0.46253241104990311 0.33524203303281308 0 -0.47125898041042252 0.32002126982347801 0 -0.45576817666623448 0.31835153173916447 0 -0.46773841270087901 0.31079285808893747 0 -0.45576817666623448 0.31835153173916447 0 -0.45865600667730899 0.30943069080157309 0 -0.46773841270087901 0.31079285808893747 0 -0.44841725984504338 0.3563199321058837 0 -0.46253241104990311 0.33524203303281308 0 -0.43890870260420722 0.33549166912417472 0 -0.45576817666623448 0.31835153173916447 0 -0.46253241104990311 0.33524203303281308 0 -0.43890870260420722 0.33549166912417472 0 -0.45576817666623448 0.31835153173916447 0 -0.44000484111236288 0.31965165766234338 0 -0.44643881368237798 0.30830840035353252 0 -0.45576817666623448 0.31835153173916447 0 -0.43890870260420722 0.33549166912417472 0 -0.44000484111236288 0.31965165766234338 0 -0.43951574751182437 0.29840373247065888 0 -0.45146588808502158 0.29469743086449229 0 -0.43137054242811879 0.30950095012319861 0 -0.44643881368237798 0.30830840035353252 0 -0.45146588808502158 0.29469743086449229 0 -0.43137054242811879 0.30950095012319861 0 -0.45146588808502158 0.29469743086449229 0 -0.43137054242811879 0.30950095012319861 0 -0.44000484111236288 0.31965165766234338 0 -0.44643881368237798 0.30830840035353252 0 -0.43137054242811879 0.30950095012319861 0 -0.44643881368237798 0.30830840035353252 0 -0.45146588808502158 0.29469743086449229 0 -0.45564819198479439 0.30234351078650162 0 -0.43951574751182437 0.29840373247065888 0 -0.45049462637931731 0.28922264379176049 0 -0.4257419395689761 0.29978429768342008 0 -0.45049462637931731 0.28922264379176049 0 -0.46112253242051771 0.28282393560933161 0 -0.44280689736750672 0.27849162430738877 0 -0.45049462637931731 0.28922264379176049 0 -0.44280689736750672 0.27849162430738877 0 -0.43485232122305628 0.2868492407099314 0 -0.45049462637931731 0.28922264379176049 0 -0.4257419395689761 0.29978429768342008 0 -0.43951574751182437 0.29840373247065888 0 -0.45049462637931731 0.28922264379176049 0 -0.45146588808502158 0.29469743086449229 0 -0.45049462637931731 0.28922264379176049 0 -0.46112253242051771 0.28282393560933161 0 -0.4752473131896584 0.27866098990010091 0 -0.45049462637931731 0.28922264379176049 0 -0.4752473131896584 0.27866098990010091 0 -0.45049462637931731 0.28922264379176049 0 -0.4600457211766158 0.2904495208765237 0 -0.4752473131896584 0.27866098990010091 0 -0.45146588808502158 0.29469743086449229 0 -0.4600457211766158 0.2904495208765237 0 -0.45842442563075853 0.29678007774420151 0 -0.45049462637931731 0.28922264379176049 0 -0.45146588808502158 0.29469743086449229 0 -0.4600457211766158 0.2904495208765237 0 -0.46553399285104508 0.29237617065640908 0 -0.46392900726938019 0.30158435669394168 0 -0.47517052388491571 0.29506440062923539 0 -0.4600457211766158 0.2904495208765237 0 -0.45842442563075853 0.29678007774420151 0 -0.46553399285104508 0.29237617065640908 0 -0.4600457211766158 0.2904495208765237 0 -0.46553399285104508 0.29237617065640908 0 -0.4752473131896584 0.27866098990010091 0 -0.44643881368237798 0.30830840035353252 0 -0.45865600667730899 0.30943069080157309 0 -0.45564819198479439 0.30234351078650162 0 -0.45576817666623448 0.31835153173916447 0 -0.44643881368237798 0.30830840035353252 0 -0.45865600667730899 0.30943069080157309 0 -0.45865600667730899 0.30943069080157309 0 -0.45564819198479439 0.30234351078650162 0 -0.46392900726938019 0.30158435669394168 0 -0.45842442563075853 0.29678007774420151 0 -0.45564819198479439 0.30234351078650162 0 -0.46392900726938019 0.30158435669394168 0 -0.45146588808502158 0.29469743086449229 0 -0.45842442563075853 0.29678007774420151 0 -0.45564819198479439 0.30234351078650162 0 -0.45842442563075853 0.29678007774420151 0 -0.46553399285104508 0.29237617065640908 0 -0.46392900726938019 0.30158435669394168 0 -0.45865600667730899 0.30943069080157309 0 -0.46392900726938019 0.30158435669394168 0 -0.46773841270087901 0.31079285808893747 0 -0.46392900726938019 0.30158435669394168 0 -0.46773841270087901 0.31079285808893747 0 -0.47486346169399729 0.30374344271514397 0 -0.48241089702126277 0.31255413296515949 0 -0.46773841270087901 0.31079285808893747 0 -0.47486346169399729 0.30374344271514397 0 -0.48241089702126277 0.31255413296515949 0 -0.48354952665698581 0.30074491990353391 0 -0.47486346169399729 0.30374344271514397 0 -0.48354952665698581 0.30074491990353391 0 -0.47486346169399729 0.30374344271514397 0 -0.47517052388491571 0.29506440062923539 0 -0.46392900726938019 0.30158435669394168 0 -0.47486346169399729 0.30374344271514397 0 -0.47517052388491571 0.29506440062923539 0 -0.47517052388491571 0.29506440062923539 0 -0.48530275068475298 0.29135903772123728 0 -0.4752473131896584 0.27866098990010091 0 -0.46553399285104508 0.29237617065640908 0 -0.47517052388491571 0.29506440062923539 0 -0.4752473131896584 0.27866098990010091 0 -0.48354952665698581 0.30074491990353391 0 -0.47517052388491571 0.29506440062923539 0 -0.48530275068475298 0.29135903772123728 0 -0.48530275068475298 0.29135903772123728 0 -0.5 0.28455146074766752 0 -0.4752473131896584 0.27866098990010091 0 -0.48530275068475298 0.29135903772123728 0 -0.5 0.28455146074766752 0 -0.50000000000000011 0.30100358548689338 0 -0.48354952665698581 0.30074491990353391 0 -0.48530275068475298 0.29135903772123728 0 -0.50000000000000011 0.30100358548689338 0 -0.48241089702126277 0.31255413296515949 0 -0.48354952665698581 0.30074491990353391 0 -0.50000000000000011 0.30100358548689338 0 -0.50000000000000056 0.24284720190388731 0 -0.49999999999999961 0.26809933600844138 0 -0.48145540272589082 0.25821466465537318 0 -0.49999999999999961 0.26809933600844138 0 -0.4752473131896584 0.27866098990010091 0 -0.49999999999999961 0.26809933600844138 0 -0.4752473131896584 0.27866098990010091 0 -0.48145540272589082 0.25821466465537318 0 -0.5 0.28455146074766752 0 -0.49999999999999961 0.26809933600844138 0 -0.4752473131896584 0.27866098990010091 0 -0.4752473131896584 0.27866098990010091 0 -0.48145540272589082 0.25821466465537318 0 -0.46486099172693568 0.26449668772752499 0 -0.46720724980550937 0.2498841062250354 0 -0.48145540272589082 0.25821466465537318 0 -0.46486099172693568 0.26449668772752499 0 -0.46720724980550937 0.2498841062250354 0 -0.46486099172693568 0.26449668772752499 0 -0.45159942092471678 0.25152992809953878 0 -0.46486099172693568 0.26449668772752499 0 -0.45430205705322119 0.26542178611247652 0 -0.45159942092471678 0.25152992809953878 0 -0.46112253242051771 0.28282393560933161 0 -0.46486099172693568 0.26449668772752499 0 -0.45430205705322119 0.26542178611247652 0 -0.46112253242051771 0.28282393560933161 0 -0.4752473131896584 0.27866098990010091 0 -0.46486099172693568 0.26449668772752499 0 -0.46112253242051771 0.28282393560933161 0 -0.44280689736750672 0.27849162430738877 0 -0.43962528314071442 0.26283659301351048 0 -0.46112253242051771 0.28282393560933161 0 -0.45430205705322119 0.26542178611247652 0 -0.43962528314071442 0.26283659301351048 0 -0.46112253242051771 0.28282393560933161 0 -0.43962528314071442 0.26283659301351048 0 -0.45159942092471678 0.25152992809953878 0 -0.43962528314071442 0.26283659301351048 0 -0.45430205705322119 0.26542178611247652 0 -0.45159942092471678 0.25152992809953878 0 -0.43962528314071442 0.26283659301351048 0 -0.43680991428077598 0.2478611834207117 0 -0.45159942092471678 0.25152992809953878 0 -0.43962528314071442 0.26283659301351048 0 -0.42166945912993159 0.24614193587749439 0 -0.43962528314071442 0.26283659301351048 0 -0.42166945912993159 0.24614193587749439 0 -0.43962528314071442 0.26283659301351048 0 -0.42012482695215109 0.26531199065844802 0 -0.42166945912993159 0.24614193587749439 0 -0.43680991428077598 0.2478611834207117 0 -0.43962528314071442 0.26283659301351048 0 -0.42166945912993159 0.24614193587749439 0 -0.39914639003873531 0.24782195554532521 0 -0.40922598950630668 0.2612084748633644 0 -0.42166945912993159 0.24614193587749439 0 -0.42012482695215109 0.26531199065844802 0 -0.40922598950630668 0.2612084748633644 0 -0.4103554595014231 0.27189685955533821 0 -0.42001665073362632 0.28135218386835981 0 -0.40145103786356051 0.28006137537296433 0 -0.42012482695215109 0.26531199065844802 0 -0.4103554595014231 0.27189685955533821 0 -0.42001665073362632 0.28135218386835981 0 -0.42012482695215109 0.26531199065844802 0 -0.40922598950630668 0.2612084748633644 0 -0.4103554595014231 0.27189685955533821 0 -0.40922598950630668 0.2612084748633644 0 -0.4103554595014231 0.27189685955533821 0 -0.40058189253010928 0.27043250489056381 0 -0.44280689736750672 0.27849162430738877 0 -0.43962528314071442 0.26283659301351048 0 -0.42001665073362632 0.28135218386835981 0 -0.43962528314071442 0.26283659301351048 0 -0.42012482695215109 0.26531199065844802 0 -0.42001665073362632 0.28135218386835981 0 -0.43962528314071442 0.26283659301351048 0 -0.42001665073362632 0.28135218386835981 0 -0.44280689736750672 0.27849162430738877 0 -0.43485232122305628 0.2868492407099314 0 -0.42001665073362632 0.28135218386835981 0 -0.45049462637931731 0.28922264379176049 0 -0.43485232122305628 0.2868492407099314 0 -0.4257419395689761 0.29978429768342008 0 -0.43485232122305628 0.2868492407099314 0 -0.42531884752686588 0.28981047950557631 0 -0.4257419395689761 0.29978429768342008 0 -0.43485232122305628 0.2868492407099314 0 -0.42531884752686588 0.28981047950557631 0 -0.42001665073362632 0.28135218386835981 0 -0.43951574751182437 0.29840373247065888 0 -0.43137054242811879 0.30950095012319861 0 -0.4257419395689761 0.29978429768342008 0 -0.43137054242811879 0.30950095012319861 0 -0.4257419395689761 0.29978429768342008 0 -0.42044220125248449 0.30784924469735181 0 -0.4257419395689761 0.29978429768342008 0 -0.42044220125248449 0.30784924469735181 0 -0.41384827087576942 0.29375279321965481 0 -0.42044220125248449 0.30784924469735181 0 -0.41256173382349332 0.30902863130078012 0 -0.41384827087576942 0.29375279321965481 0 -0.41256173382349332 0.30902863130078012 0 -0.41384827087576942 0.29375279321965481 0 -0.41256173382349332 0.30902863130078012 0 -0.41384827087576942 0.29375279321965481 0 -0.40040801832653838 0.29986777472320919 0 -0.42001665073362632 0.28135218386835981 0 -0.40040801832653838 0.29986777472320919 0 -0.42001665073362632 0.28135218386835981 0 -0.39985470213944091 0.28864481547290483 0 -0.40145103786356051 0.28006137537296433 0 -0.42001665073362632 0.28135218386835981 0 -0.41384827087576942 0.29375279321965481 0 -0.40040801832653838 0.29986777472320919 0 -0.42001665073362632 0.28135218386835981 0 -0.39985470213944091 0.28864481547290483 0 -0.40040801832653838 0.29986777472320919 0 -0.42531884752686588 0.28981047950557631 0 -0.42001665073362632 0.28135218386835981 0 -0.41384827087576942 0.29375279321965481 0 -0.42531884752686588 0.28981047950557631 0 -0.4257419395689761 0.29978429768342008 0 -0.41384827087576942 0.29375279321965481 0 -0.39985470213944091 0.28864481547290483 0 -0.40040801832653838 0.29986777472320919 0 -0.38737278944146841 0.29655898790053509 0 -0.39985470213944091 0.28864481547290483 0 -0.39002501433201092 0.2853837554994556 0 -0.38737278944146841 0.29655898790053509 0 -0.39985470213944091 0.28864481547290483 0 -0.39002501433201092 0.2853837554994556 0 -0.40145103786356051 0.28006137537296433 0 -0.38079938591945062 0.31838336557805869 0 -0.39836187646537269 0.31695163612064892 0 -0.40040801832653838 0.29986777472320919 0 -0.39836187646537269 0.31695163612064892 0 -0.41256173382349332 0.30902863130078012 0 -0.40040801832653838 0.29986777472320919 0 -0.38079938591945062 0.31838336557805869 0 -0.40040801832653838 0.29986777472320919 0 -0.38079938591945062 0.31838336557805869 0 -0.38737278944146841 0.29655898790053509 0 -0.37302917399586921 0.30361838497240717 0 -0.38079938591945062 0.31838336557805869 0 -0.40040801832653838 0.29986777472320919 0 -0.38737278944146841 0.29655898790053509 0 -0.3817185373798645 0.28984214543492948 0 -0.37662094366170451 0.28334754369470688 0 -0.37302917399586921 0.30361838497240717 0 -0.39002501433201092 0.2853837554994556 0 -0.3817185373798645 0.28984214543492948 0 -0.38154476546826949 0.2803020551075428 0 -0.39002501433201092 0.2853837554994556 0 -0.38737278944146841 0.29655898790053509 0 -0.3817185373798645 0.28984214543492948 0 -0.38737278944146841 0.29655898790053509 0 -0.3817185373798645 0.28984214543492948 0 -0.37302917399586921 0.30361838497240717 0 -0.3817185373798645 0.28984214543492948 0 -0.37662094366170451 0.28334754369470688 0 -0.38154476546826949 0.2803020551075428 0 -0.37662094366170451 0.28334754369470688 0 -0.38154476546826949 0.2803020551075428 0 -0.37662094366170451 0.28334754369470688 0 -0.38090100180919628 0.25919221430588252 0 -0.36791364091216727 0.26964375767020732 0 -0.37662094366170451 0.28334754369470688 0 -0.38154476546826949 0.2803020551075428 0 -0.38090100180919628 0.25919221430588252 0 -0.37662094366170451 0.28334754369470688 0 -0.38090100180919628 0.25919221430588252 0 -0.38154476546826949 0.2803020551075428 0 -0.39016260423663751 0.26957192738328861 0 -0.38090100180919628 0.25919221430588252 0 -0.38154476546826949 0.2803020551075428 0 -0.39016260423663751 0.26957192738328861 0 -0.39282844287038993 0.27737387727536122 0 -0.39002501433201092 0.2853837554994556 0 -0.38154476546826949 0.2803020551075428 0 -0.39282844287038993 0.27737387727536122 0 -0.39016260423663751 0.26957192738328861 0 -0.38090100180919628 0.25919221430588252 0 -0.39600357562419702 0.26164541539768488 0 -0.39914639003873531 0.24782195554532521 0 -0.38090100180919628 0.25919221430588252 0 -0.39600357562419702 0.26164541539768488 0 -0.39914639003873531 0.24782195554532521 0 -0.40922598950630668 0.2612084748633644 0 -0.39600357562419702 0.26164541539768488 0 -0.40922598950630668 0.2612084748633644 0 -0.39600357562419702 0.26164541539768488 0 -0.40058189253010928 0.27043250489056381 0 -0.4103554595014231 0.27189685955533821 0 -0.40058189253010928 0.27043250489056381 0 -0.40145103786356051 0.28006137537296433 0 -0.40058189253010928 0.27043250489056381 0 -0.40145103786356051 0.28006137537296433 0 -0.39282844287038993 0.27737387727536122 0 -0.39002501433201092 0.2853837554994556 0 -0.40145103786356051 0.28006137537296433 0 -0.39282844287038993 0.27737387727536122 0 -0.39016260423663751 0.26957192738328861 0 -0.39600357562419702 0.26164541539768488 0 -0.40058189253010928 0.27043250489056381 0 -0.39016260423663751 0.26957192738328861 0 -0.40058189253010928 0.27043250489056381 0 -0.39282844287038993 0.27737387727536122 0 -0.35426788728234498 0.26692997420068199 0 -0.36278068723542711 0.27994293577183232 0 -0.35014437608737309 0.2817876293185595 0 -0.35426788728234498 0.26692997420068199 0 -0.35014437608737309 0.2817876293185595 0 -0.3401516584663884 0.26988648998004039 0 -0.3563961611915758 0.24797565259586621 0 -0.35426788728234498 0.26692997420068199 0 -0.36537575547141449 0.2578204453320545 0 -0.35426788728234498 0.26692997420068199 0 -0.3401516584663884 0.26988648998004039 0 -0.34257200970583163 0.25248948381028891 0 -0.3563961611915758 0.24797565259586621 0 -0.35426788728234498 0.26692997420068199 0 -0.34257200970583163 0.25248948381028891 0 -0.35426788728234498 0.26692997420068199 0 -0.36537575547141449 0.2578204453320545 0 -0.36791364091216727 0.26964375767020732 0 -0.36921482647819248 0.24062938766741859 0 -0.38090100180919628 0.25919221430588252 0 -0.36537575547141449 0.2578204453320545 0 -0.38090100180919628 0.25919221430588252 0 -0.36537575547141449 0.2578204453320545 0 -0.36791364091216727 0.26964375767020732 0 -0.35426788728234498 0.26692997420068199 0 -0.36791364091216727 0.26964375767020732 0 -0.36278068723542711 0.27994293577183232 0 -0.37662094366170451 0.28334754369470688 0 -0.36791364091216727 0.26964375767020732 0 -0.36278068723542711 0.27994293577183232 0 -0.37662094366170451 0.28334754369470688 0 -0.35897488921405141 0.29426200395342572 0 -0.37662094366170451 0.28334754369470688 0 -0.37302917399586921 0.30361838497240717 0 -0.35897488921405141 0.29426200395342572 0 -0.37662094366170451 0.28334754369470688 0 -0.36278068723542711 0.27994293577183232 0 -0.35897488921405141 0.29426200395342572 0 -0.37662094366170451 0.28334754369470688 0 -0.37302917399586921 0.30361838497240717 0 -0.37302917399586921 0.30361838497240717 0 -0.35722794108777062 0.3100397108524493 0 -0.36494919260106279 0.31865015778690498 0 -0.37302917399586921 0.30361838497240717 0 -0.35722794108777062 0.3100397108524493 0 -0.35897488921405141 0.29426200395342572 0 -0.35722794108777062 0.3100397108524493 0 -0.35897488921405141 0.29426200395342572 0 -0.34132883476639908 0.30517646421214573 0 -0.35722794108777062 0.3100397108524493 0 -0.34132883476639908 0.30517646421214573 0 -0.34611993735954732 0.31667184505411899 0 -0.35897488921405141 0.29426200395342572 0 -0.34414694044800248 0.2922344460295086 0 -0.34132883476639908 0.30517646421214573 0 -0.35897488921405141 0.29426200395342572 0 -0.34132883476639908 0.30517646421214573 0 -0.36278068723542711 0.27994293577183232 0 -0.35897488921405141 0.29426200395342572 0 -0.35014437608737309 0.2817876293185595 0 -0.35897488921405141 0.29426200395342572 0 -0.34414694044800248 0.2922344460295086 0 -0.35014437608737309 0.2817876293185595 0 -0.34414694044800248 0.2922344460295086 0 -0.35014437608737309 0.2817876293185595 0 -0.33939667894864323 0.28523647277928899 0 -0.34414694044800248 0.2922344460295086 0 -0.33939667894864323 0.28523647277928899 0 -0.3308899232235456 0.29470965988412301 0 -0.33939667894864323 0.28523647277928899 0 -0.3308899232235456 0.29470965988412301 0 -0.32833533827008132 0.28074246172310158 0 -0.34132883476639908 0.30517646421214573 0 -0.32368278031874659 0.3160909244708654 0 -0.34132883476639908 0.30517646421214573 0 -0.32527599184374001 0.30839195805584207 0 -0.32368278031874659 0.3160909244708654 0 -0.3308899232235456 0.29470965988412301 0 -0.34132883476639908 0.30517646421214573 0 -0.32527599184374001 0.30839195805584207 0 -0.34414694044800248 0.2922344460295086 0 -0.3308899232235456 0.29470965988412301 0 -0.34132883476639908 0.30517646421214573 0 -0.32527599184374001 0.30839195805584207 0 -0.31561414982576602 0.31133732407539649 0 -0.32368278031874659 0.3160909244708654 0 -0.32527599184374001 0.30839195805584207 0 -0.32368278031874659 0.3160909244708654 0 -0.3308899232235456 0.29470965988412301 0 -0.32527599184374001 0.30839195805584207 0 -0.3174562908182656 0.30075128328944301 0 -0.3174562908182656 0.30075128328944301 0 -0.31561414982576602 0.31133732407539649 0 -0.30488326733989463 0.30586584479100759 0 -0.32527599184374001 0.30839195805584207 0 -0.3174562908182656 0.30075128328944301 0 -0.31561414982576602 0.31133732407539649 0 -0.3308899232235456 0.29470965988412301 0 -0.31807556443062168 0.28922370113391621 0 -0.32833533827008132 0.28074246172310158 0 -0.31807556443062168 0.28922370113391621 0 -0.31550051736961332 0.27616445854352167 0 -0.32833533827008132 0.28074246172310158 0 -0.3308899232235456 0.29470965988412301 0 -0.3174562908182656 0.30075128328944301 0 -0.31807556443062168 0.28922370113391621 0 -0.3174562908182656 0.30075128328944301 0 -0.31807556443062168 0.28922370113391621 0 -0.30915956987364013 0.29530472960364579 0 -0.31550051736961332 0.27616445854352167 0 -0.32430225600438289 0.26929422586331669 0 -0.3159160426809372 0.26156594243565418 0 -0.31550051736961332 0.27616445854352167 0 -0.32430225600438289 0.26929422586331669 0 -0.32833533827008132 0.28074246172310158 0 -0.32430225600438289 0.26929422586331669 0 -0.32833533827008132 0.28074246172310158 0 -0.3401516584663884 0.26988648998004039 0 -0.33939667894864323 0.28523647277928899 0 -0.32833533827008132 0.28074246172310158 0 -0.3401516584663884 0.26988648998004039 0 -0.35014437608737309 0.2817876293185595 0 -0.33939667894864323 0.28523647277928899 0 -0.3401516584663884 0.26988648998004039 0 -0.32430225600438289 0.26929422586331669 0 -0.3401516584663884 0.26988648998004039 0 -0.32880104376799718 0.25672393274594318 0 -0.3401516584663884 0.26988648998004039 0 -0.34257200970583163 0.25248948381028891 0 -0.32880104376799718 0.25672393274594318 0 -0.33202861639546088 0.24364741256705169 0 -0.34257200970583163 0.25248948381028891 0 -0.32880104376799718 0.25672393274594318 0 -0.31729140884439411 0.24522652999362271 0 -0.3159160426809372 0.26156594243565418 0 -0.3061892731829759 0.25360834492731388 0 -0.31729140884439411 0.24522652999362271 0 -0.32880104376799718 0.25672393274594318 0 -0.3159160426809372 0.26156594243565418 0 -0.32430225600438289 0.26929422586331669 0 -0.32880104376799718 0.25672393274594318 0 -0.3159160426809372 0.26156594243565418 0 -0.3159160426809372 0.26156594243565418 0 -0.3061892731829759 0.25360834492731388 0 -0.30341175691626032 0.2683781625402073 0 -0.3061892731829759 0.25360834492731388 0 -0.30341175691626032 0.2683781625402073 0 -0.29206570763485717 0.26219911350823039 0 -0.30341175691626032 0.2683781625402073 0 -0.29245895227512392 0.27678583651198158 0 -0.30381628932043842 0.28649106749499248 0 -0.31550051736961332 0.27616445854352167 0 -0.30341175691626032 0.2683781625402073 0 -0.30381628932043842 0.28649106749499248 0 -0.31550051736961332 0.27616445854352167 0 -0.3159160426809372 0.26156594243565418 0 -0.30341175691626032 0.2683781625402073 0 -0.30341175691626032 0.2683781625402073 0 -0.29245895227512392 0.27678583651198158 0 -0.29206570763485717 0.26219911350823039 0 -0.29245895227512392 0.27678583651198158 0 -0.29206570763485717 0.26219911350823039 0 -0.28101076963377591 0.26842990533226552 0 -0.29245895227512392 0.27678583651198158 0 -0.28101076963377591 0.26842990533226552 0 -0.28048941712027842 0.28071961661975081 0 -0.29179662060540801 0.24928241604308141 0 -0.3061892731829759 0.25360834492731388 0 -0.29206570763485717 0.26219911350823039 0 -0.29206570763485717 0.26219911350823039 0 -0.28034183904949411 0.25378490876330928 0 -0.28101076963377591 0.26842990533226552 0 -0.29179662060540801 0.24928241604308141 0 -0.29206570763485717 0.26219911350823039 0 -0.28034183904949411 0.25378490876330928 0 -0.26959776104581018 0.2471102508748988 0 -0.28034183904949411 0.25378490876330928 0 -0.26933907812495439 0.26063869119655397 0 -0.28034183904949411 0.25378490876330928 0 -0.26933907812495439 0.26063869119655397 0 -0.28101076963377591 0.26842990533226552 0 -0.28101076963377591 0.26842990533226552 0 -0.28048941712027842 0.28071961661975081 0 -0.26910987540905479 0.27275472732372957 0 -0.28048941712027842 0.28071961661975081 0 -0.26910987540905479 0.27275472732372957 0 -0.26864366521715022 0.2845026931388876 0 -0.26910987540905479 0.27275472732372957 0 -0.25998981467415172 0.27831603070742322 0 -0.26864366521715022 0.2845026931388876 0 -0.26933907812495439 0.26063869119655397 0 -0.26910987540905479 0.27275472732372957 0 -0.25870361852999618 0.26728281079437621 0 -0.26933907812495439 0.26063869119655397 0 -0.28101076963377591 0.26842990533226552 0 -0.26910987540905479 0.27275472732372957 0 -0.25870361852999618 0.26728281079437621 0 -0.24681624117993739 0.26403734226434472 0 -0.24960275626890269 0.28021931341995432 0 -0.26910987540905479 0.27275472732372957 0 -0.25870361852999618 0.26728281079437621 0 -0.25998981467415172 0.27831603070742322 0 -0.25870361852999618 0.26728281079437621 0 -0.25998981467415172 0.27831603070742322 0 -0.24960275626890269 0.28021931341995432 0 -0.25870361852999618 0.26728281079437621 0 -0.25727060508159572 0.25446954409074501 0 -0.24681624117993739 0.26403734226434472 0 -0.25164740003836339 0.24717250052553011 0 -0.25727060508159572 0.25446954409074501 0 -0.24457833111145469 0.25251492118884339 0 -0.26959776104581018 0.2471102508748988 0 -0.26933907812495439 0.26063869119655397 0 -0.25727060508159572 0.25446954409074501 0 -0.26933907812495439 0.26063869119655397 0 -0.25870361852999618 0.26728281079437621 0 -0.25727060508159572 0.25446954409074501 0 -0.25601235074984552 0.29483414082105591 0 -0.26272076474526179 0.318873222546533 0 -0.24136145510151191 0.30790324321833829 0 -0.25601235074984552 0.29483414082105591 0 -0.27263757982575137 0.30284828985396861 0 -0.26272076474526179 0.318873222546533 0 -0.25998981467415172 0.27831603070742322 0 -0.25601235074984552 0.29483414082105591 0 -0.24960275626890269 0.28021931341995432 0 -0.25998981467415172 0.27831603070742322 0 -0.25601235074984552 0.29483414082105591 0 -0.26864366521715022 0.2845026931388876 0 -0.25601235074984552 0.29483414082105591 0 -0.26864366521715022 0.2845026931388876 0 -0.27263757982575137 0.30284828985396861 0 -0.26864366521715022 0.2845026931388876 0 -0.27922878235406368 0.29210356523254988 0 -0.27263757982575137 0.30284828985396861 0 -0.28048941712027842 0.28071961661975081 0 -0.26864366521715022 0.2845026931388876 0 -0.27922878235406368 0.29210356523254988 0 -0.27922878235406368 0.29210356523254988 0 -0.27263757982575137 0.30284828985396861 0 -0.28843049644231011 0.30394421449071157 0 -0.27263757982575137 0.30284828985396861 0 -0.28843049644231011 0.30394421449071157 0 -0.28112153244476212 0.32200792452083021 0 -0.28843049644231011 0.30394421449071157 0 -0.30488326733989463 0.30586584479100759 0 -0.29596286479664641 0.31982321463151547 0 -0.29245895227512392 0.27678583651198158 0 -0.28048941712027842 0.28071961661975081 0 -0.28934034096222039 0.28990983918322633 0 -0.28048941712027842 0.28071961661975081 0 -0.27922878235406368 0.29210356523254988 0 -0.28934034096222039 0.28990983918322633 0 -0.27922878235406368 0.29210356523254988 0 -0.28843049644231011 0.30394421449071157 0 -0.28934034096222039 0.28990983918322633 0 -0.28843049644231011 0.30394421449071157 0 -0.28934034096222039 0.28990983918322633 0 -0.29811665182406921 0.29595427407566688 0 -0.29245895227512392 0.27678583651198158 0 -0.28934034096222039 0.28990983918322633 0 -0.30381628932043842 0.28649106749499248 0 -0.30381628932043842 0.28649106749499248 0 -0.29811665182406921 0.29595427407566688 0 -0.30915956987364013 0.29530472960364579 0 -0.28934034096222039 0.28990983918322633 0 -0.30381628932043842 0.28649106749499248 0 -0.29811665182406921 0.29595427407566688 0 -0.31807556443062168 0.28922370113391621 0 -0.30381628932043842 0.28649106749499248 0 -0.30915956987364013 0.29530472960364579 0 -0.31807556443062168 0.28922370113391621 0 -0.31550051736961332 0.27616445854352167 0 -0.30381628932043842 0.28649106749499248 0 -0.28843049644231011 0.30394421449071157 0 -0.29811665182406921 0.29595427407566688 0 -0.30488326733989463 0.30586584479100759 0 -0.29811665182406921 0.29595427407566688 0 -0.30915956987364013 0.29530472960364579 0 -0.30488326733989463 0.30586584479100759 0 -0.3174562908182656 0.30075128328944301 0 -0.30915956987364013 0.29530472960364579 0 -0.30488326733989463 0.30586584479100759 0 -0.31561414982576602 0.31133732407539649 0 -0.30488326733989463 0.30586584479100759 0 -0.30688063357715378 0.31631014462666912 0 -0.31561414982576602 0.31133732407539649 0 -0.30688063357715378 0.31631014462666912 0 -0.31473397263761371 0.32162595249021142 0 -0.30688063357715378 0.31631014462666912 0 -0.30328941177644519 0.33094015313510411 0 -0.31473397263761371 0.32162595249021142 0 -0.30688063357715378 0.31631014462666912 0 -0.30328941177644519 0.33094015313510411 0 -0.29596286479664641 0.31982321463151547 0 -0.30488326733989463 0.30586584479100759 0 -0.30688063357715378 0.31631014462666912 0 -0.29596286479664641 0.31982321463151547 0 -0.30328941177644519 0.33094015313510411 0 -0.31799727564213148 0.34356531118663808 0 -0.31473397263761371 0.32162595249021142 0 -0.30328941177644519 0.33094015313510411 0 -0.29485662309149979 0.34949876092009191 0 -0.31799727564213148 0.34356531118663808 0 -0.28952969308705678 0.3341707395181352 0 -0.27560903892602751 0.33939397480907668 0 -0.29485662309149979 0.34949876092009191 0 -0.30328941177644519 0.33094015313510411 0 -0.28952969308705678 0.3341707395181352 0 -0.29485662309149979 0.34949876092009191 0 -0.28952969308705678 0.3341707395181352 0 -0.28112153244476212 0.32200792452083021 0 -0.27560903892602751 0.33939397480907668 0 -0.30328941177644519 0.33094015313510411 0 -0.28952969308705678 0.3341707395181352 0 -0.29596286479664641 0.31982321463151547 0 -0.28843049644231011 0.30394421449071157 0 -0.29596286479664641 0.31982321463151547 0 -0.28112153244476212 0.32200792452083021 0 -0.28952969308705678 0.3341707395181352 0 -0.29596286479664641 0.31982321463151547 0 -0.28112153244476212 0.32200792452083021 0 -0.28112153244476212 0.32200792452083021 0 -0.27560903892602751 0.33939397480907668 0 -0.26272076474526179 0.318873222546533 0 -0.27263757982575137 0.30284828985396861 0 -0.28112153244476212 0.32200792452083021 0 -0.26272076474526179 0.318873222546533 0 -0.27560903892602751 0.33939397480907668 0 -0.26272076474526179 0.318873222546533 0 -0.25819651508038688 0.3479280525609994 0 -0.26272076474526179 0.318873222546533 0 -0.25819651508038688 0.3479280525609994 0 -0.2448250837070228 0.32430951615898362 0 -0.25961719201974048 0.37163785781867348 0 -0.25819651508038688 0.3479280525609994 0 -0.27247907086998813 0.36781977014661782 0 -0.25961719201974048 0.37163785781867348 0 -0.25819651508038688 0.3479280525609994 0 -0.24661228636385091 0.36978284435447067 0 -0.25961719201974048 0.37163785781867348 0 -0.25378903353021459 0.37641521702691272 0 -0.24661228636385091 0.36978284435447067 0 -0.25819651508038688 0.3479280525609994 0 -0.24661228636385091 0.36978284435447067 0 -0.25819651508038688 0.3479280525609994 0 -0.27806102569802971 0.35442105551055958 0 -0.27247907086998813 0.36781977014661782 0 -0.27560903892602751 0.33939397480907668 0 -0.25819651508038688 0.3479280525609994 0 -0.27806102569802971 0.35442105551055958 0 -0.27806102569802971 0.35442105551055958 0 -0.27247907086998813 0.36781977014661782 0 -0.28916388052224629 0.36746471911601197 0 -0.27247907086998813 0.36781977014661782 0 -0.28916388052224629 0.36746471911601197 0 -0.28197614855121672 0.38143710891117899 0 -0.25961719201974048 0.37163785781867348 0 -0.27247907086998813 0.36781977014661782 0 -0.26976813466156752 0.3831005126769263 0 -0.27560903892602751 0.33939397480907668 0 -0.27806102569802971 0.35442105551055958 0 -0.29485662309149979 0.34949876092009191 0 -0.27806102569802971 0.35442105551055958 0 -0.28916388052224629 0.36746471911601197 0 -0.29485662309149979 0.34949876092009191 0 -0.29485662309149979 0.34949876092009191 0 -0.31231177096551721 0.37103969790241109 0 -0.31799727564213148 0.34356531118663808 0 -0.28916388052224629 0.36746471911601197 0 -0.29485662309149979 0.34949876092009191 0 -0.31231177096551721 0.37103969790241109 0 -0.28916388052224629 0.36746471911601197 0 -0.31231177096551721 0.37103969790241109 0 -0.29549204235979581 0.38215049247416499 0 -0.31231177096551721 0.37103969790241109 0 -0.33419978458190081 0.37364204534410189 0 -0.31799727564213148 0.34356531118663808 0 -0.34158212110527492 0.35541454728775762 0 -0.31799727564213148 0.34356531118663808 0 -0.33944442138771319 0.33856834722037571 0 -0.33419978458190081 0.37364204534410189 0 -0.34158212110527492 0.35541454728775762 0 -0.31799727564213148 0.34356531118663808 0 -0.31231177096551721 0.37103969790241109 0 -0.31799727564213148 0.34356531118663808 0 -0.31799727564213148 0.34356531118663808 0 -0.32368278031874659 0.3160909244708654 0 -0.31799727564213148 0.34356531118663808 0 -0.32808239806270489 0.33082291895631372 0 -0.32368278031874659 0.3160909244708654 0 -0.31799727564213148 0.34356531118663808 0 -0.31473397263761371 0.32162595249021142 0 -0.32368278031874659 0.3160909244708654 0 -0.31473397263761371 0.32162595249021142 0 -0.32368278031874659 0.3160909244708654 0 -0.31561414982576602 0.31133732407539649 0 -0.31473397263761371 0.32162595249021142 0 -0.32368278031874659 0.3160909244708654 0 -0.32808239806270489 0.33082291895631372 0 -0.32368278031874659 0.3160909244708654 0 -0.33164143641161298 0.32241140092113968 0 -0.34132883476639908 0.30517646421214573 0 -0.32368278031874659 0.3160909244708654 0 -0.33607387709805059 0.317202144426671 0 -0.32368278031874659 0.3160909244708654 0 -0.33164143641161298 0.32241140092113968 0 -0.33607387709805059 0.317202144426671 0 -0.32808239806270489 0.33082291895631372 0 -0.33164143641161298 0.32241140092113968 0 -0.33872669016695001 0.32552961583070861 0 -0.33164143641161298 0.32241140092113968 0 -0.33872669016695001 0.32552961583070861 0 -0.33607387709805059 0.317202144426671 0 -0.33872669016695001 0.32552961583070861 0 -0.33607387709805059 0.317202144426671 0 -0.34611993735954732 0.31667184505411899 0 -0.34132883476639908 0.30517646421214573 0 -0.33607387709805059 0.317202144426671 0 -0.34611993735954732 0.31667184505411899 0 -0.31799727564213148 0.34356531118663808 0 -0.32808239806270489 0.33082291895631372 0 -0.33944442138771319 0.33856834722037571 0 -0.32808239806270489 0.33082291895631372 0 -0.33872669016695001 0.32552961583070861 0 -0.33944442138771319 0.33856834722037571 0 -0.33872669016695001 0.32552961583070861 0 -0.33944442138771319 0.33856834722037571 0 -0.35249870848986109 0.32431037109870159 0 -0.34158212110527492 0.35541454728775762 0 -0.33944442138771319 0.33856834722037571 0 -0.36119075351236257 0.33689895643290818 0 -0.33944442138771319 0.33856834722037571 0 -0.35249870848986109 0.32431037109870159 0 -0.36119075351236257 0.33689895643290818 0 -0.33872669016695001 0.32552961583070861 0 -0.34611993735954732 0.31667184505411899 0 -0.35249870848986109 0.32431037109870159 0 -0.35722794108777062 0.3100397108524493 0 -0.35249870848986109 0.32431037109870159 0 -0.36494919260106279 0.31865015778690498 0 -0.35722794108777062 0.3100397108524493 0 -0.34611993735954732 0.31667184505411899 0 -0.35249870848986109 0.32431037109870159 0 -0.38079938591945062 0.31838336557805869 0 -0.36494919260106279 0.31865015778690498 0 -0.36119075351236257 0.33689895643290818 0 -0.35249870848986109 0.32431037109870159 0 -0.36494919260106279 0.31865015778690498 0 -0.36119075351236257 0.33689895643290818 0 -0.38079938591945062 0.31838336557805869 0 -0.36119075351236257 0.33689895643290818 0 -0.38079938591945062 0.31838336557805869 0 -0.37302917399586921 0.30361838497240717 0 -0.36494919260106279 0.31865015778690498 0 -0.3773713786508589 0.33611207876566412 0 -0.38079938591945062 0.31838336557805869 0 -0.36119075351236257 0.33689895643290818 0 -0.3773713786508589 0.33611207876566412 0 -0.36119075351236257 0.33689895643290818 0 -0.37457185119067632 0.35134250557382463 0 -0.36119075351236257 0.33689895643290818 0 -0.36116976578029147 0.35554765946662198 0 -0.37457185119067632 0.35134250557382463 0 -0.37582312251557087 0.36725601300637339 0 -0.36116976578029147 0.35554765946662198 0 -0.37457185119067632 0.35134250557382463 0 -0.37582312251557087 0.36725601300637339 0 -0.36116976578029147 0.35554765946662198 0 -0.35890523603058289 0.37147803907363097 0 -0.37947684836736739 0.38461416725121528 0 -0.37582312251557087 0.36725601300637339 0 -0.35890523603058289 0.37147803907363097 0 -0.33419978458190081 0.37364204534410189 0 -0.34158212110527492 0.35541454728775762 0 -0.35890523603058289 0.37147803907363097 0 -0.34158212110527492 0.35541454728775762 0 -0.36116976578029147 0.35554765946662198 0 -0.35890523603058289 0.37147803907363097 0 -0.34158212110527492 0.35541454728775762 0 -0.36119075351236257 0.33689895643290818 0 -0.34158212110527492 0.35541454728775762 0 -0.36119075351236257 0.33689895643290818 0 -0.36116976578029147 0.35554765946662198 0 -0.34506230470629112 0.39007394258869588 0 -0.35636142363023898 0.40679585797019979 0 -0.33074522791071409 0.41025140163357021 0 -0.34506230470629112 0.39007394258869588 0 -0.36343356795477899 0.39028215333439548 0 -0.35636142363023898 0.40679585797019979 0 -0.35890523603058289 0.37147803907363097 0 -0.34506230470629112 0.39007394258869588 0 -0.36343356795477899 0.39028215333439548 0 -0.33419978458190081 0.37364204534410189 0 -0.35890523603058289 0.37147803907363097 0 -0.34506230470629112 0.39007394258869588 0 -0.37947684836736739 0.38461416725121528 0 -0.35890523603058289 0.37147803907363097 0 -0.36343356795477899 0.39028215333439548 0 -0.38181787015713209 0.406798219230327 0 -0.36343356795477899 0.39028215333439548 0 -0.35636142363023898 0.40679585797019979 0 -0.38181787015713209 0.406798219230327 0 -0.37947684836736739 0.38461416725121528 0 -0.36343356795477899 0.39028215333439548 0 -0.38181787015713209 0.406798219230327 0 -0.36903468033198628 0.4205936335556017 0 -0.35636142363023898 0.40679585797019979 0 -0.36903468033198628 0.4205936335556017 0 -0.34900319137005598 0.42451526819571123 0 -0.36775155255336078 0.43784079569212991 0 -0.3841588919468969 0.42898227120943883 0 -0.36903468033198628 0.4205936335556017 0 -0.36775155255336078 0.43784079569212991 0 -0.34900319137005598 0.42451526819571123 0 -0.36775155255336078 0.43784079569212991 0 -0.36903468033198628 0.4205936335556017 0 -0.34900319137005598 0.42451526819571123 0 -0.35636142363023898 0.40679585797019979 0 -0.34900319137005598 0.42451526819571123 0 -0.35636142363023898 0.40679585797019979 0 -0.33074522791071409 0.41025140163357021 0 -0.34900319137005598 0.42451526819571123 0 -0.33074522791071409 0.41025140163357021 0 -0.3283050641331382 0.4357496949932369 0 -0.34900319137005598 0.42451526819571123 0 -0.3283050641331382 0.4357496949932369 0 -0.34714299975598012 0.45098081603039453 0 -0.3283050641331382 0.4357496949932369 0 -0.30094076161228828 0.42598847133395662 0 -0.30828384211486393 0.4457078165060957 0 -0.33074522791071409 0.41025140163357021 0 -0.3283050641331382 0.4357496949932369 0 -0.30094076161228828 0.42598847133395662 0 -0.33074522791071409 0.41025140163357021 0 -0.30662626628890283 0.39851408461818377 0 -0.30094076161228828 0.42598847133395662 0 -0.33074522791071409 0.41025140163357021 0 -0.32561888340067952 0.38939565436172352 0 -0.30662626628890283 0.39851408461818377 0 -0.34506230470629112 0.39007394258869588 0 -0.33074522791071409 0.41025140163357021 0 -0.32561888340067952 0.38939565436172352 0 -0.33419978458190081 0.37364204534410189 0 -0.34506230470629112 0.39007394258869588 0 -0.32561888340067952 0.38939565436172352 0 -0.31231177096551721 0.37103969790241109 0 -0.33419978458190081 0.37364204534410189 0 -0.32561888340067952 0.38939565436172352 0 -0.31231177096551721 0.37103969790241109 0 -0.32561888340067952 0.38939565436172352 0 -0.30662626628890283 0.39851408461818377 0 -0.31231177096551721 0.37103969790241109 0 -0.30662626628890283 0.39851408461818377 0 -0.31231177096551721 0.37103969790241109 0 -0.30662626628890283 0.39851408461818377 0 -0.29549204235979581 0.38215049247416499 0 -0.30662626628890283 0.39851408461818377 0 -0.28944441948829558 0.3914596152355676 0 -0.29549204235979581 0.38215049247416499 0 -0.30662626628890283 0.39851408461818377 0 -0.28944441948829558 0.3914596152355676 0 -0.28541876073598182 0.40124265536031728 0 -0.30662626628890283 0.39851408461818377 0 -0.28541876073598182 0.40124265536031728 0 -0.28935476211638789 0.41449193887761532 0 -0.28944441948829558 0.3914596152355676 0 -0.28541876073598182 0.40124265536031728 0 -0.2777088795055811 0.39395373481399287 0 -0.28944441948829558 0.3914596152355676 0 -0.29549204235979581 0.38215049247416499 0 -0.28197614855121672 0.38143710891117899 0 -0.28944441948829558 0.3914596152355676 0 -0.28197614855121672 0.38143710891117899 0 -0.2777088795055811 0.39395373481399287 0 -0.28916388052224629 0.36746471911601197 0 -0.29549204235979581 0.38215049247416499 0 -0.28197614855121672 0.38143710891117899 0 -0.27247907086998813 0.36781977014661782 0 -0.28197614855121672 0.38143710891117899 0 -0.26976813466156752 0.3831005126769263 0 -0.28197614855121672 0.38143710891117899 0 -0.26976813466156752 0.3831005126769263 0 -0.2777088795055811 0.39395373481399287 0 -0.26976813466156752 0.3831005126769263 0 -0.2777088795055811 0.39395373481399287 0 -0.2668012708626516 0.40050654475764919 0 -0.2777088795055811 0.39395373481399287 0 -0.27649466549085561 0.40874992665144211 0 -0.2777088795055811 0.39395373481399287 0 -0.2668012708626516 0.40050654475764919 0 -0.27649466549085561 0.40874992665144211 0 -0.28541876073598182 0.40124265536031728 0 -0.27649466549085561 0.40874992665144211 0 -0.28541876073598182 0.40124265536031728 0 -0.2777088795055811 0.39395373481399287 0 -0.27649466549085561 0.40874992665144211 0 -0.2668012708626516 0.40050654475764919 0 -0.25437404340230291 0.39777172079370771 0 -0.25637274573444352 0.38428854252728051 0 -0.26976813466156752 0.3831005126769263 0 -0.2668012708626516 0.40050654475764919 0 -0.25637274573444352 0.38428854252728051 0 -0.25437404340230291 0.39777172079370771 0 -0.24703704728721609 0.37435699472851403 0 -0.25437404340230291 0.39777172079370771 0 -0.25637274573444352 0.38428854252728051 0 -0.24703704728721609 0.37435699472851403 0 -0.25961719201974048 0.37163785781867348 0 -0.25637274573444352 0.38428854252728051 0 -0.25378903353021459 0.37641521702691272 0 -0.25637274573444352 0.38428854252728051 0 -0.25378903353021459 0.37641521702691272 0 -0.24703704728721609 0.37435699472851403 0 -0.25961719201974048 0.37163785781867348 0 -0.26976813466156752 0.3831005126769263 0 -0.25637274573444352 0.38428854252728051 0 -0.26171103951739122 0.42118644685890078 0 -0.26716439575486428 0.43858986924505039 0 -0.26171103951739122 0.42118644685890078 0 -0.26716439575486428 0.43858986924505039 0 -0.2402472214044776 0.43924258600702198 0 -0.26171103951739122 0.42118644685890078 0 -0.2402472214044776 0.43924258600702198 0 -0.2668012708626516 0.40050654475764919 0 -0.25437404340230291 0.39777172079370771 0 -0.26171103951739122 0.42118644685890078 0 -0.25437404340230291 0.39777172079370771 0 -0.26171103951739122 0.42118644685890078 0 -0.25437404340230291 0.39777172079370771 0 -0.26171103951739122 0.42118644685890078 0 -0.2411515586699686 0.41507961268757482 0 -0.2668012708626516 0.40050654475764919 0 -0.26171103951739122 0.42118644685890078 0 -0.27649466549085561 0.40874992665144211 0 -0.26171103951739122 0.42118644685890078 0 -0.27649466549085561 0.40874992665144211 0 -0.2745562087415962 0.43237160914132089 0 -0.27649466549085561 0.40874992665144211 0 -0.2745562087415962 0.43237160914132089 0 -0.26171103951739122 0.42118644685890078 0 -0.27649466549085561 0.40874992665144211 0 -0.27649466549085561 0.40874992665144211 0 -0.2745562087415962 0.43237160914132089 0 -0.28935476211638789 0.41449193887761532 0 -0.26171103951739122 0.42118644685890078 0 -0.2745562087415962 0.43237160914132089 0 -0.26716439575486428 0.43858986924505039 0 -0.2745562087415962 0.43237160914132089 0 -0.28935476211638789 0.41449193887761532 0 -0.30094076161228828 0.42598847133395662 0 -0.2745562087415962 0.43237160914132089 0 -0.30094076161228828 0.42598847133395662 0 -0.29022218212631368 0.4473011799932361 0 -0.28541876073598182 0.40124265536031728 0 -0.27649466549085561 0.40874992665144211 0 -0.28935476211638789 0.41449193887761532 0 -0.30662626628890283 0.39851408461818377 0 -0.30094076161228828 0.42598847133395662 0 -0.30662626628890283 0.39851408461818377 0 -0.28935476211638789 0.41449193887761532 0 -0.30094076161228828 0.42598847133395662 0 -0.30094076161228828 0.42598847133395662 0 -0.30828384211486393 0.4457078165060957 0 -0.29022218212631368 0.4473011799932361 0 -0.30828384211486393 0.4457078165060957 0 -0.29968224307101332 0.46233327288122428 0 -0.29022218212631368 0.4473011799932361 0 -0.30828384211486393 0.4457078165060957 0 -0.29968224307101332 0.46233327288122428 0 -0.32226895963156588 0.4571664633288246 0 -0.2855832600483707 0.46304471705020528 0 -0.29022218212631368 0.4473011799932361 0 -0.27261775199233851 0.45599329163119978 0 -0.29968224307101332 0.46233327288122428 0 -0.2855832600483707 0.46304471705020528 0 -0.29022218212631368 0.4473011799932361 0 -0.29968224307101332 0.46233327288122428 0 -0.2855832600483707 0.46304471705020528 0 -0.28984387134067258 0.47360864327979912 0 -0.2745562087415962 0.43237160914132089 0 -0.27261775199233851 0.45599329163119978 0 -0.26716439575486428 0.43858986924505039 0 -0.27261775199233851 0.45599329163119978 0 -0.2745562087415962 0.43237160914132089 0 -0.26716439575486428 0.43858986924505039 0 -0.27261775199233851 0.45599329163119978 0 -0.2745562087415962 0.43237160914132089 0 -0.29022218212631368 0.4473011799932361 0 -0.27261775199233851 0.45599329163119978 0 -0.26716439575486428 0.43858986924505039 0 -0.27261775199233851 0.45599329163119978 0 -0.25815333062173312 0.45196759033312323 0 -0.27261775199233851 0.45599329163119978 0 -0.27951249522872468 0.47799664581559898 0 -0.27261775199233851 0.45599329163119978 0 -0.2707405493084396 0.4788685431864122 0 -0.2855832600483707 0.46304471705020528 0 -0.27261775199233851 0.45599329163119978 0 -0.27951249522872468 0.47799664581559898 0 -0.27261775199233851 0.45599329163119978 0 -0.25794239496304971 0.46623858801290119 0 -0.2707405493084396 0.4788685431864122 0 -0.27261775199233851 0.45599329163119978 0 -0.25794239496304971 0.46623858801290119 0 -0.25815333062173312 0.45196759033312323 0 -0.25794239496304971 0.46623858801290119 0 -0.25815333062173312 0.45196759033312323 0 -0.24642364054923949 0.45865501184020702 0 -0.26716439575486428 0.43858986924505039 0 -0.25815333062173312 0.45196759033312323 0 -0.2402472214044776 0.43924258600702198 0 -0.26465839796840351 0.48908280924559738 0 -0.25995321549766909 0.5 0 -0.25557468210140638 0.48141404780071018 0 -0.25995321549766909 0.5 0 -0.25557468210140638 0.48141404780071018 0 -0.24332160552863871 0.48675852120016089 0 -0.25794239496304971 0.46623858801290119 0 -0.25557468210140638 0.48141404780071018 0 -0.24275214078183971 0.4729249043815667 0 -0.25794239496304971 0.46623858801290119 0 -0.25557468210140638 0.48141404780071018 0 -0.2707405493084396 0.4788685431864122 0 -0.26465839796840351 0.48908280924559738 0 -0.25557468210140638 0.48141404780071018 0 -0.2707405493084396 0.4788685431864122 0 -0.27261775199233851 0.45599329163119978 0 -0.2707405493084396 0.4788685431864122 0 -0.27951249522872468 0.47799664581559898 0 -0.2707405493084396 0.4788685431864122 0 -0.27951249522872468 0.47799664581559898 0 -0.27487751059490978 0.49037812608755083 0 -0.25995321549766909 0.5 0 -0.27487751059490978 0.49037812608755083 0 -0.28640723846510968 0.49999999999999839 0 -0.27951249522872468 0.47799664581559898 0 -0.27487751059490978 0.49037812608755083 0 -0.28640723846510968 0.49999999999999839 0 -0.26465839796840351 0.48908280924559738 0 -0.2707405493084396 0.4788685431864122 0 -0.27487751059490978 0.49037812608755083 0 -0.26465839796840351 0.48908280924559738 0 -0.25995321549766909 0.5 0 -0.27487751059490978 0.49037812608755083 0 -0.27951249522872468 0.47799664581559898 0 -0.28640723846510968 0.49999999999999839 0 -0.28971703146592381 0.48522499018278542 0 -0.28640723846510968 0.49999999999999839 0 -0.28971703146592381 0.48522499018278542 0 -0.31019675062842111 0.5 0 -0.27951249522872468 0.47799664581559898 0 -0.28640723846510968 0.49999999999999839 0 -0.29968224307101332 0.46233327288122428 0 -0.28984387134067258 0.47360864327979912 0 -0.30068493055139628 0.47987250434606238 0 -0.2855832600483707 0.46304471705020528 0 -0.27951249522872468 0.47799664581559898 0 -0.28984387134067258 0.47360864327979912 0 -0.27951249522872468 0.47799664581559898 0 -0.28971703146592381 0.48522499018278542 0 -0.28984387134067258 0.47360864327979912 0 -0.28971703146592381 0.48522499018278542 0 -0.28984387134067258 0.47360864327979912 0 -0.30068493055139628 0.47987250434606238 0 -0.29968224307101332 0.46233327288122428 0 -0.30068493055139628 0.47987250434606238 0 -0.31623285512999361 0.4785832316644123 0 -0.30068493055139628 0.47987250434606238 0 -0.31019675062842111 0.5 0 -0.31623285512999361 0.4785832316644123 0 -0.28971703146592381 0.48522499018278542 0 -0.30068493055139628 0.47987250434606238 0 -0.31019675062842111 0.5 0 -0.31019675062842111 0.5 0 -0.33866878680303403 0.47621444305076049 0 -0.31623285512999361 0.4785832316644123 0 -0.31019675062842111 0.5 0 -0.31623285512999361 0.4785832316644123 0 -0.37851879114690562 0.5 0 -0.31019675062842111 0.5 0 -0.33866878680303403 0.47621444305076049 0 -0.33866878680303403 0.47621444305076049 0 -0.31623285512999361 0.4785832316644123 0 -0.32226895963156588 0.4571664633288246 0 -0.29968224307101332 0.46233327288122428 0 -0.31623285512999361 0.4785832316644123 0 -0.32226895963156588 0.4571664633288246 0 -0.31623285512999361 0.4785832316644123 0 -0.32226895963156588 0.4571664633288246 0 -0.3283050641331382 0.4357496949932369 0 -0.30828384211486393 0.4457078165060957 0 -0.32226895963156588 0.4571664633288246 0 -0.3283050641331382 0.4357496949932369 0 -0.32226895963156588 0.4571664633288246 0 -0.3283050641331382 0.4357496949932369 0 -0.32226895963156588 0.4571664633288246 0 -0.34714299975598012 0.45098081603039453 0 -0.33866878680303403 0.47621444305076049 0 -0.32226895963156588 0.4571664633288246 0 -0.34714299975598012 0.45098081603039453 0 -0.34714299975598012 0.45098081603039453 0 -0.37021283255742948 0.4587781548080006 0 -0.35765236452533811 0.47055614728093192 0 -0.33866878680303403 0.47621444305076049 0 -0.34714299975598012 0.45098081603039453 0 -0.35765236452533811 0.47055614728093192 0 -0.34900319137005598 0.42451526819571123 0 -0.34714299975598012 0.45098081603039453 0 -0.36775155255336078 0.43784079569212991 0 -0.38649991373666459 0.4511663231885501 0 -0.36775155255336078 0.43784079569212991 0 -0.37021283255742948 0.4587781548080006 0 -0.34714299975598012 0.45098081603039453 0 -0.36775155255336078 0.43784079569212991 0 -0.37021283255742948 0.4587781548080006 0 -0.37830138659936069 0.47624741141289012 0 -0.37021283255742948 0.4587781548080006 0 -0.35765236452533811 0.47055614728093192 0 -0.37851879114690562 0.5 0 -0.37830138659936069 0.47624741141289012 0 -0.35765236452533811 0.47055614728093192 0 -0.37851879114690562 0.5 0 -0.33866878680303403 0.47621444305076049 0 -0.35765236452533811 0.47055614728093192 0 -0.13677559115723631 0.48195117233794182 0 -0.14586808165400739 0.46390234467588348 0 -0.15022906386080459 0.47758232249033777 0 -0.13677559115723631 0.48195117233794182 0 -0.14586808165400739 0.46390234467588348 0 -0.15022906386080459 0.47758232249033777 0 -0.14669111970080989 0.48898111708079978 0 -0.16463071919763639 0.48537209057571962 0 -0.15022906386080459 0.47758232249033777 0 -0.14669111970080989 0.48898111708079978 0 -0.13677559115723631 0.48195117233794182 0 -0.15022906386080459 0.47758232249033777 0 -0.14586808165400739 0.46390234467588348 0 -0.1609355349806742 0.4693787651319371 0 -0.15413712362790641 0.5 0 -0.14669111970080989 0.48898111708079978 0 -0.1276831006604657 0.50000000000000044 0 -0.15413712362790641 0.5 0 -0.14669111970080989 0.48898111708079978 0 -0.16463071919763639 0.48537209057571962 0 -0.1276831006604657 0.50000000000000044 0 -0.13677559115723631 0.48195117233794182 0 -0.12499958607367111 0.48671296885435961 0 -0.14669111970080989 0.48898111708079978 0 -0.1276831006604657 0.50000000000000044 0 -0.13677559115723631 0.48195117233794182 0 -0.1276831006604657 0.50000000000000044 0 -0.13677559115723631 0.48195117233794182 0 -0.13677559115723631 0.48195117233794182 0 -0.13452485707333409 0.4692678132209307 0 -0.14586808165400739 0.46390234467588348 0 -0.1264658174666021 0.47898746672785258 0 -0.13677559115723631 0.48195117233794182 0 -0.13452485707333409 0.4692678132209307 0 -0.1264658174666021 0.47898746672785258 0 -0.13452485707333409 0.4692678132209307 0 -0.1157837373857052 0.47314002133946059 0 -0.1264658174666021 0.47898746672785258 0 -0.13677559115723631 0.48195117233794182 0 -0.12499958607367111 0.48671296885435961 0 -0.12525808538466851 0.45641143013835078 0 -0.14586808165400739 0.46390234467588348 0 -0.13452485707333409 0.4692678132209307 0 -0.12525808538466851 0.45641143013835078 0 -0.14586808165400739 0.46390234467588348 0 -0.12525808538466851 0.45641143013835078 0 -0.14036854840713711 0.4469354559098353 0 -0.14586808165400739 0.46390234467588348 0 -0.1290922824037575 0.4421806538957625 0 -0.14036854840713711 0.4469354559098353 0 -0.13870251877590431 0.43081073028597189 0 -0.12525808538466851 0.45641143013835078 0 -0.1290922824037575 0.4421806538957625 0 -0.14036854840713711 0.4469354559098353 0 -0.14586808165400739 0.46390234467588348 0 -0.15727630488119149 0.44125672794074428 0 -0.14036854840713711 0.4469354559098353 0 -0.14586808165400739 0.46390234467588348 0 -0.15727630488119149 0.44125672794074428 0 -0.14036854840713711 0.4469354559098353 0 -0.15727630488119149 0.44125672794074428 0 -0.13870251877590431 0.43081073028597189 0 -0.14586808165400739 0.46390234467588348 0 -0.16192452083951181 0.45710571093844132 0 -0.15727630488119149 0.44125672794074428 0 -0.14586808165400739 0.46390234467588348 0 -0.16192452083951181 0.45710571093844132 0 -0.1609355349806742 0.4693787651319371 0 -0.14586808165400739 0.46390234467588348 0 -0.1609355349806742 0.4693787651319371 0 -0.16192452083951181 0.45710571093844132 0 -0.17180429839333361 0.46294118051979483 0 -0.17781184360780131 0.45182893888027881 0 -0.16192452083951181 0.45710571093844132 0 -0.17180429839333361 0.46294118051979483 0 -0.1609355349806742 0.4693787651319371 0 -0.15727630488119149 0.44125672794074428 0 -0.17781184360780131 0.45182893888027881 0 -0.1782228686257582 0.43354489357158271 0 -0.16192452083951181 0.45710571093844132 0 -0.15727630488119149 0.44125672794074428 0 -0.17781184360780131 0.45182893888027881 0 -0.17781184360780131 0.45182893888027881 0 -0.1968069251804791 0.44128197420467119 0 -0.1782228686257582 0.43354489357158271 0 -0.17180429839333361 0.46294118051979483 0 -0.18632245821573501 0.46436762214267951 0 -0.17600298830734351 0.47485518558798401 0 -0.17180429839333361 0.46294118051979483 0 -0.17781184360780131 0.45182893888027881 0 -0.18632245821573501 0.46436762214267951 0 -0.17600298830734351 0.47485518558798401 0 -0.16463071919763639 0.48537209057571962 0 -0.18640712413385269 0.48594775591095463 0 -0.18632245821573501 0.46436762214267951 0 -0.17600298830734351 0.47485518558798401 0 -0.19731958517864451 0.47535486430325741 0 -0.17600298830734351 0.47485518558798401 0 -0.18640712413385269 0.48594775591095463 0 -0.19731958517864451 0.47535486430325741 0 -0.17600298830734351 0.47485518558798401 0 -0.1609355349806742 0.4693787651319371 0 -0.17600298830734351 0.47485518558798401 0 -0.1609355349806742 0.4693787651319371 0 -0.16463071919763639 0.48537209057571962 0 -0.15022906386080459 0.47758232249033777 0 -0.1609355349806742 0.4693787651319371 0 -0.16463071919763639 0.48537209057571962 0 -0.17180429839333361 0.46294118051979483 0 -0.17600298830734351 0.47485518558798401 0 -0.1609355349806742 0.4693787651319371 0 -0.15413712362790641 0.5 0 -0.16463071919763639 0.48537209057571962 0 -0.18059114659534711 0.5 0 -0.16463071919763639 0.48537209057571962 0 -0.18640712413385269 0.48594775591095463 0 -0.18059114659534711 0.5 0 -0.18640712413385269 0.48594775591095463 0 -0.18059114659534711 0.5 0 -0.20704516956278779 0.5 0 -0.18640712413385269 0.48594775591095463 0 -0.19731958517864451 0.47535486430325741 0 -0.20704516956278779 0.5 0 -0.19731958517864451 0.47535486430325741 0 -0.22482879673204989 0.479453653818528 0 -0.2187834032915611 0.4572987251551397 0 -0.19731958517864451 0.47535486430325741 0 -0.20704516956278779 0.5 0 -0.22482879673204989 0.479453653818528 0 -0.23349919253022841 0.5 0 -0.22482879673204989 0.479453653818528 0 -0.24332160552863871 0.48675852120016089 0 -0.20704516956278779 0.5 0 -0.23349919253022841 0.5 0 -0.22482879673204989 0.479453653818528 0 -0.22482879673204989 0.479453653818528 0 -0.24275214078183971 0.4729249043815667 0 -0.23347337198000259 0.46213120506211031 0 -0.22482879673204989 0.479453653818528 0 -0.24275214078183971 0.4729249043815667 0 -0.24332160552863871 0.48675852120016089 0 -0.25557468210140638 0.48141404780071018 0 -0.24275214078183971 0.4729249043815667 0 -0.24332160552863871 0.48675852120016089 0 -0.25995321549766909 0.5 0 -0.23349919253022841 0.5 0 -0.24332160552863871 0.48675852120016089 0 -0.25815333062173312 0.45196759033312323 0 -0.2402472214044776 0.43924258600702198 0 -0.24642364054923949 0.45865501184020702 0 -0.2402472214044776 0.43924258600702198 0 -0.24642364054923949 0.45865501184020702 0 -0.23347337198000259 0.46213120506211031 0 -0.25794239496304971 0.46623858801290119 0 -0.24275214078183971 0.4729249043815667 0 -0.24642364054923949 0.45865501184020702 0 -0.24275214078183971 0.4729249043815667 0 -0.24642364054923949 0.45865501184020702 0 -0.23347337198000259 0.46213120506211031 0 -0.22482879673204989 0.479453653818528 0 -0.2187834032915611 0.4572987251551397 0 -0.23347337198000259 0.46213120506211031 0 -0.2187834032915611 0.4572987251551397 0 -0.21185960021424319 0.43534721973488449 0 -0.22713068944383949 0.42944419624789021 0 -0.2402472214044776 0.43924258600702198 0 -0.2187834032915611 0.4572987251551397 0 -0.2402472214044776 0.43924258600702198 0 -0.2187834032915611 0.4572987251551397 0 -0.22713068944383949 0.42944419624789021 0 -0.2402472214044776 0.43924258600702198 0 -0.2187834032915611 0.4572987251551397 0 -0.23347337198000259 0.46213120506211031 0 -0.2187834032915611 0.4572987251551397 0 -0.2002753714977073 0.45720201152835588 0 -0.21185960021424319 0.43534721973488449 0 -0.2002753714977073 0.45720201152835588 0 -0.21185960021424319 0.43534721973488449 0 -0.19731958517864451 0.47535486430325741 0 -0.2187834032915611 0.4572987251551397 0 -0.2002753714977073 0.45720201152835588 0 -0.19731958517864451 0.47535486430325741 0 -0.2187834032915611 0.4572987251551397 0 -0.17781184360780131 0.45182893888027881 0 -0.18632245821573501 0.46436762214267951 0 -0.2002753714977073 0.45720201152835588 0 -0.18632245821573501 0.46436762214267951 0 -0.19731958517864451 0.47535486430325741 0 -0.2002753714977073 0.45720201152835588 0 -0.2002753714977073 0.45720201152835588 0 -0.1968069251804791 0.44128197420467119 0 -0.21185960021424319 0.43534721973488449 0 -0.17781184360780131 0.45182893888027881 0 -0.2002753714977073 0.45720201152835588 0 -0.1968069251804791 0.44128197420467119 0 -0.1968069251804791 0.44128197420467119 0 -0.19105022873213021 0.42836959215970832 0 -0.1782228686257582 0.43354489357158271 0 -0.19105022873213021 0.42836959215970832 0 -0.20257760018655069 0.42813395813665828 0 -0.19671905608699869 0.41964302951437882 0 -0.1968069251804791 0.44128197420467119 0 -0.19105022873213021 0.42836959215970832 0 -0.20257760018655069 0.42813395813665828 0 -0.1924365846704913 0.40646536322393911 0 -0.19671905608699869 0.41964302951437882 0 -0.21080102724242419 0.41879759204143641 0 -0.1924365846704913 0.40646536322393911 0 -0.21080102724242419 0.41879759204143641 0 -0.20032049849678249 0.39410177903088028 0 -0.1924365846704913 0.40646536322393911 0 -0.19671905608699869 0.41964302951437882 0 -0.18453433625988599 0.41709991402428009 0 -0.19105022873213021 0.42836959215970832 0 -0.19671905608699869 0.41964302951437882 0 -0.18453433625988599 0.41709991402428009 0 -0.21080102724242419 0.41879759204143641 0 -0.20032049849678249 0.39410177903088028 0 -0.21080102724242419 0.41879759204143641 0 -0.2234438289307791 0.41349242794141328 0 -0.2131256960087628 0.40574200098851793 0 -0.21080102724242419 0.41879759204143641 0 -0.21185960021424319 0.43534721973488449 0 -0.2234438289307791 0.41349242794141328 0 -0.21185960021424319 0.43534721973488449 0 -0.2234438289307791 0.41349242794141328 0 -0.20257760018655069 0.42813395813665828 0 -0.21080102724242419 0.41879759204143641 0 -0.21185960021424319 0.43534721973488449 0 -0.1968069251804791 0.44128197420467119 0 -0.20257760018655069 0.42813395813665828 0 -0.21185960021424319 0.43534721973488449 0 -0.20257760018655069 0.42813395813665828 0 -0.19671905608699869 0.41964302951437882 0 -0.21080102724242419 0.41879759204143641 0 -0.21185960021424319 0.43534721973488449 0 -0.22713068944383949 0.42944419624789021 0 -0.2234438289307791 0.41349242794141328 0 -0.2234438289307791 0.41349242794141328 0 -0.2411515586699686 0.41507961268757482 0 -0.23502805764731499 0.391637636147942 0 -0.22713068944383949 0.42944419624789021 0 -0.2234438289307791 0.41349242794141328 0 -0.2411515586699686 0.41507961268757482 0 -0.26171103951739122 0.42118644685890078 0 -0.2402472214044776 0.43924258600702198 0 -0.2411515586699686 0.41507961268757482 0 -0.2402472214044776 0.43924258600702198 0 -0.22713068944383949 0.42944419624789021 0 -0.2411515586699686 0.41507961268757482 0 -0.25437404340230291 0.39777172079370771 0 -0.23502805764731499 0.391637636147942 0 -0.24703704728721609 0.37435699472851403 0 -0.23502805764731499 0.391637636147942 0 -0.24661228636385091 0.36978284435447067 0 -0.24703704728721609 0.37435699472851403 0 -0.23502805764731499 0.391637636147942 0 -0.23031560160588141 0.37539522803023567 0 -0.24661228636385091 0.36978284435447067 0 -0.23502805764731499 0.391637636147942 0 -0.24661228636385091 0.36978284435447067 0 -0.25437404340230291 0.39777172079370771 0 -0.2411515586699686 0.41507961268757482 0 -0.23502805764731499 0.391637636147942 0 -0.2234438289307791 0.41349242794141328 0 -0.23502805764731499 0.391637636147942 0 -0.2234438289307791 0.41349242794141328 0 -0.23502805764731499 0.391637636147942 0 -0.21793742936506541 0.39657620494034179 0 -0.23502805764731499 0.391637636147942 0 -0.2198547283529875 0.38502734182000642 0 -0.21793742936506541 0.39657620494034179 0 -0.23502805764731499 0.391637636147942 0 -0.2198547283529875 0.38502734182000642 0 -0.23031560160588141 0.37539522803023567 0 -0.2198547283529875 0.38502734182000642 0 -0.23031560160588141 0.37539522803023567 0 -0.2151553602335296 0.37083769140691508 0 -0.20032049849678249 0.39410177903088028 0 -0.2151553602335296 0.37083769140691508 0 -0.2198547283529875 0.38502734182000642 0 -0.20032049849678249 0.39410177903088028 0 -0.2151553602335296 0.37083769140691508 0 -0.21080102724242419 0.41879759204143641 0 -0.2131256960087628 0.40574200098851793 0 -0.20032049849678249 0.39410177903088028 0 -0.2234438289307791 0.41349242794141328 0 -0.21793742936506541 0.39657620494034179 0 -0.2131256960087628 0.40574200098851793 0 -0.2198547283529875 0.38502734182000642 0 -0.21793742936506541 0.39657620494034179 0 -0.20032049849678249 0.39410177903088028 0 -0.21793742936506541 0.39657620494034179 0 -0.2131256960087628 0.40574200098851793 0 -0.20032049849678249 0.39410177903088028 0 -0.1924365846704913 0.40646536322393911 0 -0.20032049849678249 0.39410177903088028 0 -0.1800927513355611 0.39596549447046681 0 -0.1924365846704913 0.40646536322393911 0 -0.20032049849678249 0.39410177903088028 0 -0.20032049849678249 0.39410177903088028 0 -0.1800927513355611 0.39596549447046681 0 -0.19150097456274451 0.37331987773532738 0 -0.20032049849678249 0.39410177903088028 0 -0.19150097456274451 0.37331987773532738 0 -0.2151553602335296 0.37083769140691508 0 -0.20032049849678249 0.39410177903088028 0 -0.19150097456274451 0.37331987773532738 0 -0.1800927513355611 0.39596549447046681 0 -0.19150097456274451 0.37331987773532738 0 -0.1742701380779659 0.3780674092752791 0 -0.1800927513355611 0.39596549447046681 0 -0.19150097456274451 0.37331987773532738 0 -0.1742701380779659 0.3780674092752791 0 -0.16739505250377029 0.39760944281754468 0 -0.1800927513355611 0.39596549447046681 0 -0.1742701380779659 0.3780674092752791 0 -0.1580227391436835 0.38952734152833612 0 -0.16739505250377029 0.39760944281754468 0 -0.1742701380779659 0.3780674092752791 0 -0.1580227391436835 0.38952734152833612 0 -0.15786504231223619 0.37935867455695149 0 -0.1580227391436835 0.38952734152833612 0 -0.16739505250377029 0.39760944281754468 0 -0.1559051058532645 0.40587585760803602 0 -0.16739505250377029 0.39760944281754468 0 -0.1800927513355611 0.39596549447046681 0 -0.16868452810837631 0.41861111120560562 0 -0.1800927513355611 0.39596549447046681 0 -0.16868452810837631 0.41861111120560562 0 -0.1800927513355611 0.39596549447046681 0 -0.18453433625988599 0.41709991402428009 0 -0.16868452810837631 0.41861111120560562 0 -0.1924365846704913 0.40646536322393911 0 -0.1800927513355611 0.39596549447046681 0 -0.18453433625988599 0.41709991402428009 0 -0.19105022873213021 0.42836959215970832 0 -0.18453433625988599 0.41709991402428009 0 -0.1782228686257582 0.43354489357158271 0 -0.18453433625988599 0.41709991402428009 0 -0.1782228686257582 0.43354489357158271 0 -0.16868452810837631 0.41861111120560562 0 -0.15727630488119149 0.44125672794074428 0 -0.16868452810837631 0.41861111120560562 0 -0.1522197570146715 0.42159588342470528 0 -0.15727630488119149 0.44125672794074428 0 -0.16868452810837631 0.41861111120560562 0 -0.15727630488119149 0.44125672794074428 0 -0.1782228686257582 0.43354489357158271 0 -0.16868452810837631 0.41861111120560562 0 -0.16868452810837631 0.41861111120560562 0 -0.1522197570146715 0.42159588342470528 0 -0.1559051058532645 0.40587585760803602 0 -0.16739505250377029 0.39760944281754468 0 -0.16868452810837631 0.41861111120560562 0 -0.1559051058532645 0.40587585760803602 0 -0.1522197570146715 0.42159588342470528 0 -0.14053032745462091 0.41142499008316857 0 -0.1559051058532645 0.40587585760803602 0 -0.1522197570146715 0.42159588342470528 0 -0.13870251877590431 0.43081073028597189 0 -0.14053032745462091 0.41142499008316857 0 -0.15727630488119149 0.44125672794074428 0 -0.1522197570146715 0.42159588342470528 0 -0.13870251877590431 0.43081073028597189 0 -0.1290922824037575 0.4421806538957625 0 -0.13870251877590431 0.43081073028597189 0 -0.12117509548404561 0.43071938651951769 0 -0.13870251877590431 0.43081073028597189 0 -0.1285582988724614 0.41967166321088611 0 -0.12117509548404561 0.43071938651951769 0 -0.13870251877590431 0.43081073028597189 0 -0.14053032745462091 0.41142499008316857 0 -0.1285582988724614 0.41967166321088611 0 -0.14053032745462091 0.41142499008316857 0 -0.12629003255897039 0.40874529581188351 0 -0.13356852900251251 0.39937065718006931 0 -0.14053032745462091 0.41142499008316857 0 -0.1285582988724614 0.41967166321088611 0 -0.12629003255897039 0.40874529581188351 0 -0.13356852900251251 0.39937065718006931 0 -0.1388102903371122 0.38299151392850078 0 -0.1172635789840414 0.39913459436131171 0 -0.12629003255897039 0.40874529581188351 0 -0.13356852900251251 0.39937065718006931 0 -0.1172635789840414 0.39913459436131171 0 -0.13356852900251251 0.39937065718006931 0 -0.1388102903371122 0.38299151392850078 0 -0.14583650284481811 0.39685499622263498 0 -0.1388102903371122 0.38299151392850078 0 -0.1172635789840414 0.39913459436131171 0 -0.14053032745462091 0.41142499008316857 0 -0.13356852900251251 0.39937065718006931 0 -0.14583650284481811 0.39685499622263498 0 -0.1388102903371122 0.38299151392850078 0 -0.1350301875620874 0.3664186364394092 0 -0.1141921051547637 0.38256461983650092 0 -0.1580227391436835 0.38952734152833612 0 -0.1388102903371122 0.38299151392850078 0 -0.14583650284481811 0.39685499622263498 0 -0.15786504231223619 0.37935867455695149 0 -0.1388102903371122 0.38299151392850078 0 -0.16035700169018299 0.36684843349569002 0 -0.1580227391436835 0.38952734152833612 0 -0.15786504231223619 0.37935867455695149 0 -0.1388102903371122 0.38299151392850078 0 -0.1580227391436835 0.38952734152833612 0 -0.1559051058532645 0.40587585760803602 0 -0.14583650284481811 0.39685499622263498 0 -0.14053032745462091 0.41142499008316857 0 -0.1559051058532645 0.40587585760803602 0 -0.14583650284481811 0.39685499622263498 0 -0.15586826996941111 0.35027265304231753 0 -0.1350301875620874 0.3664186364394092 0 -0.14132521415455601 0.34810554233453178 0 -0.15586826996941111 0.35027265304231753 0 -0.1350301875620874 0.3664186364394092 0 -0.14132521415455601 0.34810554233453178 0 -0.15586826996941111 0.35027265304231753 0 -0.1520431096418082 0.33722559921722772 0 -0.1476665858888575 0.36822508907168378 0 -0.1570771408635375 0.36016082903704649 0 -0.16035700169018299 0.36684843349569002 0 -0.15586826996941111 0.35027265304231753 0 -0.1476665858888575 0.36822508907168378 0 -0.1350301875620874 0.3664186364394092 0 -0.15586826996941111 0.35027265304231753 0 -0.1476665858888575 0.36822508907168378 0 -0.1570771408635375 0.36016082903704649 0 -0.1388102903371122 0.38299151392850078 0 -0.1476665858888575 0.36822508907168378 0 -0.16035700169018299 0.36684843349569002 0 -0.1388102903371122 0.38299151392850078 0 -0.16035700169018299 0.36684843349569002 0 -0.1388102903371122 0.38299151392850078 0 -0.1476665858888575 0.36822508907168378 0 -0.1350301875620874 0.3664186364394092 0 -0.1350301875620874 0.3664186364394092 0 -0.12649361259925729 0.34185121396018481 0 -0.1138016922613066 0.36184132992542878 0 -0.14132521415455601 0.34810554233453178 0 -0.1350301875620874 0.3664186364394092 0 -0.12649361259925729 0.34185121396018481 0 -0.12649361259925729 0.34185121396018481 0 -0.14240998990207959 0.3223477691203892 0 -0.1149759901617626 0.32171611433328512 0 -0.12649361259925729 0.34185121396018481 0 -0.1520431096418082 0.33722559921722772 0 -0.14132521415455601 0.34810554233453178 0 -0.12649361259925729 0.34185121396018481 0 -0.1520431096418082 0.33722559921722772 0 -0.12649361259925729 0.34185121396018481 0 -0.14240998990207959 0.3223477691203892 0 -0.1520431096418082 0.33722559921722772 0 -0.14240998990207959 0.3223477691203892 0 -0.13471586004470401 0.30330411993057521 0 -0.1149759901617626 0.32171611433328512 0 -0.14240998990207959 0.3223477691203892 0 -0.1520431096418082 0.33722559921722772 0 -0.1622534650733696 0.32309856414659099 0 -0.14240998990207959 0.3223477691203892 0 -0.1622534650733696 0.32309856414659099 0 -0.15916075427953269 0.30745569376647558 0 -0.15586826996941111 0.35027265304231753 0 -0.1520431096418082 0.33722559921722772 0 -0.1767063523767346 0.33412666964522558 0 -0.15586826996941111 0.35027265304231753 0 -0.1767063523767346 0.33412666964522558 0 -0.1520431096418082 0.33722559921722772 0 -0.17759260668435911 0.33259998447427092 0 -0.1520431096418082 0.33722559921722772 0 -0.1767063523767346 0.33412666964522558 0 -0.17759260668435911 0.33259998447427092 0 -0.15586826996941111 0.35027265304231753 0 -0.17564435283210331 0.33595609822165151 0 -0.1767063523767346 0.33412666964522558 0 -0.1520431096418082 0.33722559921722772 0 -0.1622534650733696 0.32309856414659099 0 -0.17759260668435911 0.33259998447427092 0 -0.1622534650733696 0.32309856414659099 0 -0.17358908472673271 0.31583346890126668 0 -0.17759260668435911 0.33259998447427092 0 -0.1622534650733696 0.32309856414659099 0 -0.17358908472673271 0.31583346890126668 0 -0.15916075427953269 0.30745569376647558 0 -0.1860095756399941 0.32691824780429712 0 -0.17759260668435911 0.33259998447427092 0 -0.18988123139667171 0.31143127368967261 0 -0.17759260668435911 0.33259998447427092 0 -0.18988123139667171 0.31143127368967261 0 -0.17358908472673271 0.31583346890126668 0 -0.17759260668435911 0.33259998447427092 0 -0.18988123139667171 0.31143127368967261 0 -0.17564435283210331 0.33595609822165151 0 -0.18190371304325401 0.3507053530628792 0 -0.1767063523767346 0.33412666964522558 0 -0.17900723951475581 0.33234387193846437 0 -0.1808850447014701 0.33738335489934201 0 -0.17564435283210331 0.33595609822165151 0 -0.1767063523767346 0.33412666964522558 0 -0.1808850447014701 0.33738335489934201 0 -0.17564435283210331 0.33595609822165151 0 -0.1767063523767346 0.33412666964522558 0 -0.1767063523767346 0.33412666964522558 0 -0.17759260668435911 0.33259998447427092 0 -0.1767063523767346 0.33412666964522558 0 -0.17900723951475581 0.33234387193846437 0 -0.1767063523767346 0.33412666964522558 0 -0.17759260668435911 0.33259998447427092 0 -0.17900723951475581 0.33234387193846437 0 -0.17759260668435911 0.33259998447427092 0 -0.17900723951475581 0.33234387193846437 0 -0.1860095756399941 0.32691824780429712 0 -0.17759260668435911 0.33259998447427092 0 -0.17900723951475581 0.33234387193846437 0 -0.1860095756399941 0.32691824780429712 0 -0.17900723951475581 0.33234387193846437 0 -0.17564435283210331 0.33595609822165151 0 -0.1808850447014701 0.33738335489934201 0 -0.18357341022895851 0.34311929914211847 0 -0.17900723951475581 0.33234387193846437 0 -0.1808850447014701 0.33738335489934201 0 -0.18787561783340839 0.33854960032504311 0 -0.17564435283210331 0.33595609822165151 0 -0.18357341022895851 0.34311929914211847 0 -0.18190371304325401 0.3507053530628792 0 -0.1808850447014701 0.33738335489934201 0 -0.18357341022895851 0.34311929914211847 0 -0.18787561783340839 0.33854960032504311 0 -0.18357341022895851 0.34311929914211847 0 -0.19002192061329809 0.34485252398096827 0 -0.18787561783340839 0.33854960032504311 0 -0.18460026855740411 0.34868505809335182 0 -0.18190371304325401 0.3507053530628792 0 -0.19150097456274451 0.37331987773532738 0 -0.18357341022895851 0.34311929914211847 0 -0.18460026855740411 0.34868505809335182 0 -0.19002192061329809 0.34485252398096827 0 -0.17564435283210331 0.33595609822165151 0 -0.18190371304325401 0.3507053530628792 0 -0.16441670590569851 0.3552971405384947 0 -0.18460026855740411 0.34868505809335182 0 -0.18190371304325401 0.3507053530628792 0 -0.18357341022895851 0.34311929914211847 0 -0.18460026855740411 0.34868505809335182 0 -0.18190371304325401 0.3507053530628792 0 -0.18190371304325401 0.3507053530628792 0 -0.16441670590569851 0.3552971405384947 0 -0.16035700169018299 0.36684843349569002 0 -0.18190371304325401 0.3507053530628792 0 -0.16035700169018299 0.36684843349569002 0 -0.15586826996941111 0.35027265304231753 0 -0.17564435283210331 0.33595609822165151 0 -0.16441670590569851 0.3552971405384947 0 -0.17564435283210331 0.33595609822165151 0 -0.16441670590569851 0.3552971405384947 0 -0.15586826996941111 0.35027265304231753 0 -0.16441670590569851 0.3552971405384947 0 -0.1570771408635375 0.36016082903704649 0 -0.1742701380779659 0.3780674092752791 0 -0.15786504231223619 0.37935867455695149 0 -0.16035700169018299 0.36684843349569002 0 -0.16441670590569851 0.3552971405384947 0 -0.1570771408635375 0.36016082903704649 0 -0.16035700169018299 0.36684843349569002 0 -0.1742701380779659 0.3780674092752791 0 -0.18190371304325401 0.3507053530628792 0 -0.19150097456274451 0.37331987773532738 0 -0.1742701380779659 0.3780674092752791 0 -0.18190371304325401 0.3507053530628792 0 -0.16035700169018299 0.36684843349569002 0 -0.18190371304325401 0.3507053530628792 0 -0.19150097456274451 0.37331987773532738 0 -0.19150097456274451 0.37331987773532738 0 -0.20348501124728391 0.34953125646683803 0 -0.18460026855740411 0.34868505809335182 0 -0.19150097456274451 0.37331987773532738 0 -0.20348501124728391 0.34953125646683803 0 -0.18460026855740411 0.34868505809335182 0 -0.19002192061329809 0.34485252398096827 0 -0.20348501124728391 0.34953125646683803 0 -0.19002192061329809 0.34485252398096827 0 -0.19591228817106049 0.34403697364732788 0 -0.20348501124728391 0.34953125646683803 0 -0.20348501124728391 0.34953125646683803 0 -0.2151553602335296 0.37083769140691508 0 -0.22999022197027619 0.34757360378294933 0 -0.19150097456274451 0.37331987773532738 0 -0.20348501124728391 0.34953125646683803 0 -0.2151553602335296 0.37083769140691508 0 -0.2151553602335296 0.37083769140691508 0 -0.22999022197027619 0.34757360378294933 0 -0.23502969491118339 0.36163262619213721 0 -0.23031560160588141 0.37539522803023567 0 -0.2151553602335296 0.37083769140691508 0 -0.23502969491118339 0.36163262619213721 0 -0.2151553602335296 0.37083769140691508 0 -0.22999022197027619 0.34757360378294933 0 -0.25819651508038688 0.3479280525609994 0 -0.22999022197027619 0.34757360378294933 0 -0.23502969491118339 0.36163262619213721 0 -0.23031560160588141 0.37539522803023567 0 -0.23502969491118339 0.36163262619213721 0 -0.24661228636385091 0.36978284435447067 0 -0.25819651508038688 0.3479280525609994 0 -0.23502969491118339 0.36163262619213721 0 -0.24661228636385091 0.36978284435447067 0 -0.25378903353021459 0.37641521702691272 0 -0.24661228636385091 0.36978284435447067 0 -0.24703704728721609 0.37435699472851403 0 -0.26272076474526179 0.318873222546533 0 -0.2448250837070228 0.32430951615898362 0 -0.24136145510151191 0.30790324321833829 0 -0.2448250837070228 0.32430951615898362 0 -0.23068576168918481 0.32022055150066908 0 -0.24136145510151191 0.30790324321833829 0 -0.25819651508038688 0.3479280525609994 0 -0.22999022197027619 0.34757360378294933 0 -0.2448250837070228 0.32430951615898362 0 -0.22999022197027619 0.34757360378294933 0 -0.2448250837070228 0.32430951615898362 0 -0.23068576168918481 0.32022055150066908 0 -0.22999022197027619 0.34757360378294933 0 -0.2448250837070228 0.32430951615898362 0 -0.22999022197027619 0.34757360378294933 0 -0.23068576168918481 0.32022055150066908 0 -0.21693758732512 0.32547676313609059 0 -0.22999022197027619 0.34757360378294933 0 -0.21693758732512 0.32547676313609059 0 -0.21546904793181951 0.32574263519834662 0 -0.23068576168918481 0.32022055150066908 0 -0.21693758732512 0.32547676313609059 0 -0.22511396869532641 0.30659721923816219 0 -0.21693758732512 0.32547676313609059 0 -0.21546904793181951 0.32574263519834662 0 -0.22511396869532641 0.30659721923816219 0 -0.21546904793181951 0.32574263519834662 0 -0.22511396869532641 0.30659721923816219 0 -0.21546904793181951 0.32574263519834662 0 -0.19973463900319841 0.32859127498920448 0 -0.20464258627589721 0.30875880069962819 0 -0.21546904793181951 0.32574263519834662 0 -0.20464258627589721 0.30875880069962819 0 -0.22511396869532641 0.30659721923816219 0 -0.21546904793181951 0.32574263519834662 0 -0.19973463900319841 0.32859127498920448 0 -0.21693758732512 0.32547676313609059 0 -0.21546904793181951 0.32574263519834662 0 -0.20348501124728391 0.34953125646683803 0 -0.21546904793181951 0.32574263519834662 0 -0.19973463900319841 0.32859127498920448 0 -0.20348501124728391 0.34953125646683803 0 -0.22999022197027619 0.34757360378294933 0 -0.21546904793181951 0.32574263519834662 0 -0.20348501124728391 0.34953125646683803 0 -0.21546904793181951 0.32574263519834662 0 -0.19591228817106049 0.34403697364732788 0 -0.20348501124728391 0.34953125646683803 0 -0.19973463900319841 0.32859127498920448 0 -0.17900723951475581 0.33234387193846437 0 -0.19973463900319841 0.32859127498920448 0 -0.1860095756399941 0.32691824780429712 0 -0.17900723951475581 0.33234387193846437 0 -0.19973463900319841 0.32859127498920448 0 -0.17900723951475581 0.33234387193846437 0 -0.19973463900319841 0.32859127498920448 0 -0.18787561783340839 0.33854960032504311 0 -0.19591228817106049 0.34403697364732788 0 -0.19973463900319841 0.32859127498920448 0 -0.19591228817106049 0.34403697364732788 0 -0.19973463900319841 0.32859127498920448 0 -0.18787561783340839 0.33854960032504311 0 -0.19002192061329809 0.34485252398096827 0 -0.19591228817106049 0.34403697364732788 0 -0.18787561783340839 0.33854960032504311 0 -0.19973463900319841 0.32859127498920448 0 -0.20464258627589721 0.30875880069962819 0 -0.19973463900319841 0.32859127498920448 0 -0.19506700807894001 0.3189248992957005 0 -0.20464258627589721 0.30875880069962819 0 -0.19506700807894001 0.3189248992957005 0 -0.18988123139667171 0.31143127368967261 0 -0.20464258627589721 0.30875880069962819 0 -0.1860095756399941 0.32691824780429712 0 -0.19973463900319841 0.32859127498920448 0 -0.19506700807894001 0.3189248992957005 0 -0.1860095756399941 0.32691824780429712 0 -0.19506700807894001 0.3189248992957005 0 -0.18988123139667171 0.31143127368967261 0 -0.18988123139667171 0.31143127368967261 0 -0.20216985610898411 0.29026256290507441 0 -0.18988123139667171 0.31143127368967261 0 -0.20216985610898411 0.29026256290507441 0 -0.20464258627589721 0.30875880069962819 0 -0.18988123139667171 0.31143127368967261 0 -0.20216985610898411 0.29026256290507441 0 -0.1848882913774276 0.28741938643001252 0 -0.20216985610898411 0.29026256290507441 0 -0.1996249665507811 0.27860622473459928 0 -0.1848882913774276 0.28741938643001252 0 -0.20216985610898411 0.29026256290507441 0 -0.20955053354859729 0.28892632641005228 0 -0.20464258627589721 0.30875880069962819 0 -0.20216985610898411 0.29026256290507441 0 -0.20955053354859729 0.28892632641005228 0 -0.2144584808212969 0.26909385212047632 0 -0.20955053354859729 0.28892632641005228 0 -0.20464258627589721 0.30875880069962819 0 -0.22511396869532641 0.30659721923816219 0 -0.20955053354859729 0.28892632641005228 0 -0.20464258627589721 0.30875880069962819 0 -0.23068576168918481 0.32022055150066908 0 -0.22511396869532641 0.30659721923816219 0 -0.24136145510151191 0.30790324321833829 0 -0.22511396869532641 0.30659721923816219 0 -0.23653032308470889 0.28992724058425329 0 -0.24136145510151191 0.30790324321833829 0 -0.20955053354859729 0.28892632641005228 0 -0.22511396869532641 0.30659721923816219 0 -0.2238595242274691 0.29099454846416423 0 -0.22511396869532641 0.30659721923816219 0 -0.2238595242274691 0.29099454846416423 0 -0.23653032308470889 0.28992724058425329 0 -0.20955053354859729 0.28892632641005228 0 -0.2238595242274691 0.29099454846416423 0 -0.2242432715812441 0.27852740762418898 0 -0.2238595242274691 0.29099454846416423 0 -0.23653032308470889 0.28992724058425329 0 -0.2242432715812441 0.27852740762418898 0 -0.25601235074984552 0.29483414082105591 0 -0.23653032308470889 0.28992724058425329 0 -0.24960275626890269 0.28021931341995432 0 -0.25601235074984552 0.29483414082105591 0 -0.23653032308470889 0.28992724058425329 0 -0.24136145510151191 0.30790324321833829 0 -0.2346079489511734 0.25892824294646039 0 -0.24457833111145469 0.25251492118884339 0 -0.24681624117993739 0.26403734226434472 0 -0.2346079489511734 0.25892824294646039 0 -0.24681624117993739 0.26403734226434472 0 -0.23669908249014779 0.27107196423625829 0 -0.2346079489511734 0.25892824294646039 0 -0.24457833111145469 0.25251492118884339 0 -0.2356063332901685 0.2488089172562763 0 -0.25727060508159572 0.25446954409074501 0 -0.24457833111145469 0.25251492118884339 0 -0.24681624117993739 0.26403734226434472 0 -0.24681624117993739 0.26403734226434472 0 -0.24960275626890269 0.28021931341995432 0 -0.23669908249014779 0.27107196423625829 0 -0.23653032308470889 0.28992724058425329 0 -0.24960275626890269 0.28021931341995432 0 -0.23669908249014779 0.27107196423625829 0 -0.23669908249014779 0.27107196423625829 0 -0.2242432715812441 0.27852740762418898 0 -0.22453216071069679 0.26400895802992308 0 -0.23653032308470889 0.28992724058425329 0 -0.23669908249014779 0.27107196423625829 0 -0.2242432715812441 0.27852740762418898 0 -0.2242432715812441 0.27852740762418898 0 -0.22453216071069679 0.26400895802992308 0 -0.2144584808212969 0.26909385212047632 0 -0.22453216071069679 0.26400895802992308 0 -0.22819137421648561 0.25715509478396598 0 -0.22395228198199341 0.2527395784957055 0 -0.22395228198199341 0.2527395784957055 0 -0.2144584808212969 0.26909385212047632 0 -0.22453216071069679 0.26400895802992308 0 -0.22395228198199341 0.2527395784957055 0 -0.2144584808212969 0.26909385212047632 0 -0.22395228198199341 0.2527395784957055 0 -0.2180097173583421 0.25474369646397621 0 -0.2144584808212969 0.26909385212047632 0 -0.2346079489511734 0.25892824294646039 0 -0.23669908249014779 0.27107196423625829 0 -0.22453216071069679 0.26400895802992308 0 -0.2346079489511734 0.25892824294646039 0 -0.22453216071069679 0.26400895802992308 0 -0.22819137421648561 0.25715509478396598 0 -0.2346079489511734 0.25892824294646039 0 -0.22967310522207859 0.25294359966377511 0 -0.2356063332901685 0.2488089172562763 0 -0.2346079489511734 0.25892824294646039 0 -0.22819137421648561 0.25715509478396598 0 -0.22967310522207859 0.25294359966377511 0 -0.22819137421648561 0.25715509478396598 0 -0.22967310522207859 0.25294359966377511 0 -0.22395228198199341 0.2527395784957055 0 -0.22967310522207859 0.25294359966377511 0 -0.22395228198199341 0.2527395784957055 0 -0.2273243232676849 0.24600244537947211 0 -0.22395228198199341 0.2527395784957055 0 -0.2180097173583421 0.25474369646397621 0 -0.21683841291638001 0.2492188580304924 0 -0.21083713843350749 0.25594949313094451 0 -0.21130204384602741 0.2451055264632799 0 -0.21683841291638001 0.2492188580304924 0 -0.21087153433615871 0.27295056906925491 0 -0.20119645989058771 0.25432597377849608 0 -0.2180097173583421 0.25474369646397621 0 -0.21083713843350749 0.25594949313094451 0 -0.21683841291638001 0.2492188580304924 0 -0.21087153433615871 0.27295056906925491 0 -0.19849897889213181 0.26804666535307969 0 -0.20119645989058771 0.25432597377849608 0 -0.21083713843350749 0.25594949313094451 0 -0.21087153433615871 0.27295056906925491 0 -0.20119645989058771 0.25432597377849608 0 -0.2180097173583421 0.25474369646397621 0 -0.21083713843350749 0.25594949313094451 0 -0.2144584808212969 0.26909385212047632 0 -0.2180097173583421 0.25474369646397621 0 -0.2144584808212969 0.26909385212047632 0 -0.21083713843350749 0.25594949313094451 0 -0.20119645989058771 0.25432597377849608 0 -0.20244586606390169 0.24418820265249311 0 -0.20955053354859729 0.28892632641005228 0 -0.2242432715812441 0.27852740762418898 0 -0.2144584808212969 0.26909385212047632 0 -0.20216985610898411 0.29026256290507441 0 -0.2144584808212969 0.26909385212047632 0 -0.20216985610898411 0.29026256290507441 0 -0.21087153433615871 0.27295056906925491 0 -0.1996249665507811 0.27860622473459928 0 -0.20955053354859729 0.28892632641005228 0 -0.2144584808212969 0.26909385212047632 0 -0.21083713843350749 0.25594949313094451 0 -0.2144584808212969 0.26909385212047632 0 -0.21087153433615871 0.27295056906925491 0 -0.20216985610898411 0.29026256290507441 0 -0.2144584808212969 0.26909385212047632 0 -0.21087153433615871 0.27295056906925491 0 -0.21087153433615871 0.27295056906925491 0 -0.1996249665507811 0.27860622473459928 0 -0.19849897889213181 0.26804666535307969 0 -0.1996249665507811 0.27860622473459928 0 -0.19849897889213181 0.26804666535307969 0 -0.18988355992171621 0.27345513825968892 0 -0.19849897889213181 0.26804666535307969 0 -0.18988355992171621 0.27345513825968892 0 -0.18793594934650079 0.26163967321187548 0 -0.1996249665507811 0.27860622473459928 0 -0.18988355992171621 0.27345513825968892 0 -0.1848882913774276 0.28741938643001252 0 -0.19849897889213181 0.26804666535307969 0 -0.20119645989058771 0.25432597377849608 0 -0.18793594934650079 0.26163967321187548 0 -0.20119645989058771 0.25432597377849608 0 -0.18793594934650079 0.26163967321187548 0 -0.1868299750829622 0.25009312675697598 0 -0.18793594934650079 0.26163967321187548 0 -0.1746010435555071 0.25293082095254088 0 -0.1766056787361002 0.27098631417047181 0 -0.18793594934650079 0.26163967321187548 0 -0.1868299750829622 0.25009312675697598 0 -0.1746010435555071 0.25293082095254088 0 -0.1746010435555071 0.25293082095254088 0 -0.16332980946051109 0.2652703706623657 0 -0.15518490462376089 0.25299169597983012 0 -0.1746010435555071 0.25293082095254088 0 -0.16332980946051109 0.2652703706623657 0 -0.1766056787361002 0.27098631417047181 0 -0.16332980946051109 0.2652703706623657 0 -0.1645456411911321 0.2849049730861446 0 -0.14896923596972261 0.27098522686658461 0 -0.16332980946051109 0.2652703706623657 0 -0.1766056787361002 0.27098631417047181 0 -0.1645456411911321 0.2849049730861446 0 -0.1766056787361002 0.27098631417047181 0 -0.1848882913774276 0.28741938643001252 0 -0.1645456411911321 0.2849049730861446 0 -0.18988355992171621 0.27345513825968892 0 -0.1766056787361002 0.27098631417047181 0 -0.1848882913774276 0.28741938643001252 0 -0.18988355992171621 0.27345513825968892 0 -0.18793594934650079 0.26163967321187548 0 -0.1766056787361002 0.27098631417047181 0 -0.1848882913774276 0.28741938643001252 0 -0.17443924278853351 0.30131846237422932 0 -0.1645456411911321 0.2849049730861446 0 -0.18988123139667171 0.31143127368967261 0 -0.1848882913774276 0.28741938643001252 0 -0.17443924278853351 0.30131846237422932 0 -0.17358908472673271 0.31583346890126668 0 -0.18988123139667171 0.31143127368967261 0 -0.17443924278853351 0.30131846237422932 0 -0.17443924278853351 0.30131846237422932 0 -0.15916075427953269 0.30745569376647558 0 -0.1645456411911321 0.2849049730861446 0 -0.17358908472673271 0.31583346890126668 0 -0.17443924278853351 0.30131846237422932 0 -0.15916075427953269 0.30745569376647558 0 -0.15916075427953269 0.30745569376647558 0 -0.1645456411911321 0.2849049730861446 0 -0.14699168279230981 0.28959901998818338 0 -0.1645456411911321 0.2849049730861446 0 -0.14699168279230981 0.28959901998818338 0 -0.14896923596972261 0.27098522686658461 0 -0.15916075427953269 0.30745569376647558 0 -0.14699168279230981 0.28959901998818338 0 -0.13471586004470401 0.30330411993057521 0 -0.14240998990207959 0.3223477691203892 0 -0.15916075427953269 0.30745569376647558 0 -0.13471586004470401 0.30330411993057521 0 -0.14699168279230981 0.28959901998818338 0 -0.13471586004470401 0.30330411993057521 0 -0.12588851978537521 0.2813595731171179 0 -0.12588851978537521 0.2813595731171179 0 -0.13221516839043609 0.2571921267474917 0 -0.14896923596972261 0.27098522686658461 0 -0.14699168279230981 0.28959901998818338 0 -0.12588851978537521 0.2813595731171179 0 -0.14896923596972261 0.27098522686658461 0 -0.13221516839043609 0.2571921267474917 0 -0.15518490462376089 0.25299169597983012 0 -0.14896923596972261 0.27098522686658461 0 -0.16332980946051109 0.2652703706623657 0 -0.15518490462376089 0.25299169597983012 0 -0.14896923596972261 0.27098522686658461 0 -0.12588851978537521 0.2813595731171179 0 -0.10362456239099579 0.26054772119908132 0 -0.098154937604135573 0.2858057934488929 0 -0.13221516839043609 0.2571921267474917 0 -0.10362456239099579 0.26054772119908132 0 -0.1164617066014952 0.23642275834759 0 -0.12588851978537521 0.2813595731171179 0 -0.13221516839043609 0.2571921267474917 0 -0.10362456239099579 0.26054772119908132 0 -0.12588851978537521 0.2813595731171179 0 -0.1137214724726751 0.30023253880066669 0 -0.098154937604135573 0.2858057934488929 0 -0.13471586004470401 0.30330411993057521 0 -0.12588851978537521 0.2813595731171179 0 -0.1137214724726751 0.30023253880066669 0 -0.13471586004470401 0.30330411993057521 0 -0.1137214724726751 0.30023253880066669 0 -0.1149759901617626 0.32171611433328512 0 -0.1137214724726751 0.30023253880066669 0 -0.094872054767398212 0.30897709317346239 0 -0.098154937604135573 0.2858057934488929 0 -0.1137214724726751 0.30023253880066669 0 -0.094872054767398212 0.30897709317346239 0 -0.1149759901617626 0.32171611433328512 0 -0.094872054767398212 0.30897709317346239 0 -0.098154937604135573 0.2858057934488929 0 -0.070888167487139178 0.29452230085197978 0 -0.098154937604135573 0.2858057934488929 0 -0.070888167487139178 0.29452230085197978 0 -0.077554013851872286 0.26849779152806968 0 -0.094872054767398212 0.30897709317346239 0 -0.070888167487139178 0.29452230085197978 0 -0.070780874652544401 0.32102948684763988 0 -0.070888167487139178 0.29452230085197978 0 -0.048763358822039228 0.29486843639833138 0 -0.070780874652544401 0.32102948684763988 0 -0.070888167487139178 0.29452230085197978 0 -0.077554013851872286 0.26849779152806968 0 -0.05305599954652554 0.27194622807212049 0 -0.10362456239099579 0.26054772119908132 0 -0.098154937604135573 0.2858057934488929 0 -0.077554013851872286 0.26849779152806968 0 -0.10362456239099579 0.26054772119908132 0 -0.077554013851872286 0.26849779152806968 0 -0.080769025981970902 0.2461244815080203 0 -0.077554013851872286 0.26849779152806968 0 -0.060394440259899658 0.25039955061743518 0 -0.05305599954652554 0.27194622807212049 0 -0.077554013851872286 0.26849779152806968 0 -0.060394440259899658 0.25039955061743518 0 -0.080769025981970902 0.2461244815080203 0 -0.060394440259899658 0.25039955061743518 0 -0.05305599954652554 0.27194622807212049 0 -0.035223831605911582 0.24937015529226139 0 -0.05305599954652554 0.27194622807212049 0 -0.034408090402620523 0.27057666564906963 0 -0.048763358822039228 0.29486843639833138 0 -0.05305599954652554 0.27194622807212049 0 -0.034408090402620523 0.27057666564906963 0 -0.035223831605911582 0.24937015529226139 0 -0.05305599954652554 0.27194622807212049 0 -0.035223831605911582 0.24937015529226139 0 -0.01517468094623424 0.27124952259053048 0 -0.035223831605911582 0.24937015529226139 0 -0.034408090402620523 0.27057666564906963 0 -0.01517468094623424 0.27124952259053048 0 -0.035223831605911582 0.24937015529226139 0 -0.01517468094623424 0.27124952259053048 0 -0.035223831605911582 0.24937015529226139 0 -0.005590237039277135 0.24237484072921639 0 -0.01517468094623424 0.27124952259053048 0 -0.005590237039277135 0.24237484072921639 0 0.016371941311700881 0.25660120915207979 0 -0.034408090402620523 0.27057666564906963 0 -0.01517468094623424 0.27124952259053048 0 -0.02318076769188308 0.29450295483997629 0 -0.02318076769188308 0.29450295483997629 0 -0.040502612005653568 0.31867788422294341 0 -0.0061380820639313008 0.31872310617904631 0 -0.02318076769188308 0.29450295483997629 0 -0.0061380820639313008 0.31872310617904631 0 0.0048744697134413331 0.29312888988880131 0 -0.01517468094623424 0.27124952259053048 0 -0.02318076769188308 0.29450295483997629 0 0.0048744697134413331 0.29312888988880131 0 -0.01517468094623424 0.27124952259053048 0 0.0048744697134413331 0.29312888988880131 0 -0.02318076769188308 0.29450295483997629 0 -0.048763358822039228 0.29486843639833138 0 -0.040502612005653568 0.31867788422294341 0 -0.034408090402620523 0.27057666564906963 0 -0.02318076769188308 0.29450295483997629 0 -0.048763358822039228 0.29486843639833138 0 -0.070888167487139178 0.29452230085197978 0 -0.05305599954652554 0.27194622807212049 0 -0.048763358822039228 0.29486843639833138 0 -0.070888167487139178 0.29452230085197978 0 -0.05305599954652554 0.27194622807212049 0 -0.048763358822039228 0.29486843639833138 0 -0.040502612005653568 0.31867788422294341 0 -0.070780874652544401 0.32102948684763988 0 -0.055034737432928041 0.33636267652776392 0 -0.040502612005653568 0.31867788422294341 0 -0.070780874652544401 0.32102948684763988 0 -0.055034737432928041 0.33636267652776392 0 -0.040502612005653568 0.31867788422294341 0 -0.031108939767970589 0.33867888228946219 0 -0.055034737432928041 0.33636267652776392 0 -0.031108939767970589 0.33867888228946219 0 -0.049845121471604747 0.35572805818905617 0 -0.040502612005653568 0.31867788422294341 0 -0.031108939767970589 0.33867888228946219 0 -0.0061380820639313008 0.31872310617904631 0 -0.031108939767970589 0.33867888228946219 0 -0.0092663110478368605 0.34293693159353011 0 -0.0061380820639313008 0.31872310617904631 0 -0.0092663110478368605 0.34293693159353011 0 -0.0061380820639313008 0.31872310617904631 0 0.0055183660808578051 0.33088139718327658 0 -0.024295624429054141 0.36035367293201331 0 -0.01167895969229062 0.3752449318083298 0 0.001253872613496493 0.36497928767497029 0 -0.024295624429054141 0.36035367293201331 0 0.001253872613496493 0.36497928767497029 0 -0.01167895969229062 0.3752449318083298 0 0.002717758819928457 0.38255309846569119 0 0.001253872613496493 0.36497928767497029 0 -0.0092663110478368605 0.34293693159353011 0 -0.024295624429054141 0.36035367293201331 0 0.001253872613496493 0.36497928767497029 0 -0.031108939767970589 0.33867888228946219 0 -0.0092663110478368605 0.34293693159353011 0 -0.024295624429054141 0.36035367293201331 0 -0.024295624429054141 0.36035367293201331 0 -0.024049478029821259 0.37752530846543358 0 -0.01167895969229062 0.3752449318083298 0 -0.024295624429054141 0.36035367293201331 0 -0.040351265544834217 0.3718433020985018 0 -0.024049478029821259 0.37752530846543358 0 -0.024295624429054141 0.36035367293201331 0 -0.040351265544834217 0.3718433020985018 0 -0.049845121471604747 0.35572805818905617 0 -0.031108939767970589 0.33867888228946219 0 -0.024295624429054141 0.36035367293201331 0 -0.049845121471604747 0.35572805818905617 0 -0.024295624429054141 0.36035367293201331 0 -0.049845121471604747 0.35572805818905617 0 -0.055034737432928041 0.33636267652776392 0 -0.049845121471604747 0.35572805818905617 0 -0.075394618514155562 0.35110244344609898 0 -0.040351265544834217 0.3718433020985018 0 -0.062307075496641218 0.36812703673759389 0 -0.052333367601208818 0.38439357465635821 0 -0.040351265544834217 0.3718433020985018 0 -0.049845121471604747 0.35572805818905617 0 -0.062307075496641218 0.36812703673759389 0 -0.062307075496641218 0.36812703673759389 0 -0.078219425703471443 0.36798818653929671 0 -0.075394618514155562 0.35110244344609898 0 -0.062307075496641218 0.36812703673759389 0 -0.078219425703471443 0.36798818653929671 0 -0.072976246165697048 0.38209857081241072 0 -0.078219425703471443 0.36798818653929671 0 -0.092886402919981084 0.36228496535713939 0 -0.075394618514155562 0.35110244344609898 0 -0.078219425703471443 0.36798818653929671 0 -0.092886402919981084 0.36228496535713939 0 -0.089257705574203761 0.37691660080206812 0 -0.092886402919981084 0.36228496535713939 0 -0.075394618514155562 0.35110244344609898 0 -0.1009441155567064 0.34647682870314189 0 -0.075394618514155562 0.35110244344609898 0 -0.1009441155567064 0.34647682870314189 0 -0.049845121471604747 0.35572805818905617 0 -0.062307075496641218 0.36812703673759389 0 -0.075394618514155562 0.35110244344609898 0 -0.049845121471604747 0.35572805818905617 0 -0.075394618514155562 0.35110244344609898 0 -0.055034737432928041 0.33636267652776392 0 -0.075394618514155562 0.35110244344609898 0 -0.070780874652544401 0.32102948684763988 0 -0.094872054767398212 0.30897709317346239 0 -0.070780874652544401 0.32102948684763988 0 -0.091400385335533463 0.32974221914953999 0 -0.075394618514155562 0.35110244344609898 0 -0.091400385335533463 0.32974221914953999 0 -0.1009441155567064 0.34647682870314189 0 -0.075394618514155562 0.35110244344609898 0 -0.070780874652544401 0.32102948684763988 0 -0.091400385335533463 0.32974221914953999 0 -0.091400385335533463 0.32974221914953999 0 -0.1149759901617626 0.32171611433328512 0 -0.1009441155567064 0.34647682870314189 0 -0.094872054767398212 0.30897709317346239 0 -0.091400385335533463 0.32974221914953999 0 -0.1149759901617626 0.32171611433328512 0 -0.12649361259925729 0.34185121396018481 0 -0.1149759901617626 0.32171611433328512 0 -0.1009441155567064 0.34647682870314189 0 -0.12649361259925729 0.34185121396018481 0 -0.1138016922613066 0.36184132992542878 0 -0.1009441155567064 0.34647682870314189 0 -0.12649361259925729 0.34185121396018481 0 -0.1009441155567064 0.34647682870314189 0 -0.1350301875620874 0.3664186364394092 0 -0.1138016922613066 0.36184132992542878 0 -0.1141921051547637 0.38256461983650092 0 -0.1138016922613066 0.36184132992542878 0 -0.1021726722050275 0.37374886775645522 0 -0.1141921051547637 0.38256461983650092 0 -0.1350301875620874 0.3664186364394092 0 -0.1141921051547637 0.38256461983650092 0 -0.092886402919981084 0.36228496535713939 0 -0.1138016922613066 0.36184132992542878 0 -0.1021726722050275 0.37374886775645522 0 -0.092886402919981084 0.36228496535713939 0 -0.1021726722050275 0.37374886775645522 0 -0.089257705574203761 0.37691660080206812 0 -0.092886402919981084 0.36228496535713939 0 -0.1138016922613066 0.36184132992542878 0 -0.1009441155567064 0.34647682870314189 0 -0.1058851560725773 0.40078885388639002 0 -0.094387833421246403 0.40091790573498259 0 -0.1050371928525734 0.41315801266535279 0 -0.1058851560725773 0.40078885388639002 0 -0.094387833421246403 0.40091790573498259 0 -0.10139601853918399 0.38683270736123881 0 -0.1058851560725773 0.40078885388639002 0 -0.10139601853918399 0.38683270736123881 0 -0.1141921051547637 0.38256461983650092 0 -0.094387833421246403 0.40091790573498259 0 -0.10139601853918399 0.38683270736123881 0 -0.089257705574203761 0.37691660080206812 0 -0.1021726722050275 0.37374886775645522 0 -0.10139601853918399 0.38683270736123881 0 -0.089257705574203761 0.37691660080206812 0 -0.1021726722050275 0.37374886775645522 0 -0.10139601853918399 0.38683270736123881 0 -0.1141921051547637 0.38256461983650092 0 -0.1388102903371122 0.38299151392850078 0 -0.1141921051547637 0.38256461983650092 0 -0.1172635789840414 0.39913459436131171 0 -0.1058851560725773 0.40078885388639002 0 -0.1141921051547637 0.38256461983650092 0 -0.1172635789840414 0.39913459436131171 0 -0.1058851560725773 0.40078885388639002 0 -0.1172635789840414 0.39913459436131171 0 -0.1156511252481143 0.41380540402335231 0 -0.12629003255897039 0.40874529581188351 0 -0.1172635789840414 0.39913459436131171 0 -0.1156511252481143 0.41380540402335231 0 -0.1285582988724614 0.41967166321088611 0 -0.1156511252481143 0.41380540402335231 0 -0.12117509548404561 0.43071938651951769 0 -0.1285582988724614 0.41967166321088611 0 -0.12629003255897039 0.40874529581188351 0 -0.1156511252481143 0.41380540402335231 0 -0.1156511252481143 0.41380540402335231 0 -0.10997669272719129 0.42469412605080908 0 -0.1050371928525734 0.41315801266535279 0 -0.1156511252481143 0.41380540402335231 0 -0.12117509548404561 0.43071938651951769 0 -0.10997669272719129 0.42469412605080908 0 -0.12117509548404561 0.43071938651951769 0 -0.10997669272719129 0.42469412605080908 0 -0.1105321438010213 0.43507362733766403 0 -0.12117509548404561 0.43071938651951769 0 -0.1105321438010213 0.43507362733766403 0 -0.1181663477986932 0.44270783485731519 0 -0.1105321438010213 0.43507362733766403 0 -0.099517961268289074 0.42491921066789712 0 -0.10464808911533199 0.44892051560081148 0 -0.089933051202741809 0.42513535460324492 0 -0.098411453721264419 0.44665374649866202 0 -0.099517961268289074 0.42491921066789712 0 -0.089933051202741809 0.42513535460324492 0 -0.098411453721264419 0.44665374649866202 0 -0.099517961268289074 0.42491921066789712 0 -0.10464808911533199 0.44892051560081148 0 -0.10997669272719129 0.42469412605080908 0 -0.1105321438010213 0.43507362733766403 0 -0.099517961268289074 0.42491921066789712 0 -0.094387833421246403 0.40091790573498259 0 -0.099517961268289074 0.42491921066789712 0 -0.1050371928525734 0.41315801266535279 0 -0.094387833421246403 0.40091790573498259 0 -0.099517961268289074 0.42491921066789712 0 -0.091323373644124184 0.41364735842848821 0 -0.094387833421246403 0.40091790573498259 0 -0.099517961268289074 0.42491921066789712 0 -0.1058851560725773 0.40078885388639002 0 -0.1156511252481143 0.41380540402335231 0 -0.1050371928525734 0.41315801266535279 0 -0.10997669272719129 0.42469412605080908 0 -0.099517961268289074 0.42491921066789712 0 -0.1050371928525734 0.41315801266535279 0 -0.089933051202741809 0.42513535460324492 0 -0.081454648684219422 0.40361696270782782 0 -0.091323373644124184 0.41364735842848821 0 -0.089933051202741809 0.42513535460324492 0 -0.081454648684219422 0.40361696270782782 0 -0.089933051202741809 0.42513535460324492 0 -0.077568586157169064 0.41725459709405532 0 -0.081454648684219422 0.40361696270782782 0 -0.099517961268289074 0.42491921066789712 0 -0.091323373644124184 0.41364735842848821 0 -0.089933051202741809 0.42513535460324492 0 -0.086135112813887846 0.43477907364028401 0 -0.089933051202741809 0.42513535460324492 0 -0.098411453721264419 0.44665374649866202 0 -0.086135112813887846 0.43477907364028401 0 -0.089933051202741809 0.42513535460324492 0 -0.07722397971905931 0.42824271176348461 0 -0.089933051202741809 0.42513535460324492 0 -0.07722397971905931 0.42824271176348461 0 -0.077568586157169064 0.41725459709405532 0 -0.086135112813887846 0.43477907364028401 0 -0.07722397971905931 0.42824271176348461 0 -0.07781690498996377 0.43916844652726422 0 -0.057222356258662899 0.4316831465558667 0 -0.07781690498996377 0.43916844652726422 0 -0.07722397971905931 0.42824271176348461 0 -0.069332062973233452 0.42064020678740038 0 -0.057222356258662899 0.4316831465558667 0 -0.07722397971905931 0.42824271176348461 0 -0.057222356258662899 0.4316831465558667 0 -0.07781690498996377 0.43916844652726422 0 -0.07722397971905931 0.42824271176348461 0 -0.077568586157169064 0.41725459709405532 0 -0.069332062973233452 0.42064020678740038 0 -0.077568586157169064 0.41725459709405532 0 -0.069899188206591301 0.40863774960831822 0 -0.081454648684219422 0.40361696270782782 0 -0.077568586157169064 0.41725459709405532 0 -0.069332062973233452 0.42064020678740038 0 -0.069899188206591301 0.40863774960831822 0 -0.069332062973233452 0.42064020678740038 0 -0.069899188206591301 0.40863774960831822 0 -0.057684056108471007 0.41728956650379417 0 -0.069899188206591301 0.40863774960831822 0 -0.067787856126333146 0.3961594090078554 0 -0.056358702000647382 0.40288268682062189 0 -0.081454648684219422 0.40361696270782782 0 -0.072976246165697048 0.38209857081241072 0 -0.067787856126333146 0.3961594090078554 0 -0.081454648684219422 0.40361696270782782 0 -0.072976246165697048 0.38209857081241072 0 -0.069899188206591301 0.40863774960831822 0 -0.067787856126333146 0.3961594090078554 0 -0.081454648684219422 0.40361696270782782 0 -0.081454648684219422 0.40361696270782782 0 -0.084519108461341655 0.39088751001432231 0 -0.072976246165697048 0.38209857081241072 0 -0.094387833421246403 0.40091790573498259 0 -0.081454648684219422 0.40361696270782782 0 -0.084519108461341655 0.39088751001432231 0 -0.094387833421246403 0.40091790573498259 0 -0.091323373644124184 0.41364735842848821 0 -0.081454648684219422 0.40361696270782782 0 -0.094387833421246403 0.40091790573498259 0 -0.089257705574203761 0.37691660080206812 0 -0.094387833421246403 0.40091790573498259 0 -0.084519108461341655 0.39088751001432231 0 -0.089257705574203761 0.37691660080206812 0 -0.078219425703471443 0.36798818653929671 0 -0.089257705574203761 0.37691660080206812 0 -0.072976246165697048 0.38209857081241072 0 -0.084519108461341655 0.39088751001432231 0 -0.089257705574203761 0.37691660080206812 0 -0.072976246165697048 0.38209857081241072 0 -0.067787856126333146 0.3961594090078554 0 -0.072976246165697048 0.38209857081241072 0 -0.052333367601208818 0.38439357465635821 0 -0.062307075496641218 0.36812703673759389 0 -0.072976246165697048 0.38209857081241072 0 -0.052333367601208818 0.38439357465635821 0 -0.052333367601208818 0.38439357465635821 0 -0.056358702000647382 0.40288268682062189 0 -0.043556518787249421 0.39997104351915819 0 -0.067787856126333146 0.3961594090078554 0 -0.052333367601208818 0.38439357465635821 0 -0.056358702000647382 0.40288268682062189 0 -0.056358702000647382 0.40288268682062189 0 -0.043556518787249421 0.39997104351915819 0 -0.047542206772692303 0.41114166100435101 0 -0.052333367601208818 0.38439357465635821 0 -0.032222021383380609 0.39142188614356699 0 -0.043556518787249421 0.39997104351915819 0 -0.032222021383380609 0.39142188614356699 0 -0.043556518787249421 0.39997104351915819 0 -0.035851590797632463 0.41006231713785979 0 -0.040351265544834217 0.3718433020985018 0 -0.032222021383380609 0.39142188614356699 0 -0.024049478029821259 0.37752530846543358 0 -0.040351265544834217 0.3718433020985018 0 -0.052333367601208818 0.38439357465635821 0 -0.032222021383380609 0.39142188614356699 0 -0.032222021383380609 0.39142188614356699 0 -0.024049478029821259 0.37752530846543358 0 -0.01402132743600264 0.39081329150354072 0 -0.024049478029821259 0.37752530846543358 0 -0.01402132743600264 0.39081329150354072 0 -0.01167895969229062 0.3752449318083298 0 -0.032222021383380609 0.39142188614356699 0 -0.020953756684944719 0.40629856832543337 0 -0.035851590797632463 0.41006231713785979 0 -0.032222021383380609 0.39142188614356699 0 -0.01402132743600264 0.39081329150354072 0 -0.020953756684944719 0.40629856832543337 0 -0.01402132743600264 0.39081329150354072 0 -0.01011642973178634 0.40483950462126711 0 -0.0033305084187407949 0.39836026983377659 0 -0.01402132743600264 0.39081329150354072 0 -0.01011642973178634 0.40483950462126711 0 -0.020953756684944719 0.40629856832543337 0 -0.0033305084187407949 0.39836026983377659 0 -0.0020934364043300731 0.40902675663479982 0 0.0039496993383259724 0.40483660926685489 0 -0.01011642973178634 0.40483950462126711 0 -0.0033305084187407949 0.39836026983377659 0 -0.0020934364043300731 0.40902675663479982 0 -0.01402132743600264 0.39081329150354072 0 -0.01167895969229062 0.3752449318083298 0 0.002717758819928457 0.38255309846569119 0 -0.01402132743600264 0.39081329150354072 0 -0.0033305084187407949 0.39836026983377659 0 0.002717758819928457 0.38255309846569119 0 -0.0095284159293236113 0.4181086787393552 0 0.0029210422779444929 0.41299526566713562 0 0.0047073123466495753 0.43456967432022098 0 -0.019776426911405839 0.43003618268027122 0 -0.0036883205655467658 0.44247429441421049 0 0.0047073123466495753 0.43456967432022098 0 -0.019776426911405839 0.43003618268027122 0 0.0047073123466495753 0.43456967432022098 0 -0.0095284159293236113 0.4181086787393552 0 -0.019776426911405839 0.43003618268027122 0 0.0047073123466495753 0.43456967432022098 0 -0.01011642973178634 0.40483950462126711 0 -0.0020934364043300731 0.40902675663479982 0 -0.0095284159293236113 0.4181086787393552 0 -0.0020934364043300731 0.40902675663479982 0 -0.0095284159293236113 0.4181086787393552 0 0.0029210422779444929 0.41299526566713562 0 -0.01011642973178634 0.40483950462126711 0 -0.0095284159293236113 0.4181086787393552 0 -0.020953756684944719 0.40629856832543337 0 -0.0095284159293236113 0.4181086787393552 0 -0.020953756684944719 0.40629856832543337 0 -0.026074071298553572 0.41800168758464812 0 -0.020953756684944719 0.40629856832543337 0 -0.026074071298553572 0.41800168758464812 0 -0.035851590797632463 0.41006231713785979 0 -0.026074071298553572 0.41800168758464812 0 -0.019776426911405839 0.43003618268027122 0 -0.04426016616946124 0.42550269104032079 0 -0.0095284159293236113 0.4181086787393552 0 -0.026074071298553572 0.41800168758464812 0 -0.019776426911405839 0.43003618268027122 0 -0.019776426911405839 0.43003618268027122 0 -0.04426016616946124 0.42550269104032079 0 -0.019776426911405839 0.43003618268027122 0 -0.04426016616946124 0.42550269104032079 0 -0.040725946570538442 0.43795025205929539 0 -0.026074071298553572 0.41800168758464812 0 -0.04426016616946124 0.42550269104032079 0 -0.035851590797632463 0.41006231713785979 0 -0.04426016616946124 0.42550269104032079 0 -0.035851590797632463 0.41006231713785979 0 -0.047542206772692303 0.41114166100435101 0 -0.043556518787249421 0.39997104351915819 0 -0.035851590797632463 0.41006231713785979 0 -0.047542206772692303 0.41114166100435101 0 -0.056358702000647382 0.40288268682062189 0 -0.047542206772692303 0.41114166100435101 0 -0.057684056108471007 0.41728956650379417 0 -0.04426016616946124 0.42550269104032079 0 -0.047542206772692303 0.41114166100435101 0 -0.057684056108471007 0.41728956650379417 0 -0.069899188206591301 0.40863774960831822 0 -0.056358702000647382 0.40288268682062189 0 -0.057684056108471007 0.41728956650379417 0 -0.04426016616946124 0.42550269104032079 0 -0.057222356258662899 0.4316831465558667 0 -0.040725946570538442 0.43795025205929539 0 -0.04426016616946124 0.42550269104032079 0 -0.057684056108471007 0.41728956650379417 0 -0.057222356258662899 0.4316831465558667 0 -0.069332062973233452 0.42064020678740038 0 -0.057684056108471007 0.41728956650379417 0 -0.057222356258662899 0.4316831465558667 0 -0.057222356258662899 0.4316831465558667 0 -0.051183054321400648 0.44315801262419469 0 -0.064920272119223202 0.44257749595344598 0 -0.051183054321400648 0.44315801262419469 0 -0.05822108614469744 0.45411290512137431 0 -0.034825610513881229 0.44946626343099139 0 -0.057222356258662899 0.4316831465558667 0 -0.051183054321400648 0.44315801262419469 0 -0.040725946570538442 0.43795025205929539 0 -0.051183054321400648 0.44315801262419469 0 -0.05822108614469744 0.45411290512137431 0 -0.064920272119223202 0.44257749595344598 0 -0.050850403631634268 0.46723167790699149 0 -0.059465727694703048 0.47956883120089749 0 -0.06353567355823414 0.45913766240179632 0 -0.05822108614469744 0.45411290512137431 0 -0.050850403631634268 0.46723167790699149 0 -0.034825610513881229 0.44946626343099139 0 -0.05822108614469744 0.45411290512137431 0 -0.050850403631634268 0.46723167790699149 0 -0.06353567355823414 0.45913766240179632 0 -0.050850403631634268 0.46723167790699149 0 -0.034825610513881229 0.44946626343099139 0 -0.033174017940086842 0.47852948321694139 0 -0.019776426911405839 0.43003618268027122 0 -0.034825610513881229 0.44946626343099139 0 -0.040725946570538442 0.43795025205929539 0 -0.051183054321400648 0.44315801262419469 0 -0.034825610513881229 0.44946626343099139 0 -0.040725946570538442 0.43795025205929539 0 -0.05822108614469744 0.45411290512137431 0 -0.034825610513881229 0.44946626343099139 0 -0.019776426911405839 0.43003618268027122 0 -0.034825610513881229 0.44946626343099139 0 -0.013370962156846 0.44944116456389233 0 -0.034825610513881229 0.44946626343099139 0 -0.015486616020024621 0.46749874768522481 0 -0.013370962156846 0.44944116456389233 0 -0.034825610513881229 0.44946626343099139 0 -0.015486616020024621 0.46749874768522481 0 -0.033174017940086842 0.47852948321694139 0 -0.015486616020024621 0.46749874768522481 0 -0.0046727324828841786 0.45897668626989663 0 -0.013370962156846 0.44944116456389233 0 -0.015486616020024621 0.46749874768522481 0 -0.0046727324828841786 0.45897668626989663 0 0.0080674303727603543 0.47515287654029548 0 -0.0046727324828841786 0.45897668626989663 0 -0.0034674845507218759 0.45104354427386367 0 -0.013370962156846 0.44944116456389233 0 -0.0046727324828841786 0.45897668626989663 0 -0.0034674845507218759 0.45104354427386367 0 0.0063873713597050446 0.45486127543025823 0 -0.019776426911405839 0.43003618268027122 0 -0.0036883205655467658 0.44247429441421049 0 -0.013370962156846 0.44944116456389233 0 -0.0034674845507218759 0.45104354427386367 0 -0.0036883205655467658 0.44247429441421049 0 0.0063873713597050446 0.45486127543025823 0 -0.0034674845507218759 0.45104354427386367 0 -0.0036883205655467658 0.44247429441421049 0 -0.013370962156846 0.44944116456389233 0 -0.0049232257127440624 0.5 0 -0.0040272573433087454 0.48545175566783572 0 -0.01755412415762447 0.48629599731400042 0 -0.015486616020024621 0.46749874768522481 0 -0.0040272573433087454 0.48545175566783572 0 -0.01755412415762447 0.48629599731400042 0 -0.015486616020024621 0.46749874768522481 0 -0.0040272573433087454 0.48545175566783572 0 0.0080674303727603543 0.47515287654029548 0 -0.015486616020024621 0.46749874768522481 0 -0.01755412415762447 0.48629599731400042 0 -0.033174017940086842 0.47852948321694139 0 -0.0049232257127440624 0.5 0 -0.030159503771958081 0.5 0 -0.01755412415762447 0.48629599731400042 0 -0.030159503771958081 0.5 0 -0.01755412415762447 0.48629599731400042 0 -0.033174017940086842 0.47852948321694139 0 -0.030159503771958081 0.5 0 -0.046047426935628778 0.4862906267203253 0 -0.055395781831172129 0.499999999999999 0 -0.030159503771958081 0.5 0 -0.046047426935628778 0.4862906267203253 0 -0.033174017940086842 0.47852948321694139 0 -0.050850403631634268 0.46723167790699149 0 -0.046047426935628778 0.4862906267203253 0 -0.033174017940086842 0.47852948321694139 0 -0.059465727694703048 0.47956883120089749 0 -0.06353567355823414 0.45913766240179632 0 -0.050850403631634268 0.46723167790699149 0 -0.046047426935628778 0.4862906267203253 0 -0.059465727694703048 0.47956883120089749 0 -0.059465727694703048 0.47956883120089749 0 -0.055395781831172129 0.499999999999999 0 -0.059465727694703048 0.47956883120089749 0 -0.055395781831172129 0.499999999999999 0 -0.071381889335795132 0.48752138396514982 0 -0.046047426935628778 0.4862906267203253 0 -0.059465727694703048 0.47956883120089749 0 -0.055395781831172129 0.499999999999999 0 -0.055395781831172129 0.499999999999999 0 -0.071381889335795132 0.48752138396514982 0 -0.079491554774269946 0.5 0 -0.071381889335795132 0.48752138396514982 0 -0.079491554774269946 0.5 0 -0.087409567233833918 0.48520437241251863 0 -0.079491554774269946 0.5 0 -0.087409567233833918 0.48520437241251863 0 -0.10358732771736789 0.5 0 -0.087409567233833918 0.48520437241251863 0 -0.091532280126339072 0.47005519557359482 0 -0.075146815144996659 0.47283371621233272 0 -0.087409567233833918 0.48520437241251863 0 -0.091532280126339072 0.47005519557359482 0 -0.1020276701045308 0.4817891422059275 0 -0.071381889335795132 0.48752138396514982 0 -0.087409567233833918 0.48520437241251863 0 -0.075146815144996659 0.47283371621233272 0 -0.059465727694703048 0.47956883120089749 0 -0.075146815144996659 0.47283371621233272 0 -0.06353567355823414 0.45913766240179632 0 -0.059465727694703048 0.47956883120089749 0 -0.071381889335795132 0.48752138396514982 0 -0.075146815144996659 0.47283371621233272 0 -0.075146815144996659 0.47283371621233272 0 -0.06353567355823414 0.45913766240179632 0 -0.081616561775513713 0.45875954681175718 0 -0.05822108614469744 0.45411290512137431 0 -0.081616561775513713 0.45875954681175718 0 -0.05822108614469744 0.45411290512137431 0 -0.06353567355823414 0.45913766240179632 0 -0.081616561775513713 0.45875954681175718 0 -0.064920272119223202 0.44257749595344598 0 -0.07781690498996377 0.43916844652726422 0 -0.081616561775513713 0.45875954681175718 0 -0.05822108614469744 0.45411290512137431 0 -0.064920272119223202 0.44257749595344598 0 -0.081616561775513713 0.45875954681175718 0 -0.057222356258662899 0.4316831465558667 0 -0.064920272119223202 0.44257749595344598 0 -0.07781690498996377 0.43916844652726422 0 -0.07781690498996377 0.43916844652726422 0 -0.081616561775513713 0.45875954681175718 0 -0.098411453721264419 0.44665374649866202 0 -0.07781690498996377 0.43916844652726422 0 -0.098411453721264419 0.44665374649866202 0 -0.086135112813887846 0.43477907364028401 0 -0.07781690498996377 0.43916844652726422 0 -0.098411453721264419 0.44665374649866202 0 -0.091532280126339072 0.47005519557359482 0 -0.081616561775513713 0.45875954681175718 0 -0.10501203740632969 0.46340618850214099 0 -0.091532280126339072 0.47005519557359482 0 -0.075146815144996659 0.47283371621233272 0 -0.081616561775513713 0.45875954681175718 0 -0.081616561775513713 0.45875954681175718 0 -0.10501203740632969 0.46340618850214099 0 -0.10501203740632969 0.46340618850214099 0 -0.098411453721264419 0.44665374649866202 0 -0.091532280126339072 0.47005519557359482 0 -0.10501203740632969 0.46340618850214099 0 -0.1001067831813159 0.46994364542179851 0 -0.081616561775513713 0.45875954681175718 0 -0.10501203740632969 0.46340618850214099 0 -0.098411453721264419 0.44665374649866202 0 -0.10786544402477299 0.46397291167383731 0 -0.10464808911533199 0.44892051560081148 0 -0.10786544402477299 0.46397291167383731 0 -0.10501203740632969 0.46340618850214099 0 -0.10464808911533199 0.44892051560081148 0 -0.10786544402477299 0.46397291167383731 0 -0.1059246366537528 0.46572238759821483 0 -0.10501203740632969 0.46340618850214099 0 -0.10786544402477299 0.46397291167383731 0 -0.10501203740632969 0.46340618850214099 0 -0.108348997545005 0.4662352169879494 0 -0.1067645922455062 0.46817273113958158 0 -0.1089080570976621 0.47091871284042758 0 -0.1067645922455062 0.46817273113958158 0 -0.1059246366537528 0.46572238759821483 0 -0.10488686975164301 0.46997503179539962 0 -0.10786544402477299 0.46397291167383731 0 -0.108348997545005 0.4662352169879494 0 -0.108348997545005 0.4662352169879494 0 -0.1067645922455062 0.46817273113958158 0 -0.1059246366537528 0.46572238759821483 0 -0.10786544402477299 0.46397291167383731 0 -0.108348997545005 0.4662352169879494 0 -0.1059246366537528 0.46572238759821483 0 -0.1059246366537528 0.46572238759821483 0 -0.1001067831813159 0.46994364542179851 0 -0.10488686975164301 0.46997503179539962 0 -0.1059246366537528 0.46572238759821483 0 -0.10501203740632969 0.46340618850214099 0 -0.1001067831813159 0.46994364542179851 0 -0.1059246366537528 0.46572238759821483 0 -0.10501203740632969 0.46340618850214099 0 -0.099517961268289074 0.42491921066789712 0 -0.098411453721264419 0.44665374649866202 0 -0.10464808911533199 0.44892051560081148 0 -0.10501203740632969 0.46340618850214099 0 -0.098411453721264419 0.44665374649866202 0 -0.10464808911533199 0.44892051560081148 0 -0.098411453721264419 0.44665374649866202 0 -0.10464808911533199 0.44892051560081148 0 -0.12525808538466851 0.45641143013835078 0 -0.10464808911533199 0.44892051560081148 0 -0.12525808538466851 0.45641143013835078 0 -0.10464808911533199 0.44892051560081148 0 -0.1181663477986932 0.44270783485731519 0 -0.1105321438010213 0.43507362733766403 0 -0.10464808911533199 0.44892051560081148 0 -0.1181663477986932 0.44270783485731519 0 -0.12525808538466851 0.45641143013835078 0 -0.1290922824037575 0.4421806538957625 0 -0.1181663477986932 0.44270783485731519 0 -0.1290922824037575 0.4421806538957625 0 -0.12117509548404561 0.43071938651951769 0 -0.1181663477986932 0.44270783485731519 0 -0.12525808538466851 0.45641143013835078 0 -0.10786544402477299 0.46397291167383731 0 -0.10464808911533199 0.44892051560081148 0 -0.13452485707333409 0.4692678132209307 0 -0.10786544402477299 0.46397291167383731 0 -0.13452485707333409 0.4692678132209307 0 -0.12525808538466851 0.45641143013835078 0 -0.10786544402477299 0.46397291167383731 0 -0.10786544402477299 0.46397291167383731 0 -0.108348997545005 0.4662352169879494 0 -0.1157837373857052 0.47314002133946059 0 -0.13452485707333409 0.4692678132209307 0 -0.10786544402477299 0.46397291167383731 0 -0.1157837373857052 0.47314002133946059 0 -0.1157837373857052 0.47314002133946059 0 -0.11189800927351801 0.48095773581360091 0 -0.105910991057026 0.47436413188977589 0 -0.1157837373857052 0.47314002133946059 0 -0.1089080570976621 0.47091871284042758 0 -0.105910991057026 0.47436413188977589 0 -0.108348997545005 0.4662352169879494 0 -0.1157837373857052 0.47314002133946059 0 -0.1089080570976621 0.47091871284042758 0 -0.1157837373857052 0.47314002133946059 0 -0.11189800927351801 0.48095773581360091 0 -0.1191808283738198 0.48213467718142589 0 -0.1264658174666021 0.47898746672785258 0 -0.1157837373857052 0.47314002133946059 0 -0.1191808283738198 0.48213467718142589 0 -0.1264658174666021 0.47898746672785258 0 -0.1191808283738198 0.48213467718142589 0 -0.12499958607367111 0.48671296885435961 0 -0.1191808283738198 0.48213467718142589 0 -0.12499958607367111 0.48671296885435961 0 -0.1148925927102319 0.49049152802457779 0 -0.1276831006604657 0.50000000000000044 0 -0.1148925927102319 0.49049152802457779 0 -0.10358732771736789 0.5 0 -0.1276831006604657 0.50000000000000044 0 -0.12499958607367111 0.48671296885435961 0 -0.1148925927102319 0.49049152802457779 0 -0.11189800927351801 0.48095773581360091 0 -0.1191808283738198 0.48213467718142589 0 -0.1148925927102319 0.49049152802457779 0 -0.11189800927351801 0.48095773581360091 0 -0.1148925927102319 0.49049152802457779 0 -0.1020276701045308 0.4817891422059275 0 -0.1148925927102319 0.49049152802457779 0 -0.10358732771736789 0.5 0 -0.1020276701045308 0.4817891422059275 0 -0.087409567233833918 0.48520437241251863 0 -0.10358732771736789 0.5 0 -0.1020276701045308 0.4817891422059275 0 -0.091532280126339072 0.47005519557359482 0 -0.1001067831813159 0.46994364542179851 0 -0.1020276701045308 0.4817891422059275 0 -0.1001067831813159 0.46994364542179851 0 -0.105910991057026 0.47436413188977589 0 -0.1020276701045308 0.4817891422059275 0 -0.1001067831813159 0.46994364542179851 0 -0.10488686975164301 0.46997503179539962 0 -0.105910991057026 0.47436413188977589 0 -0.10488686975164301 0.46997503179539962 0 -0.1089080570976621 0.47091871284042758 0 -0.105910991057026 0.47436413188977589 0 -0.1067645922455062 0.46817273113958158 0 -0.10488686975164301 0.46997503179539962 0 -0.1089080570976621 0.47091871284042758 0 -0.11189800927351801 0.48095773581360091 0 -0.105910991057026 0.47436413188977589 0 -0.1020276701045308 0.4817891422059275 0 -0.17146499066975621 0.091632285515712314 0 -0.17501374289680011 0.081047871238422137 0 -0.15601050211213721 0.087606671729809557 0 -0.17501374289680011 0.081047871238422137 0 -0.15601050211213721 0.087606671729809557 0 -0.15487487362417621 0.070616755076554447 0 -0.1734777798863337 0.065718777853076296 0 -0.15487487362417621 0.070616755076554447 0 -0.1654844908961404 0.052594432517200848 0 -0.1734777798863337 0.065718777853076296 0 -0.17501374289680011 0.081047871238422137 0 -0.15487487362417621 0.070616755076554447 0 -0.1734777798863337 0.065718777853076296 0 -0.17501374289680011 0.081047871238422137 0 -0.1889308700408299 0.069273433671036846 0 -0.1734777798863337 0.065718777853076296 0 -0.18308492197372209 0.055061396762167238 0 -0.1889308700408299 0.069273433671036846 0 -0.17501374289680011 0.081047871238422137 0 -0.1809252383703035 0.098231148184685022 0 -0.19290988410195981 0.086491157555938142 0 -0.17146499066975621 0.091632285515712314 0 -0.17501374289680011 0.081047871238422137 0 -0.1809252383703035 0.098231148184685022 0 -0.17501374289680011 0.081047871238422137 0 -0.19290988410195981 0.086491157555938142 0 -0.1889308700408299 0.069273433671036846 0 -0.1809252383703035 0.098231148184685022 0 -0.1853260569173811 0.1086552586921402 0 -0.17763127520486979 0.107704533465506 0 -0.1809252383703035 0.098231148184685022 0 -0.1853260569173811 0.1086552586921402 0 -0.19422029108472089 0.10401846767501099 0 -0.1809252383703035 0.098231148184685022 0 -0.17763127520486979 0.107704533465506 0 -0.16913103960934339 0.1020618983208845 0 -0.17763127520486979 0.107704533465506 0 -0.17189466223625799 0.11415074280640219 0 -0.16913103960934339 0.1020618983208845 0 -0.17146499066975621 0.091632285515712314 0 -0.1809252383703035 0.098231148184685022 0 -0.16913103960934339 0.1020618983208845 0 -0.18707127806089871 0.1198082845246364 0 -0.18657915752720031 0.1156385602956185 0 -0.18707127806089871 0.1198082845246364 0 -0.18147151407621151 0.11342472382431661 0 -0.17189466223625799 0.11415074280640219 0 -0.18707127806089871 0.1198082845246364 0 -0.18147151407621151 0.11342472382431661 0 -0.18657915752720031 0.1156385602956185 0 -0.1853260569173811 0.1086552586921402 0 -0.18147151407621151 0.11342472382431661 0 -0.18657915752720031 0.1156385602956185 0 -0.1853260569173811 0.1086552586921402 0 -0.17763127520486979 0.107704533465506 0 -0.18147151407621151 0.11342472382431661 0 -0.17763127520486979 0.107704533465506 0 -0.18147151407621151 0.11342472382431661 0 -0.17189466223625799 0.11415074280640219 0 -0.18707127806089871 0.1198082845246364 0 -0.17189466223625799 0.11415074280640219 0 -0.18707127806089871 0.1198082845246364 0 -0.17189466223625799 0.11415074280640219 0 -0.17556513874043769 0.12893790158089791 0 -0.17189466223625799 0.11415074280640219 0 -0.1634216564653595 0.1234444470386518 0 -0.17556513874043769 0.12893790158089791 0 -0.17189466223625799 0.11415074280640219 0 -0.15671804641161649 0.10849320108817009 0 -0.17189466223625799 0.11415074280640219 0 -0.1634216564653595 0.1234444470386518 0 -0.15671804641161649 0.10849320108817009 0 -0.16913103960934339 0.1020618983208845 0 -0.15671804641161649 0.10849320108817009 0 -0.15601050211213721 0.087606671729809557 0 -0.17146499066975621 0.091632285515712314 0 -0.16913103960934339 0.1020618983208845 0 -0.15601050211213721 0.087606671729809557 0 -0.17189466223625799 0.11415074280640219 0 -0.16913103960934339 0.1020618983208845 0 -0.15671804641161649 0.10849320108817009 0 -0.15671804641161649 0.10849320108817009 0 -0.13785504696545059 0.1041977919631847 0 -0.15601050211213721 0.087606671729809557 0 -0.15671804641161649 0.10849320108817009 0 -0.13785504696545059 0.1041977919631847 0 -0.13558839605170209 0.12593384989999329 0 -0.1634216564653595 0.1234444470386518 0 -0.13558839605170209 0.12593384989999329 0 -0.1634216564653595 0.1234444470386518 0 -0.15671804641161649 0.10849320108817009 0 -0.13558839605170209 0.12593384989999329 0 -0.13785504696545059 0.1041977919631847 0 -0.13558839605170209 0.12593384989999329 0 -0.1182653405059723 0.10662416053036709 0 -0.13785504696545059 0.1041977919631847 0 -0.13323595020605819 0.085411434338982017 0 -0.1182653405059723 0.10662416053036709 0 -0.13323595020605819 0.085411434338982017 0 -0.15601050211213721 0.087606671729809557 0 -0.15487487362417621 0.070616755076554447 0 -0.13785504696545059 0.1041977919631847 0 -0.13323595020605819 0.085411434338982017 0 -0.15601050211213721 0.087606671729809557 0 -0.13323595020605819 0.085411434338982017 0 -0.15487487362417621 0.070616755076554447 0 -0.1356462208245878 0.065913058578124364 0 -0.13323595020605819 0.085411434338982017 0 -0.1190088786819978 0.062050491360169657 0 -0.13323595020605819 0.085411434338982017 0 -0.1356462208245878 0.065913058578124364 0 -0.1190088786819978 0.062050491360169657 0 -0.1356462208245878 0.065913058578124364 0 -0.12490006969357161 0.046838605901182613 0 -0.1190088786819978 0.062050491360169657 0 -0.1356462208245878 0.065913058578124364 0 -0.14525562027324701 0.047887566407892851 0 -0.12490006969357161 0.046838605901182613 0 -0.13152999183575101 0.031978128817455931 0 -0.14525562027324701 0.047887566407892851 0 -0.12490006969357161 0.046838605901182613 0 -0.14525562027324701 0.047887566407892851 0 -0.14592785177655701 0.027265942236340931 0 -0.15881594962791509 0.038237544623814693 0 -0.13152999183575101 0.031978128817455931 0 -0.14525562027324701 0.047887566407892851 0 -0.14592785177655701 0.027265942236340931 0 -0.15487487362417621 0.070616755076554447 0 -0.14525562027324701 0.047887566407892851 0 -0.1654844908961404 0.052594432517200848 0 -0.15487487362417621 0.070616755076554447 0 -0.1356462208245878 0.065913058578124364 0 -0.14525562027324701 0.047887566407892851 0 -0.1242992269838297 -0.0053247601474538716 0 -0.15061622288098611 -0.001678139385174976 0 -0.13480636703428389 0.01372855978260373 0 -0.1242992269838297 -0.0053247601474538716 0 -0.13480636703428389 0.01372855978260373 0 -0.11891314533298269 0.01065511102646108 0 -0.13480636703428389 0.01372855978260373 0 -0.11891314533298269 0.01065511102646108 0 -0.1219157130543457 0.021980549886343761 0 -0.13152999183575101 0.031978128817455931 0 -0.13480636703428389 0.01372855978260373 0 -0.1219157130543457 0.021980549886343761 0 -0.13152999183575101 0.031978128817455931 0 -0.13480636703428389 0.01372855978260373 0 -0.14592785177655701 0.027265942236340931 0 -0.14592785177655701 0.027265942236340931 0 -0.16336567188354029 0.019347374049728801 0 -0.15881594962791509 0.038237544623814693 0 -0.14592785177655701 0.027265942236340931 0 -0.14867902839384181 0.01466593417087462 0 -0.16336567188354029 0.019347374049728801 0 -0.13480636703428389 0.01372855978260373 0 -0.14592785177655701 0.027265942236340931 0 -0.14867902839384181 0.01466593417087462 0 -0.15061622288098611 -0.001678139385174976 0 -0.13480636703428389 0.01372855978260373 0 -0.14867902839384181 0.01466593417087462 0 -0.15061622288098611 -0.001678139385174976 0 -0.14867902839384181 0.01466593417087462 0 -0.16336567188354029 0.019347374049728801 0 -0.15061622288098611 -0.001678139385174976 0 -0.17693321877814261 0.0019684813771039221 0 -0.15061622288098611 -0.001678139385174976 0 -0.16336567188354029 0.019347374049728801 0 -0.17693321877814261 0.0019684813771039221 0 -0.17848477790322159 0.01781467312765064 0 -0.17594176928862901 0.036669825474966687 0 -0.19104928083039011 0.02616033768633132 0 -0.16336567188354029 0.019347374049728801 0 -0.17848477790322159 0.01781467312765064 0 -0.17594176928862901 0.036669825474966687 0 -0.17848477790322159 0.01781467312765064 0 -0.19008346380801491 0.01414502619018632 0 -0.19104928083039011 0.02616033768633132 0 -0.17848477790322159 0.01781467312765064 0 -0.17693321877814261 0.0019684813771039221 0 -0.19008346380801491 0.01414502619018632 0 -0.16336567188354029 0.019347374049728801 0 -0.17848477790322159 0.01781467312765064 0 -0.17693321877814261 0.0019684813771039221 0 -0.1654844908961404 0.052594432517200848 0 -0.15881594962791509 0.038237544623814693 0 -0.17594176928862901 0.036669825474966687 0 -0.14525562027324701 0.047887566407892851 0 -0.1654844908961404 0.052594432517200848 0 -0.15881594962791509 0.038237544623814693 0 -0.16336567188354029 0.019347374049728801 0 -0.15881594962791509 0.038237544623814693 0 -0.17594176928862901 0.036669825474966687 0 -0.17594176928862901 0.036669825474966687 0 -0.19161493589124631 0.041436831217726497 0 -0.19104928083039011 0.02616033768633132 0 -0.17594176928862901 0.036669825474966687 0 -0.18308492197372209 0.055061396762167238 0 -0.19161493589124631 0.041436831217726497 0 -0.1734777798863337 0.065718777853076296 0 -0.1654844908961404 0.052594432517200848 0 -0.18308492197372209 0.055061396762167238 0 -0.1654844908961404 0.052594432517200848 0 -0.17594176928862901 0.036669825474966687 0 -0.18308492197372209 0.055061396762167238 0 -0.18308492197372209 0.055061396762167238 0 -0.1945944481895153 0.055166773593548997 0 -0.1889308700408299 0.069273433671036846 0 -0.1945944481895153 0.055166773593548997 0 -0.20393138640951661 0.041385445932916577 0 -0.2063928211179008 0.066733545993997306 0 -0.18308492197372209 0.055061396762167238 0 -0.1945944481895153 0.055166773593548997 0 -0.19161493589124631 0.041436831217726497 0 -0.19161493589124631 0.041436831217726497 0 -0.19104928083039011 0.02616033768633132 0 -0.20344627542123869 0.029513493320666741 0 -0.19161493589124631 0.041436831217726497 0 -0.20393138640951661 0.041385445932916577 0 -0.20344627542123869 0.029513493320666741 0 -0.1945944481895153 0.055166773593548997 0 -0.19161493589124631 0.041436831217726497 0 -0.20393138640951661 0.041385445932916577 0 -0.20393138640951661 0.041385445932916577 0 -0.20344627542123869 0.029513493320666741 0 -0.22382775329156929 0.040871417943321622 0 -0.21353898398343449 0.023243260041351532 0 -0.22382775329156929 0.040871417943321622 0 -0.20393138640951661 0.041385445932916577 0 -0.2215141138121603 0.057150158057788988 0 -0.22382775329156929 0.040871417943321622 0 -0.20393138640951661 0.041385445932916577 0 -0.2063928211179008 0.066733545993997306 0 -0.20393138640951661 0.041385445932916577 0 -0.2215141138121603 0.057150158057788988 0 -0.2063928211179008 0.066733545993997306 0 -0.1962508196272241 -0.006377239940657177 0 -0.17693321877814261 0.0019684813771039221 0 -0.20325021467529919 0.0056151021393816107 0 -0.17693321877814261 0.0019684813771039221 0 -0.20325021467529919 0.0056151021393816107 0 -0.17693321877814261 0.0019684813771039221 0 -0.19008346380801491 0.01414502619018632 0 -0.20325021467529919 0.0056151021393816107 0 -0.19008346380801491 0.01414502619018632 0 -0.20069982685302079 0.019166536620464091 0 -0.20325021467529919 0.0056151021393816107 0 -0.19008346380801491 0.01414502619018632 0 -0.20069982685302079 0.019166536620464091 0 -0.19104928083039011 0.02616033768633132 0 -0.20069982685302079 0.019166536620464091 0 -0.19104928083039011 0.02616033768633132 0 -0.20344627542123869 0.029513493320666741 0 -0.20344627542123869 0.029513493320666741 0 -0.21353898398343449 0.023243260041351532 0 -0.22382775329156929 0.040871417943321622 0 -0.20069982685302079 0.019166536620464091 0 -0.21353898398343449 0.023243260041351532 0 -0.20325021467529919 0.0056151021393816107 0 -0.20069982685302079 0.019166536620464091 0 -0.20344627542123869 0.029513493320666741 0 -0.21353898398343449 0.023243260041351532 0 -0.21353898398343449 0.023243260041351532 0 -0.21273679586848959 0.017940239438299491 0 -0.2200450381712189 0.022514038958549611 0 -0.21353898398343449 0.023243260041351532 0 -0.20325021467529919 0.0056151021393816107 0 -0.21353898398343449 0.023243260041351532 0 -0.21273679586848959 0.017940239438299491 0 -0.20325021467529919 0.0056151021393816107 0 -0.21273679586848959 0.017940239438299491 0 -0.21613237568713539 0.012493006096907421 0 -0.20325021467529919 0.0056151021393816107 0 -0.21613237568713539 0.012493006096907421 0 -0.21561361885210931 0.0073282401639425763 0 -0.20325021467529919 0.0056151021393816107 0 -0.21613237568713539 0.012493006096907421 0 -0.21561361885210931 0.0073282401639425763 0 -0.22145670745087609 0.0089859399551877901 0 -0.2180049782313338 -0.0021568108708838189 0 -0.2085153298746486 -0.004304286883201898 0 -0.21561361885210931 0.0073282401639425763 0 -0.2180049782313338 -0.0021568108708838189 0 -0.21561361885210931 0.0073282401639425763 0 -0.22146277296490521 0.0039775450186155638 0 -0.21561361885210931 0.0073282401639425763 0 -0.20325021467529919 0.0056151021393816107 0 -0.2085153298746486 -0.004304286883201898 0 -0.21561361885210931 0.0073282401639425763 0 -0.20325021467529919 0.0056151021393816107 0 -0.23146272213710589 -0.012848132887587949 0 -0.2277752640758047 0.01309677858074366 0 -0.23062233660560241 0.012179817879254351 0 -0.23146272213710589 -0.012848132887587949 0 -0.2277752640758047 0.01309677858074366 0 -0.22667777111703549 -0.00029370258196139229 0 -0.22434312890215541 0.006441640243146406 0 -0.2277752640758047 0.01309677858074366 0 -0.2180049782313338 -0.0021568108708838189 0 -0.22667777111703549 -0.00029370258196139229 0 -0.22146277296490521 0.0039775450186155638 0 -0.22667777111703549 -0.00029370258196139229 0 -0.22146277296490521 0.0039775450186155638 0 -0.22434312890215541 0.006441640243146406 0 -0.21561361885210931 0.0073282401639425763 0 -0.22146277296490521 0.0039775450186155638 0 -0.22145670745087609 0.0089859399551877901 0 -0.22146277296490521 0.0039775450186155638 0 -0.22434312890215541 0.006441640243146406 0 -0.22145670745087609 0.0089859399551877901 0 -0.21273679586848959 0.017940239438299491 0 -0.2277752640758047 0.01309677858074366 0 -0.21273679586848959 0.017940239438299491 0 -0.21613237568713539 0.012493006096907421 0 -0.2277752640758047 0.01309677858074366 0 -0.22434312890215541 0.006441640243146406 0 -0.22145670745087609 0.0089859399551877901 0 -0.2277752640758047 0.01309677858074366 0 -0.21613237568713539 0.012493006096907421 0 -0.22145670745087609 0.0089859399551877901 0 -0.2277752640758047 0.01309677858074366 0 -0.23062233660560241 0.012179817879254351 0 -0.23361820783850509 0.015854575227115471 0 -0.2386344648644402 0.01557624201109095 0 -0.23062233660560241 0.012179817879254351 0 -0.22980963656535469 0.01580891278006967 0 -0.2277752640758047 0.01309677858074366 0 -0.23062233660560241 0.012179817879254351 0 -0.22980963656535469 0.01580891278006967 0 -0.2277752640758047 0.01309677858074366 0 -0.23062233660560241 0.012179817879254351 0 -0.23062233660560241 0.012179817879254351 0 -0.23361820783850509 0.015854575227115471 0 -0.22980963656535469 0.01580891278006967 0 -0.22980963656535469 0.01580891278006967 0 -0.23298346900851319 0.031208181343360921 0 -0.22382775329156929 0.040871417943321622 0 -0.21353898398343449 0.023243260041351532 0 -0.2200450381712189 0.022514038958549611 0 -0.22382775329156929 0.040871417943321622 0 -0.2277752640758047 0.01309677858074366 0 -0.22382775329156929 0.040871417943321622 0 -0.2277752640758047 0.01309677858074366 0 -0.2200450381712189 0.022514038958549611 0 -0.22382775329156929 0.040871417943321622 0 -0.2277752640758047 0.01309677858074366 0 -0.22980963656535469 0.01580891278006967 0 -0.22382775329156929 0.040871417943321622 0 -0.22980963656535469 0.01580891278006967 0 -0.23298346900851319 0.031208181343360921 0 -0.23513972518008849 0.021550916096149821 0 -0.23361820783850509 0.015854575227115471 0 -0.22980963656535469 0.01580891278006967 0 -0.23513972518008849 0.021550916096149821 0 -0.21273679586848959 0.017940239438299491 0 -0.2277752640758047 0.01309677858074366 0 -0.2200450381712189 0.022514038958549611 0 -0.23298346900851319 0.031208181343360921 0 -0.23801847725125841 0.027322173638843771 0 -0.2411211673060335 0.033603417658516738 0 -0.23298346900851319 0.031208181343360921 0 -0.23801847725125841 0.027322173638843771 0 -0.23513972518008849 0.021550916096149821 0 -0.23801847725125841 0.027322173638843771 0 -0.2409781264174041 0.021695681044592071 0 -0.23513972518008849 0.021550916096149821 0 -0.23801847725125841 0.027322173638843771 0 -0.24559115712407431 0.025891779836084941 0 -0.2409781264174041 0.021695681044592071 0 -0.23801847725125841 0.027322173638843771 0 -0.24559115712407431 0.025891779836084941 0 -0.2411211673060335 0.033603417658516738 0 -0.25071788628901642 0.032434773548446802 0 -0.24559115712407431 0.025891779836084941 0 -0.2411211673060335 0.033603417658516738 0 -0.24750680766715891 0.018137293640790909 0 -0.2409781264174041 0.021695681044592071 0 -0.2386344648644402 0.01557624201109095 0 -0.24559115712407431 0.025891779836084941 0 -0.24750680766715891 0.018137293640790909 0 -0.2409781264174041 0.021695681044592071 0 -0.2409781264174041 0.021695681044592071 0 -0.23513972518008849 0.021550916096149821 0 -0.2386344648644402 0.01557624201109095 0 -0.23361820783850509 0.015854575227115471 0 -0.23513972518008849 0.021550916096149821 0 -0.2386344648644402 0.01557624201109095 0 -0.25465169794768239 0.0044406472743774329 0 -0.23062233660560241 0.012179817879254351 0 -0.25465169794768239 0.0044406472743774329 0 -0.24750680766715891 0.018137293640790909 0 -0.2386344648644402 0.01557624201109095 0 -0.24198795673268869 -0.002713611435314994 0 -0.25465169794768239 0.0044406472743774329 0 -0.23062233660560241 0.012179817879254351 0 -0.25465169794768239 0.0044406472743774329 0 -0.23062233660560241 0.012179817879254351 0 -0.2386344648644402 0.01557624201109095 0 -0.2215141138121603 0.057150158057788988 0 -0.22382775329156929 0.040871417943321622 0 -0.2354330798011107 0.0607552856914668 0 -0.22382775329156929 0.040871417943321622 0 -0.24186365753193359 0.050921932373258587 0 -0.2354330798011107 0.0607552856914668 0 -0.22382775329156929 0.040871417943321622 0 -0.2354330798011107 0.0607552856914668 0 -0.2215141138121603 0.057150158057788988 0 -0.22382775329156929 0.040871417943321622 0 -0.2215141138121603 0.057150158057788988 0 -0.2354330798011107 0.0607552856914668 0 -0.22721625738093881 0.067635761655669382 0 -0.22382775329156929 0.040871417943321622 0 -0.23663026047717289 0.04058705863209338 0 -0.24186365753193359 0.050921932373258587 0 -0.23298346900851319 0.031208181343360921 0 -0.22382775329156929 0.040871417943321622 0 -0.23663026047717289 0.04058705863209338 0 -0.23663026047717289 0.04058705863209338 0 -0.24689817197336339 0.042037781249581477 0 -0.24186365753193359 0.050921932373258587 0 -0.23298346900851319 0.031208181343360921 0 -0.23663026047717289 0.04058705863209338 0 -0.2411211673060335 0.033603417658516738 0 -0.23663026047717289 0.04058705863209338 0 -0.2411211673060335 0.033603417658516738 0 -0.24689817197336339 0.042037781249581477 0 -0.25071788628901642 0.032434773548446802 0 -0.2411211673060335 0.033603417658516738 0 -0.24689817197336339 0.042037781249581477 0 -0.25458740501448979 0.049536469534905869 0 -0.24689817197336339 0.042037781249581477 0 -0.24186365753193359 0.050921932373258587 0 -0.25528139447155251 0.068408062380708859 0 -0.24186365753193359 0.050921932373258587 0 -0.2354330798011107 0.0607552856914668 0 -0.25528139447155251 0.068408062380708859 0 -0.23271736157773329 0.079208704701165519 0 -0.25528139447155251 0.068408062380708859 0 -0.2354330798011107 0.0607552856914668 0 -0.23271736157773329 0.079208704701165519 0 -0.23271736157773329 0.079208704701165519 0 -0.230221494426359 0.096676251708266117 0 -0.24257749345545079 0.09699121108247602 0 -0.25379198212240489 0.088586166724655385 0 -0.25528139447155251 0.068408062380708859 0 -0.23271736157773329 0.079208704701165519 0 -0.25379198212240489 0.088586166724655385 0 -0.23271736157773329 0.079208704701165519 0 -0.24257749345545079 0.09699121108247602 0 -0.23271736157773329 0.079208704701165519 0 -0.22205586755034529 0.087310956955244129 0 -0.230221494426359 0.096676251708266117 0 -0.23271736157773329 0.079208704701165519 0 -0.22205586755034529 0.087310956955244129 0 -0.21920047433275081 0.073428898172256257 0 -0.2215141138121603 0.057150158057788988 0 -0.22721625738093881 0.067635761655669382 0 -0.21920047433275081 0.073428898172256257 0 -0.2215141138121603 0.057150158057788988 0 -0.21920047433275081 0.073428898172256257 0 -0.2354330798011107 0.0607552856914668 0 -0.23271736157773329 0.079208704701165519 0 -0.22721625738093881 0.067635761655669382 0 -0.23271736157773329 0.079208704701165519 0 -0.22721625738093881 0.067635761655669382 0 -0.21920047433275081 0.073428898172256257 0 -0.21920047433275081 0.073428898172256257 0 -0.2063928211179008 0.066733545993997306 0 -0.208854255826285 0.092081646055078015 0 -0.2215141138121603 0.057150158057788988 0 -0.21920047433275081 0.073428898172256257 0 -0.2063928211179008 0.066733545993997306 0 -0.22205586755034529 0.087310956955244129 0 -0.21920047433275081 0.073428898172256257 0 -0.208854255826285 0.092081646055078015 0 -0.2063928211179008 0.066733545993997306 0 -0.208854255826285 0.092081646055078015 0 -0.22205586755034529 0.087310956955244129 0 -0.208854255826285 0.092081646055078015 0 -0.21946733456063541 0.10087937099983051 0 -0.2063928211179008 0.066733545993997306 0 -0.208854255826285 0.092081646055078015 0 -0.19290988410195981 0.086491157555938142 0 -0.2063928211179008 0.066733545993997306 0 -0.19290988410195981 0.086491157555938142 0 -0.1889308700408299 0.069273433671036846 0 -0.1945944481895153 0.055166773593548997 0 -0.2063928211179008 0.066733545993997306 0 -0.1889308700408299 0.069273433671036846 0 -0.18707127806089871 0.1198082845246364 0 -0.20025131905440521 0.1195390874134707 0 -0.2104689516846065 0.1285304737244671 0 -0.1987866905100367 0.11523025196548239 0 -0.19422029108472089 0.10401846767501099 0 -0.21131569053466931 0.1174297461161589 0 -0.18707127806089871 0.1198082845246364 0 -0.2104689516846065 0.1285304737244671 0 -0.1987866905100367 0.11523025196548239 0 -0.20025131905440521 0.1195390874134707 0 -0.19361398448181499 0.1166966807366088 0 -0.18707127806089871 0.1198082845246364 0 -0.20025131905440521 0.1195390874134707 0 -0.19361398448181499 0.1166966807366088 0 -0.18707127806089871 0.1198082845246364 0 -0.18657915752720031 0.1156385602956185 0 -0.19361398448181499 0.1166966807366088 0 -0.18657915752720031 0.1156385602956185 0 -0.19361398448181499 0.1166966807366088 0 -0.19170129502375621 0.1123309990390645 0 -0.1987866905100367 0.11523025196548239 0 -0.19170129502375621 0.1123309990390645 0 -0.19422029108472089 0.10401846767501099 0 -0.1987866905100367 0.11523025196548239 0 -0.19361398448181499 0.1166966807366088 0 -0.19170129502375621 0.1123309990390645 0 -0.1853260569173811 0.1086552586921402 0 -0.18657915752720031 0.1156385602956185 0 -0.19170129502375621 0.1123309990390645 0 -0.208854255826285 0.092081646055078015 0 -0.19290988410195981 0.086491157555938142 0 -0.19422029108472089 0.10401846767501099 0 -0.1809252383703035 0.098231148184685022 0 -0.19290988410195981 0.086491157555938142 0 -0.19422029108472089 0.10401846767501099 0 -0.1853260569173811 0.1086552586921402 0 -0.19170129502375621 0.1123309990390645 0 -0.19422029108472089 0.10401846767501099 0 -0.208854255826285 0.092081646055078015 0 -0.19422029108472089 0.10401846767501099 0 -0.21131569053466931 0.1174297461161589 0 -0.208854255826285 0.092081646055078015 0 -0.21131569053466931 0.1174297461161589 0 -0.208854255826285 0.092081646055078015 0 -0.21131569053466931 0.1174297461161589 0 -0.21946733456063541 0.10087937099983051 0 -0.21131569053466931 0.1174297461161589 0 -0.2248893644655183 0.1108982541644052 0 -0.21946733456063541 0.10087937099983051 0 -0.21131569053466931 0.1174297461161589 0 -0.21776828389729291 0.1211564646742703 0 -0.2248893644655183 0.1108982541644052 0 -0.1987866905100367 0.11523025196548239 0 -0.20025131905440521 0.1195390874134707 0 -0.21131569053466931 0.1174297461161589 0 -0.20025131905440521 0.1195390874134707 0 -0.21131569053466931 0.1174297461161589 0 -0.2104689516846065 0.1285304737244671 0 -0.21776828389729291 0.1211564646742703 0 -0.22544867613670971 0.1240904363558076 0 -0.2104689516846065 0.1285304737244671 0 -0.21131569053466931 0.1174297461161589 0 -0.21776828389729291 0.1211564646742703 0 -0.2104689516846065 0.1285304737244671 0 -0.21776828389729291 0.1211564646742703 0 -0.22544867613670971 0.1240904363558076 0 -0.2248893644655183 0.1108982541644052 0 -0.2248893644655183 0.1108982541644052 0 -0.23261134961218069 0.1181786027211221 0 -0.2395468150931819 0.1092241972805735 0 -0.22544867613670971 0.1240904363558076 0 -0.2248893644655183 0.1108982541644052 0 -0.23261134961218069 0.1181786027211221 0 -0.22544867613670971 0.1240904363558076 0 -0.23261134961218069 0.1181786027211221 0 -0.23459610204895701 0.12793972784353949 0 -0.22205586755034529 0.087310956955244129 0 -0.21946733456063541 0.10087937099983051 0 -0.230221494426359 0.096676251708266117 0 -0.2248893644655183 0.1108982541644052 0 -0.21946733456063541 0.10087937099983051 0 -0.230221494426359 0.096676251708266117 0 -0.2248893644655183 0.1108982541644052 0 -0.230221494426359 0.096676251708266117 0 -0.2395468150931819 0.1092241972805735 0 -0.230221494426359 0.096676251708266117 0 -0.2395468150931819 0.1092241972805735 0 -0.24257749345545079 0.09699121108247602 0 -0.25393261453884503 0.1043944632809921 0 -0.2395468150931819 0.1092241972805735 0 -0.24257749345545079 0.09699121108247602 0 -0.25533609785138472 0.1224946408246257 0 -0.2395468150931819 0.1092241972805735 0 -0.2409235699730278 0.123241777647836 0 -0.25533609785138472 0.1224946408246257 0 -0.25393261453884503 0.1043944632809921 0 -0.2395468150931819 0.1092241972805735 0 -0.23261134961218069 0.1181786027211221 0 -0.2409235699730278 0.123241777647836 0 -0.23459610204895701 0.12793972784353949 0 -0.23261134961218069 0.1181786027211221 0 -0.2395468150931819 0.1092241972805735 0 -0.2409235699730278 0.123241777647836 0 -0.25533609785138472 0.1224946408246257 0 -0.2409235699730278 0.123241777647836 0 -0.24615225409916369 0.13513138609286421 0 -0.24615225409916369 0.13513138609286421 0 -0.23386662530831351 0.1372526629243 0 -0.2398090171124749 0.14422904415200111 0 -0.24615225409916369 0.13513138609286421 0 -0.23459610204895701 0.12793972784353949 0 -0.23386662530831351 0.1372526629243 0 -0.2409235699730278 0.123241777647836 0 -0.24615225409916369 0.13513138609286421 0 -0.23459610204895701 0.12793972784353949 0 -0.22544867613670971 0.1240904363558076 0 -0.23386662530831351 0.1372526629243 0 -0.2104689516846065 0.1285304737244671 0 -0.23386662530831351 0.1372526629243 0 -0.2104689516846065 0.1285304737244671 0 -0.21870098979531061 0.1408551169368629 0 -0.23386662530831351 0.1372526629243 0 -0.2104689516846065 0.1285304737244671 0 -0.22544867613670971 0.1240904363558076 0 -0.23459610204895701 0.12793972784353949 0 -0.23386662530831351 0.1372526629243 0 -0.2196867313205168 0.152508921206195 0 -0.23064663614480899 0.14701054084856041 0 -0.21870098979531061 0.1408551169368629 0 -0.23386662530831351 0.1372526629243 0 -0.23064663614480899 0.14701054084856041 0 -0.21870098979531061 0.1408551169368629 0 -0.23064663614480899 0.14701054084856041 0 -0.24018838380588531 0.1543363063478741 0 -0.2340938776802175 0.16149329756742231 0 -0.23064663614480899 0.14701054084856041 0 -0.24018838380588531 0.1543363063478741 0 -0.2398090171124749 0.14422904415200111 0 -0.23386662530831351 0.1372526629243 0 -0.23064663614480899 0.14701054084856041 0 -0.2398090171124749 0.14422904415200111 0 -0.24615225409916369 0.13513138609286421 0 -0.2398090171124749 0.14422904415200111 0 -0.2481911862042033 0.14741432454640699 0 -0.24018838380588531 0.1543363063478741 0 -0.2481911862042033 0.14741432454640699 0 -0.24948362260205911 0.15529617714909141 0 -0.24018838380588531 0.1543363063478741 0 -0.2398090171124749 0.14422904415200111 0 -0.2481911862042033 0.14741432454640699 0 -0.2505058989168033 0.1657204367346955 0 -0.24948362260205911 0.15529617714909141 0 -0.24179639068432621 0.16251324776218071 0 -0.24018838380588531 0.1543363063478741 0 -0.24948362260205911 0.15529617714909141 0 -0.24179639068432621 0.16251324776218071 0 -0.2505058989168033 0.1657204367346955 0 -0.24179639068432621 0.16251324776218071 0 -0.23669331902995899 0.172971410367249 0 -0.24179639068432621 0.16251324776218071 0 -0.23669331902995899 0.172971410367249 0 -0.2340938776802175 0.16149329756742231 0 -0.24018838380588531 0.1543363063478741 0 -0.24179639068432621 0.16251324776218071 0 -0.2340938776802175 0.16149329756742231 0 -0.25148773172723632 0.1725949887272154 0 -0.24966723326913901 0.1889247817648147 0 -0.23429902418620741 0.1883867058218171 0 -0.25148773172723632 0.1725949887272154 0 -0.2505058989168033 0.1657204367346955 0 -0.23429902418620741 0.1883867058218171 0 -0.2505058989168033 0.1657204367346955 0 -0.23429902418620741 0.1883867058218171 0 -0.2505058989168033 0.1657204367346955 0 -0.23669331902995899 0.172971410367249 0 -0.23429902418620741 0.1883867058218171 0 -0.22114465873610811 0.17063498251124709 0 -0.23429902418620741 0.1883867058218171 0 -0.2116426813274071 0.19425942417393391 0 -0.23669331902995899 0.172971410367249 0 -0.22114465873610811 0.17063498251124709 0 -0.23429902418620741 0.1883867058218171 0 -0.23064663614480899 0.14701054084856041 0 -0.22114465873610811 0.17063498251124709 0 -0.23064663614480899 0.14701054084856041 0 -0.2340938776802175 0.16149329756742231 0 -0.22114465873610811 0.17063498251124709 0 -0.2196867313205168 0.152508921206195 0 -0.23064663614480899 0.14701054084856041 0 -0.22114465873610811 0.17063498251124709 0 -0.23669331902995899 0.172971410367249 0 -0.2340938776802175 0.16149329756742231 0 -0.22114465873610811 0.17063498251124709 0 -0.22114465873610811 0.17063498251124709 0 -0.19285605274554399 0.1688225269923343 0 -0.2082546406058394 0.15153504452810959 0 -0.2196867313205168 0.152508921206195 0 -0.22114465873610811 0.17063498251124709 0 -0.2082546406058394 0.15153504452810959 0 -0.22114465873610811 0.17063498251124709 0 -0.2049375468926305 0.18083578190846519 0 -0.19285605274554399 0.1688225269923343 0 -0.22114465873610811 0.17063498251124709 0 -0.2116426813274071 0.19425942417393391 0 -0.22114465873610811 0.17063498251124709 0 -0.2049375468926305 0.18083578190846519 0 -0.2116426813274071 0.19425942417393391 0 -0.2049375468926305 0.18083578190846519 0 -0.19285605274554399 0.1688225269923343 0 -0.1957484400878671 0.19332964822618309 0 -0.19285605274554399 0.1688225269923343 0 -0.1957484400878671 0.19332964822618309 0 -0.19285605274554399 0.1688225269923343 0 -0.1957484400878671 0.19332964822618309 0 -0.18089049958540979 0.181003870195349 0 -0.19285605274554399 0.1688225269923343 0 -0.18996366540322079 0.14431540575848539 0 -0.18996366540322079 0.14431540575848539 0 -0.2049576246584687 0.13877388317902689 0 -0.2082546406058394 0.15153504452810959 0 -0.19285605274554399 0.1688225269923343 0 -0.18996366540322079 0.14431540575848539 0 -0.2082546406058394 0.15153504452810959 0 -0.18707127806089871 0.1198082845246364 0 -0.18996366540322079 0.14431540575848539 0 -0.19616439695123661 0.1311593372745381 0 -0.18707127806089871 0.1198082845246364 0 -0.19616439695123661 0.1311593372745381 0 -0.2104689516846065 0.1285304737244671 0 -0.18707127806089871 0.1198082845246364 0 -0.18996366540322079 0.14431540575848539 0 -0.18996366540322079 0.14431540575848539 0 -0.19616439695123661 0.1311593372745381 0 -0.2049576246584687 0.13877388317902689 0 -0.19616439695123661 0.1311593372745381 0 -0.2049576246584687 0.13877388317902689 0 -0.2104689516846065 0.1285304737244671 0 -0.2049576246584687 0.13877388317902689 0 -0.2104689516846065 0.1285304737244671 0 -0.21870098979531061 0.1408551169368629 0 -0.2196867313205168 0.152508921206195 0 -0.21870098979531061 0.1408551169368629 0 -0.2082546406058394 0.15153504452810959 0 -0.2049576246584687 0.13877388317902689 0 -0.21870098979531061 0.1408551169368629 0 -0.2082546406058394 0.15153504452810959 0 -0.22395228198199341 0.2527395784957055 0 -0.21994727021858529 0.2438816028633472 0 -0.21683841291638001 0.2492188580304924 0 -0.22395228198199341 0.2527395784957055 0 -0.21994727021858529 0.2438816028633472 0 -0.2273243232676849 0.24600244537947211 0 -0.21994727021858529 0.2438816028633472 0 -0.22326556336765829 0.23586551955931401 0 -0.2273243232676849 0.24600244537947211 0 -0.21994727021858529 0.2438816028633472 0 -0.22326556336765829 0.23586551955931401 0 -0.21327721671465311 0.2374622442418981 0 -0.22326556336765829 0.23586551955931401 0 -0.2273243232676849 0.24600244537947211 0 -0.23511836573052611 0.23721574721925701 0 -0.2273243232676849 0.24600244537947211 0 -0.2356063332901685 0.2488089172562763 0 -0.23511836573052611 0.23721574721925701 0 -0.22967310522207859 0.25294359966377511 0 -0.2273243232676849 0.24600244537947211 0 -0.2356063332901685 0.2488089172562763 0 -0.24457833111145469 0.25251492118884339 0 -0.2356063332901685 0.2488089172562763 0 -0.24262170191553609 0.24469415409114401 0 -0.2356063332901685 0.2488089172562763 0 -0.24262170191553609 0.24469415409114401 0 -0.23511836573052611 0.23721574721925701 0 -0.25164740003836339 0.24717250052553011 0 -0.24262170191553609 0.24469415409114401 0 -0.24776690464871731 0.23760061941142729 0 -0.25164740003836339 0.24717250052553011 0 -0.24457833111145469 0.25251492118884339 0 -0.24262170191553609 0.24469415409114401 0 -0.24262170191553609 0.24469415409114401 0 -0.24776690464871731 0.23760061941142729 0 -0.23511836573052611 0.23721574721925701 0 -0.23511836573052611 0.23721574721925701 0 -0.24349571967915079 0.22608739020692609 0 -0.22942426066599281 0.22319214520325709 0 -0.24776690464871731 0.23760061941142729 0 -0.23511836573052611 0.23721574721925701 0 -0.24349571967915079 0.22608739020692609 0 -0.25630247111366128 0.2283034728804052 0 -0.24776690464871731 0.23760061941142729 0 -0.24349571967915079 0.22608739020692609 0 -0.24349571967915079 0.22608739020692609 0 -0.22942426066599281 0.22319214520325709 0 -0.24016696294354259 0.2135363509346484 0 -0.22326556336765829 0.23586551955931401 0 -0.23511836573052611 0.23721574721925701 0 -0.22942426066599281 0.22319214520325709 0 -0.22326556336765829 0.23586551955931401 0 -0.22942426066599281 0.22319214520325709 0 -0.21503744730302421 0.22849867372504609 0 -0.22942426066599281 0.22319214520325709 0 -0.21816893638104221 0.21852128860733 0 -0.21503744730302421 0.22849867372504609 0 -0.22942426066599281 0.22319214520325709 0 -0.2269420921960085 0.20544954818944469 0 -0.24016696294354259 0.2135363509346484 0 -0.22942426066599281 0.22319214520325709 0 -0.2269420921960085 0.20544954818944469 0 -0.21816893638104221 0.21852128860733 0 -0.2269420921960085 0.20544954818944469 0 -0.21472360345579011 0.20902853170183189 0 -0.21816893638104221 0.21852128860733 0 -0.2269420921960085 0.20544954818944469 0 -0.24016696294354259 0.2135363509346484 0 -0.2434907974483847 0.20055257742558161 0 -0.25291740238654492 0.21520604469815369 0 -0.24349571967915079 0.22608739020692609 0 -0.24016696294354259 0.2135363509346484 0 -0.25291740238654492 0.21520604469815369 0 -0.24016696294354259 0.2135363509346484 0 -0.2434907974483847 0.20055257742558161 0 -0.2269420921960085 0.20544954818944469 0 -0.2434907974483847 0.20055257742558161 0 -0.23429902418620741 0.1883867058218171 0 -0.2434907974483847 0.20055257742558161 0 -0.24966723326913901 0.1889247817648147 0 -0.23429902418620741 0.1883867058218171 0 -0.2269420921960085 0.20544954818944469 0 -0.23429902418620741 0.1883867058218171 0 -0.2116426813274071 0.19425942417393391 0 -0.2116426813274071 0.19425942417393391 0 -0.1957484400878671 0.19332964822618309 0 -0.20204316319104179 0.20582742692419201 0 -0.2049375468926305 0.18083578190846519 0 -0.2116426813274071 0.19425942417393391 0 -0.1957484400878671 0.19332964822618309 0 -0.2269420921960085 0.20544954818944469 0 -0.2116426813274071 0.19425942417393391 0 -0.21472360345579011 0.20902853170183189 0 -0.19864082743019029 0.217836769460032 0 -0.18184631099944679 0.2170767831969779 0 -0.1957484400878671 0.19332964822618309 0 -0.18927202199657089 0.2061830047291297 0 -0.19864082743019029 0.217836769460032 0 -0.1957484400878671 0.19332964822618309 0 -0.20204316319104179 0.20582742692419201 0 -0.19864082743019029 0.217836769460032 0 -0.18927202199657089 0.2061830047291297 0 -0.19864082743019029 0.217836769460032 0 -0.18184631099944679 0.2170767831969779 0 -0.1957484400878671 0.19332964822618309 0 -0.19864082743019029 0.217836769460032 0 -0.20204316319104179 0.20582742692419201 0 -0.19864082743019029 0.217836769460032 0 -0.20214070391870259 0.21788386583661909 0 -0.19864082743019029 0.217836769460032 0 -0.20214070391870259 0.21788386583661909 0 -0.2116426813274071 0.19425942417393391 0 -0.20204316319104179 0.20582742692419201 0 -0.20214070391870259 0.21788386583661909 0 -0.2116426813274071 0.19425942417393391 0 -0.20214070391870259 0.21788386583661909 0 -0.21472360345579011 0.20902853170183189 0 -0.20214070391870259 0.21788386583661909 0 -0.21472360345579011 0.20902853170183189 0 -0.21816893638104221 0.21852128860733 0 -0.2116426813274071 0.19425942417393391 0 -0.20214070391870259 0.21788386583661909 0 -0.20214070391870259 0.21788386583661909 0 -0.21816893638104221 0.21852128860733 0 -0.20214070391870259 0.21788386583661909 0 -0.21816893638104221 0.21852128860733 0 -0.20893350331356161 0.22334874191955559 0 -0.21816893638104221 0.21852128860733 0 -0.21503744730302421 0.22849867372504609 0 -0.20893350331356161 0.22334874191955559 0 -0.21503744730302421 0.22849867372504609 0 -0.20839365060463161 0.23309413179281541 0 -0.21327721671465311 0.2374622442418981 0 -0.22326556336765829 0.23586551955931401 0 -0.21503744730302421 0.22849867372504609 0 -0.21327721671465311 0.2374622442418981 0 -0.21503744730302421 0.22849867372504609 0 -0.20839365060463161 0.23309413179281541 0 -0.20654067509510729 0.2281579209129331 0 -0.21503744730302421 0.22849867372504609 0 -0.20654067509510729 0.2281579209129331 0 -0.20893350331356161 0.22334874191955559 0 -0.20839365060463161 0.23309413179281541 0 -0.20654067509510729 0.2281579209129331 0 -0.2024864548814789 0.23246588858436201 0 -0.20654067509510729 0.2281579209129331 0 -0.20305860938964551 0.22740346596162661 0 -0.2024864548814789 0.23246588858436201 0 -0.20214070391870259 0.21788386583661909 0 -0.20893350331356161 0.22334874191955559 0 -0.20305860938964551 0.22740346596162661 0 -0.20654067509510729 0.2281579209129331 0 -0.20893350331356161 0.22334874191955559 0 -0.20305860938964551 0.22740346596162661 0 -0.20214070391870259 0.21788386583661909 0 -0.20305860938964551 0.22740346596162661 0 -0.19519170973937691 0.23516091255466351 0 -0.19386818750654669 0.224731941907206 0 -0.1915213854450166 0.2357013784877374 0 -0.18184631099944679 0.2170767831969779 0 -0.20214070391870259 0.21788386583661909 0 -0.19386818750654669 0.224731941907206 0 -0.19519170973937691 0.23516091255466351 0 -0.19864082743019029 0.217836769460032 0 -0.19386818750654669 0.224731941907206 0 -0.18184631099944679 0.2170767831969779 0 -0.19864082743019029 0.217836769460032 0 -0.20214070391870259 0.21788386583661909 0 -0.19386818750654669 0.224731941907206 0 -0.20214070391870259 0.21788386583661909 0 -0.19519170973937691 0.23516091255466351 0 -0.19386818750654669 0.224731941907206 0 -0.19519170973937691 0.23516091255466351 0 -0.1915213854450166 0.2357013784877374 0 -0.20305860938964551 0.22740346596162661 0 -0.2024864548814789 0.23246588858436201 0 -0.19519170973937691 0.23516091255466351 0 -0.19519170973937691 0.23516091255466351 0 -0.1915213854450166 0.2357013784877374 0 -0.20244586606390169 0.24418820265249311 0 -0.2024864548814789 0.23246588858436201 0 -0.19519170973937691 0.23516091255466351 0 -0.20462645902889429 0.23888593149983739 0 -0.19519170973937691 0.23516091255466351 0 -0.20244586606390169 0.24418820265249311 0 -0.20462645902889429 0.23888593149983739 0 -0.20119645989058771 0.25432597377849608 0 -0.1915213854450166 0.2357013784877374 0 -0.20119645989058771 0.25432597377849608 0 -0.1915213854450166 0.2357013784877374 0 -0.19001567913407011 0.2450348588302258 0 -0.20119645989058771 0.25432597377849608 0 -0.1915213854450166 0.2357013784877374 0 -0.20244586606390169 0.24418820265249311 0 -0.20119645989058771 0.25432597377849608 0 -0.1868299750829622 0.25009312675697598 0 -0.19001567913407011 0.2450348588302258 0 -0.20244586606390169 0.24418820265249311 0 -0.20462645902889429 0.23888593149983739 0 -0.21130204384602741 0.2451055264632799 0 -0.21083713843350749 0.25594949313094451 0 -0.20244586606390169 0.24418820265249311 0 -0.21130204384602741 0.2451055264632799 0 -0.20839365060463161 0.23309413179281541 0 -0.20462645902889429 0.23888593149983739 0 -0.21327721671465311 0.2374622442418981 0 -0.20462645902889429 0.23888593149983739 0 -0.21327721671465311 0.2374622442418981 0 -0.21130204384602741 0.2451055264632799 0 -0.20839365060463161 0.23309413179281541 0 -0.2024864548814789 0.23246588858436201 0 -0.20462645902889429 0.23888593149983739 0 -0.21994727021858529 0.2438816028633472 0 -0.21327721671465311 0.2374622442418981 0 -0.21130204384602741 0.2451055264632799 0 -0.21994727021858529 0.2438816028633472 0 -0.21130204384602741 0.2451055264632799 0 -0.21683841291638001 0.2492188580304924 0 -0.1746010435555071 0.25293082095254088 0 -0.15518490462376089 0.25299169597983012 0 -0.16971722852488871 0.23520287282541941 0 -0.1746010435555071 0.25293082095254088 0 -0.16971722852488871 0.23520287282541941 0 -0.18051489611771379 0.24001895629769371 0 -0.1868299750829622 0.25009312675697598 0 -0.19001567913407011 0.2450348588302258 0 -0.18051489611771379 0.24001895629769371 0 -0.1868299750829622 0.25009312675697598 0 -0.1746010435555071 0.25293082095254088 0 -0.18051489611771379 0.24001895629769371 0 -0.1915213854450166 0.2357013784877374 0 -0.18051489611771379 0.24001895629769371 0 -0.18089995527176639 0.23199999770195709 0 -0.1915213854450166 0.2357013784877374 0 -0.19001567913407011 0.2450348588302258 0 -0.18051489611771379 0.24001895629769371 0 -0.16971722852488871 0.23520287282541941 0 -0.18051489611771379 0.24001895629769371 0 -0.18089995527176639 0.23199999770195709 0 -0.16971722852488871 0.23520287282541941 0 -0.18089995527176639 0.23199999770195709 0 -0.18184631099944679 0.2170767831969779 0 -0.1915213854450166 0.2357013784877374 0 -0.18089995527176639 0.23199999770195709 0 -0.18184631099944679 0.2170767831969779 0 -0.1915213854450166 0.2357013784877374 0 -0.18184631099944679 0.2170767831969779 0 -0.16971722852488871 0.23520287282541941 0 -0.18184631099944679 0.2170767831969779 0 -0.1538194525716742 0.21596219006917 0 -0.18184631099944679 0.2170767831969779 0 -0.1538194525716742 0.21596219006917 0 -0.18184631099944679 0.2170767831969779 0 -0.17056700974789379 0.19536403854012829 0 -0.1538194525716742 0.21596219006917 0 -0.18184631099944679 0.2170767831969779 0 -0.17056700974789379 0.19536403854012829 0 -0.18927202199657089 0.2061830047291297 0 -0.18184631099944679 0.2170767831969779 0 -0.17056700974789379 0.19536403854012829 0 -0.1957484400878671 0.19332964822618309 0 -0.18927202199657089 0.2061830047291297 0 -0.17056700974789379 0.19536403854012829 0 -0.1957484400878671 0.19332964822618309 0 -0.17056700974789379 0.19536403854012829 0 -0.18089049958540979 0.181003870195349 0 -0.17056700974789379 0.19536403854012829 0 -0.14912786584987239 0.19705258166363951 0 -0.1538194525716742 0.21596219006917 0 -0.17056700974789379 0.19536403854012829 0 -0.14912786584987239 0.19705258166363951 0 -0.159287708496342 0.17365129388327821 0 -0.14912786584987239 0.19705258166363951 0 -0.1257925941439012 0.21484759694136479 0 -0.13241748259775579 0.18640949489284639 0 -0.1257925941439012 0.21484759694136479 0 -0.1538194525716742 0.21596219006917 0 -0.14912786584987239 0.19705258166363951 0 -0.1257925941439012 0.21484759694136479 0 -0.1538194525716742 0.21596219006917 0 -0.1257925941439012 0.21484759694136479 0 -0.1538194525716742 0.21596219006917 0 -0.14280807702511891 0.23547344476865251 0 -0.16971722852488871 0.23520287282541941 0 -0.1538194525716742 0.21596219006917 0 -0.14280807702511891 0.23547344476865251 0 -0.1257925941439012 0.21484759694136479 0 -0.14280807702511891 0.23547344476865251 0 -0.1164617066014952 0.23642275834759 0 -0.13221516839043609 0.2571921267474917 0 -0.14280807702511891 0.23547344476865251 0 -0.1164617066014952 0.23642275834759 0 -0.13221516839043609 0.2571921267474917 0 -0.15518490462376089 0.25299169597983012 0 -0.14280807702511891 0.23547344476865251 0 -0.15518490462376089 0.25299169597983012 0 -0.16971722852488871 0.23520287282541941 0 -0.14280807702511891 0.23547344476865251 0 -0.16547443153645161 0.1429706277763135 0 -0.17456594410304199 0.16076802747202129 0 -0.14800840724479031 0.15193854922642799 0 -0.1634216564653595 0.1234444470386518 0 -0.16547443153645161 0.1429706277763135 0 -0.17556513874043769 0.12893790158089791 0 -0.18996366540322079 0.14431540575848539 0 -0.16547443153645161 0.1429706277763135 0 -0.17556513874043769 0.12893790158089791 0 -0.18707127806089871 0.1198082845246364 0 -0.18996366540322079 0.14431540575848539 0 -0.17556513874043769 0.12893790158089791 0 -0.18996366540322079 0.14431540575848539 0 -0.16547443153645161 0.1429706277763135 0 -0.17456594410304199 0.16076802747202129 0 -0.19285605274554399 0.1688225269923343 0 -0.17456594410304199 0.16076802747202129 0 -0.18089049958540979 0.181003870195349 0 -0.19285605274554399 0.1688225269923343 0 -0.18996366540322079 0.14431540575848539 0 -0.17456594410304199 0.16076802747202129 0 -0.17056700974789379 0.19536403854012829 0 -0.18089049958540979 0.181003870195349 0 -0.159287708496342 0.17365129388327821 0 -0.17056700974789379 0.19536403854012829 0 -0.159287708496342 0.17365129388327821 0 -0.17456594410304199 0.16076802747202129 0 -0.18089049958540979 0.181003870195349 0 -0.159287708496342 0.17365129388327821 0 -0.17456594410304199 0.16076802747202129 0 -0.159287708496342 0.17365129388327821 0 -0.14800840724479031 0.15193854922642799 0 -0.159287708496342 0.17365129388327821 0 -0.14800840724479031 0.15193854922642799 0 -0.159287708496342 0.17365129388327821 0 -0.1343349357804863 0.1662330059990291 0 -0.14800840724479031 0.15193854922642799 0 -0.159287708496342 0.17365129388327821 0 -0.13241748259775579 0.18640949489284639 0 -0.1343349357804863 0.1662330059990291 0 -0.14912786584987239 0.19705258166363951 0 -0.159287708496342 0.17365129388327821 0 -0.13241748259775579 0.18640949489284639 0 -0.13241748259775579 0.18640949489284639 0 -0.1343349357804863 0.1662330059990291 0 -0.1094737838962782 0.1698549110742531 0 -0.14800840724479031 0.15193854922642799 0 -0.13558839605170209 0.12593384989999329 0 -0.1224872966672652 0.14931078091833969 0 -0.1343349357804863 0.1662330059990291 0 -0.14800840724479031 0.15193854922642799 0 -0.1224872966672652 0.14931078091833969 0 -0.1634216564653595 0.1234444470386518 0 -0.16547443153645161 0.1429706277763135 0 -0.13558839605170209 0.12593384989999329 0 -0.16547443153645161 0.1429706277763135 0 -0.14800840724479031 0.15193854922642799 0 -0.13558839605170209 0.12593384989999329 0 -0.13558839605170209 0.12593384989999329 0 -0.10775513563804461 0.12842325276133471 0 -0.13558839605170209 0.12593384989999329 0 -0.10775513563804461 0.12842325276133471 0 -0.1224872966672652 0.14931078091833969 0 -0.10775513563804461 0.12842325276133471 0 -0.079921875224387234 0.13091265562267621 0 -0.10775513563804461 0.12842325276133471 0 -0.10121188305713349 0.14730397074118659 0 -0.079921875224387234 0.13091265562267621 0 -0.10775513563804461 0.12842325276133471 0 -0.10121188305713349 0.14730397074118659 0 -0.1224872966672652 0.14931078091833969 0 -0.10121188305713349 0.14730397074118659 0 -0.1224872966672652 0.14931078091833969 0 -0.1094737838962782 0.1698549110742531 0 -0.1343349357804863 0.1662330059990291 0 -0.1224872966672652 0.14931078091833969 0 -0.1094737838962782 0.1698549110742531 0 -0.13241748259775579 0.18640949489284639 0 -0.1094737838962782 0.1698549110742531 0 -0.10702431932912811 0.19513693722003719 0 -0.1094737838962782 0.1698549110742531 0 -0.085127559841537775 0.18170704398058479 0 -0.10702431932912811 0.19513693722003719 0 -0.10121188305713349 0.14730397074118659 0 -0.1094737838962782 0.1698549110742531 0 -0.084030319856526037 0.1571382859451127 0 -0.1094737838962782 0.1698549110742531 0 -0.084030319856526037 0.1571382859451127 0 -0.085127559841537775 0.18170704398058479 0 -0.084030319856526037 0.1571382859451127 0 -0.085127559841537775 0.18170704398058479 0 -0.066649404393027925 0.16809253069363439 0 -0.085127559841537775 0.18170704398058479 0 -0.066649404393027925 0.16809253069363439 0 -0.059151621483166078 0.19264392678058481 0 -0.084030319856526037 0.1571382859451127 0 -0.066649404393027925 0.16809253069363439 0 -0.060849141264418233 0.1459079031569295 0 -0.084030319856526037 0.1571382859451127 0 -0.079921875224387234 0.13091265562267621 0 -0.060849141264418233 0.1459079031569295 0 -0.079921875224387234 0.13091265562267621 0 -0.060849141264418233 0.1459079031569295 0 -0.065274046724990459 0.121341421094935 0 -0.10121188305713349 0.14730397074118659 0 -0.084030319856526037 0.1571382859451127 0 -0.079921875224387234 0.13091265562267621 0 -0.10362456239099579 0.26054772119908132 0 -0.09641660029816275 0.23450418152951741 0 -0.1164617066014952 0.23642275834759 0 -0.1257925941439012 0.21484759694136479 0 -0.1164617066014952 0.23642275834759 0 -0.097765735716128288 0.2137330038135597 0 -0.09641660029816275 0.23450418152951741 0 -0.1164617066014952 0.23642275834759 0 -0.097765735716128288 0.2137330038135597 0 -0.097765735716128288 0.2137330038135597 0 -0.10702431932912811 0.19513693722003719 0 -0.080012241266010226 0.20439279874588201 0 -0.1257925941439012 0.21484759694136479 0 -0.097765735716128288 0.2137330038135597 0 -0.1257925941439012 0.21484759694136479 0 -0.097765735716128288 0.2137330038135597 0 -0.10702431932912811 0.19513693722003719 0 -0.1257925941439012 0.21484759694136479 0 -0.13241748259775579 0.18640949489284639 0 -0.10702431932912811 0.19513693722003719 0 -0.085127559841537775 0.18170704398058479 0 -0.10702431932912811 0.19513693722003719 0 -0.080012241266010226 0.20439279874588201 0 -0.085127559841537775 0.18170704398058479 0 -0.080012241266010226 0.20439279874588201 0 -0.059151621483166078 0.19264392678058481 0 -0.064634365070400684 0.21727483738924711 0 -0.080012241266010226 0.20439279874588201 0 -0.059151621483166078 0.19264392678058481 0 -0.064634365070400684 0.21727483738924711 0 -0.080012241266010226 0.20439279874588201 0 -0.080905440094605874 0.2248609089916021 0 -0.097765735716128288 0.2137330038135597 0 -0.080012241266010226 0.20439279874588201 0 -0.080905440094605874 0.2248609089916021 0 -0.09641660029816275 0.23450418152951741 0 -0.097765735716128288 0.2137330038135597 0 -0.080905440094605874 0.2248609089916021 0 -0.064634365070400684 0.21727483738924711 0 -0.080905440094605874 0.2248609089916021 0 -0.06690024488785104 0.2340363681105472 0 -0.080905440094605874 0.2248609089916021 0 -0.06690024488785104 0.2340363681105472 0 -0.080769025981970902 0.2461244815080203 0 -0.060394440259899658 0.25039955061743518 0 -0.06690024488785104 0.2340363681105472 0 -0.080769025981970902 0.2461244815080203 0 -0.10362456239099579 0.26054772119908132 0 -0.09641660029816275 0.23450418152951741 0 -0.080769025981970902 0.2461244815080203 0 -0.09641660029816275 0.23450418152951741 0 -0.080905440094605874 0.2248609089916021 0 -0.080769025981970902 0.2461244815080203 0 -0.035223831605911582 0.24937015529226139 0 -0.049929098338155183 0.2333224963407535 0 -0.034929789620191748 0.2277960928388314 0 -0.035223831605911582 0.24937015529226139 0 -0.049929098338155183 0.2333224963407535 0 -0.060394440259899658 0.25039955061743518 0 -0.06690024488785104 0.2340363681105472 0 -0.049929098338155183 0.2333224963407535 0 -0.060394440259899658 0.25039955061743518 0 -0.035223831605911582 0.24937015529226139 0 -0.049929098338155183 0.2333224963407535 0 -0.064634365070400684 0.21727483738924711 0 -0.06690024488785104 0.2340363681105472 0 -0.049929098338155183 0.2333224963407535 0 -0.064634365070400684 0.21727483738924711 0 -0.049929098338155183 0.2333224963407535 0 -0.064634365070400684 0.21727483738924711 0 -0.049929098338155183 0.2333224963407535 0 -0.043591813212767373 0.21412027043852741 0 -0.049929098338155183 0.2333224963407535 0 -0.034929789620191748 0.2277960928388314 0 -0.043591813212767373 0.21412027043852741 0 -0.034929789620191748 0.2277960928388314 0 -0.043591813212767373 0.21412027043852741 0 -0.027794008765027332 0.21446377535980371 0 -0.043591813212767373 0.21412027043852741 0 -0.032633137786867862 0.1958171584239731 0 -0.027794008765027332 0.21446377535980371 0 -0.064634365070400684 0.21727483738924711 0 -0.043591813212767373 0.21412027043852741 0 -0.059151621483166078 0.19264392678058481 0 -0.043591813212767373 0.21412027043852741 0 -0.059151621483166078 0.19264392678058481 0 -0.032633137786867862 0.1958171584239731 0 -0.032633137786867862 0.1958171584239731 0 -0.01417510141411148 0.20532027261960831 0 -0.01642950436457255 0.1812599168710127 0 -0.0036270643060716669 0.18956816043603211 0 -0.01417510141411148 0.20532027261960831 0 -0.00099656075228266722 0.2060373782333603 0 -0.01417510141411148 0.20532027261960831 0 -0.01642950436457255 0.1812599168710127 0 -0.0036270643060716669 0.18956816043603211 0 -0.01417510141411148 0.20532027261960831 0 -0.01642950436457255 0.1812599168710127 0 -0.01417510141411148 0.20532027261960831 0 -0.00099656075228266722 0.2060373782333603 0 -0.018110196179097319 0.22770376676281079 0 -0.00099656075228266722 0.2060373782333603 0 -0.018110196179097319 0.22770376676281079 0 -0.01417510141411148 0.20532027261960831 0 -0.027794008765027332 0.21446377535980371 0 -0.018110196179097319 0.22770376676281079 0 -0.032633137786867862 0.1958171584239731 0 -0.01417510141411148 0.20532027261960831 0 -0.027794008765027332 0.21446377535980371 0 -0.034929789620191748 0.2277960928388314 0 -0.027794008765027332 0.21446377535980371 0 -0.018110196179097319 0.22770376676281079 0 -0.018110196179097319 0.22770376676281079 0 -0.00056785285476087144 0.22436565459027691 0 -0.005590237039277135 0.24237484072921639 0 -0.00099656075228266722 0.2060373782333603 0 -0.018110196179097319 0.22770376676281079 0 -0.00056785285476087144 0.22436565459027691 0 -0.035223831605911582 0.24937015529226139 0 -0.018110196179097319 0.22770376676281079 0 -0.035223831605911582 0.24937015529226139 0 -0.034929789620191748 0.2277960928388314 0 -0.018110196179097319 0.22770376676281079 0 -0.035223831605911582 0.24937015529226139 0 -0.018110196179097319 0.22770376676281079 0 -0.005590237039277135 0.24237484072921639 0 -0.037122835981514668 0.14249513643475659 0 -0.033329203891880398 0.12515118873680389 0 -0.047134487367510983 0.12612634702590469 0 -0.037122835981514668 0.14249513643475659 0 -0.047134487367510983 0.12612634702590469 0 -0.060849141264418233 0.1459079031569295 0 -0.047134487367510983 0.12612634702590469 0 -0.060849141264418233 0.1459079031569295 0 -0.065274046724990459 0.121341421094935 0 -0.037122835981514668 0.14249513643475659 0 -0.060849141264418233 0.1459079031569295 0 -0.045275086107697031 0.1697340534003052 0 -0.066649404393027925 0.16809253069363439 0 -0.060849141264418233 0.1459079031569295 0 -0.045275086107697031 0.1697340534003052 0 -0.066649404393027925 0.16809253069363439 0 -0.059151621483166078 0.19264392678058481 0 -0.045275086107697031 0.1697340534003052 0 -0.059151621483166078 0.19264392678058481 0 -0.032633137786867862 0.1958171584239731 0 -0.045275086107697031 0.1697340534003052 0 -0.032633137786867862 0.1958171584239731 0 -0.045275086107697031 0.1697340534003052 0 -0.01642950436457255 0.1812599168710127 0 -0.045275086107697031 0.1697340534003052 0 -0.018683907315033069 0.1571995611224172 0 -0.037122835981514668 0.14249513643475659 0 -0.045275086107697031 0.1697340534003052 0 -0.018683907315033069 0.1571995611224172 0 -0.045275086107697031 0.1697340534003052 0 -0.018683907315033069 0.1571995611224172 0 -0.01642950436457255 0.1812599168710127 0 -0.018683907315033069 0.1571995611224172 0 -0.01642950436457255 0.1812599168710127 0 -0.0036270643060716669 0.18956816043603211 0 -0.01642950436457255 0.1812599168710127 0 -0.0026512296739237178 0.17085224475226929 0 -0.018683907315033069 0.1571995611224172 0 -0.01642950436457255 0.1812599168710127 0 -0.0026512296739237178 0.17085224475226929 0 -0.018683907315033069 0.1571995611224172 0 -0.0026512296739237178 0.17085224475226929 0 -0.0024831286181939659 0.1495628731419939 0 -0.018683907315033069 0.1571995611224172 0 -0.0024831286181939659 0.1495628731419939 0 -0.0082261137483013429 0.1391098257357691 0 -0.018683907315033069 0.1571995611224172 0 -0.0024831286181939659 0.1495628731419939 0 -0.037122835981514668 0.14249513643475659 0 -0.018683907315033069 0.1571995611224172 0 -0.020900237353085629 0.13354554258907411 0 -0.018683907315033069 0.1571995611224172 0 -0.020900237353085629 0.13354554258907411 0 -0.018683907315033069 0.1571995611224172 0 -0.020900237353085629 0.13354554258907411 0 -0.0082261137483013429 0.1391098257357691 0 -0.037122835981514668 0.14249513643475659 0 -0.033329203891880398 0.12515118873680389 0 -0.020900237353085629 0.13354554258907411 0 -0.020900237353085629 0.13354554258907411 0 -0.0082261137483013429 0.1391098257357691 0 -0.0046994586562478834 0.12590885460864909 0 -0.0046994586562478834 0.12590885460864909 0 -0.0077265761396986933 0.1099944229356826 0 -0.023116567391138768 0.1098915240557309 0 -0.0046994586562478834 0.12590885460864909 0 -0.023116567391138768 0.1098915240557309 0 -0.0077265761396986933 0.1099944229356826 0 -0.024288025579034821 0.097389011698904016 0 0.00049551966644017717 0.097598716482477282 0 -0.024288025579034821 0.097389011698904016 0 0.00049551966644017717 0.097598716482477282 0 -0.0077265761396986933 0.1099944229356826 0 -0.024288025579034821 0.097389011698904016 0 -0.023116567391138768 0.1098915240557309 0 -0.024288025579034821 0.097389011698904016 0 -0.023116567391138768 0.1098915240557309 0 -0.037621982788571692 0.097276187057268718 0 -0.024288025579034821 0.097389011698904016 0 -0.037621982788571692 0.097276187057268718 0 -0.024288025579034821 0.097389011698904016 0 -0.023116567391138768 0.1098915240557309 0 -0.023116567391138768 0.1098915240557309 0 -0.037621982788571692 0.097276187057268718 0 -0.020900237353085629 0.13354554258907411 0 -0.0046994586562478834 0.12590885460864909 0 -0.023116567391138768 0.1098915240557309 0 -0.033329203891880398 0.12515118873680389 0 -0.020900237353085629 0.13354554258907411 0 -0.023116567391138768 0.1098915240557309 0 -0.020900237353085629 0.13354554258907411 0 -0.023116567391138768 0.1098915240557309 0 -0.00098779610676201068 0.076815368065302411 0 -0.026483772097848478 0.073954672968289475 0 -0.0066628592290262677 0.05555321357793664 0 -0.00098779610676201068 0.076815368065302411 0 -0.01477846767413502 0.084677949127548821 0 0.00049551966644017717 0.097598716482477282 0 -0.024288025579034821 0.097389011698904016 0 -0.01477846767413502 0.084677949127548821 0 0.00049551966644017717 0.097598716482477282 0 -0.00098779610676201068 0.076815368065302411 0 -0.01477846767413502 0.084677949127548821 0 -0.026483772097848478 0.073954672968289475 0 -0.024288025579034821 0.097389011698904016 0 -0.01477846767413502 0.084677949127548821 0 -0.026483772097848478 0.073954672968289475 0 -0.024288025579034821 0.097389011698904016 0 -0.026483772097848478 0.073954672968289475 0 -0.04083126002117432 0.079144252457072115 0 -0.024288025579034821 0.097389011698904016 0 -0.026483772097848478 0.073954672968289475 0 -0.026483772097848478 0.073954672968289475 0 -0.034404634383031457 0.058026065987018982 0 -0.0066628592290262677 0.05555321357793664 0 -0.04083126002117432 0.079144252457072115 0 -0.055019484278717751 0.0595153580322315 0 -0.034404634383031457 0.058026065987018982 0 -0.026483772097848478 0.073954672968289475 0 -0.04083126002117432 0.079144252457072115 0 -0.034404634383031457 0.058026065987018982 0 -0.024288025579034821 0.097389011698904016 0 -0.04083126002117432 0.079144252457072115 0 -0.037621982788571692 0.097276187057268718 0 -0.04083126002117432 0.079144252457072115 0 -0.058988868610626972 0.078693440002626985 0 -0.037621982788571692 0.097276187057268718 0 -0.058988868610626972 0.078693440002626985 0 -0.037621982788571692 0.097276187057268718 0 -0.040562380663568508 0.097251307021186853 0 -0.058988868610626972 0.078693440002626985 0 -0.037621982788571692 0.097276187057268718 0 -0.04083126002117432 0.079144252457072115 0 -0.058988868610626972 0.078693440002626985 0 -0.055019484278717751 0.0595153580322315 0 -0.047134487367510983 0.12612634702590469 0 -0.038371891366153078 0.1136973935785535 0 -0.051995030587358139 0.1058618850497304 0 -0.033329203891880398 0.12515118873680389 0 -0.047134487367510983 0.12612634702590469 0 -0.038371891366153078 0.1136973935785535 0 -0.033329203891880398 0.12515118873680389 0 -0.023116567391138768 0.1098915240557309 0 -0.038371891366153078 0.1136973935785535 0 -0.023116567391138768 0.1098915240557309 0 -0.038371891366153078 0.1136973935785535 0 -0.038567514589395738 0.104676193955153 0 -0.023116567391138768 0.1098915240557309 0 -0.038567514589395738 0.104676193955153 0 -0.037621982788571692 0.097276187057268718 0 -0.038567514589395738 0.104676193955153 0 -0.037621982788571692 0.097276187057268718 0 -0.040562380663568508 0.097251307021186853 0 -0.037621982788571692 0.097276187057268718 0 -0.040562380663568508 0.097251307021186853 0 -0.038371891366153078 0.1136973935785535 0 -0.038567514589395738 0.104676193955153 0 -0.051995030587358139 0.1058618850497304 0 -0.038567514589395738 0.104676193955153 0 -0.040562380663568508 0.097251307021186853 0 -0.051995030587358139 0.1058618850497304 0 -0.058988868610626972 0.078693440002626985 0 -0.051995030587358139 0.1058618850497304 0 -0.06855516543395801 0.1009720770112684 0 -0.058988868610626972 0.078693440002626985 0 -0.040562380663568508 0.097251307021186853 0 -0.051995030587358139 0.1058618850497304 0 -0.047134487367510983 0.12612634702590469 0 -0.051995030587358139 0.1058618850497304 0 -0.065274046724990459 0.121341421094935 0 -0.051995030587358139 0.1058618850497304 0 -0.065274046724990459 0.121341421094935 0 -0.06855516543395801 0.1009720770112684 0 -0.065274046724990459 0.121341421094935 0 -0.088913948918075941 0.1104697294239611 0 -0.06855516543395801 0.1009720770112684 0 -0.079921875224387234 0.13091265562267621 0 -0.065274046724990459 0.121341421094935 0 -0.088913948918075941 0.1104697294239611 0 -0.10775513563804461 0.12842325276133471 0 -0.079921875224387234 0.13091265562267621 0 -0.088913948918075941 0.1104697294239611 0 -0.088913948918075941 0.1104697294239611 0 -0.06855516543395801 0.1009720770112684 0 -0.08335494771507862 0.083804669607735929 0 -0.058988868610626972 0.078693440002626985 0 -0.06855516543395801 0.1009720770112684 0 -0.08335494771507862 0.083804669607735929 0 -0.058988868610626972 0.078693440002626985 0 -0.08035575443268303 0.060110692947986398 0 -0.055019484278717751 0.0595153580322315 0 -0.058988868610626972 0.078693440002626985 0 -0.08035575443268303 0.060110692947986398 0 -0.058988868610626972 0.078693440002626985 0 -0.08335494771507862 0.083804669607735929 0 -0.08035575443268303 0.060110692947986398 0 -0.08335494771507862 0.083804669607735929 0 -0.097072383638625193 0.067273173465825745 0 -0.08035575443268303 0.060110692947986398 0 -0.088913948918075941 0.1104697294239611 0 -0.08335494771507862 0.083804669607735929 0 -0.1062435652565026 0.085308904794747023 0 -0.08335494771507862 0.083804669607735929 0 -0.1062435652565026 0.085308904794747023 0 -0.097072383638625193 0.067273173465825745 0 -0.1062435652565026 0.085308904794747023 0 -0.097072383638625193 0.067273173465825745 0 -0.1190088786819978 0.062050491360169657 0 -0.13323595020605819 0.085411434338982017 0 -0.1062435652565026 0.085308904794747023 0 -0.1190088786819978 0.062050491360169657 0 -0.13323595020605819 0.085411434338982017 0 -0.1062435652565026 0.085308904794747023 0 -0.1182653405059723 0.10662416053036709 0 -0.13558839605170209 0.12593384989999329 0 -0.10775513563804461 0.12842325276133471 0 -0.1182653405059723 0.10662416053036709 0 -0.10775513563804461 0.12842325276133471 0 -0.088913948918075941 0.1104697294239611 0 -0.1182653405059723 0.10662416053036709 0 -0.088913948918075941 0.1104697294239611 0 -0.1062435652565026 0.085308904794747023 0 -0.1182653405059723 0.10662416053036709 0 -0.1047818071579374 0.038689548381357283 0 -0.090554735633877337 0.015328605402544659 0 -0.1047818071579374 0.038689548381357283 0 -0.094954942336350115 0.032596436290471098 0 -0.090554735633877337 0.015328605402544659 0 -0.10090325276891619 0.024583795097735641 0 -0.1047818071579374 0.038689548381357283 0 -0.090554735633877337 0.015328605402544659 0 -0.1041090117742272 0.01852445000605055 0 -0.10811936401590019 0.010618660575331279 0 -0.11312266243047819 0.020190746219821979 0 -0.1041090117742272 0.01852445000605055 0 -0.1081589177835995 0.02509736201665547 0 -0.11312266243047819 0.020190746219821979 0 -0.1041090117742272 0.01852445000605055 0 -0.1081589177835995 0.02509736201665547 0 -0.10090325276891619 0.024583795097735641 0 -0.1081589177835995 0.02509736201665547 0 -0.1088364622447375 0.030897789895289299 0 -0.10090325276891619 0.024583795097735641 0 -0.1041090117742272 0.01852445000605055 0 -0.096833354165414137 0.018303907240610071 0 -0.096858035194724357 0.010330839597595501 0 -0.10090325276891619 0.024583795097735641 0 -0.096833354165414137 0.018303907240610071 0 -0.090554735633877337 0.015328605402544659 0 -0.1041090117742272 0.01852445000605055 0 -0.10090325276891619 0.024583795097735641 0 -0.096833354165414137 0.018303907240610071 0 -0.096833354165414137 0.018303907240610071 0 -0.096858035194724357 0.010330839597595501 0 -0.090554735633877337 0.015328605402544659 0 -0.091032061260426261 -0.00099156679185264133 0 -0.096858035194724357 0.010330839597595501 0 -0.1015459284357709 0.0030346131989636509 0 -0.1015459284357709 0.0030346131989636509 0 -0.10811936401590019 0.010618660575331279 0 -0.110460897291617 0.0016123891933633621 0 -0.096858035194724357 0.010330839597595501 0 -0.1015459284357709 0.0030346131989636509 0 -0.10811936401590019 0.010618660575331279 0 -0.1041090117742272 0.01852445000605055 0 -0.096858035194724357 0.010330839597595501 0 -0.10811936401590019 0.010618660575331279 0 -0.1242992269838297 -0.0053247601474538716 0 -0.110460897291617 0.0016123891933633621 0 -0.11891314533298269 0.01065511102646108 0 -0.10811936401590019 0.010618660575331279 0 -0.11891314533298269 0.01065511102646108 0 -0.11312266243047819 0.020190746219821979 0 -0.10811936401590019 0.010618660575331279 0 -0.110460897291617 0.0016123891933633621 0 -0.11891314533298269 0.01065511102646108 0 -0.11891314533298269 0.01065511102646108 0 -0.1219157130543457 0.021980549886343761 0 -0.11312266243047819 0.020190746219821979 0 -0.1219157130543457 0.021980549886343761 0 -0.11312266243047819 0.020190746219821979 0 -0.1136816169391323 0.026466799341696441 0 -0.1088364622447375 0.030897789895289299 0 -0.1136816169391323 0.026466799341696441 0 -0.11637432918250069 0.03416754869037171 0 -0.1081589177835995 0.02509736201665547 0 -0.1088364622447375 0.030897789895289299 0 -0.1136816169391323 0.026466799341696441 0 -0.1081589177835995 0.02509736201665547 0 -0.11312266243047819 0.020190746219821979 0 -0.1136816169391323 0.026466799341696441 0 -0.13152999183575101 0.031978128817455931 0 -0.1219157130543457 0.021980549886343761 0 -0.11637432918250069 0.03416754869037171 0 -0.1219157130543457 0.021980549886343761 0 -0.1136816169391323 0.026466799341696441 0 -0.11637432918250069 0.03416754869037171 0 -0.13152999183575101 0.031978128817455931 0 -0.12490006969357161 0.046838605901182613 0 -0.11637432918250069 0.03416754869037171 0 -0.12490006969357161 0.046838605901182613 0 -0.11637432918250069 0.03416754869037171 0 -0.1047818071579374 0.038689548381357283 0 -0.1088364622447375 0.030897789895289299 0 -0.11637432918250069 0.03416754869037171 0 -0.1047818071579374 0.038689548381357283 0 -0.1190088786819978 0.062050491360169657 0 -0.1047818071579374 0.038689548381357283 0 -0.12490006969357161 0.046838605901182613 0 -0.1190088786819978 0.062050491360169657 0 -0.1047818071579374 0.038689548381357283 0 -0.097072383638625193 0.067273173465825745 0 -0.1190088786819978 0.062050491360169657 0 -0.10172264025473909 0.041527945893345811 0 -0.1190088786819978 0.062050491360169657 0 -0.1047818071579374 0.038689548381357283 0 -0.10172264025473909 0.041527945893345811 0 -0.1088364622447375 0.030897789895289299 0 -0.10090325276891619 0.024583795097735641 0 -0.1047818071579374 0.038689548381357283 0 -0.1047818071579374 0.038689548381357283 0 -0.10172264025473909 0.041527945893345811 0 -0.094954942336350115 0.032596436290471098 0 -0.10172264025473909 0.041527945893345811 0 -0.094954942336350115 0.032596436290471098 0 -0.089697476094975123 0.03703192802675092 0 -0.094954942336350115 0.032596436290471098 0 -0.089697476094975123 0.03703192802675092 0 -0.087477259683622147 0.029863647793305189 0 -0.10172264025473909 0.041527945893345811 0 -0.089697476094975123 0.03703192802675092 0 -0.085328958435134966 0.044788710244676663 0 -0.089697476094975123 0.03703192802675092 0 -0.085328958435134966 0.044788710244676663 0 -0.079022213537996849 0.036014830456466043 0 -0.089697476094975123 0.03703192802675092 0 -0.079022213537996849 0.036014830456466043 0 -0.087477259683622147 0.029863647793305189 0 -0.097072383638625193 0.067273173465825745 0 -0.10172264025473909 0.041527945893345811 0 -0.08035575443268303 0.060110692947986398 0 -0.10172264025473909 0.041527945893345811 0 -0.08035575443268303 0.060110692947986398 0 -0.10172264025473909 0.041527945893345811 0 -0.085328958435134966 0.044788710244676663 0 -0.08035575443268303 0.060110692947986398 0 -0.085328958435134966 0.044788710244676663 0 -0.08035575443268303 0.060110692947986398 0 -0.06845257898666364 0.045114616545605571 0 -0.08035575443268303 0.060110692947986398 0 -0.06845257898666364 0.045114616545605571 0 -0.055019484278717751 0.0595153580322315 0 -0.079022213537996849 0.036014830456466043 0 -0.06845257898666364 0.045114616545605571 0 -0.064369114248681886 0.02792857222566849 0 -0.085328958435134966 0.044788710244676663 0 -0.079022213537996849 0.036014830456466043 0 -0.06845257898666364 0.045114616545605571 0 -0.064369114248681886 0.02792857222566849 0 -0.079125592154491581 0.02508607091447065 0 -0.068327608385552213 0.0047956494306700837 0 -0.079022213537996849 0.036014830456466043 0 -0.064369114248681886 0.02792857222566849 0 -0.079125592154491581 0.02508607091447065 0 -0.079022213537996849 0.036014830456466043 0 -0.079125592154491581 0.02508607091447065 0 -0.087477259683622147 0.029863647793305189 0 -0.094954942336350115 0.032596436290471098 0 -0.087477259683622147 0.029863647793305189 0 -0.090554735633877337 0.015328605402544659 0 -0.079125592154491581 0.02508607091447065 0 -0.087477259683622147 0.029863647793305189 0 -0.090554735633877337 0.015328605402544659 0 -0.096833354165414137 0.018303907240610071 0 -0.090554735633877337 0.015328605402544659 0 -0.090554735633877337 0.015328605402544659 0 -0.068327608385552213 0.0047956494306700837 0 -0.090554735633877337 0.015328605402544659 0 -0.085523340046643817 0.0070670214765469128 0 -0.068327608385552213 0.0047956494306700837 0 -0.079125592154491581 0.02508607091447065 0 -0.090554735633877337 0.015328605402544659 0 -0.068327608385552213 0.0047956494306700837 0 -0.081495733312382579 -0.0010375144257807689 0 -0.085523340046643817 0.0070670214765469128 0 -0.068327608385552213 0.0047956494306700837 0 -0.091032061260426261 -0.00099156679185264133 0 -0.096858035194724357 0.010330839597595501 0 -0.085523340046643817 0.0070670214765469128 0 -0.081495733312382579 -0.0010375144257807689 0 -0.091032061260426261 -0.00099156679185264133 0 -0.085523340046643817 0.0070670214765469128 0 -0.096858035194724357 0.010330839597595501 0 -0.090554735633877337 0.015328605402544659 0 -0.085523340046643817 0.0070670214765469128 0 -0.090554735633877337 0.015328605402544659 0 -0.085523340046643817 0.0070670214765469128 0 -0.064369114248681886 0.02792857222566849 0 -0.068327608385552213 0.0047956494306700837 0 -0.054138838653769707 0.0076573712278265212 0 -0.046100481137226847 -0.0057373065412040002 0 -0.054138838653769707 0.0076573712278265212 0 -0.041435268765668318 0.014509733353221661 0 -0.046100481137226847 -0.0057373065412040002 0 -0.068327608385552213 0.0047956494306700837 0 -0.054138838653769707 0.0076573712278265212 0 -0.064369114248681886 0.02792857222566849 0 -0.041435268765668318 0.014509733353221661 0 -0.044770726789358208 0.035669144444844959 0 -0.064369114248681886 0.02792857222566849 0 -0.054138838653769707 0.0076573712278265212 0 -0.041435268765668318 0.014509733353221661 0 -0.064369114248681886 0.02792857222566849 0 -0.041435268765668318 0.014509733353221661 0 -0.041435268765668318 0.014509733353221661 0 -0.044770726789358208 0.035669144444844959 0 -0.02083299116585214 0.02217079027493982 0 -0.031443162359465093 -0.003896848075800229 0 -0.046100481137226847 -0.0057373065412040002 0 -0.041435268765668318 0.014509733353221661 0 -0.06845257898666364 0.045114616545605571 0 -0.055019484278717751 0.0595153580322315 0 -0.044770726789358208 0.035669144444844959 0 -0.06845257898666364 0.045114616545605571 0 -0.064369114248681886 0.02792857222566849 0 -0.044770726789358208 0.035669144444844959 0 -0.044770726789358208 0.035669144444844959 0 -0.034404634383031457 0.058026065987018982 0 -0.026965840474149069 0.042473163900910993 0 -0.055019484278717751 0.0595153580322315 0 -0.044770726789358208 0.035669144444844959 0 -0.034404634383031457 0.058026065987018982 0 -0.034404634383031457 0.058026065987018982 0 -0.026965840474149069 0.042473163900910993 0 -0.0066628592290262677 0.05555321357793664 0 -0.044770726789358208 0.035669144444844959 0 -0.026965840474149069 0.042473163900910993 0 -0.02083299116585214 0.02217079027493982 0 -0.026965840474149069 0.042473163900910993 0 -0.012872008941118949 0.036771764847049443 0 -0.02083299116585214 0.02217079027493982 0 -0.026965840474149069 0.042473163900910993 0 -0.012872008941118949 0.036771764847049443 0 -0.0066628592290262677 0.05555321357793664 0 -0.012872008941118949 0.036771764847049443 0 -0.0066628592290262677 0.05555321357793664 0 0.0023539099236967371 0.030998407272255071 0 -0.031443162359465093 -0.003896848075800229 0 -0.041435268765668318 0.014509733353221661 0 -0.01850142328265492 0.0010908944807749251 0 -0.041435268765668318 0.014509733353221661 0 -0.01850142328265492 0.0010908944807749251 0 -0.041435268765668318 0.014509733353221661 0 -0.01850142328265492 0.0010908944807749251 0 -0.02083299116585214 0.02217079027493982 0 -0.02083299116585214 0.02217079027493982 0 -0.0022365450389801849 0.01197420227026116 0 0.0023539099236967371 0.030998407272255071 0 -0.012872008941118949 0.036771764847049443 0 -0.02083299116585214 0.02217079027493982 0 0.0023539099236967371 0.030998407272255071 0 -0.01850142328265492 0.0010908944807749251 0 -0.0022365450389801849 0.01197420227026116 0 -0.004398770674410574 0.0035812354870657522 0 -0.0012366189011378649 -0.0020531284498746041 0 -0.01850142328265492 0.0010908944807749251 0 -0.004398770674410574 0.0035812354870657522 0 -0.01850142328265492 0.0010908944807749251 0 -0.02083299116585214 0.02217079027493982 0 -0.0022365450389801849 0.01197420227026116 0 -0.0022365450389801849 0.01197420227026116 0 -0.004398770674410574 0.0035812354870657522 0 0.0037496653143511238 0.0041068543098623398 0 -0.0012366189011378649 -0.0020531284498746041 0 -0.004398770674410574 0.0035812354870657522 0 0.0037496653143511238 0.0041068543098623398 0 0.0037496653143511238 0.0041068543098623398 0 0.012389270148762579 0.0089117587448679664 0 0.0072753335151073822 -0.0051289208098825451 0 0.012389270148762579 0.0089117587448679664 0 0.0181877264363123 -0.001151817779521591 0 0.0072753335151073822 -0.0051289208098825451 0 -0.0022365450389801849 0.01197420227026116 0 0.0037496653143511238 0.0041068543098623398 0 0.012389270148762579 0.0089117587448679664 0 -0.0022365450389801849 0.01197420227026116 0 0.012389270148762579 0.0089117587448679664 0 0.01160887822476811 0.020650431806783921 0 -0.0022365450389801849 0.01197420227026116 0 0.0023539099236967371 0.030998407272255071 0 0.01160887822476811 0.020650431806783921 0 0.0023539099236967371 0.030998407272255071 0 0.01160887822476811 0.020650431806783921 0 0.020126034594321999 0.033666816483060233 0 0.02541172149603943 0.01770097426347517 0 0.020126034594321999 0.033666816483060233 0 0.033269319626114242 0.029251491574003179 0 0.012389270148762579 0.0089117587448679664 0 0.01160887822476811 0.020650431806783921 0 0.02541172149603943 0.01770097426347517 0 0.01160887822476811 0.020650431806783921 0 0.02541172149603943 0.01770097426347517 0 0.020126034594321999 0.033666816483060233 0 0.02541172149603943 0.01770097426347517 0 0.026265846738701731 0.0061259928697827686 0 0.040656508693663981 0.01253620409760953 0 0.012389270148762579 0.0089117587448679664 0 0.026265846738701731 0.0061259928697827686 0 0.0181877264363123 -0.001151817779521591 0 0.012389270148762579 0.0089117587448679664 0 0.02541172149603943 0.01770097426347517 0 0.026265846738701731 0.0061259928697827686 0 -0.0066628592290262677 0.05555321357793664 0 0.01325019974731175 0.049079021746160911 0 0.018329832638124179 0.069006589877425473 0 -0.0066628592290262677 0.05555321357793664 0 0.0023539099236967371 0.030998407272255071 0 0.01325019974731175 0.049079021746160911 0 0.0023539099236967371 0.030998407272255071 0 0.01325019974731175 0.049079021746160911 0 0.020126034594321999 0.033666816483060233 0 0.01325019974731175 0.049079021746160911 0 0.020126034594321999 0.033666816483060233 0 0.032444193218470023 0.051589159948172238 0 0.020126034594321999 0.033666816483060233 0 0.032444193218470023 0.051589159948172238 0 0.033269319626114242 0.029251491574003179 0 0.032444193218470023 0.051589159948172238 0 0.018329832638124179 0.069006589877425473 0 0.01325019974731175 0.049079021746160911 0 0.032444193218470023 0.051589159948172238 0 0.018329832638124179 0.069006589877425473 0 0.032444193218470023 0.051589159948172238 0 0.045643993911174068 0.058635078899034417 0 0.046558553798815863 0.03417173001891901 0 0.032444193218470023 0.051589159948172238 0 0.045643993911174068 0.058635078899034417 0 0.034127835436696577 0.075849051262049647 0 0.032444193218470023 0.051589159948172238 0 0.046558553798815863 0.03417173001891901 0 0.033269319626114242 0.029251491574003179 0 0.032444193218470023 0.051589159948172238 0 0.046558553798815863 0.03417173001891901 0 0.046558553798815863 0.03417173001891901 0 0.072115623328166734 0.041568007265019177 0 0.06314536824496296 0.05869855477078198 0 0.045643993911174068 0.058635078899034417 0 0.046558553798815863 0.03417173001891901 0 0.06314536824496296 0.05869855477078198 0 0.026265846738701731 0.0061259928697827686 0 0.040656508693663981 0.01253620409760953 0 0.033094314708757198 -0.0052023388711797246 0 0.040656508693663981 0.01253620409760953 0 0.050543757187605079 -0.0052109479651959306 0 0.033094314708757198 -0.0052023388711797246 0 0.02541172149603943 0.01770097426347517 0 0.040656508693663981 0.01253620409760953 0 0.033269319626114242 0.029251491574003179 0 0.046558553798815863 0.03417173001891901 0 0.040656508693663981 0.01253620409760953 0 0.033269319626114242 0.029251491574003179 0 0.046558553798815863 0.03417173001891901 0 0.060672914379162911 0.016754300089666829 0 0.072115623328166734 0.041568007265019177 0 0.046558553798815863 0.03417173001891901 0 0.060672914379162911 0.016754300089666829 0 0.046558553798815863 0.03417173001891901 0 0.040656508693663981 0.01253620409760953 0 0.060672914379162911 0.016754300089666829 0 0.060672914379162911 0.016754300089666829 0 0.073588710794993045 0.00081592457682122532 0 0.050543757187605079 -0.0052109479651959306 0 0.040656508693663981 0.01253620409760953 0 0.060672914379162911 0.016754300089666829 0 0.050543757187605079 -0.0052109479651959306 0 0.060672914379162911 0.016754300089666829 0 0.050543757187605079 -0.0052109479651959306 0 0.060672914379162911 0.016754300089666829 0 0.073588710794993045 0.00081592457682122532 0 0.060672914379162911 0.016754300089666829 0 0.073588710794993045 0.00081592457682122532 0 0.077665565590855218 0.018218519151510799 0 0.073588710794993045 0.00081592457682122532 0 0.089666100224178202 0.0042401197129867847 0 0.077665565590855218 0.018218519151510799 0 0.09228447922777519 0.027714244113059981 0 0.077665565590855218 0.018218519151510799 0 0.072115623328166734 0.041568007265019177 0 0.089666100224178202 0.0042401197129867847 0 0.09228447922777519 0.027714244113059981 0 0.077665565590855218 0.018218519151510799 0 0.060672914379162911 0.016754300089666829 0 0.077665565590855218 0.018218519151510799 0 0.072115623328166734 0.041568007265019177 0 0.060672914379162911 0.016754300089666829 0 0.072115623328166734 0.041568007265019177 0 0.072115623328166734 0.041568007265019177 0 0.083558332277169883 0.066381714440371761 0 0.072115623328166734 0.041568007265019177 0 0.06314536824496296 0.05869855477078198 0 0.083558332277169883 0.066381714440371761 0 0.087592545920303036 0.04860192133176032 0 0.096977270467582172 0.060184872950145379 0 0.083558332277169883 0.066381714440371761 0 0.072115623328166734 0.041568007265019177 0 0.087592545920303036 0.04860192133176032 0 0.083558332277169883 0.066381714440371761 0 0.09228447922777519 0.027714244113059981 0 0.072115623328166734 0.041568007265019177 0 0.087592545920303036 0.04860192133176032 0 0.09228447922777519 0.027714244113059981 0 0.087592545920303036 0.04860192133176032 0 0.099595363618406318 0.044880783234628997 0 0.099595363618406318 0.044880783234628997 0 0.1105823992249292 0.054201258270569673 0 0.1166471749743901 0.032591888010259133 0 0.09228447922777519 0.027714244113059981 0 0.099595363618406318 0.044880783234628997 0 0.1166471749743901 0.032591888010259133 0 0.096977270467582172 0.060184872950145379 0 0.1105823992249292 0.054201258270569673 0 0.11188376966165769 0.071539187913713831 0 0.087592545920303036 0.04860192133176032 0 0.099595363618406318 0.044880783234628997 0 0.096977270467582172 0.060184872950145379 0 0.099595363618406318 0.044880783234628997 0 0.096977270467582172 0.060184872950145379 0 0.1105823992249292 0.054201258270569673 0 0.1105823992249292 0.054201258270569673 0 0.11188376966165769 0.071539187913713831 0 0.1272442421926194 0.057884513863293803 0 0.1105823992249292 0.054201258270569673 0 0.1166471749743901 0.032591888010259133 0 0.1272442421926194 0.057884513863293803 0 0.1166471749743901 0.032591888010259133 0 0.1272442421926194 0.057884513863293803 0 0.1166471749743901 0.032591888010259133 0 0.1060501077561609 0.0072992621572245328 0 0.12747763685853061 0.01902864309048926 0 0.1166471749743901 0.032591888010259133 0 0.1060501077561609 0.0072992621572245328 0 0.1060501077561609 0.0072992621572245328 0 0.12747763685853061 0.01902864309048926 0 0.132752380620965 0.0024926945051150741 0 0.089666100224178202 0.0042401197129867847 0 0.09228447922777519 0.027714244113059981 0 0.1060501077561609 0.0072992621572245328 0 0.09228447922777519 0.027714244113059981 0 0.1166471749743901 0.032591888010259133 0 0.1060501077561609 0.0072992621572245328 0 0.1044360244314765 0.096460544278461874 0 0.099302919620814195 0.10958252475741891 0 0.11961848936781649 0.1063326131981509 0 0.1044360244314765 0.096460544278461874 0 0.095754022989607737 0.098846204485482286 0 0.095001041226173033 0.091195421615724345 0 0.1044360244314765 0.096460544278461874 0 0.095754022989607737 0.098846204485482286 0 0.099302919620814195 0.10958252475741891 0 0.099302919620814195 0.10958252475741891 0 0.1114753219726915 0.12055117380335729 0 0.091792048628803927 0.12690818597443951 0 0.1114753219726915 0.12055117380335729 0 0.11961848936781649 0.1063326131981509 0 0.13300680577611951 0.12117801773119991 0 0.099302919620814195 0.10958252475741891 0 0.1114753219726915 0.12055117380335729 0 0.11961848936781649 0.1063326131981509 0 0.1044360244314765 0.096460544278461874 0 0.11961848936781649 0.1063326131981509 0 0.115646606233119 0.088321830832182147 0 0.115646606233119 0.088321830832182147 0 0.11188376966165769 0.071539187913713831 0 0.10320125748887519 0.082168390040364733 0 0.115646606233119 0.088321830832182147 0 0.11188376966165769 0.071539187913713831 0 0.13784130941084871 0.08317713971632848 0 0.11961848936781649 0.1063326131981509 0 0.115646606233119 0.088321830832182147 0 0.13784130941084871 0.08317713971632848 0 0.096977270467582172 0.060184872950145379 0 0.11188376966165769 0.071539187913713831 0 0.097648260957947597 0.074299337606677507 0 0.11188376966165769 0.071539187913713831 0 0.097648260957947597 0.074299337606677507 0 0.10320125748887519 0.082168390040364733 0 0.097648260957947597 0.074299337606677507 0 0.10320125748887519 0.082168390040364733 0 0.095001041226173033 0.091195421615724345 0 0.1044360244314765 0.096460544278461874 0 0.115646606233119 0.088321830832182147 0 0.10320125748887519 0.082168390040364733 0 0.1044360244314765 0.096460544278461874 0 0.10320125748887519 0.082168390040364733 0 0.095001041226173033 0.091195421615724345 0 0.076760164731130481 0.069384468606208824 0 0.074103008881935939 0.085442874208901981 0 0.084276106679967183 0.098146327290324104 0 0.095001041226173033 0.091195421615724345 0 0.083558332277169883 0.066381714440371761 0 0.076760164731130481 0.069384468606208824 0 0.084276106679967183 0.098146327290324104 0 0.095001041226173033 0.091195421615724345 0 0.076760164731130481 0.069384468606208824 0 0.084276106679967183 0.098146327290324104 0 0.095001041226173033 0.091195421615724345 0 0.083558332277169883 0.066381714440371761 0 0.076760164731130481 0.069384468606208824 0 0.097648260957947597 0.074299337606677507 0 0.095001041226173033 0.091195421615724345 0 0.083558332277169883 0.066381714440371761 0 0.096977270467582172 0.060184872950145379 0 0.097648260957947597 0.074299337606677507 0 0.083558332277169883 0.066381714440371761 0 0.06314536824496296 0.05869855477078198 0 0.083558332277169883 0.066381714440371761 0 0.076760164731130481 0.069384468606208824 0 0.076760164731130481 0.069384468606208824 0 0.070175600629042392 0.077690891711520438 0 0.074103008881935939 0.085442874208901981 0 0.076760164731130481 0.069384468606208824 0 0.070175600629042392 0.077690891711520438 0 0.064332167097572487 0.070743987255655394 0 0.070175600629042392 0.077690891711520438 0 0.064332167097572487 0.070743987255655394 0 0.064457016966674607 0.083764852603265327 0 0.06314536824496296 0.05869855477078198 0 0.076760164731130481 0.069384468606208824 0 0.064332167097572487 0.070743987255655394 0 0.064457016966674607 0.083764852603265327 0 0.074846155402865072 0.09822783083319124 0 0.050062610157390157 0.09801812604961993 0 0.074103008881935939 0.085442874208901981 0 0.064457016966674607 0.083764852603265327 0 0.074846155402865072 0.09822783083319124 0 0.070175600629042392 0.077690891711520438 0 0.074103008881935939 0.085442874208901981 0 0.064457016966674607 0.083764852603265327 0 0.063167008843121 0.1079713815748479 0 0.074846155402865072 0.09822783083319124 0 0.050062610157390157 0.09801812604961993 0 0.063167008843121 0.1079713815748479 0 0.074846155402865072 0.09822783083319124 0 0.076152447806444146 0.10967846374532 0 0.074103008881935939 0.085442874208901981 0 0.074846155402865072 0.09822783083319124 0 0.084276106679967183 0.098146327290324104 0 0.074846155402865072 0.09822783083319124 0 0.084276106679967183 0.098146327290324104 0 0.076152447806444146 0.10967846374532 0 0.095754022989607737 0.098846204485482286 0 0.099302919620814195 0.10958252475741891 0 0.084276106679967183 0.098146327290324104 0 0.095754022989607737 0.098846204485482286 0 0.095001041226173033 0.091195421615724345 0 0.084276106679967183 0.098146327290324104 0 0.084276106679967183 0.098146327290324104 0 0.091792048628803927 0.12690818597443951 0 0.084276106679967183 0.098146327290324104 0 0.076152447806444146 0.10967846374532 0 0.091792048628803927 0.12690818597443951 0 0.076152447806444146 0.10967846374532 0 0.067457980954976307 0.1193718241155578 0 0.091792048628803927 0.12690818597443951 0 0.099302919620814195 0.10958252475741891 0 0.084276106679967183 0.098146327290324104 0 0.091792048628803927 0.12690818597443951 0 0.063167008843121 0.1079713815748479 0 0.076152447806444146 0.10967846374532 0 0.067457980954976307 0.1193718241155578 0 0.063167008843121 0.1079713815748479 0 0.067457980954976307 0.1193718241155578 0 0.048869972848954668 0.1190271252540715 0 0.063167008843121 0.1079713815748479 0 0.048869972848954668 0.1190271252540715 0 0.050062610157390157 0.09801812604961993 0 0.074846155402865072 0.09822783083319124 0 0.050062610157390157 0.09801812604961993 0 0.050062610157390157 0.09801812604961993 0 0.02527906491191521 0.097808421266048606 0 0.050062610157390157 0.09801812604961993 0 0.033754219676523922 0.1132035953219804 0 0.02527906491191521 0.097808421266048606 0 0.048869972848954668 0.1190271252540715 0 0.033754219676523922 0.1132035953219804 0 0.031690253320441168 0.1334542983639081 0 0.048869972848954668 0.1190271252540715 0 0.050062610157390157 0.09801812604961993 0 0.033754219676523922 0.1132035953219804 0 0.045643993911174068 0.058635078899034417 0 0.06314536824496296 0.05869855477078198 0 0.051944018856924908 0.072866898495249244 0 0.06314536824496296 0.05869855477078198 0 0.064332167097572487 0.070743987255655394 0 0.051944018856924908 0.072866898495249244 0 0.064332167097572487 0.070743987255655394 0 0.064457016966674607 0.083764852603265327 0 0.051944018856924908 0.072866898495249244 0 0.064457016966674607 0.083764852603265327 0 0.050062610157390157 0.09801812604961993 0 0.051944018856924908 0.072866898495249244 0 0.050062610157390157 0.09801812604961993 0 0.051944018856924908 0.072866898495249244 0 0.034127835436696577 0.075849051262049647 0 0.050062610157390157 0.09801812604961993 0 0.034127835436696577 0.075849051262049647 0 0.02527906491191521 0.097808421266048606 0 0.045643993911174068 0.058635078899034417 0 0.051944018856924908 0.072866898495249244 0 0.034127835436696577 0.075849051262049647 0 0.032444193218470023 0.051589159948172238 0 0.034127835436696577 0.075849051262049647 0 0.018329832638124179 0.069006589877425473 0 0.034127835436696577 0.075849051262049647 0 0.018329832638124179 0.069006589877425473 0 0.01544889130928283 0.083415629390660689 0 0.034127835436696577 0.075849051262049647 0 0.01544889130928283 0.083415629390660689 0 0.02527906491191521 0.097808421266048606 0 0.01544889130928283 0.083415629390660689 0 0.02527906491191521 0.097808421266048606 0 0.00049551966644017717 0.097598716482477282 0 -0.00098779610676201068 0.076815368065302411 0 0.01544889130928283 0.083415629390660689 0 0.00049551966644017717 0.097598716482477282 0 -0.00098779610676201068 0.076815368065302411 0 -0.0066628592290262677 0.05555321357793664 0 0.018329832638124179 0.069006589877425473 0 -0.00098779610676201068 0.076815368065302411 0 0.018329832638124179 0.069006589877425473 0 0.01544889130928283 0.083415629390660689 0 0.033754219676523922 0.1132035953219804 0 0.012869197143918369 0.117710005676254 0 0.031690253320441168 0.1334542983639081 0 0.033754219676523922 0.1132035953219804 0 0.02527906491191521 0.097808421266048606 0 0.012869197143918369 0.117710005676254 0 0.02527906491191521 0.097808421266048606 0 0.00049551966644017717 0.097598716482477282 0 0.012869197143918369 0.117710005676254 0 0.02527906491191521 0.097808421266048606 0 0.00049551966644017717 0.097598716482477282 0 -0.0077265761396986933 0.1099944229356826 0 0.00049551966644017717 0.097598716482477282 0 0.012869197143918369 0.117710005676254 0 -0.0046994586562478834 0.12590885460864909 0 -0.0077265761396986933 0.1099944229356826 0 0.012869197143918369 0.117710005676254 0 -0.0046994586562478834 0.12590885460864909 0 0.01371765007864335 0.14192618516156691 0 -0.0082261137483013429 0.1391098257357691 0 -0.0046994586562478834 0.12590885460864909 0 0.01371765007864335 0.14192618516156691 0 -0.0046994586562478834 0.12590885460864909 0 0.012869197143918369 0.117710005676254 0 0.01371765007864335 0.14192618516156691 0 0.01371765007864335 0.14192618516156691 0 0.031690253320441168 0.1334542983639081 0 0.012869197143918369 0.117710005676254 0 0.01371765007864335 0.14192618516156691 0 0.031690253320441168 0.1334542983639081 0 0.01371765007864335 0.14192618516156691 0 0.031690253320441168 0.1334542983639081 0 0.037735584598748553 0.14531826274059809 0 0.01371765007864335 0.14192618516156691 0 0.03038089276196225 0.15641818116289991 0 0.037735584598748553 0.14531826274059809 0 0.01371765007864335 0.14192618516156691 0 0.03038089276196225 0.15641818116289991 0 0.01371765007864335 0.14192618516156691 0 0.01244079128868511 0.16022024281090089 0 0.03038089276196225 0.15641818116289991 0 -0.0024831286181939659 0.1495628731419939 0 0.01371765007864335 0.14192618516156691 0 -0.0024831286181939659 0.1495628731419939 0 -0.0082261137483013429 0.1391098257357691 0 0.01371765007864335 0.14192618516156691 0 -0.0024831286181939659 0.1495628731419939 0 0.01371765007864335 0.14192618516156691 0 0.01244079128868511 0.16022024281090089 0 -0.0026512296739237178 0.17085224475226929 0 0.01244079128868511 0.16022024281090089 0 0.016117074674532071 0.18437098970390969 0 -0.0026512296739237178 0.17085224475226929 0 -0.0024831286181939659 0.1495628731419939 0 0.01244079128868511 0.16022024281090089 0 -0.0036270643060716669 0.18956816043603211 0 -0.0026512296739237178 0.17085224475226929 0 0.016117074674532071 0.18437098970390969 0 0.016117074674532071 0.18437098970390969 0 0.033230710101346823 0.16270460117445901 0 0.034202421531337519 0.17644107031353681 0 0.016117074674532071 0.18437098970390969 0 0.034202421531337519 0.17644107031353681 0 0.033774165809705249 0.1892332655083602 0 0.016117074674532071 0.18437098970390969 0 0.033230710101346823 0.16270460117445901 0 0.01244079128868511 0.16022024281090089 0 0.016117074674532071 0.18437098970390969 0 0.02256217450151474 0.16375179655932739 0 0.016117074674532071 0.18437098970390969 0 0.02256217450151474 0.16375179655932739 0 0.033230710101346823 0.16270460117445901 0 0.01244079128868511 0.16022024281090089 0 0.02256217450151474 0.16375179655932739 0 0.03038089276196225 0.15641818116289991 0 0.02256217450151474 0.16375179655932739 0 0.03038089276196225 0.15641818116289991 0 0.033230710101346823 0.16270460117445901 0 0.033230710101346823 0.16270460117445901 0 0.043672927661881848 0.1678625338966801 0 0.034202421531337519 0.17644107031353681 0 0.033230710101346823 0.16270460117445901 0 0.043672927661881848 0.1678625338966801 0 0.048851783519488913 0.1583019703650628 0 0.034202421531337519 0.17644107031353681 0 0.044217229409221633 0.17803396128427501 0 0.033774165809705249 0.1892332655083602 0 0.043672927661881848 0.1678625338966801 0 0.034202421531337519 0.17644107031353681 0 0.044217229409221633 0.17803396128427501 0 0.044217229409221633 0.17803396128427501 0 0.033774165809705249 0.1892332655083602 0 0.047319141087051313 0.1914024093781162 0 0.052540376792519557 0.18149187542122211 0 0.047319141087051313 0.1914024093781162 0 0.062949651644001806 0.18624444913451649 0 0.052540376792519557 0.18149187542122211 0 0.055675485029803518 0.17028668188798091 0 0.062949651644001806 0.18624444913451649 0 0.044217229409221633 0.17803396128427501 0 0.052540376792519557 0.18149187542122211 0 0.047319141087051313 0.1914024093781162 0 0.043672927661881848 0.1678625338966801 0 0.044217229409221633 0.17803396128427501 0 0.055675485029803518 0.17028668188798091 0 0.044217229409221633 0.17803396128427501 0 0.052540376792519557 0.18149187542122211 0 0.055675485029803518 0.17028668188798091 0 0.048851783519488913 0.1583019703650628 0 0.055675485029803518 0.17028668188798091 0 0.06222520225688058 0.15436135958120309 0 0.043672927661881848 0.1678625338966801 0 0.048851783519488913 0.1583019703650628 0 0.055675485029803518 0.17028668188798091 0 0.048851783519488913 0.1583019703650628 0 0.06222520225688058 0.15436135958120309 0 0.050344345528161583 0.1410382126450084 0 0.06222520225688058 0.15436135958120309 0 0.050344345528161583 0.1410382126450084 0 0.064317101394328391 0.13948610142126669 0 0.067457980954976307 0.1193718241155578 0 0.050344345528161583 0.1410382126450084 0 0.067457980954976307 0.1193718241155578 0 0.048869972848954668 0.1190271252540715 0 0.050344345528161583 0.1410382126450084 0 0.067457980954976307 0.1193718241155578 0 0.050344345528161583 0.1410382126450084 0 0.064317101394328391 0.13948610142126669 0 0.050344345528161583 0.1410382126450084 0 0.031690253320441168 0.1334542983639081 0 0.037735584598748553 0.14531826274059809 0 0.048869972848954668 0.1190271252540715 0 0.050344345528161583 0.1410382126450084 0 0.031690253320441168 0.1334542983639081 0 0.033230710101346823 0.16270460117445901 0 0.050344345528161583 0.1410382126450084 0 0.03038089276196225 0.15641818116289991 0 0.033230710101346823 0.16270460117445901 0 0.037735584598748553 0.14531826274059809 0 0.033230710101346823 0.16270460117445901 0 0.050344345528161583 0.1410382126450084 0 0.037735584598748553 0.14531826274059809 0 0.033230710101346823 0.16270460117445901 0 0.048851783519488913 0.1583019703650628 0 0.050344345528161583 0.1410382126450084 0 0.028228655159526751 0.24042301724135701 0 0.01085604785680107 0.237765453444057 0 0.01583773270681571 0.22506254550735491 0 0.028228655159526751 0.24042301724135701 0 0.01085604785680107 0.237765453444057 0 0.016371941311700881 0.25660120915207979 0 -0.005590237039277135 0.24237484072921639 0 0.016371941311700881 0.25660120915207979 0 -0.005590237039277135 0.24237484072921639 0 0.01085604785680107 0.237765453444057 0 0.016371941311700881 0.25660120915207979 0 -0.00056785285476087144 0.22436565459027691 0 -0.005590237039277135 0.24237484072921639 0 0.01085604785680107 0.237765453444057 0 -0.00056785285476087144 0.22436565459027691 0 0.01583773270681571 0.22506254550735491 0 0.0087353676042285933 0.21558696955232759 0 -0.00056785285476087144 0.22436565459027691 0 0.01085604785680107 0.237765453444057 0 0.01583773270681571 0.22506254550735491 0 0.028228655159526751 0.24042301724135701 0 0.01583773270681571 0.22506254550735491 0 0.037051867201397561 0.2231311454056554 0 0.01583773270681571 0.22506254550735491 0 0.020668151317142201 0.20688229987831841 0 0.037051867201397561 0.2231311454056554 0 0.01583773270681571 0.22506254550735491 0 0.020668151317142201 0.20688229987831841 0 0.0087353676042285933 0.21558696955232759 0 -0.00099656075228266722 0.2060373782333603 0 -0.00056785285476087144 0.22436565459027691 0 0.0087353676042285933 0.21558696955232759 0 -0.00099656075228266722 0.2060373782333603 0 0.020668151317142201 0.20688229987831841 0 0.0087353676042285933 0.21558696955232759 0 -0.00099656075228266722 0.2060373782333603 0 0.016117074674532071 0.18437098970390969 0 -0.00099656075228266722 0.2060373782333603 0 0.016117074674532071 0.18437098970390969 0 0.020668151317142201 0.20688229987831841 0 -0.0036270643060716669 0.18956816043603211 0 -0.00099656075228266722 0.2060373782333603 0 0.016117074674532071 0.18437098970390969 0 0.016117074674532071 0.18437098970390969 0 0.020668151317142201 0.20688229987831841 0 0.033774165809705249 0.1892332655083602 0 0.020668151317142201 0.20688229987831841 0 0.033774165809705249 0.1892332655083602 0 0.037933968120735961 0.20472447803391899 0 0.033774165809705249 0.1892332655083602 0 0.047319141087051313 0.1914024093781162 0 0.037933968120735961 0.20472447803391899 0 0.047319141087051313 0.1914024093781162 0 0.056615395067042759 0.2087573902239612 0 0.062949651644001806 0.18624444913451649 0 0.047319141087051313 0.1914024093781162 0 0.056615395067042759 0.2087573902239612 0 0.037933968120735961 0.20472447803391899 0 0.056615395067042759 0.2087573902239612 0 0.037933968120735961 0.20472447803391899 0 0.037051867201397561 0.2231311454056554 0 0.020668151317142201 0.20688229987831841 0 0.037933968120735961 0.20472447803391899 0 0.037051867201397561 0.2231311454056554 0 0.037051867201397561 0.2231311454056554 0 0.057527594116399662 0.23218532429443059 0 0.047423533829832012 0.24578606919935569 0 0.056615395067042759 0.2087573902239612 0 0.037051867201397561 0.2231311454056554 0 0.057527594116399662 0.23218532429443059 0 0.057527594116399662 0.23218532429443059 0 0.047423533829832012 0.24578606919935569 0 0.068737935801930883 0.25521355198147039 0 0.028228655159526751 0.24042301724135701 0 0.037051867201397561 0.2231311454056554 0 0.047423533829832012 0.24578606919935569 0 0.077809238681795123 0.22803846466171049 0 0.093904429530681663 0.23958296612706589 0 0.068737935801930883 0.25521355198147039 0 0.057527594116399662 0.23218532429443059 0 0.077809238681795123 0.22803846466171049 0 0.068737935801930883 0.25521355198147039 0 0.056615395067042759 0.2087573902239612 0 0.057527594116399662 0.23218532429443059 0 0.077809238681795123 0.22803846466171049 0 0.077809238681795123 0.22803846466171049 0 0.097454009104850248 0.21949069115246339 0 0.093904429530681663 0.23958296612706589 0 0.077619784733628433 0.19974997955557261 0 0.103224422676578 0.19961671334882569 0 0.097454009104850248 0.21949069115246339 0 0.077809238681795123 0.22803846466171049 0 0.077619784733628433 0.19974997955557261 0 0.097454009104850248 0.21949069115246339 0 0.077809238681795123 0.22803846466171049 0 0.077619784733628433 0.19974997955557261 0 0.056615395067042759 0.2087573902239612 0 0.077809238681795123 0.22803846466171049 0 0.077619784733628433 0.19974997955557261 0 0.056615395067042759 0.2087573902239612 0 0.077619784733628433 0.19974997955557261 0 0.062949651644001806 0.18624444913451649 0 0.077619784733628433 0.19974997955557261 0 0.092103266999741862 0.18854124887725579 0 0.103224422676578 0.19961671334882569 0 0.092103266999741862 0.18854124887725579 0 0.103224422676578 0.19961671334882569 0 0.1134338259900632 0.1872244218463826 0 0.11691039530918999 0.20196570387183879 0 0.1134338259900632 0.1872244218463826 0 0.13371840720491601 0.20391547738484031 0 0.1134338259900632 0.1872244218463826 0 0.13371840720491601 0.20391547738484031 0 0.103224422676578 0.19961671334882569 0 0.11691039530918999 0.20196570387183879 0 0.1134338259900632 0.1872244218463826 0 0.103224422676578 0.19961671334882569 0 0.11691039530918999 0.20196570387183879 0 0.1172649253652028 0.21710620290730659 0 0.11691039530918999 0.20196570387183879 0 0.1172649253652028 0.21710620290730659 0 0.13371840720491601 0.20391547738484031 0 0.103224422676578 0.19961671334882569 0 0.1172649253652028 0.21710620290730659 0 0.103224422676578 0.19961671334882569 0 0.1172649253652028 0.21710620290730659 0 0.097454009104850248 0.21949069115246339 0 0.097454009104850248 0.21949069115246339 0 0.1136191926508595 0.2344135633850577 0 0.093904429530681663 0.23958296612706589 0 0.1172649253652028 0.21710620290730659 0 0.13130542805382769 0.23459569246578749 0 0.1172649253652028 0.21710620290730659 0 0.097454009104850248 0.21949069115246339 0 0.1136191926508595 0.2344135633850577 0 0.1172649253652028 0.21710620290730659 0 0.1136191926508595 0.2344135633850577 0 0.13130542805382769 0.23459569246578749 0 0.1136191926508595 0.2344135633850577 0 0.12910930346839369 0.24952112788202779 0 0.13130542805382769 0.23459569246578749 0 0.1136191926508595 0.2344135633850577 0 0.12910930346839369 0.24952112788202779 0 0.10844155764360169 0.25132593132875108 0 0.1136191926508595 0.2344135633850577 0 0.093904429530681663 0.23958296612706589 0 0.10844155764360169 0.25132593132875108 0 0.093904429530681663 0.23958296612706589 0 0.089979971996602265 0.25802275434051353 0 0.10844155764360169 0.25132593132875108 0 0.090236914508443872 0.15356776006964629 0 0.07724087683729508 0.14317300934329741 0 0.077430330785461771 0.17146149444943501 0 0.090236914508443872 0.15356776006964629 0 0.091792048628803927 0.12690818597443951 0 0.07724087683729508 0.14317300934329741 0 0.067457980954976307 0.1193718241155578 0 0.091792048628803927 0.12690818597443951 0 0.07724087683729508 0.14317300934329741 0 0.067457980954976307 0.1193718241155578 0 0.064317101394328391 0.13948610142126669 0 0.07724087683729508 0.14317300934329741 0 0.06222520225688058 0.15436135958120309 0 0.064317101394328391 0.13948610142126669 0 0.07724087683729508 0.14317300934329741 0 0.06222520225688058 0.15436135958120309 0 0.07724087683729508 0.14317300934329741 0 0.077430330785461771 0.17146149444943501 0 0.055675485029803518 0.17028668188798091 0 0.06222520225688058 0.15436135958120309 0 0.077430330785461771 0.17146149444943501 0 0.07724087683729508 0.14317300934329741 0 0.077430330785461771 0.17146149444943501 0 0.077619784733628433 0.19974997955557261 0 0.077430330785461771 0.17146149444943501 0 0.055675485029803518 0.17028668188798091 0 0.077430330785461771 0.17146149444943501 0 0.062949651644001806 0.18624444913451649 0 0.077619784733628433 0.19974997955557261 0 0.077430330785461771 0.17146149444943501 0 0.062949651644001806 0.18624444913451649 0 0.092103266999741862 0.18854124887725579 0 0.077430330785461771 0.17146149444943501 0 0.097109132923905467 0.17566505535746221 0 0.077619784733628433 0.19974997955557261 0 0.092103266999741862 0.18854124887725579 0 0.077430330785461771 0.17146149444943501 0 0.090236914508443872 0.15356776006964629 0 0.077430330785461771 0.17146149444943501 0 0.091872640748633633 0.16529173199777769 0 0.077430330785461771 0.17146149444943501 0 0.091872640748633633 0.16529173199777769 0 0.097109132923905467 0.17566505535746221 0 0.090236914508443872 0.15356776006964629 0 0.091872640748633633 0.16529173199777769 0 0.096528561145895572 0.15931179491881789 0 0.096528561145895572 0.15931179491881789 0 0.10178070268261009 0.16583678270120081 0 0.099307990577642669 0.15567004465855411 0 0.091872640748633633 0.16529173199777769 0 0.096528561145895572 0.15931179491881789 0 0.10178070268261009 0.16583678270120081 0 0.091872640748633633 0.16529173199777769 0 0.10178070268261009 0.16583678270120081 0 0.097109132923905467 0.17566505535746221 0 0.10178070268261009 0.16583678270120081 0 0.097109132923905467 0.17566505535746221 0 0.1115031406969311 0.16782197050453379 0 0.10178070268261009 0.16583678270120081 0 0.1115031406969311 0.16782197050453379 0 0.099307990577642669 0.15567004465855411 0 0.097109132923905467 0.17566505535746221 0 0.1134338259900632 0.1872244218463826 0 0.1115031406969311 0.16782197050453379 0 0.092103266999741862 0.18854124887725579 0 0.097109132923905467 0.17566505535746221 0 0.1134338259900632 0.1872244218463826 0 0.1134338259900632 0.1872244218463826 0 0.1115031406969311 0.16782197050453379 0 0.1327751836262078 0.18059696848891771 0 0.1115031406969311 0.16782197050453379 0 0.099307990577642669 0.15567004465855411 0 0.12726620178654641 0.16214955338601869 0 0.1115031406969311 0.16782197050453379 0 0.12726620178654641 0.16214955338601869 0 0.1327751836262078 0.18059696848891771 0 0.099307990577642669 0.15567004465855411 0 0.12726620178654641 0.16214955338601869 0 0.099307990577642669 0.15567004465855411 0 0.11842383300146681 0.13778589797485261 0 0.12726620178654641 0.16214955338601869 0 0.090236914508443872 0.15356776006964629 0 0.091792048628803927 0.12690818597443951 0 0.099307990577642669 0.15567004465855411 0 0.091792048628803927 0.12690818597443951 0 0.099307990577642669 0.15567004465855411 0 0.090236914508443872 0.15356776006964629 0 0.099307990577642669 0.15567004465855411 0 0.090236914508443872 0.15356776006964629 0 0.096528561145895572 0.15931179491881789 0 0.099307990577642669 0.15567004465855411 0 0.1114753219726915 0.12055117380335729 0 0.091792048628803927 0.12690818597443951 0 0.11842383300146681 0.13778589797485261 0 0.091792048628803927 0.12690818597443951 0 0.099307990577642669 0.15567004465855411 0 0.11842383300146681 0.13778589797485261 0 0.1114753219726915 0.12055117380335729 0 0.11842383300146681 0.13778589797485261 0 0.13300680577611951 0.12117801773119991 0 0.11842383300146681 0.13778589797485261 0 0.149819232757021 0.13712422737696681 0 0.13300680577611951 0.12117801773119991 0 0.149819232757021 0.13712422737696681 0 0.12726620178654641 0.16214955338601869 0 0.15522441299544981 0.1686290621134843 0 0.11842383300146681 0.13778589797485261 0 0.149819232757021 0.13712422737696681 0 0.12726620178654641 0.16214955338601869 0 0.12726620178654641 0.16214955338601869 0 0.1327751836262078 0.18059696848891771 0 0.15522441299544981 0.1686290621134843 0 0.1327751836262078 0.18059696848891771 0 0.15522441299544981 0.1686290621134843 0 0.15590185284299629 0.1925738116940901 0 0.12726620178654641 0.16214955338601869 0 0.15522441299544981 0.1686290621134843 0 0.15522441299544981 0.1686290621134843 0 0.18318262420435319 0.17510857084094991 0 0.1711127357187319 0.1525111609745945 0 0.15522441299544981 0.1686290621134843 0 0.18318262420435319 0.17510857084094991 0 0.15522441299544981 0.1686290621134843 0 0.18318262420435319 0.17510857084094991 0 0.15590185284299629 0.1925738116940901 0 0.18318262420435319 0.17510857084094991 0 0.1711127357187319 0.1525111609745945 0 0.19160438008301819 0.146781009115517 0 0.17606960595681981 0.13275078705693191 0 0.1711127357187319 0.1525111609745945 0 0.19160438008301819 0.146781009115517 0 0.149819232757021 0.13712422737696681 0 0.15522441299544981 0.1686290621134843 0 0.1711127357187319 0.1525111609745945 0 0.149819232757021 0.13712422737696681 0 0.17606960595681981 0.13275078705693191 0 0.16948002191540901 0.1126731262091947 0 0.149819232757021 0.13712422737696681 0 0.17606960595681981 0.13275078705693191 0 0.1711127357187319 0.1525111609745945 0 0.14629992117859611 0.2462268018521174 0 0.13130542805382769 0.23459569246578749 0 0.14534593074245339 0.25208518202426761 0 0.14629992117859611 0.2462268018521174 0 0.15469808189905279 0.25060124022113578 0 0.14534593074245339 0.25208518202426761 0 0.14629992117859611 0.2462268018521174 0 0.15675985337731041 0.2392664885087247 0 0.15469808189905279 0.25060124022113578 0 0.14629992117859611 0.2462268018521174 0 0.1449493639234242 0.23205104300021351 0 0.15675985337731041 0.2392664885087247 0 0.14629992117859611 0.2462268018521174 0 0.13130542805382769 0.23459569246578749 0 0.1449493639234242 0.23205104300021351 0 0.14629992117859611 0.2462268018521174 0 0.14534593074245339 0.25208518202426761 0 0.13130542805382769 0.23459569246578749 0 0.14534593074245339 0.25208518202426761 0 0.12910930346839369 0.24952112788202779 0 0.13130542805382769 0.23459569246578749 0 0.14534593074245339 0.25208518202426761 0 0.13130542805382769 0.23459569246578749 0 0.1363120949171128 0.22062872500886899 0 0.1449493639234242 0.23205104300021351 0 0.1172649253652028 0.21710620290730659 0 0.13130542805382769 0.23459569246578749 0 0.1363120949171128 0.22062872500886899 0 0.1363120949171128 0.22062872500886899 0 0.15400298841976889 0.2206065329232981 0 0.1449493639234242 0.23205104300021351 0 0.15400298841976889 0.2206065329232981 0 0.1449493639234242 0.23205104300021351 0 0.15675985337731041 0.2392664885087247 0 0.1363120949171128 0.22062872500886899 0 0.15400298841976889 0.2206065329232981 0 0.13371840720491601 0.20391547738484031 0 0.15400298841976889 0.2206065329232981 0 0.13371840720491601 0.20391547738484031 0 0.15590185284299629 0.1925738116940901 0 0.15400298841976889 0.2206065329232981 0 0.13371840720491601 0.20391547738484031 0 0.1172649253652028 0.21710620290730659 0 0.1363120949171128 0.22062872500886899 0 0.13371840720491601 0.20391547738484031 0 0.1134338259900632 0.1872244218463826 0 0.1327751836262078 0.18059696848891771 0 0.13371840720491601 0.20391547738484031 0 0.1327751836262078 0.18059696848891771 0 0.13371840720491601 0.20391547738484031 0 0.15590185284299629 0.1925738116940901 0 0.18318262420435319 0.17510857084094991 0 0.1774596760304579 0.2035442248030758 0 0.1993831538566064 0.19584029722969051 0 0.18318262420435319 0.17510857084094991 0 0.15590185284299629 0.1925738116940901 0 0.1774596760304579 0.2035442248030758 0 0.15400298841976889 0.2206065329232981 0 0.1774596760304579 0.2035442248030758 0 0.1826659218098548 0.2216508790103689 0 0.15400298841976889 0.2206065329232981 0 0.15590185284299629 0.1925738116940901 0 0.1774596760304579 0.2035442248030758 0 0.15400298841976889 0.2206065329232981 0 0.17428756963462161 0.23729758846175569 0 0.15400298841976889 0.2206065329232981 0 0.1826659218098548 0.2216508790103689 0 0.17428756963462161 0.23729758846175569 0 0.15400298841976889 0.2206065329232981 0 0.17428756963462161 0.23729758846175569 0 0.15675985337731041 0.2392664885087247 0 0.1826659218098548 0.2216508790103689 0 0.17428756963462161 0.23729758846175569 0 0.20195757688408511 0.2379338616043985 0 0.17428756963462161 0.23729758846175569 0 0.19457215084947449 0.25398864400021348 0 0.17428756963462161 0.23729758846175569 0 0.16616847869732071 0.24895221618042079 0 0.18063510605396829 0.25753047617315411 0 0.17428756963462161 0.23729758846175569 0 0.18063510605396829 0.25753047617315411 0 0.19457215084947449 0.25398864400021348 0 0.17428756963462161 0.23729758846175569 0 0.16616847869732071 0.24895221618042079 0 0.15675985337731041 0.2392664885087247 0 0.16616847869732071 0.24895221618042079 0 0.15675985337731041 0.2392664885087247 0 0.15469808189905279 0.25060124022113578 0 0.21632306500704351 0.24822625231204401 0 0.20195757688408511 0.2379338616043985 0 0.21645362716850131 0.2328725923691517 0 0.21632306500704351 0.24822625231204401 0 0.20624138244427859 0.24940893109919349 0 0.20195757688408511 0.2379338616043985 0 0.20624138244427859 0.24940893109919349 0 0.20195757688408511 0.2379338616043985 0 0.19457215084947449 0.25398864400021348 0 0.17428756963462161 0.23729758846175569 0 0.20195757688408511 0.2379338616043985 0 0.19457215084947449 0.25398864400021348 0 0.1826659218098548 0.2216508790103689 0 0.20195757688408511 0.2379338616043985 0 0.20326085072003541 0.21705631628791569 0 0.21645362716850131 0.2328725923691517 0 0.20326085072003541 0.21705631628791569 0 0.22189859812147489 0.2188890060181983 0 0.20195757688408511 0.2379338616043985 0 0.21645362716850131 0.2328725923691517 0 0.20326085072003541 0.21705631628791569 0 0.20326085072003541 0.21705631628791569 0 0.1993831538566064 0.19584029722969051 0 0.219012080227169 0.20220303649607091 0 0.20326085072003541 0.21705631628791569 0 0.219012080227169 0.20220303649607091 0 0.22189859812147489 0.2188890060181983 0 0.1774596760304579 0.2035442248030758 0 0.1826659218098548 0.2216508790103689 0 0.20326085072003541 0.21705631628791569 0 0.1774596760304579 0.2035442248030758 0 0.20326085072003541 0.21705631628791569 0 0.1993831538566064 0.19584029722969051 0 0.1993831538566064 0.19584029722969051 0 0.219012080227169 0.20220303649607091 0 0.21171765434041201 0.18036019773821221 0 0.219012080227169 0.20220303649607091 0 0.21171765434041201 0.18036019773821221 0 0.233618504422267 0.18569224119971589 0 0.219012080227169 0.20220303649607091 0 0.23775733829390711 0.2122412591160813 0 0.233618504422267 0.18569224119971589 0 0.233618504422267 0.18569224119971589 0 0.2503233785568697 0.1849429854552001 0 0.25196513540250198 0.2008395694888471 0 0.23775733829390711 0.2122412591160813 0 0.233618504422267 0.18569224119971589 0 0.25196513540250198 0.2008395694888471 0 0.23775733829390711 0.2122412591160813 0 0.25899067417183719 0.21986970888888621 0 0.25196513540250198 0.2008395694888471 0 0.219012080227169 0.20220303649607091 0 0.23775733829390711 0.2122412591160813 0 0.22189859812147489 0.2188890060181983 0 0.21645362716850131 0.2328725923691517 0 0.22189859812147489 0.2188890060181983 0 0.2330090941977615 0.23007182582177171 0 0.23775733829390711 0.2122412591160813 0 0.22189859812147489 0.2188890060181983 0 0.2330090941977615 0.23007182582177171 0 0.23775733829390711 0.2122412591160813 0 0.24577729341156829 0.2273306001458493 0 0.25899067417183719 0.21986970888888621 0 0.23775733829390711 0.2122412591160813 0 0.2330090941977615 0.23007182582177171 0 0.24577729341156829 0.2273306001458493 0 0.2330090941977615 0.23007182582177171 0 0.24577729341156829 0.2273306001458493 0 0.24301938260949851 0.2441670494208753 0 0.2330090941977615 0.23007182582177171 0 0.24301938260949851 0.2441670494208753 0 0.22949975684730181 0.2442041154237406 0 0.24577729341156829 0.2273306001458493 0 0.24301938260949851 0.2441670494208753 0 0.25476213896605832 0.23832149790900789 0 0.24301938260949851 0.2441670494208753 0 0.22949975684730181 0.2442041154237406 0 0.23745531042087309 0.25673537149111542 0 0.21645362716850131 0.2328725923691517 0 0.2330090941977615 0.23007182582177171 0 0.22949975684730181 0.2442041154237406 0 0.21632306500704351 0.24822625231204401 0 0.21645362716850131 0.2328725923691517 0 0.22949975684730181 0.2442041154237406 0 0.17606960595681981 0.13275078705693191 0 0.19160438008301819 0.146781009115517 0 0.1987863948535353 0.1153177140229891 0 0.21246976498871731 0.13963965830550121 0 0.19160438008301819 0.146781009115517 0 0.1987863948535353 0.1153177140229891 0 0.21246976498871731 0.13963965830550121 0 0.20495456633727499 0.16189813724212551 0 0.22467607596935041 0.1591889674633733 0 0.21246976498871731 0.13963965830550121 0 0.19160438008301819 0.146781009115517 0 0.20495456633727499 0.16189813724212551 0 0.18318262420435319 0.17510857084094991 0 0.19160438008301819 0.146781009115517 0 0.20495456633727499 0.16189813724212551 0 0.18318262420435319 0.17510857084094991 0 0.21171765434041201 0.18036019773821221 0 0.20495456633727499 0.16189813724212551 0 0.18318262420435319 0.17510857084094991 0 0.1993831538566064 0.19584029722969051 0 0.21171765434041201 0.18036019773821221 0 0.21171765434041201 0.18036019773821221 0 0.20495456633727499 0.16189813724212551 0 0.22467607596935041 0.1591889674633733 0 0.22467607596935041 0.1591889674633733 0 0.233618504422267 0.18569224119971589 0 0.2403569654836086 0.16343140100060261 0 0.21171765434041201 0.18036019773821221 0 0.22467607596935041 0.1591889674633733 0 0.233618504422267 0.18569224119971589 0 0.233618504422267 0.18569224119971589 0 0.25259635090382643 0.16837651930415931 0 0.2503233785568697 0.1849429854552001 0 0.233618504422267 0.18569224119971589 0 0.2403569654836086 0.16343140100060261 0 0.25259635090382643 0.16837651930415931 0 0.233618504422267 0.18569224119971589 0 0.25259635090382643 0.16837651930415931 0 0.22467607596935041 0.1591889674633733 0 0.2403569654836086 0.16343140100060261 0 0.23916854174378019 0.15052564226268511 0 0.2403569654836086 0.16343140100060261 0 0.2541423605414147 0.1556471153826201 0 0.25259635090382643 0.16837651930415931 0 0.2403569654836086 0.16343140100060261 0 0.23916854174378019 0.15052564226268511 0 0.2541423605414147 0.1556471153826201 0 0.23916854174378019 0.15052564226268511 0 0.22927610019899161 0.1353730039110467 0 0.24739120652553581 0.13898772355578279 0 0.23916854174378019 0.15052564226268511 0 0.24739120652553581 0.13898772355578279 0 0.2541423605414147 0.1556471153826201 0 0.21246976498871731 0.13963965830550121 0 0.22467607596935041 0.1591889674633733 0 0.22927610019899161 0.1353730039110467 0 0.22467607596935041 0.1591889674633733 0 0.23916854174378019 0.15052564226268511 0 0.22927610019899161 0.1353730039110467 0 0.21246976498871731 0.13963965830550121 0 0.22927610019899161 0.1353730039110467 0 0.22272979746561161 0.1159171136165752 0 0.22927610019899161 0.1353730039110467 0 0.24739120652553581 0.13898772355578279 0 0.2422175093248283 0.1226149632485156 0 0.24739120652553581 0.13898772355578279 0 0.2422175093248283 0.1226149632485156 0 0.25450459716433171 0.1216951107282765 0 0.2422175093248283 0.1226149632485156 0 0.2363532454767677 0.1090945638310549 0 0.25600669688109667 0.1081870513112866 0 0.24360620741595251 0.096305158868952717 0 0.2363532454767677 0.1090945638310549 0 0.25600669688109667 0.1081870513112866 0 0.24360620741595251 0.096305158868952717 0 0.2363532454767677 0.1090945638310549 0 0.22307989426937691 0.095093064371426825 0 0.2363532454767677 0.1090945638310549 0 0.22307989426937691 0.095093064371426825 0 0.22272979746561161 0.1159171136165752 0 0.22927610019899161 0.1353730039110467 0 0.2422175093248283 0.1226149632485156 0 0.22272979746561161 0.1159171136165752 0 0.2422175093248283 0.1226149632485156 0 0.2363532454767677 0.1090945638310549 0 0.22272979746561161 0.1159171136165752 0 0.21246976498871731 0.13963965830550121 0 0.22272979746561161 0.1159171136165752 0 0.1987863948535353 0.1153177140229891 0 0.22307989426937691 0.095093064371426825 0 0.22272979746561161 0.1159171136165752 0 0.1987863948535353 0.1153177140229891 0 0.22307989426937691 0.095093064371426825 0 0.1987863948535353 0.1153177140229891 0 0.20218999988610481 0.08642557065501906 0 0.1987863948535353 0.1153177140229891 0 0.20218999988610481 0.08642557065501906 0 0.1832044259085514 0.093925190004980924 0 0.19123706439290741 0.074509300778941509 0 0.20329605543259249 0.065705218412474245 0 0.1924301513741111 0.05744567704242072 0 0.19123706439290741 0.074509300778941509 0 0.20218999988610481 0.08642557065501906 0 0.20329605543259249 0.065705218412474245 0 0.19123706439290741 0.074509300778941509 0 0.20218999988610481 0.08642557065501906 0 0.1832044259085514 0.093925190004980924 0 0.22307989426937691 0.095093064371426825 0 0.20218999988610481 0.08642557065501906 0 0.2145341024842177 0.073415823438375355 0 0.20218999988610481 0.08642557065501906 0 0.2145341024842177 0.073415823438375355 0 0.20329605543259249 0.065705218412474245 0 0.2145341024842177 0.073415823438375355 0 0.20329605543259249 0.065705218412474245 0 0.2154011109262956 0.059529522125032 0 0.2145341024842177 0.073415823438375355 0 0.22949639813663561 0.059939857219074792 0 0.2154011109262956 0.059529522125032 0 0.22807058248416659 0.078077106213794364 0 0.23801510329456699 0.06887714085143444 0 0.22949639813663561 0.059939857219074792 0 0.2145341024842177 0.073415823438375355 0 0.22807058248416659 0.078077106213794364 0 0.22949639813663561 0.059939857219074792 0 0.22307989426937691 0.095093064371426825 0 0.22807058248416659 0.078077106213794364 0 0.23879206691990509 0.084043984686808737 0 0.22307989426937691 0.095093064371426825 0 0.2145341024842177 0.073415823438375355 0 0.22807058248416659 0.078077106213794364 0 0.23879206691990509 0.084043984686808737 0 0.24654045631779969 0.075456633084063252 0 0.255912719983374 0.081523751841415595 0 0.24360620741595251 0.096305158868952717 0 0.23879206691990509 0.084043984686808737 0 0.255912719983374 0.081523751841415595 0 0.24360620741595251 0.096305158868952717 0 0.22307989426937691 0.095093064371426825 0 0.23879206691990509 0.084043984686808737 0 0.23801510329456699 0.06887714085143444 0 0.24573884098798271 0.05901489172417592 0 0.22949639813663561 0.059939857219074792 0 0.23879206691990509 0.084043984686808737 0 0.23801510329456699 0.06887714085143444 0 0.24654045631779969 0.075456633084063252 0 0.22807058248416659 0.078077106213794364 0 0.23879206691990509 0.084043984686808737 0 0.23801510329456699 0.06887714085143444 0 0.23801510329456699 0.06887714085143444 0 0.24654045631779969 0.075456633084063252 0 0.25304554754672143 0.067403128222263575 0 0.23801510329456699 0.06887714085143444 0 0.24573884098798271 0.05901489172417592 0 0.25304554754672143 0.067403128222263575 0 0.24573884098798271 0.05901489172417592 0 0.24083485634370011 0.049988339152741368 0 0.22949639813663561 0.059939857219074792 0 0.24573884098798271 0.05901489172417592 0 0.24083485634370011 0.049988339152741368 0 0.24754648820634259 0.042211340087768182 0 0.23893609511813119 0.032069364867863617 0 0.24754648820634259 0.042211340087768182 0 0.2198942388161991 0.035463120187505803 0 0.24083485634370011 0.049988339152741368 0 0.24754648820634259 0.042211340087768182 0 0.23172581937493811 0.047024346570050057 0 0.24754648820634259 0.042211340087768182 0 0.2198942388161991 0.035463120187505803 0 0.23893609511813119 0.032069364867863617 0 0.2198942388161991 0.035463120187505803 0 0.20972270078186411 0.031582768532911497 0 0.23893609511813119 0.032069364867863617 0 0.20972270078186411 0.031582768532911497 0 0.24754648820634259 0.042211340087768182 0 0.2198942388161991 0.035463120187505803 0 0.23172581937493811 0.047024346570050057 0 0.2198942388161991 0.035463120187505803 0 0.22018738895047529 0.048201823272740432 0 0.23172581937493811 0.047024346570050057 0 0.22018738895047529 0.048201823272740432 0 0.22949639813663561 0.059939857219074792 0 0.2154011109262956 0.059529522125032 0 0.24083485634370011 0.049988339152741368 0 0.22949639813663561 0.059939857219074792 0 0.23172581937493811 0.047024346570050057 0 0.22018738895047529 0.048201823272740432 0 0.22949639813663561 0.059939857219074792 0 0.23172581937493811 0.047024346570050057 0 0.23974478808303909 0.015920977468061519 0 0.22902614119787959 0.0083069622294108941 0 0.24233211405590921 -0.00067216537667232859 0 0.23974478808303909 0.015920977468061519 0 0.25335017483290689 0.01048395969910469 0 0.24233211405590921 -0.00067216537667232859 0 0.23893609511813119 0.032069364867863617 0 0.23974478808303909 0.015920977468061519 0 0.25004513687211888 0.022757565809461391 0 0.23893609511813119 0.032069364867863617 0 0.23974478808303909 0.015920977468061519 0 0.2254324491566328 0.022098455643961689 0 0.23974478808303909 0.015920977468061519 0 0.25004513687211888 0.022757565809461391 0 0.25335017483290689 0.01048395969910469 0 0.2254324491566328 0.022098455643961689 0 0.22902614119787959 0.0083069622294108941 0 0.21284732389669861 0.019449711468320419 0 0.23893609511813119 0.032069364867863617 0 0.2254324491566328 0.022098455643961689 0 0.20972270078186411 0.031582768532911497 0 0.23974478808303909 0.015920977468061519 0 0.2254324491566328 0.022098455643961689 0 0.22902614119787959 0.0083069622294108941 0 0.22902614119787959 0.0083069622294108941 0 0.21172882731474521 0.0069707969026004783 0 0.21284732389669861 0.019449711468320419 0 0.22902614119787959 0.0083069622294108941 0 0.21172882731474521 0.0069707969026004783 0 0.2126918603144036 -0.0068343736337121647 0 0.2254324491566328 0.022098455643961689 0 0.21284732389669861 0.019449711468320419 0 0.20972270078186411 0.031582768532911497 0 0.21172882731474521 0.0069707969026004783 0 0.21284732389669861 0.019449711468320419 0 0.20128962266312861 0.02382106244772873 0 0.21284732389669861 0.019449711468320419 0 0.20128962266312861 0.02382106244772873 0 0.20972270078186411 0.031582768532911497 0 0.20128962266312861 0.02382106244772873 0 0.1987919814508663 0.039123614233808911 0 0.18749353562765639 0.030208813945205078 0 0.20128962266312861 0.02382106244772873 0 0.18715336690694129 0.015590669603526 0 0.18749353562765639 0.030208813945205078 0 0.21172882731474521 0.0069707969026004783 0 0.18715336690694129 0.015590669603526 0 0.21172882731474521 0.0069707969026004783 0 0.18715336690694129 0.015590669603526 0 0.19671810108610471 -0.0042983027108834046 0 0.18715336690694129 0.015590669603526 0 0.1799161098606557 -0.0045264903682464587 0 0.19671810108610471 -0.0042983027108834046 0 0.21172882731474521 0.0069707969026004783 0 0.20128962266312861 0.02382106244772873 0 0.18715336690694129 0.015590669603526 0 0.20329605543259249 0.065705218412474245 0 0.20769831748893919 0.051027307786075671 0 0.2154011109262956 0.059529522125032 0 0.22018738895047529 0.048201823272740432 0 0.20769831748893919 0.051027307786075671 0 0.2154011109262956 0.059529522125032 0 0.2198942388161991 0.035463120187505803 0 0.22018738895047529 0.048201823272740432 0 0.21125892549766881 0.041079726802608463 0 0.22018738895047529 0.048201823272740432 0 0.20769831748893919 0.051027307786075671 0 0.21125892549766881 0.041079726802608463 0 0.2198942388161991 0.035463120187505803 0 0.21125892549766881 0.041079726802608463 0 0.20972270078186411 0.031582768532911497 0 0.20128962266312861 0.02382106244772873 0 0.20972270078186411 0.031582768532911497 0 0.1987919814508663 0.039123614233808911 0 0.21125892549766881 0.041079726802608463 0 0.20972270078186411 0.031582768532911497 0 0.1987919814508663 0.039123614233808911 0 0.20769831748893919 0.051027307786075671 0 0.21125892549766881 0.041079726802608463 0 0.1987919814508663 0.039123614233808911 0 0.1987919814508663 0.039123614233808911 0 0.1794907381407371 0.044676660362485021 0 0.18749353562765639 0.030208813945205078 0 0.1987919814508663 0.039123614233808911 0 0.1924301513741111 0.05744567704242072 0 0.1794907381407371 0.044676660362485021 0 0.20769831748893919 0.051027307786075671 0 0.1987919814508663 0.039123614233808911 0 0.1924301513741111 0.05744567704242072 0 0.20329605543259249 0.065705218412474245 0 0.20769831748893919 0.051027307786075671 0 0.1924301513741111 0.05744567704242072 0 0.1924301513741111 0.05744567704242072 0 0.1794907381407371 0.044676660362485021 0 0.17506468936317721 0.069044847779812665 0 0.1794907381407371 0.044676660362485021 0 0.18749353562765639 0.030208813945205078 0 0.1625779064991375 0.024210542304451521 0 0.1794907381407371 0.044676660362485021 0 0.1563442987554555 0.049744503472584092 0 0.1625779064991375 0.024210542304451521 0 0.1794907381407371 0.044676660362485021 0 0.1563442987554555 0.049744503472584092 0 0.17506468936317721 0.069044847779812665 0 0.18715336690694129 0.015590669603526 0 0.16594093215475819 0.0036654259575761281 0 0.1799161098606557 -0.0045264903682464587 0 0.18715336690694129 0.015590669603526 0 0.1625779064991375 0.024210542304451521 0 0.16594093215475819 0.0036654259575761281 0 0.18715336690694129 0.015590669603526 0 0.1625779064991375 0.024210542304451521 0 0.18715336690694129 0.015590669603526 0 0.18749353562765639 0.030208813945205078 0 0.1625779064991375 0.024210542304451521 0 0.1625779064991375 0.024210542304451521 0 0.16594093215475819 0.0036654259575761281 0 0.14733413491573599 0.0080210567557985803 0 0.1625779064991375 0.024210542304451521 0 0.1380024460913335 0.032830415005377103 0 0.1625779064991375 0.024210542304451521 0 0.14733413491573599 0.0080210567557985803 0 0.1380024460913335 0.032830415005377103 0 0.14733413491573599 0.0080210567557985803 0 0.12747763685853061 0.01902864309048926 0 0.1380024460913335 0.032830415005377103 0 0.1166471749743901 0.032591888010259133 0 0.12747763685853061 0.01902864309048926 0 0.1380024460913335 0.032830415005377103 0 0.14733413491573599 0.0080210567557985803 0 0.12747763685853061 0.01902864309048926 0 0.132752380620965 0.0024926945051150741 0 0.14733413491573599 0.0080210567557985803 0 0.132752380620965 0.0024926945051150741 0 0.138788147732091 -0.0092240815221668535 0 0.1563442987554555 0.049744503472584092 0 0.1272442421926194 0.057884513863293803 0 0.15155525167244649 0.069773036179735334 0 0.1563442987554555 0.049744503472584092 0 0.1625779064991375 0.024210542304451521 0 0.1380024460913335 0.032830415005377103 0 0.1563442987554555 0.049744503472584092 0 0.1380024460913335 0.032830415005377103 0 0.1272442421926194 0.057884513863293803 0 0.1166471749743901 0.032591888010259133 0 0.1380024460913335 0.032830415005377103 0 0.1272442421926194 0.057884513863293803 0 0.1272442421926194 0.057884513863293803 0 0.13784130941084871 0.08317713971632848 0 0.1272442421926194 0.057884513863293803 0 0.15155525167244649 0.069773036179735334 0 0.13784130941084871 0.08317713971632848 0 0.11188376966165769 0.071539187913713831 0 0.1272442421926194 0.057884513863293803 0 0.13784130941084871 0.08317713971632848 0 0.13784130941084871 0.08317713971632848 0 0.14843837662907791 0.10846976556936321 0 0.16128171864013191 0.089014176066657708 0 0.15155525167244649 0.069773036179735334 0 0.13784130941084871 0.08317713971632848 0 0.16128171864013191 0.089014176066657708 0 0.11961848936781649 0.1063326131981509 0 0.13784130941084871 0.08317713971632848 0 0.14843837662907791 0.10846976556936321 0 0.11961848936781649 0.1063326131981509 0 0.13300680577611951 0.12117801773119991 0 0.14843837662907791 0.10846976556936321 0 0.149819232757021 0.13712422737696681 0 0.14843837662907791 0.10846976556936321 0 0.16948002191540901 0.1126731262091947 0 0.149819232757021 0.13712422737696681 0 0.13300680577611951 0.12117801773119991 0 0.14843837662907791 0.10846976556936321 0 0.13784130941084871 0.08317713971632848 0 0.14843837662907791 0.10846976556936321 0 0.14843837662907791 0.10846976556936321 0 0.16948002191540901 0.1126731262091947 0 0.16128171864013191 0.089014176066657708 0 0.16948002191540901 0.1126731262091947 0 0.1832044259085514 0.093925190004980924 0 0.16128171864013191 0.089014176066657708 0 0.17606960595681981 0.13275078705693191 0 0.1987863948535353 0.1153177140229891 0 0.16948002191540901 0.1126731262091947 0 0.1987863948535353 0.1153177140229891 0 0.16948002191540901 0.1126731262091947 0 0.1832044259085514 0.093925190004980924 0 0.19123706439290741 0.074509300778941509 0 0.1832044259085514 0.093925190004980924 0 0.17506468936317721 0.069044847779812665 0 0.1832044259085514 0.093925190004980924 0 0.17506468936317721 0.069044847779812665 0 0.16128171864013191 0.089014176066657708 0 0.19123706439290741 0.074509300778941509 0 0.1924301513741111 0.05744567704242072 0 0.17506468936317721 0.069044847779812665 0 0.1563442987554555 0.049744503472584092 0 0.15155525167244649 0.069773036179735334 0 0.17506468936317721 0.069044847779812665 0 0.15155525167244649 0.069773036179735334 0 0.17506468936317721 0.069044847779812665 0 0.16128171864013191 0.089014176066657708 0 0.095585967556437806 0.47538959123386221 0 0.097017561832949351 0.48746420080998443 0 0.11164218433677189 0.47542567059784591 0 0.095585967556437806 0.47538959123386221 0 0.11164218433677189 0.47542567059784591 0 0.095585967556437806 0.47538959123386221 0 0.11164218433677189 0.47542567059784591 0 0.097488666828487586 0.45545038405119909 0 0.097017561832949351 0.48746420080998443 0 0.11164218433677189 0.47542567059784591 0 0.092224726191683537 0.50000000000000167 0 0.1107962867914542 0.48824535275949882 0 0.1106395431752953 0.5 0 0.092224726191683537 0.50000000000000167 0 0.1107962867914542 0.48824535275949882 0 0.11164218433677189 0.47542567059784591 0 0.092224726191683537 0.50000000000000167 0 0.11164218433677189 0.47542567059784591 0 0.092224726191683537 0.50000000000000167 0 0.11164218433677189 0.47542567059784591 0 0.13361416577280841 0.47813900402579163 0 0.12905436015890709 0.49999999999999711 0 0.1107962867914542 0.48824535275949882 0 0.1106395431752953 0.5 0 0.12905436015890709 0.49999999999999711 0 0.1107962867914542 0.48824535275949882 0 0.11164218433677189 0.47542567059784591 0 0.12905436015890709 0.49999999999999711 0 0.11164218433677189 0.47542567059784591 0 0.12905436015890709 0.49999999999999711 0 0.11164218433677189 0.47542567059784591 0 0.1251513885623548 0.46992886265521888 0 0.13361416577280841 0.47813900402579163 0 0.11164218433677189 0.47542567059784591 0 0.13361416577280841 0.47813900402579163 0 0.11164218433677189 0.47542567059784591 0 0.12841529058873949 0.45419797771171339 0 0.1251513885623548 0.46992886265521888 0 0.11164218433677189 0.47542567059784591 0 0.1194125232310882 0.45902326471755789 0 0.12841529058873949 0.45419797771171339 0 0.11164218433677189 0.47542567059784591 0 0.1194125232310882 0.45902326471755789 0 0.10313301131150961 0.45225801900991902 0 0.11164218433677189 0.47542567059784591 0 0.12841529058873949 0.45419797771171339 0 0.1194125232310882 0.45902326471755789 0 0.1206179038440536 0.44797004429836063 0 0.12841529058873949 0.45419797771171339 0 0.1194125232310882 0.45902326471755789 0 0.10788253461178381 0.4442560626067994 0 0.10313301131150961 0.45225801900991902 0 0.1206179038440536 0.44797004429836063 0 0.10788253461178381 0.4442560626067994 0 0.1269485872343194 0.43585301573587421 0 0.1194125232310882 0.45902326471755789 0 0.10788253461178381 0.4442560626067994 0 0.1194125232310882 0.45902326471755789 0 0.1206179038440536 0.44797004429836063 0 0.10788253461178381 0.4442560626067994 0 0.10788253461178381 0.4442560626067994 0 0.10313301131150961 0.45225801900991902 0 0.096411237214167833 0.44241555508075148 0 0.10788253461178381 0.4442560626067994 0 0.10313301131150961 0.45225801900991902 0 0.10313301131150961 0.45225801900991902 0 0.096411237214167833 0.44241555508075148 0 0.097488666828487586 0.45545038405119909 0 0.11164218433677189 0.47542567059784591 0 0.097488666828487586 0.45545038405119909 0 0.11164218433677189 0.47542567059784591 0 0.10313301131150961 0.45225801900991902 0 0.097488666828487586 0.45545038405119909 0 0.095585967556437806 0.47538959123386221 0 0.097488666828487586 0.45545038405119909 0 0.082059831197668853 0.45839171209791318 0 0.082059831197668853 0.45839171209791318 0 0.071343856421234947 0.44690832130111252 0 0.083335149320201946 0.43547509750455338 0 0.097488666828487586 0.45545038405119909 0 0.083335149320201946 0.43547509750455338 0 0.097488666828487586 0.45545038405119909 0 0.082059831197668853 0.45839171209791318 0 0.083335149320201946 0.43547509750455338 0 0.096411237214167833 0.44241555508075148 0 0.097488666828487586 0.45545038405119909 0 0.083335149320201946 0.43547509750455338 0 0.071343856421234947 0.44690832130111252 0 0.070625804643203963 0.43329732391558401 0 0.083335149320201946 0.43547509750455338 0 0.071343856421234947 0.44690832130111252 0 0.065686483538921731 0.44586078308010069 0 0.072389692151214269 0.45536393096084471 0 0.071343856421234947 0.44690832130111252 0 0.065686483538921731 0.44586078308010069 0 0.071343856421234947 0.44690832130111252 0 0.065686483538921731 0.44586078308010069 0 0.070625804643203963 0.43329732391558401 0 0.065686483538921731 0.44586078308010069 0 0.067397025092382296 0.46402220912037601 0 0.082059831197668853 0.45839171209791318 0 0.067397025092382296 0.46402220912037601 0 0.080370465547801168 0.47428952081716352 0 0.065686483538921731 0.44586078308010069 0 0.072389692151214269 0.45536393096084471 0 0.067397025092382296 0.46402220912037601 0 0.082059831197668853 0.45839171209791318 0 0.071343856421234947 0.44690832130111252 0 0.072389692151214269 0.45536393096084471 0 0.082059831197668853 0.45839171209791318 0 0.072389692151214269 0.45536393096084471 0 0.067397025092382296 0.46402220912037601 0 0.067397025092382296 0.46402220912037601 0 0.068281737467063161 0.47341551402267412 0 0.067397025092382296 0.46402220912037601 0 0.068281737467063161 0.47341551402267412 0 0.055261814009707678 0.46411512752893841 0 0.068281737467063161 0.47341551402267412 0 0.080370465547801168 0.47428952081716352 0 0.081885837833284222 0.48759737289583399 0 0.067397025092382296 0.46402220912037601 0 0.068281737467063161 0.47341551402267412 0 0.080370465547801168 0.47428952081716352 0 0.067397025092382296 0.46402220912037601 0 0.080370465547801168 0.47428952081716352 0 0.068281737467063161 0.47341551402267412 0 0.080370465547801168 0.47428952081716352 0 0.095585967556437806 0.47538959123386221 0 0.082059831197668853 0.45839171209791318 0 0.080370465547801168 0.47428952081716352 0 0.097017561832949351 0.48746420080998443 0 0.080370465547801168 0.47428952081716352 0 0.081885837833284222 0.48759737289583399 0 0.095585967556437806 0.47538959123386221 0 0.097017561832949351 0.48746420080998443 0 0.080370465547801168 0.47428952081716352 0 0.097017561832949351 0.48746420080998443 0 0.080370465547801168 0.47428952081716352 0 0.095585967556437806 0.47538959123386221 0 0.080370465547801168 0.47428952081716352 0 0.092224726191683537 0.50000000000000167 0 0.081885837833284222 0.48759737289583399 0 0.070785608464898064 0.5 0 0.097017561832949351 0.48746420080998443 0 0.092224726191683537 0.50000000000000167 0 0.081885837833284222 0.48759737289583399 0 0.068281737467063161 0.47341551402267412 0 0.081885837833284222 0.48759737289583399 0 0.070785608464898064 0.5 0 0.068281737467063161 0.47341551402267412 0 0.070785608464898064 0.5 0 0.05551051198808199 0.48609967501117829 0 0.068281737467063161 0.47341551402267412 0 0.070785608464898064 0.5 0 0.070785608464898064 0.5 0 0.05551051198808199 0.48609967501117829 0 0.045549330405684041 0.5 0 0.05551051198808199 0.48609967501117829 0 0.045549330405684041 0.5 0 0.041496458714159752 0.48575643639525828 0 0.068281737467063161 0.47341551402267412 0 0.05551051198808199 0.48609967501117829 0 0.045942963874062527 0.47180043592922388 0 0.068281737467063161 0.47341551402267412 0 0.045942963874062527 0.47180043592922388 0 0.055261814009707678 0.46411512752893841 0 0.068281737467063161 0.47341551402267412 0 0.045942963874062527 0.47180043592922388 0 0.05551051198808199 0.48609967501117829 0 0.045942963874062527 0.47180043592922388 0 0.041496458714159752 0.48575643639525828 0 0.045942963874062527 0.47180043592922388 0 0.02766538290531971 0.48093536814070043 0 0.031392536979083362 0.46629931623300108 0 0.045942963874062527 0.47180043592922388 0 0.041496458714159752 0.48575643639525828 0 0.02766538290531971 0.48093536814070043 0 0.045549330405684041 0.5 0 0.041496458714159752 0.48575643639525828 0 0.020313052346470021 0.5 0 0.020313052346470021 0.5 0 0.017693011321735761 0.48820466564597409 0 0.02766538290531971 0.48093536814070043 0 0.041496458714159752 0.48575643639525828 0 0.020313052346470021 0.5 0 0.02766538290531971 0.48093536814070043 0 0.020313052346470021 0.5 0 0.017693011321735761 0.48820466564597409 0 0.0097474893858156657 0.49544447765033278 0 0.017693011321735761 0.48820466564597409 0 0.02766538290531971 0.48093536814070043 0 0.0080674303727603543 0.47515287654029548 0 0.02766538290531971 0.48093536814070043 0 0.0080674303727603543 0.47515287654029548 0 0.01700224308108297 0.46541878356862898 0 0.02766538290531971 0.48093536814070043 0 0.01700224308108297 0.46541878356862898 0 0.031392536979083362 0.46629931623300108 0 -0.0040272573433087454 0.48545175566783572 0 0.0080674303727603543 0.47515287654029548 0 0.0097474893858156657 0.49544447765033278 0 0.0080674303727603543 0.47515287654029548 0 0.0097474893858156657 0.49544447765033278 0 0.017693011321735761 0.48820466564597409 0 0.0080674303727603543 0.47515287654029548 0 0.0097474893858156657 0.49544447765033278 0 -0.0049232257127440624 0.5 0 0.020313052346470021 0.5 0 0.0097474893858156657 0.49544447765033278 0 -0.0049232257127440624 0.5 0 -0.0040272573433087454 0.48545175566783572 0 0.0097474893858156657 0.49544447765033278 0 0.0063873713597050446 0.45486127543025823 0 0.0047073123466495753 0.43456967432022098 0 -0.0036883205655467658 0.44247429441421049 0 0.0063873713597050446 0.45486127543025823 0 0.0047073123466495753 0.43456967432022098 0 0.0063873713597050446 0.45486127543025823 0 0.0096968752450365438 0.45440901313987259 0 0.0047073123466495753 0.43456967432022098 0 0.0096968752450365438 0.45440901313987259 0 0.01863164804241774 0.44843426674149289 0 0.0143981891458591 0.4363640697142408 0 0.0096968752450365438 0.45440901313987259 0 0.0143981891458591 0.4363640697142408 0 0.0096968752450365438 0.45440901313987259 0 0.0047073123466495753 0.43456967432022098 0 0.0143981891458591 0.4363640697142408 0 0.0096968752450365438 0.45440901313987259 0 0.01749144088260686 0.45493212876656342 0 0.01863164804241774 0.44843426674149289 0 0.0080674303727603543 0.47515287654029548 0 0.0063873713597050446 0.45486127543025823 0 0.01700224308108297 0.46541878356862898 0 0.0080674303727603543 0.47515287654029548 0 0.0063873713597050446 0.45486127543025823 0 -0.0046727324828841786 0.45897668626989663 0 0.0080674303727603543 0.47515287654029548 0 0.0063873713597050446 0.45486127543025823 0 0.0096968752450365438 0.45440901313987259 0 0.01749144088260686 0.45493212876656342 0 0.01700224308108297 0.46541878356862898 0 0.0063873713597050446 0.45486127543025823 0 0.0096968752450365438 0.45440901313987259 0 0.01700224308108297 0.46541878356862898 0 0.01749144088260686 0.45493212876656342 0 0.01700224308108297 0.46541878356862898 0 0.025181121318844691 0.45504143347885567 0 0.01700224308108297 0.46541878356862898 0 0.025181121318844691 0.45504143347885567 0 0.031392536979083362 0.46629931623300108 0 0.025181121318844691 0.45504143347885567 0 0.01863164804241774 0.44843426674149289 0 0.02818268822946058 0.44485827217774532 0 0.03796231520289399 0.44072728267596623 0 0.0143981891458591 0.4363640697142408 0 0.02818268822946058 0.44485827217774532 0 0.03796231520289399 0.44072728267596623 0 0.0143981891458591 0.4363640697142408 0 0.01749144088260686 0.45493212876656342 0 0.025181121318844691 0.45504143347885567 0 0.01863164804241774 0.44843426674149289 0 0.01863164804241774 0.44843426674149289 0 0.02818268822946058 0.44485827217774532 0 0.0143981891458591 0.4363640697142408 0 0.025181121318844691 0.45504143347885567 0 0.040571743915270277 0.4412104532867942 0 0.041170973716106882 0.45830056004759617 0 0.040571743915270277 0.4412104532867942 0 0.041170973716106882 0.45830056004759617 0 0.053516369898924387 0.45303691852482181 0 0.02818268822946058 0.44485827217774532 0 0.03796231520289399 0.44072728267596623 0 0.040571743915270277 0.4412104532867942 0 0.025181121318844691 0.45504143347885567 0 0.02818268822946058 0.44485827217774532 0 0.040571743915270277 0.4412104532867942 0 0.025181121318844691 0.45504143347885567 0 0.040571743915270277 0.4412104532867942 0 0.03796231520289399 0.44072728267596623 0 0.040571743915270277 0.4412104532867942 0 0.041708989296772539 0.43211375128684448 0 0.03796231520289399 0.44072728267596623 0 0.040571743915270277 0.4412104532867942 0 0.025181121318844691 0.45504143347885567 0 0.031392536979083362 0.46629931623300108 0 0.041170973716106882 0.45830056004759617 0 0.045942963874062527 0.47180043592922388 0 0.031392536979083362 0.46629931623300108 0 0.041170973716106882 0.45830056004759617 0 0.065686483538921731 0.44586078308010069 0 0.067397025092382296 0.46402220912037601 0 0.053516369898924387 0.45303691852482181 0 0.045942963874062527 0.47180043592922388 0 0.041170973716106882 0.45830056004759617 0 0.055261814009707678 0.46411512752893841 0 0.041170973716106882 0.45830056004759617 0 0.055261814009707678 0.46411512752893841 0 0.053516369898924387 0.45303691852482181 0 0.067397025092382296 0.46402220912037601 0 0.053516369898924387 0.45303691852482181 0 0.067397025092382296 0.46402220912037601 0 0.055261814009707678 0.46411512752893841 0 0.053516369898924387 0.45303691852482181 0 0.065686483538921731 0.44586078308010069 0 0.040571743915270277 0.4412104532867942 0 0.051947280996541959 0.4309876811371055 0 0.065686483538921731 0.44586078308010069 0 0.040571743915270277 0.4412104532867942 0 0.053516369898924387 0.45303691852482181 0 0.065686483538921731 0.44586078308010069 0 0.040571743915270277 0.4412104532867942 0 0.040571743915270277 0.4412104532867942 0 0.053516369898924387 0.45303691852482181 0 0.065686483538921731 0.44586078308010069 0 0.051947280996541959 0.4309876811371055 0 0.063322818077812204 0.42076490898741531 0 0.051947280996541959 0.4309876811371055 0 0.063322818077812204 0.42076490898741531 0 0.051947280996541959 0.4309876811371055 0 0.05412102202458733 0.42066114178203978 0 0.063322818077812204 0.42076490898741531 0 0.051947280996541959 0.4309876811371055 0 0.05412102202458733 0.42066114178203978 0 0.044921747278516722 0.42249706889268918 0 0.059936109606230463 0.415244728027864 0 0.05412102202458733 0.42066114178203978 0 0.063322818077812204 0.42076490898741531 0 0.059936109606230463 0.415244728027864 0 0.062961443430653671 0.41692806625540968 0 0.063322818077812204 0.42076490898741531 0 0.059936109606230463 0.415244728027864 0 0.05412102202458733 0.42066114178203978 0 0.04923019974428932 0.41499820666166998 0 0.05412102202458733 0.42066114178203978 0 0.04923019974428932 0.41499820666166998 0 0.044921747278516722 0.42249706889268918 0 0.059936109606230463 0.415244728027864 0 0.04923019974428932 0.41499820666166998 0 0.047440412615366391 0.40497532868820207 0 0.039556419857508192 0.41134406398218132 0 0.032966571751400997 0.42487756850629449 0 0.02268953184550369 0.40453960253466509 0 0.04923019974428932 0.41499820666166998 0 0.039556419857508192 0.41134406398218132 0 0.047440412615366391 0.40497532868820207 0 0.04923019974428932 0.41499820666166998 0 0.039556419857508192 0.41134406398218132 0 0.044921747278516722 0.42249706889268918 0 0.039556419857508192 0.41134406398218132 0 0.044921747278516722 0.42249706889268918 0 0.032966571751400997 0.42487756850629449 0 0.03796231520289399 0.44072728267596623 0 0.041708989296772539 0.43211375128684448 0 0.032966571751400997 0.42487756850629449 0 0.040571743915270277 0.4412104532867942 0 0.051947280996541959 0.4309876811371055 0 0.040571743915270277 0.4412104532867942 0 0.051947280996541959 0.4309876811371055 0 0.041708989296772539 0.43211375128684448 0 0.051947280996541959 0.4309876811371055 0 0.041708989296772539 0.43211375128684448 0 0.044921747278516722 0.42249706889268918 0 0.041708989296772539 0.43211375128684448 0 0.044921747278516722 0.42249706889268918 0 0.032966571751400997 0.42487756850629449 0 0.03796231520289399 0.44072728267596623 0 0.017483856698866679 0.42452042395925871 0 0.0143981891458591 0.4363640697142408 0 0.03796231520289399 0.44072728267596623 0 0.032966571751400997 0.42487756850629449 0 0.017483856698866679 0.42452042395925871 0 0.03796231520289399 0.44072728267596623 0 0.017483856698866679 0.42452042395925871 0 0.017483856698866679 0.42452042395925871 0 0.0143981891458591 0.4363640697142408 0 0.017483856698866679 0.42452042395925871 0 0.0097491813080866681 0.40940470223301179 0 0.02268953184550369 0.40453960253466509 0 0.017483856698866679 0.42452042395925871 0 0.02268953184550369 0.40453960253466509 0 0.032966571751400997 0.42487756850629449 0 0.017483856698866679 0.42452042395925871 0 0.02268953184550369 0.40453960253466509 0 0.017483856698866679 0.42452042395925871 0 0.0029210422779444929 0.41299526566713562 0 0.017483856698866679 0.42452042395925871 0 0.0029210422779444929 0.41299526566713562 0 0.0098776001173299759 0.42711235841521389 0 0.017483856698866679 0.42452042395925871 0 0.0097491813080866681 0.40940470223301179 0 0.0029210422779444929 0.41299526566713562 0 0.0097491813080866681 0.40940470223301179 0 0.0029210422779444929 0.41299526566713562 0 0.0039496993383259724 0.40483660926685489 0 -0.0020934364043300731 0.40902675663479982 0 0.0029210422779444929 0.41299526566713562 0 0.0039496993383259724 0.40483660926685489 0 -0.0020934364043300731 0.40902675663479982 0 0.0029210422779444929 0.41299526566713562 0 0.0029210422779444929 0.41299526566713562 0 0.0047073123466495753 0.43456967432022098 0 0.0029210422779444929 0.41299526566713562 0 0.0047073123466495753 0.43456967432022098 0 0.0098776001173299759 0.42711235841521389 0 0.0047073123466495753 0.43456967432022098 0 0.0143981891458591 0.4363640697142408 0 0.0098776001173299759 0.42711235841521389 0 0.0047073123466495753 0.43456967432022098 0 0.0143981891458591 0.4363640697142408 0 0.017483856698866679 0.42452042395925871 0 0.0143981891458591 0.4363640697142408 0 0.0098776001173299759 0.42711235841521389 0 0.015161572626761479 0.38635749357343102 0 0.002717758819928457 0.38255309846569119 0 0.008602621413415586 0.39741918285029959 0 0.015161572626761479 0.38635749357343102 0 0.002717758819928457 0.38255309846569119 0 0.017943945625875712 0.37130886584470502 0 -0.0033305084187407949 0.39836026983377659 0 0.002717758819928457 0.38255309846569119 0 0.008602621413415586 0.39741918285029959 0 0.015161572626761479 0.38635749357343102 0 0.008602621413415586 0.39741918285029959 0 0.02268953184550369 0.40453960253466509 0 0.0097491813080866681 0.40940470223301179 0 0.0039496993383259724 0.40483660926685489 0 0.008602621413415586 0.39741918285029959 0 -0.0033305084187407949 0.39836026983377659 0 0.0039496993383259724 0.40483660926685489 0 0.008602621413415586 0.39741918285029959 0 0.0097491813080866681 0.40940470223301179 0 0.008602621413415586 0.39741918285029959 0 0.02268953184550369 0.40453960253466509 0 0.015161572626761479 0.38635749357343102 0 0.02268953184550369 0.40453960253466509 0 0.027895206992141389 0.38455878111007169 0 0.02268953184550369 0.40453960253466509 0 0.027895206992141389 0.38455878111007169 0 0.02268953184550369 0.40453960253466509 0 0.027895206992141389 0.38455878111007169 0 0.037466121982452187 0.39804155059732532 0 0.015161572626761479 0.38635749357343102 0 0.027895206992141389 0.38455878111007169 0 0.017943945625875712 0.37130886584470502 0 0.027895206992141389 0.38455878111007169 0 0.037466121982452187 0.39804155059732532 0 0.050134051010347583 0.38861738513627092 0 0.050134051010347583 0.38861738513627092 0 0.042341626436127378 0.36744922346237519 0 0.027895206992141389 0.38455878111007169 0 0.050134051010347583 0.38861738513627092 0 0.033100882138780208 0.36457795968547863 0 0.050134051010347583 0.38861738513627092 0 0.033100882138780208 0.36457795968547863 0 0.037466121982452187 0.39804155059732532 0 0.047440412615366391 0.40497532868820207 0 0.050134051010347583 0.38861738513627092 0 0.039556419857508192 0.41134406398218132 0 0.02268953184550369 0.40453960253466509 0 0.037466121982452187 0.39804155059732532 0 0.039556419857508192 0.41134406398218132 0 0.037466121982452187 0.39804155059732532 0 0.047440412615366391 0.40497532868820207 0 0.059936109606230463 0.415244728027864 0 0.05965784141113184 0.40205859804708932 0 0.050134051010347583 0.38861738513627092 0 0.059936109606230463 0.415244728027864 0 0.050134051010347583 0.38861738513627092 0 0.059936109606230463 0.415244728027864 0 0.047440412615366391 0.40497532868820207 0 0.050134051010347583 0.38861738513627092 0 0.05965784141113184 0.40205859804708932 0 0.050134051010347583 0.38861738513627092 0 0.05965784141113184 0.40205859804708932 0 0.050134051010347583 0.38861738513627092 0 0.064145949482847672 0.38823978942921172 0 0.050134051010347583 0.38861738513627092 0 0.057416044329462963 0.37135350572953352 0 0.042341626436127378 0.36744922346237519 0 0.050134051010347583 0.38861738513627092 0 0.064145949482847672 0.38823978942921172 0 0.057416044329462963 0.37135350572953352 0 0.071995403564403329 0.37603538959327509 0 0.064145949482847672 0.38823978942921172 0 0.057416044329462963 0.37135350572953352 0 0.071995403564403329 0.37603538959327509 0 0.083022866831747477 0.38490886260501639 0 0.075302450580509661 0.39279732369502779 0 0.071995403564403329 0.37603538959327509 0 0.064145949482847672 0.38823978942921172 0 0.075302450580509661 0.39279732369502779 0 0.083022866831747477 0.38490886260501639 0 0.095219377258536797 0.39010688582238079 0 0.091821752373226179 0.36898587274426931 0 0.071995403564403329 0.37603538959327509 0 0.083022866831747477 0.38490886260501639 0 0.091821752373226179 0.36898587274426931 0 0.083022866831747477 0.38490886260501639 0 0.085680197721448081 0.3940344982953512 0 0.075302450580509661 0.39279732369502779 0 0.083022866831747477 0.38490886260501639 0 0.085680197721448081 0.3940344982953512 0 0.095219377258536797 0.39010688582238079 0 0.091808632263672557 0.40056169147705512 0 0.085680197721448081 0.3940344982953512 0 0.082824693073925551 0.40323929915003942 0 0.091808632263672557 0.40056169147705512 0 0.082824693073925551 0.40323929915003942 0 0.090413357610065581 0.40899259823763562 0 0.091808632263672557 0.40056169147705512 0 0.085680197721448081 0.3940344982953512 0 0.095219377258536797 0.39010688582238079 0 0.085680197721448081 0.3940344982953512 0 0.082824693073925551 0.40323929915003942 0 0.075302450580509661 0.39279732369502779 0 0.082824693073925551 0.40323929915003942 0 0.075302450580509661 0.39279732369502779 0 0.078730239244174965 0.40691883254524819 0 0.082824693073925551 0.40323929915003942 0 0.078730239244174965 0.40691883254524819 0 0.064145949482847672 0.38823978942921172 0 0.075302450580509661 0.39279732369502779 0 0.078730239244174965 0.40691883254524819 0 0.064145949482847672 0.38823978942921172 0 0.067928915487517699 0.40317925774486418 0 0.078730239244174965 0.40691883254524819 0 0.064145949482847672 0.38823978942921172 0 0.078730239244174965 0.40691883254524819 0 0.05965784141113184 0.40205859804708932 0 0.064145949482847672 0.38823978942921172 0 0.067928915487517699 0.40317925774486418 0 0.059936109606230463 0.415244728027864 0 0.05965784141113184 0.40205859804708932 0 0.069181631811916236 0.41549981095790772 0 0.05965784141113184 0.40205859804708932 0 0.069181631811916236 0.41549981095790772 0 0.05965784141113184 0.40205859804708932 0 0.067928915487517699 0.40317925774486418 0 0.069181631811916236 0.41549981095790772 0 0.059936109606230463 0.415244728027864 0 0.062961443430653671 0.41692806625540968 0 0.069181631811916236 0.41549981095790772 0 0.062961443430653671 0.41692806625540968 0 0.063322818077812204 0.42076490898741531 0 0.069181631811916236 0.41549981095790772 0 0.063322818077812204 0.42076490898741531 0 0.069181631811916236 0.41549981095790772 0 0.062961443430653671 0.41692806625540968 0 0.063322818077812204 0.42076490898741531 0 0.069181631811916236 0.41549981095790772 0 0.078730239244174965 0.40691883254524819 0 0.081268368457422968 0.42053822127912133 0 0.067928915487517699 0.40317925774486418 0 0.069181631811916236 0.41549981095790772 0 0.078730239244174965 0.40691883254524819 0 0.069181631811916236 0.41549981095790772 0 0.078730239244174965 0.40691883254524819 0 0.069181631811916236 0.41549981095790772 0 0.083335149320201946 0.43547509750455338 0 0.069181631811916236 0.41549981095790772 0 0.083335149320201946 0.43547509750455338 0 0.081268368457422968 0.42053822127912133 0 0.063322818077812204 0.42076490898741531 0 0.069181631811916236 0.41549981095790772 0 0.070625804643203963 0.43329732391558401 0 0.069181631811916236 0.41549981095790772 0 0.070625804643203963 0.43329732391558401 0 0.083335149320201946 0.43547509750455338 0 0.065686483538921731 0.44586078308010069 0 0.063322818077812204 0.42076490898741531 0 0.070625804643203963 0.43329732391558401 0 0.065686483538921731 0.44586078308010069 0 0.063322818077812204 0.42076490898741531 0 0.096411237214167833 0.44241555508075148 0 0.083335149320201946 0.43547509750455338 0 0.093306386927979573 0.42558744757602368 0 0.083335149320201946 0.43547509750455338 0 0.093306386927979573 0.42558744757602368 0 0.081268368457422968 0.42053822127912133 0 0.093306386927979573 0.42558744757602368 0 0.078730239244174965 0.40691883254524819 0 0.090413357610065581 0.40899259823763562 0 0.093306386927979573 0.42558744757602368 0 0.078730239244174965 0.40691883254524819 0 0.093306386927979573 0.42558744757602368 0 0.078730239244174965 0.40691883254524819 0 0.081268368457422968 0.42053822127912133 0 0.082824693073925551 0.40323929915003942 0 0.078730239244174965 0.40691883254524819 0 0.090413357610065581 0.40899259823763562 0 0.093306386927979573 0.42558744757602368 0 0.090413357610065581 0.40899259823763562 0 0.1048296352355749 0.4065507034612505 0 0.093306386927979573 0.42558744757602368 0 0.1048296352355749 0.4065507034612505 0 0.1215404685210171 0.4212452918854287 0 0.10788253461178381 0.4442560626067994 0 0.093306386927979573 0.42558744757602368 0 0.10788253461178381 0.4442560626067994 0 0.096411237214167833 0.44241555508075148 0 0.093306386927979573 0.42558744757602368 0 0.10788253461178381 0.4442560626067994 0 0.093306386927979573 0.42558744757602368 0 0.1215404685210171 0.4212452918854287 0 0.10788253461178381 0.4442560626067994 0 0.1215404685210171 0.4212452918854287 0 0.1269485872343194 0.43585301573587421 0 0.10788253461178381 0.4442560626067994 0 0.1215404685210171 0.4212452918854287 0 0.1048296352355749 0.4065507034612505 0 0.1215404685210171 0.4212452918854287 0 0.13519840243025261 0.39823452116405939 0 0.1048296352355749 0.4065507034612505 0 0.11351007740173941 0.38361019695416432 0 0.13519840243025261 0.39823452116405939 0 0.11351007740173941 0.38361019695416432 0 0.13519840243025261 0.39823452116405939 0 0.1205469408127475 0.37957689507545689 0 0.11433074089461751 0.37361922101732831 0 0.1300384632157951 0.37700415137009757 0 0.1205469408127475 0.37957689507545689 0 0.11351007740173941 0.38361019695416432 0 0.12825049790669141 0.38505415057667142 0 0.11351007740173941 0.38361019695416432 0 0.10536453640781029 0.36961262299874897 0 0.11433074089461751 0.37361922101732831 0 0.1205469408127475 0.37957689507545689 0 0.11351007740173941 0.38361019695416432 0 0.11433074089461751 0.37361922101732831 0 0.11351007740173941 0.38361019695416432 0 0.095219377258536797 0.39010688582238079 0 0.091821752373226179 0.36898587274426931 0 0.11351007740173941 0.38361019695416432 0 0.091821752373226179 0.36898587274426931 0 0.091808632263672557 0.40056169147705512 0 0.1048296352355749 0.4065507034612505 0 0.095219377258536797 0.39010688582238079 0 0.1048296352355749 0.4065507034612505 0 0.11351007740173941 0.38361019695416432 0 0.095219377258536797 0.39010688582238079 0 0.091808632263672557 0.40056169147705512 0 0.090413357610065581 0.40899259823763562 0 0.1048296352355749 0.4065507034612505 0 0.1107159309666591 0.36105217009145207 0 0.091393398717522556 0.34510018881280718 0 0.1080836166448851 0.34477656430262599 0 0.1107159309666591 0.36105217009145207 0 0.091393398717522556 0.34510018881280718 0 0.096444180402809512 0.36079565418653159 0 0.1107159309666591 0.36105217009145207 0 0.091393398717522556 0.34510018881280718 0 0.11351007740173941 0.38361019695416432 0 0.10536453640781029 0.36961262299874897 0 0.091821752373226179 0.36898587274426931 0 0.096444180402809512 0.36079565418653159 0 0.10536453640781029 0.36961262299874897 0 0.091821752373226179 0.36898587274426931 0 0.096444180402809512 0.36079565418653159 0 0.10536453640781029 0.36961262299874897 0 0.1107159309666591 0.36105217009145207 0 0.1107159309666591 0.36105217009145207 0 0.11433074089461751 0.37361922101732831 0 0.1300384632157951 0.37700415137009757 0 0.1107159309666591 0.36105217009145207 0 0.1275222586369818 0.36092690036836511 0 0.1300384632157951 0.37700415137009757 0 0.1107159309666591 0.36105217009145207 0 0.1300384632157951 0.37700415137009757 0 0.10536453640781029 0.36961262299874897 0 0.1107159309666591 0.36105217009145207 0 0.11433074089461751 0.37361922101732831 0 0.1080836166448851 0.34477656430262599 0 0.1107159309666591 0.36105217009145207 0 0.1193125758122061 0.35100281949993323 0 0.1107159309666591 0.36105217009145207 0 0.1193125758122061 0.35100281949993323 0 0.1275222586369818 0.36092690036836511 0 0.1080836166448851 0.34477656430262599 0 0.1193125758122061 0.35100281949993323 0 0.1223829373700252 0.33779524080266932 0 0.1193125758122061 0.35100281949993323 0 0.1223829373700252 0.33779524080266932 0 0.1283176684464786 0.34715845692929642 0 0.1223829373700252 0.33779524080266932 0 0.110538910891625 0.33237822335682687 0 0.1194809126545963 0.32439404854009551 0 0.1223829373700252 0.33779524080266932 0 0.1194809126545963 0.32439404854009551 0 0.13277712486615989 0.32926922951962889 0 0.1080836166448851 0.34477656430262599 0 0.1223829373700252 0.33779524080266932 0 0.110538910891625 0.33237822335682687 0 0.1194809126545963 0.32439404854009551 0 0.1110334056637388 0.31065578352149259 0 0.13526681498932711 0.31398023845663331 0 0.110538910891625 0.33237822335682687 0 0.1194809126545963 0.32439404854009551 0 0.1047055206288489 0.32385716264545389 0 0.1194809126545963 0.32439404854009551 0 0.1047055206288489 0.32385716264545389 0 0.1110334056637388 0.31065578352149259 0 0.1047055206288489 0.32385716264545389 0 0.095787721985263544 0.3170225362290644 0 0.1110334056637388 0.31065578352149259 0 0.1047055206288489 0.32385716264545389 0 0.095787721985263544 0.3170225362290644 0 0.091366383801448639 0.32622732120052078 0 0.1080836166448851 0.34477656430262599 0 0.099459709491722115 0.33472582090259939 0 0.091393398717522556 0.34510018881280718 0 0.1080836166448851 0.34477656430262599 0 0.110538910891625 0.33237822335682687 0 0.099459709491722115 0.33472582090259939 0 0.110538910891625 0.33237822335682687 0 0.1047055206288489 0.32385716264545389 0 0.099459709491722115 0.33472582090259939 0 0.1047055206288489 0.32385716264545389 0 0.099459709491722115 0.33472582090259939 0 0.091366383801448639 0.32622732120052078 0 0.088822707842867388 0.3354110101854878 0 0.081782580722697423 0.34236731866185899 0 0.091393398717522556 0.34510018881280718 0 0.099459709491722115 0.33472582090259939 0 0.088822707842867388 0.3354110101854878 0 0.091393398717522556 0.34510018881280718 0 0.099459709491722115 0.33472582090259939 0 0.088822707842867388 0.3354110101854878 0 0.091366383801448639 0.32622732120052078 0 0.088822707842867388 0.3354110101854878 0 0.081261097872582941 0.32954784740946969 0 0.091366383801448639 0.32622732120052078 0 0.081261097872582941 0.32954784740946969 0 0.081782580722697423 0.34236731866185899 0 0.07371997597803219 0.33453551612045618 0 0.088822707842867388 0.3354110101854878 0 0.081261097872582941 0.32954784740946969 0 0.081782580722697423 0.34236731866185899 0 0.095787721985263544 0.3170225362290644 0 0.085047295946395124 0.31925743290159803 0 0.086799996338150373 0.30733132858635198 0 0.095787721985263544 0.3170225362290644 0 0.091366383801448639 0.32622732120052078 0 0.085047295946395124 0.31925743290159803 0 0.081261097872582941 0.32954784740946969 0 0.085047295946395124 0.31925743290159803 0 0.072095352635735396 0.31789410259606748 0 0.081261097872582941 0.32954784740946969 0 0.091366383801448639 0.32622732120052078 0 0.085047295946395124 0.31925743290159803 0 0.085047295946395124 0.31925743290159803 0 0.072095352635735396 0.31789410259606748 0 0.086799996338150373 0.30733132858635198 0 0.072095352635735396 0.31789410259606748 0 0.061932228906839658 0.33650789077146681 0 0.056669893930556228 0.3261576977213837 0 0.072095352635735396 0.31789410259606748 0 0.061932228906839658 0.33650789077146681 0 0.072095352635735396 0.31789410259606748 0 0.055006080030169768 0.3159695359440054 0 0.063600425761552462 0.30377580860276532 0 0.081261097872582941 0.32954784740946969 0 0.072095352635735396 0.31789410259606748 0 0.07371997597803219 0.33453551612045618 0 0.072095352635735396 0.31789410259606748 0 0.07371997597803219 0.33453551612045618 0 0.061932228906839658 0.33650789077146681 0 0.081782580722697423 0.34236731866185899 0 0.07371997597803219 0.33453551612045618 0 0.071528619752305567 0.34636042116341748 0 0.07371997597803219 0.33453551612045618 0 0.071528619752305567 0.34636042116341748 0 0.061932228906839658 0.33650789077146681 0 0.070133427344712909 0.35436154853437429 0 0.071528619752305567 0.34636042116341748 0 0.048445102316199543 0.33973722432447923 0 0.096444180402809512 0.36079565418653159 0 0.071528619752305567 0.34636042116341748 0 0.096444180402809512 0.36079565418653159 0 0.081782580722697423 0.34236731866185899 0 0.071528619752305567 0.34636042116341748 0 0.096444180402809512 0.36079565418653159 0 0.070133427344712909 0.35436154853437429 0 0.071528619752305567 0.34636042116341748 0 0.096444180402809512 0.36079565418653159 0 0.081782580722697423 0.34236731866185899 0 0.091393398717522556 0.34510018881280718 0 0.070133427344712909 0.35436154853437429 0 0.091821752373226179 0.36898587274426931 0 0.096444180402809512 0.36079565418653159 0 0.070133427344712909 0.35436154853437429 0 0.091821752373226179 0.36898587274426931 0 0.071995403564403329 0.37603538959327509 0 0.070133427344712909 0.35436154853437429 0 0.057416044329462963 0.37135350572953352 0 0.071995403564403329 0.37603538959327509 0 0.070133427344712909 0.35436154853437429 0 0.091821752373226179 0.36898587274426931 0 0.070133427344712909 0.35436154853437429 0 0.057416044329462963 0.37135350572953352 0 0.050577080457681937 0.35583651276784828 0 0.057416044329462963 0.37135350572953352 0 0.050577080457681937 0.35583651276784828 0 0.042341626436127378 0.36744922346237519 0 0.070133427344712909 0.35436154853437429 0 0.048445102316199543 0.33973722432447923 0 0.070133427344712909 0.35436154853437429 0 0.050577080457681937 0.35583651276784828 0 0.048445102316199543 0.33973722432447923 0 0.034549201861906999 0.34628106178847951 0 0.033100882138780208 0.36457795968547863 0 0.028711275957251502 0.35838277596159679 0 0.050577080457681937 0.35583651276784828 0 0.034549201861906999 0.34628106178847951 0 0.042341626436127378 0.36744922346237519 0 0.034549201861906999 0.34628106178847951 0 0.042341626436127378 0.36744922346237519 0 0.050577080457681937 0.35583651276784828 0 0.034549201861906999 0.34628106178847951 0 0.048445102316199543 0.33973722432447923 0 0.050134051010347583 0.38861738513627092 0 0.042341626436127378 0.36744922346237519 0 0.033100882138780208 0.36457795968547863 0 0.034549201861906999 0.34628106178847951 0 0.042341626436127378 0.36744922346237519 0 0.033100882138780208 0.36457795968547863 0 0.027895206992141389 0.38455878111007169 0 0.033100882138780208 0.36457795968547863 0 0.017943945625875712 0.37130886584470502 0 0.027895206992141389 0.38455878111007169 0 0.033100882138780208 0.36457795968547863 0 0.017943945625875712 0.37130886584470502 0 0.028711275957251502 0.35838277596159679 0 0.015990002638261669 0.35840725326325262 0 0.033100882138780208 0.36457795968547863 0 0.017943945625875712 0.37130886584470502 0 0.028711275957251502 0.35838277596159679 0 0.033100882138780208 0.36457795968547863 0 0.028711275957251502 0.35838277596159679 0 0.034549201861906999 0.34628106178847951 0 0.028711275957251502 0.35838277596159679 0 0.021153382868708829 0.34848302518162227 0 0.028711275957251502 0.35838277596159679 0 0.021153382868708829 0.34848302518162227 0 0.015990002638261669 0.35840725326325262 0 0.015990002638261669 0.35840725326325262 0 0.0084853937333069489 0.34616039521984232 0 0.001253872613496493 0.36497928767497029 0 -0.0092663110478368605 0.34293693159353011 0 0.0084853937333069489 0.34616039521984232 0 0.001253872613496493 0.36497928767497029 0 0.021153382868708829 0.34848302518162227 0 0.015990002638261669 0.35840725326325262 0 0.0084853937333069489 0.34616039521984232 0 0.002717758819928457 0.38255309846569119 0 0.017943945625875712 0.37130886584470502 0 0.001253872613496493 0.36497928767497029 0 0.017943945625875712 0.37130886584470502 0 0.015990002638261669 0.35840725326325262 0 0.001253872613496493 0.36497928767497029 0 -0.0061380820639313008 0.31872310617904631 0 0.0084535636614589318 0.31933482251143319 0 0.013118884936342111 0.30667453594314842 0 0.014999796154387769 0.32443916802724992 0 0.0084535636614589318 0.31933482251143319 0 0.021697498451297689 0.31748995511718953 0 0.014999796154387769 0.32443916802724992 0 0.0084535636614589318 0.31933482251143319 0 0.0055183660808578051 0.33088139718327658 0 0.0084535636614589318 0.31933482251143319 0 0.021697498451297689 0.31748995511718953 0 0.013118884936342111 0.30667453594314842 0 -0.0061380820639313008 0.31872310617904631 0 0.0084535636614589318 0.31933482251143319 0 0.0055183660808578051 0.33088139718327658 0 -0.0092663110478368605 0.34293693159353011 0 0.0084853937333069489 0.34616039521984232 0 0.0055183660808578051 0.33088139718327658 0 0.0084853937333069489 0.34616039521984232 0 0.0055183660808578051 0.33088139718327658 0 0.01775556510778617 0.33287149329494892 0 0.014999796154387769 0.32443916802724992 0 0.0055183660808578051 0.33088139718327658 0 0.01775556510778617 0.33287149329494892 0 0.034549201861906999 0.34628106178847951 0 0.01775556510778617 0.33287149329494892 0 0.026756777287686339 0.32511290011458399 0 0.034549201861906999 0.34628106178847951 0 0.026756777287686339 0.32511290011458399 0 0.034549201861906999 0.34628106178847951 0 0.021153382868708829 0.34848302518162227 0 0.01775556510778617 0.33287149329494892 0 0.021153382868708829 0.34848302518162227 0 0.0084853937333069489 0.34616039521984232 0 0.01775556510778617 0.33287149329494892 0 0.021697498451297689 0.31748995511718953 0 0.0249295332594427 0.3193624867551017 0 0.039419767335602401 0.32229982627452508 0 0.026756777287686339 0.32511290011458399 0 0.02157398747053825 0.32161817202940163 0 0.026756777287686339 0.32511290011458399 0 0.0249295332594427 0.3193624867551017 0 0.026756777287686339 0.32511290011458399 0 0.02157398747053825 0.32161817202940163 0 0.0249295332594427 0.3193624867551017 0 0.014999796154387769 0.32443916802724992 0 0.01775556510778617 0.33287149329494892 0 0.02157398747053825 0.32161817202940163 0 0.01775556510778617 0.33287149329494892 0 0.026756777287686339 0.32511290011458399 0 0.02157398747053825 0.32161817202940163 0 0.014999796154387769 0.32443916802724992 0 0.02157398747053825 0.32161817202940163 0 0.021697498451297689 0.31748995511718953 0 0.02157398747053825 0.32161817202940163 0 0.021697498451297689 0.31748995511718953 0 0.0249295332594427 0.3193624867551017 0 0.021697498451297689 0.31748995511718953 0 0.0249295332594427 0.3193624867551017 0 0.021697498451297689 0.31748995511718953 0 0.041046633136704862 0.31642869067274548 0 0.03178304953784699 0.30918069714162111 0 0.026756777287686339 0.32511290011458399 0 0.0249295332594427 0.3193624867551017 0 0.046613059101801621 0.33192518814030347 0 0.0249295332594427 0.3193624867551017 0 0.039419767335602401 0.32229982627452508 0 0.046613059101801621 0.33192518814030347 0 0.0249295332594427 0.3193624867551017 0 0.046613059101801621 0.33192518814030347 0 0.021697498451297689 0.31748995511718953 0 0.039419767335602401 0.32229982627452508 0 0.041046633136704862 0.31642869067274548 0 0.039419767335602401 0.32229982627452508 0 0.041046633136704862 0.31642869067274548 0 0.048321878652605448 0.3233554711678619 0 0.039419767335602401 0.32229982627452508 0 0.046613059101801621 0.33192518814030347 0 0.048321878652605448 0.3233554711678619 0 0.034549201861906999 0.34628106178847951 0 0.026756777287686339 0.32511290011458399 0 0.048445102316199543 0.33973722432447923 0 0.026756777287686339 0.32511290011458399 0 0.048445102316199543 0.33973722432447923 0 0.026756777287686339 0.32511290011458399 0 0.046613059101801621 0.33192518814030347 0 0.048445102316199543 0.33973722432447923 0 0.071528619752305567 0.34636042116341748 0 0.046613059101801621 0.33192518814030347 0 0.061932228906839658 0.33650789077146681 0 0.071528619752305567 0.34636042116341748 0 0.046613059101801621 0.33192518814030347 0 0.048445102316199543 0.33973722432447923 0 0.071528619752305567 0.34636042116341748 0 0.046613059101801621 0.33192518814030347 0 0.046613059101801621 0.33192518814030347 0 0.061932228906839658 0.33650789077146681 0 0.056669893930556228 0.3261576977213837 0 0.072095352635735396 0.31789410259606748 0 0.056669893930556228 0.3261576977213837 0 0.055006080030169768 0.3159695359440054 0 0.041046633136704862 0.31642869067274548 0 0.048321878652605448 0.3233554711678619 0 0.055006080030169768 0.3159695359440054 0 0.048321878652605448 0.3233554711678619 0 0.056669893930556228 0.3261576977213837 0 0.055006080030169768 0.3159695359440054 0 0.046613059101801621 0.33192518814030347 0 0.048321878652605448 0.3233554711678619 0 0.056669893930556228 0.3261576977213837 0 0.060296298013656921 0.28505394599780659 0 0.045623979587738783 0.30439768346153229 0 0.063600425761552462 0.30377580860276532 0 0.055006080030169768 0.3159695359440054 0 0.045623979587738783 0.30439768346153229 0 0.063600425761552462 0.30377580860276532 0 0.041046633136704862 0.31642869067274548 0 0.055006080030169768 0.3159695359440054 0 0.045623979587738783 0.30439768346153229 0 0.060296298013656921 0.28505394599780659 0 0.041791687746726938 0.28839710350420589 0 0.045623979587738783 0.30439768346153229 0 0.060296298013656921 0.28505394599780659 0 0.041791687746726938 0.28839710350420589 0 0.038334119662678863 0.27082757757494308 0 0.041791687746726938 0.28839710350420589 0 0.045623979587738783 0.30439768346153229 0 0.02574403227228263 0.29764408691967792 0 0.045623979587738783 0.30439768346153229 0 0.03178304953784699 0.30918069714162111 0 0.02574403227228263 0.29764408691967792 0 0.041046633136704862 0.31642869067274548 0 0.045623979587738783 0.30439768346153229 0 0.03178304953784699 0.30918069714162111 0 0.03178304953784699 0.30918069714162111 0 0.02308586629944236 0.30774731878040917 0 0.02574403227228263 0.29764408691967792 0 0.021697498451297689 0.31748995511718953 0 0.03178304953784699 0.30918069714162111 0 0.02308586629944236 0.30774731878040917 0 0.021697498451297689 0.31748995511718953 0 0.02308586629944236 0.30774731878040917 0 0.013118884936342111 0.30667453594314842 0 0.02308586629944236 0.30774731878040917 0 0.02574403227228263 0.29764408691967792 0 0.013118884936342111 0.30667453594314842 0 0.041791687746726938 0.28839710350420589 0 0.02574403227228263 0.29764408691967792 0 0.01863051589578037 0.27809181427476559 0 0.02574403227228263 0.29764408691967792 0 0.0048744697134413331 0.29312888988880131 0 0.01863051589578037 0.27809181427476559 0 -0.0061380820639313008 0.31872310617904631 0 0.0048744697134413331 0.29312888988880131 0 0.013118884936342111 0.30667453594314842 0 0.02574403227228263 0.29764408691967792 0 0.0048744697134413331 0.29312888988880131 0 0.013118884936342111 0.30667453594314842 0 -0.01517468094623424 0.27124952259053048 0 0.01863051589578037 0.27809181427476559 0 0.016371941311700881 0.25660120915207979 0 -0.01517468094623424 0.27124952259053048 0 0.0048744697134413331 0.29312888988880131 0 0.01863051589578037 0.27809181427476559 0 0.01863051589578037 0.27809181427476559 0 0.016371941311700881 0.25660120915207979 0 0.038334119662678863 0.27082757757494308 0 0.016371941311700881 0.25660120915207979 0 0.038334119662678863 0.27082757757494308 0 0.028228655159526751 0.24042301724135701 0 0.016371941311700881 0.25660120915207979 0 0.038334119662678863 0.27082757757494308 0 0.028228655159526751 0.24042301724135701 0 0.047423533829832012 0.24578606919935569 0 0.038334119662678863 0.27082757757494308 0 0.041791687746726938 0.28839710350420589 0 0.01863051589578037 0.27809181427476559 0 0.038334119662678863 0.27082757757494308 0 0.060296298013656921 0.28505394599780659 0 0.038334119662678863 0.27082757757494308 0 0.068737935801930883 0.25521355198147039 0 0.060296298013656921 0.28505394599780659 0 0.038334119662678863 0.27082757757494308 0 0.047423533829832012 0.24578606919935569 0 0.038334119662678863 0.27082757757494308 0 0.068737935801930883 0.25521355198147039 0 0.093904429530681663 0.23958296612706589 0 0.068737935801930883 0.25521355198147039 0 0.089979971996602265 0.25802275434051353 0 0.068737935801930883 0.25521355198147039 0 0.089979971996602265 0.25802275434051353 0 0.078632939817738279 0.27890148389340841 0 0.089979971996602265 0.25802275434051353 0 0.078632939817738279 0.27890148389340841 0 0.095350017004116425 0.2753031228747097 0 0.060296298013656921 0.28505394599780659 0 0.068737935801930883 0.25521355198147039 0 0.078632939817738279 0.27890148389340841 0 0.060296298013656921 0.28505394599780659 0 0.078632939817738279 0.27890148389340841 0 0.082258476364634903 0.29928031442067032 0 0.060296298013656921 0.28505394599780659 0 0.063600425761552462 0.30377580860276532 0 0.082258476364634903 0.29928031442067032 0 0.060296298013656921 0.28505394599780659 0 0.082258476364634903 0.29928031442067032 0 0.072095352635735396 0.31789410259606748 0 0.082258476364634903 0.29928031442067032 0 0.072095352635735396 0.31789410259606748 0 0.063600425761552462 0.30377580860276532 0 0.082258476364634903 0.29928031442067032 0 0.072095352635735396 0.31789410259606748 0 0.082258476364634903 0.29928031442067032 0 0.086799996338150373 0.30733132858635198 0 0.085702489633113166 0.30151123162877203 0 0.082258476364634903 0.29928031442067032 0 0.086799996338150373 0.30733132858635198 0 0.085702489633113166 0.30151123162877203 0 0.082258476364634903 0.29928031442067032 0 0.085702489633113166 0.30151123162877203 0 0.082258476364634903 0.29928031442067032 0 0.092665462659118125 0.29469651690513632 0 0.091266224942940719 0.30134679004986947 0 0.086799996338150373 0.30733132858635198 0 0.099896951141381224 0.30184808307921812 0 0.085702489633113166 0.30151123162877203 0 0.091266224942940719 0.30134679004986947 0 0.092665462659118125 0.29469651690513632 0 0.085702489633113166 0.30151123162877203 0 0.091266224942940719 0.30134679004986947 0 0.086799996338150373 0.30733132858635198 0 0.082258476364634903 0.29928031442067032 0 0.095350017004116425 0.2753031228747097 0 0.082258476364634903 0.29928031442067032 0 0.092665462659118125 0.29469651690513632 0 0.095350017004116425 0.2753031228747097 0 0.078632939817738279 0.27890148389340841 0 0.082258476364634903 0.29928031442067032 0 0.095350017004116425 0.2753031228747097 0 0.099994309954118593 0.28816949993328023 0 0.099896951141381224 0.30184808307921812 0 0.11339458845836391 0.28542256498184532 0 0.092665462659118125 0.29469651690513632 0 0.099994309954118593 0.28816949993328023 0 0.095350017004116425 0.2753031228747097 0 0.099994309954118593 0.28816949993328023 0 0.11339458845836391 0.28542256498184532 0 0.095350017004116425 0.2753031228747097 0 0.092665462659118125 0.29469651690513632 0 0.099994309954118593 0.28816949993328023 0 0.099896951141381224 0.30184808307921812 0 0.086799996338150373 0.30733132858635198 0 0.099896951141381224 0.30184808307921812 0 0.1110334056637388 0.31065578352149259 0 0.086799996338150373 0.30733132858635198 0 0.1110334056637388 0.31065578352149259 0 0.099896951141381224 0.30184808307921812 0 0.1110334056637388 0.31065578352149259 0 0.11339458845836391 0.28542256498184532 0 0.095787721985263544 0.3170225362290644 0 0.086799996338150373 0.30733132858635198 0 0.1110334056637388 0.31065578352149259 0 0.091266224942940719 0.30134679004986947 0 0.092665462659118125 0.29469651690513632 0 0.099896951141381224 0.30184808307921812 0 0.124325893335181 0.30374721322445541 0 0.1110334056637388 0.31065578352149259 0 0.13526681498932711 0.31398023845663331 0 0.1110334056637388 0.31065578352149259 0 0.13526681498932711 0.31398023845663331 0 0.124325893335181 0.30374721322445541 0 0.1110334056637388 0.31065578352149259 0 0.11339458845836391 0.28542256498184532 0 0.11339458845836391 0.28542256498184532 0 0.1107638694542365 0.26896566597946808 0 0.1234062712192478 0.26586458799334167 0 0.1107638694542365 0.26896566597946808 0 0.1234062712192478 0.26586458799334167 0 0.10844155764360169 0.25132593132875108 0 0.12910930346839369 0.24952112788202779 0 0.1234062712192478 0.26586458799334167 0 0.10844155764360169 0.25132593132875108 0 0.10844155764360169 0.25132593132875108 0 0.095350017004116425 0.2753031228747097 0 0.089979971996602265 0.25802275434051353 0 0.10844155764360169 0.25132593132875108 0 0.095350017004116425 0.2753031228747097 0 0.1107638694542365 0.26896566597946808 0 0.10844155764360169 0.25132593132875108 0 0.095350017004116425 0.2753031228747097 0 0.11339458845836391 0.28542256498184532 0 0.1107638694542365 0.26896566597946808 0 0.095350017004116425 0.2753031228747097 0 0.14062956932948159 0.28104798619892479 0 0.14534593074245339 0.25208518202426761 0 0.14062956932948159 0.28104798619892479 0 0.1512274083841027 0.25941141841930981 0 0.1582381382181603 0.26762764308875509 0 0.14062956932948159 0.28104798619892479 0 0.16256214923360721 0.27752509777989898 0 0.14062956932948159 0.28104798619892479 0 0.1582381382181603 0.26762764308875509 0 0.16256214923360721 0.27752509777989898 0 0.14062956932948159 0.28104798619892479 0 0.1512274083841027 0.25941141841930981 0 0.14534593074245339 0.25208518202426761 0 0.1512274083841027 0.25941141841930981 0 0.15469808189905279 0.25060124022113578 0 0.14534593074245339 0.25208518202426761 0 0.1512274083841027 0.25941141841930981 0 0.15469808189905279 0.25060124022113578 0 0.15931668037862479 0.25726725697236841 0 0.1512274083841027 0.25941141841930981 0 0.14534593074245339 0.25208518202426761 0 0.12910930346839369 0.24952112788202779 0 0.1234062712192478 0.26586458799334167 0 0.13462276868989409 0.26212972102464038 0 0.14062956932948159 0.28104798619892479 0 0.14534593074245339 0.25208518202426761 0 0.13462276868989409 0.26212972102464038 0 0.12910930346839369 0.24952112788202779 0 0.14534593074245339 0.25208518202426761 0 0.13462276868989409 0.26212972102464038 0 0.11339458845836391 0.28542256498184532 0 0.1234062712192478 0.26586458799334167 0 0.14062956932948159 0.28104798619892479 0 0.1234062712192478 0.26586458799334167 0 0.14062956932948159 0.28104798619892479 0 0.13462276868989409 0.26212972102464038 0 0.14062956932948159 0.28104798619892479 0 0.13794819215940249 0.29751411232777869 0 0.11339458845836391 0.28542256498184532 0 0.14062956932948159 0.28104798619892479 0 0.13794819215940249 0.29751411232777869 0 0.124325893335181 0.30374721322445541 0 0.11339458845836391 0.28542256498184532 0 0.13794819215940249 0.29751411232777869 0 0.11339458845836391 0.28542256498184532 0 0.14062956932948159 0.28104798619892479 0 0.124325893335181 0.30374721322445541 0 0.13794819215940249 0.29751411232777869 0 0.13526681498932711 0.31398023845663331 0 0.13794819215940249 0.29751411232777869 0 0.13526681498932711 0.31398023845663331 0 0.1542999422032385 0.29818174396072561 0 0.1648015656167926 0.31803195673376189 0 0.13526681498932711 0.31398023845663331 0 0.13794819215940249 0.29751411232777869 0 0.1542999422032385 0.29818174396072561 0 0.13526681498932711 0.31398023845663331 0 0.14062956932948159 0.28104798619892479 0 0.13794819215940249 0.29751411232777869 0 0.1542999422032385 0.29818174396072561 0 0.14062956932948159 0.28104798619892479 0 0.1542999422032385 0.29818174396072561 0 0.16256214923360721 0.27752509777989898 0 0.1693824389883424 0.29261467684276288 0 0.17929029204188729 0.28758679014950139 0 0.16256214923360721 0.27752509777989898 0 0.1542999422032385 0.29818174396072561 0 0.1693824389883424 0.29261467684276288 0 0.16256214923360721 0.27752509777989898 0 0.16965452359390459 0.30402391550540941 0 0.18048678929143849 0.31122796509742712 0 0.1648015656167926 0.31803195673376189 0 0.1542999422032385 0.29818174396072561 0 0.16965452359390459 0.30402391550540941 0 0.1648015656167926 0.31803195673376189 0 0.1542999422032385 0.29818174396072561 0 0.1693824389883424 0.29261467684276288 0 0.16965452359390459 0.30402391550540941 0 0.16965452359390459 0.30402391550540941 0 0.17930188186971119 0.3000632348923693 0 0.18048678929143849 0.31122796509742712 0 0.1693824389883424 0.29261467684276288 0 0.16965452359390459 0.30402391550540941 0 0.17930188186971119 0.3000632348923693 0 0.17930188186971119 0.3000632348923693 0 0.1871322277822412 0.30623122273261522 0 0.18986810946013999 0.29693421206320603 0 0.18048678929143849 0.31122796509742712 0 0.1871322277822412 0.30623122273261522 0 0.18929920577512149 0.31485226940161798 0 0.17930188186971119 0.3000632348923693 0 0.18048678929143849 0.31122796509742712 0 0.1871322277822412 0.30623122273261522 0 0.17929029204188729 0.28758679014950139 0 0.18449472913773249 0.27400220936087238 0 0.18986810946013999 0.29693421206320603 0 0.18449472913773249 0.27400220936087238 0 0.18986810946013999 0.29693421206320603 0 0.1693824389883424 0.29261467684276288 0 0.17930188186971119 0.3000632348923693 0 0.17929029204188729 0.28758679014950139 0 0.17930188186971119 0.3000632348923693 0 0.17929029204188729 0.28758679014950139 0 0.18986810946013999 0.29693421206320603 0 0.18449472913773249 0.27400220936087238 0 0.18063510605396829 0.25753047617315411 0 0.18449472913773249 0.27400220936087238 0 0.17187271930051931 0.2673580316136821 0 0.16256214923360721 0.27752509777989898 0 0.18449472913773249 0.27400220936087238 0 0.16256214923360721 0.27752509777989898 0 0.17929029204188729 0.28758679014950139 0 0.18449472913773249 0.27400220936087238 0 0.16256214923360721 0.27752509777989898 0 0.18449472913773249 0.27400220936087238 0 0.17187271930051931 0.2673580316136821 0 0.18063510605396829 0.25753047617315411 0 0.17187271930051931 0.2673580316136821 0 0.1582381382181603 0.26762764308875509 0 0.16256214923360721 0.27752509777989898 0 0.16616847869732071 0.24895221618042079 0 0.15469808189905279 0.25060124022113578 0 0.15931668037862479 0.25726725697236841 0 0.1512274083841027 0.25941141841930981 0 0.1582381382181603 0.26762764308875509 0 0.15931668037862479 0.25726725697236841 0 0.1582381382181603 0.26762764308875509 0 0.15931668037862479 0.25726725697236841 0 0.16736672853780471 0.25969890840769089 0 0.17187271930051931 0.2673580316136821 0 0.1582381382181603 0.26762764308875509 0 0.16736672853780471 0.25969890840769089 0 0.16616847869732071 0.24895221618042079 0 0.15931668037862479 0.25726725697236841 0 0.16736672853780471 0.25969890840769089 0 0.16616847869732071 0.24895221618042079 0 0.16736672853780471 0.25969890840769089 0 0.18063510605396829 0.25753047617315411 0 0.18449472913773249 0.27400220936087238 0 0.18063510605396829 0.25753047617315411 0 0.19212516322724349 0.26390493865245102 0 0.17187271930051931 0.2673580316136821 0 0.16736672853780471 0.25969890840769089 0 0.18063510605396829 0.25753047617315411 0 0.19457215084947449 0.25398864400021348 0 0.19212516322724349 0.26390493865245102 0 0.20879866686779869 0.27009842507556392 0 0.18063510605396829 0.25753047617315411 0 0.19457215084947449 0.25398864400021348 0 0.19212516322724349 0.26390493865245102 0 0.18449472913773249 0.27400220936087238 0 0.20879866686779869 0.27009842507556392 0 0.18449472913773249 0.27400220936087238 0 0.20160961004934361 0.27726857936678112 0 0.20879866686779869 0.27009842507556392 0 0.18449472913773249 0.27400220936087238 0 0.19212516322724349 0.26390493865245102 0 0.20879866686779869 0.27009842507556392 0 0.18449472913773249 0.27400220936087238 0 0.20160961004934361 0.27726857936678112 0 0.1981891980019139 0.28207114895974128 0 0.20160961004934361 0.27726857936678112 0 0.2049079329956171 0.28275540483164802 0 0.1981891980019139 0.28207114895974128 0 0.20160961004934361 0.27726857936678112 0 0.21073923339183359 0.27814922895790889 0 0.20879866686779869 0.27009842507556392 0 0.20160961004934361 0.27726857936678112 0 0.21073923339183359 0.27814922895790889 0 0.2049079329956171 0.28275540483164802 0 0.21073923339183359 0.27814922895790889 0 0.20879866686779869 0.27009842507556392 0 0.2148567320643272 0.27067969953867121 0 0.21073923339183359 0.27814922895790889 0 0.2148567320643272 0.27067969953867121 0 0.2186527186235028 0.28338719185498429 0 0.20624138244427859 0.24940893109919349 0 0.19457215084947449 0.25398864400021348 0 0.21211273703651121 0.25748696648011782 0 0.19457215084947449 0.25398864400021348 0 0.2148567320643272 0.27067969953867121 0 0.19457215084947449 0.25398864400021348 0 0.20879866686779869 0.27009842507556392 0 0.2148567320643272 0.27067969953867121 0 0.19457215084947449 0.25398864400021348 0 0.2148567320643272 0.27067969953867121 0 0.21211273703651121 0.25748696648011782 0 0.21211273703651121 0.25748696648011782 0 0.22384463325925039 0.25765095742274557 0 0.21932617063446541 0.26385561672419278 0 0.2148567320643272 0.27067969953867121 0 0.21211273703651121 0.25748696648011782 0 0.21932617063446541 0.26385561672419278 0 0.21632306500704351 0.24822625231204401 0 0.20624138244427859 0.24940893109919349 0 0.21211273703651121 0.25748696648011782 0 0.21632306500704351 0.24822625231204401 0 0.21211273703651121 0.25748696648011782 0 0.22384463325925039 0.25765095742274557 0 0.21632306500704351 0.24822625231204401 0 0.22949975684730181 0.2442041154237406 0 0.22384463325925039 0.25765095742274557 0 0.22949975684730181 0.2442041154237406 0 0.22384463325925039 0.25765095742274557 0 0.23745531042087309 0.25673537149111542 0 0.22384463325925039 0.25765095742274557 0 0.22889706605558649 0.26939696732005047 0 0.23745531042087309 0.25673537149111542 0 0.22384463325925039 0.25765095742274557 0 0.21932617063446541 0.26385561672419278 0 0.22889706605558649 0.26939696732005047 0 0.2148567320643272 0.27067969953867121 0 0.22889706605558649 0.26939696732005047 0 0.23514131327918 0.28737075507712889 0 0.2148567320643272 0.27067969953867121 0 0.23514131327918 0.28737075507712889 0 0.2186527186235028 0.28338719185498429 0 0.2148567320643272 0.27067969953867121 0 0.21932617063446541 0.26385561672419278 0 0.22889706605558649 0.26939696732005047 0 0.2148567320643272 0.27067969953867121 0 0.23514131327918 0.28737075507712889 0 0.24280420534391789 0.2688963630538404 0 0.23514131327918 0.28737075507712889 0 0.25696340764577252 0.27453320402547582 0 0.22889706605558649 0.26939696732005047 0 0.24280420534391789 0.2688963630538404 0 0.23514131327918 0.28737075507712889 0 0.24280420534391789 0.2688963630538404 0 0.23745531042087309 0.25673537149111542 0 0.25556392931817717 0.25644551735543158 0 0.24301938260949851 0.2441670494208753 0 0.23745531042087309 0.25673537149111542 0 0.25556392931817717 0.25644551735543158 0 0.22889706605558649 0.26939696732005047 0 0.24280420534391789 0.2688963630538404 0 0.23745531042087309 0.25673537149111542 0 0.2396976137190335 0.31517740442136111 0 0.25542589449403352 0.3040618106155859 0 0.24061305666779981 0.30202602910567572 0 0.23514131327918 0.28737075507712889 0 0.25542589449403352 0.3040618106155859 0 0.24061305666779981 0.30202602910567572 0 0.2396976137190335 0.31517740442136111 0 0.25542589449403352 0.3040618106155859 0 0.24061305666779981 0.30202602910567572 0 0.23514131327918 0.28737075507712889 0 0.23218740517895251 0.30149414630862742 0 0.24061305666779981 0.30202602910567572 0 0.23218740517895251 0.30149414630862742 0 0.2396976137190335 0.31517740442136111 0 0.23514131327918 0.28737075507712889 0 0.25732806410640241 0.28737241074447162 0 0.25696340764577252 0.27453320402547582 0 0.23514131327918 0.28737075507712889 0 0.25732806410640241 0.28737241074447162 0 0.25514732927262268 0.29915022049988849 0 0.23514131327918 0.28737075507712889 0 0.25514732927262268 0.29915022049988849 0 0.25542589449403352 0.3040618106155859 0 0.23514131327918 0.28737075507712889 0 0.25542589449403352 0.3040618106155859 0 0.23514131327918 0.28737075507712889 0 0.22151406302882709 0.29378329760832572 0 0.23218740517895251 0.30149414630862742 0 0.23514131327918 0.28737075507712889 0 0.22151406302882709 0.29378329760832572 0 0.2186527186235028 0.28338719185498429 0 0.22151406302882709 0.29378329760832572 0 0.23218740517895251 0.30149414630862742 0 0.2185351458026546 0.30622915760849218 0 0.2185351458026546 0.30622915760849218 0 0.2228470394562268 0.3150728479527134 0 0.2396976137190335 0.31517740442136111 0 0.23218740517895251 0.30149414630862742 0 0.2185351458026546 0.30622915760849218 0 0.2396976137190335 0.31517740442136111 0 0.2185351458026546 0.30622915760849218 0 0.2396976137190335 0.31517740442136111 0 0.2185351458026546 0.30622915760849218 0 0.19737267788627619 0.29728091079562202 0 0.2185351458026546 0.30622915760849218 0 0.20473454314225881 0.3093687923265479 0 0.19737267788627619 0.29728091079562202 0 0.2185351458026546 0.30622915760849218 0 0.2102847020505505 0.2947162865772498 0 0.19737267788627619 0.29728091079562202 0 0.22151406302882709 0.29378329760832572 0 0.2185351458026546 0.30622915760849218 0 0.2102847020505505 0.2947162865772498 0 0.2185351458026546 0.30622915760849218 0 0.20473454314225881 0.3093687923265479 0 0.20919285099227569 0.32037410839548403 0 0.21073923339183359 0.27814922895790889 0 0.2186527186235028 0.28338719185498429 0 0.2110122513533462 0.28695297809288689 0 0.22151406302882709 0.29378329760832572 0 0.2186527186235028 0.28338719185498429 0 0.2110122513533462 0.28695297809288689 0 0.22151406302882709 0.29378329760832572 0 0.2110122513533462 0.28695297809288689 0 0.2102847020505505 0.2947162865772498 0 0.2110122513533462 0.28695297809288689 0 0.2102847020505505 0.2947162865772498 0 0.2029893721816482 0.28933508878092212 0 0.2102847020505505 0.2947162865772498 0 0.2029893721816482 0.28933508878092212 0 0.19737267788627619 0.29728091079562202 0 0.2110122513533462 0.28695297809288689 0 0.2049079329956171 0.28275540483164802 0 0.2029893721816482 0.28933508878092212 0 0.21073923339183359 0.27814922895790889 0 0.2110122513533462 0.28695297809288689 0 0.2049079329956171 0.28275540483164802 0 0.18449472913773249 0.27400220936087238 0 0.19446776408413041 0.28811432459348618 0 0.18986810946013999 0.29693421206320603 0 0.1981891980019139 0.28207114895974128 0 0.2029893721816482 0.28933508878092212 0 0.19446776408413041 0.28811432459348618 0 0.2049079329956171 0.28275540483164802 0 0.1981891980019139 0.28207114895974128 0 0.2029893721816482 0.28933508878092212 0 0.2029893721816482 0.28933508878092212 0 0.19446776408413041 0.28811432459348618 0 0.19737267788627619 0.29728091079562202 0 0.19446776408413041 0.28811432459348618 0 0.19737267788627619 0.29728091079562202 0 0.18986810946013999 0.29693421206320603 0 0.18449472913773249 0.27400220936087238 0 0.1981891980019139 0.28207114895974128 0 0.19446776408413041 0.28811432459348618 0 0.18986810946013999 0.29693421206320603 0 0.19499059887842549 0.3070669450173083 0 0.19524148978254841 0.31986621476553923 0 0.18986810946013999 0.29693421206320603 0 0.19524148978254841 0.31986621476553923 0 0.1871322277822412 0.30623122273261522 0 0.18986810946013999 0.29693421206320603 0 0.19524148978254841 0.31986621476553923 0 0.19751773828067801 0.30541959622338211 0 0.19484046015671649 0.30164590761178678 0 0.19499059887842549 0.3070669450173083 0 0.19751773828067801 0.30541959622338211 0 0.19748519671204481 0.31146879442262748 0 0.19499059887842549 0.3070669450173083 0 0.20473454314225881 0.3093687923265479 0 0.19751773828067801 0.30541959622338211 0 0.19748519671204481 0.31146879442262748 0 0.20473454314225881 0.3093687923265479 0 0.19748519671204481 0.31146879442262748 0 0.19930021193243411 0.31506970802131079 0 0.20473454314225881 0.3093687923265479 0 0.19751773828067801 0.30541959622338211 0 0.19737267788627619 0.29728091079562202 0 0.19751773828067801 0.30541959622338211 0 0.19737267788627619 0.29728091079562202 0 0.19484046015671649 0.30164590761178678 0 0.19484046015671649 0.30164590761178678 0 0.18986810946013999 0.29693421206320603 0 0.19499059887842549 0.3070669450173083 0 0.19737267788627619 0.29728091079562202 0 0.19484046015671649 0.30164590761178678 0 0.18986810946013999 0.29693421206320603 0 0.1871322277822412 0.30623122273261522 0 0.18929920577512149 0.31485226940161798 0 0.19524148978254841 0.31986621476553923 0 0.18048678929143849 0.31122796509742712 0 0.18929920577512149 0.31485226940161798 0 0.19433631624425809 0.32208367501089052 0 0.18929920577512149 0.31485226940161798 0 0.19524148978254841 0.31986621476553923 0 0.19433631624425809 0.32208367501089052 0 0.19524148978254841 0.31986621476553923 0 0.20220647978757131 0.32588924233476307 0 0.20204910770578119 0.31800624769187252 0 0.19748519671204481 0.31146879442262748 0 0.19524148978254841 0.31986621476553923 0 0.19930021193243411 0.31506970802131079 0 0.19748519671204481 0.31146879442262748 0 0.19499059887842549 0.3070669450173083 0 0.19524148978254841 0.31986621476553923 0 0.20473454314225881 0.3093687923265479 0 0.20204910770578119 0.31800624769187252 0 0.19930021193243411 0.31506970802131079 0 0.19524148978254841 0.31986621476553923 0 0.20204910770578119 0.31800624769187252 0 0.19930021193243411 0.31506970802131079 0 0.19524148978254841 0.31986621476553923 0 0.19433631624425809 0.32208367501089052 0 0.20061487010495649 0.34279821746787259 0 0.19524148978254841 0.31986621476553923 0 0.20220647978757131 0.32588924233476307 0 0.20061487010495649 0.34279821746787259 0 0.20220647978757131 0.32588924233476307 0 0.20061487010495649 0.34279821746787259 0 0.20641059152066529 0.33021967731612062 0 0.19524148978254841 0.31986621476553923 0 0.20061487010495649 0.34279821746787259 0 0.19433631624425809 0.32208367501089052 0 0.20061487010495649 0.34279821746787259 0 0.18265927586196501 0.33664727074902773 0 0.20061487010495649 0.34279821746787259 0 0.2148664207820436 0.33272626804789979 0 0.21557211804579521 0.3405414904872176 0 0.20061487010495649 0.34279821746787259 0 0.2148664207820436 0.33272626804789979 0 0.20061487010495649 0.34279821746787259 0 0.20641059152066529 0.33021967731612062 0 0.2148664207820436 0.33272626804789979 0 0.2148664207820436 0.33272626804789979 0 0.20919285099227569 0.32037410839548403 0 0.2228470394562268 0.3150728479527134 0 0.20473454314225881 0.3093687923265479 0 0.20204910770578119 0.31800624769187252 0 0.20919285099227569 0.32037410839548403 0 0.20220647978757131 0.32588924233476307 0 0.20204910770578119 0.31800624769187252 0 0.20919285099227569 0.32037410839548403 0 0.20641059152066529 0.33021967731612062 0 0.2148664207820436 0.33272626804789979 0 0.20919285099227569 0.32037410839548403 0 0.20220647978757131 0.32588924233476307 0 0.20641059152066529 0.33021967731612062 0 0.20919285099227569 0.32037410839548403 0 0.2185351458026546 0.30622915760849218 0 0.20919285099227569 0.32037410839548403 0 0.2228470394562268 0.3150728479527134 0 0.2228470394562268 0.3150728479527134 0 0.23184446118034149 0.31905401462877941 0 0.2396976137190335 0.31517740442136111 0 0.2148664207820436 0.33272626804789979 0 0.2228470394562268 0.3150728479527134 0 0.22911797145913079 0.32265431862792732 0 0.23184446118034149 0.31905401462877941 0 0.22911797145913079 0.32265431862792732 0 0.2396976137190335 0.31517740442136111 0 0.2228470394562268 0.3150728479527134 0 0.23184446118034149 0.31905401462877941 0 0.22911797145913079 0.32265431862792732 0 0.23184446118034149 0.31905401462877941 0 0.22911797145913079 0.32265431862792732 0 0.2148664207820436 0.33272626804789979 0 0.22911797145913079 0.32265431862792732 0 0.2148664207820436 0.33272626804789979 0 0.21557211804579521 0.3405414904872176 0 0.22911797145913079 0.32265431862792732 0 0.21557211804579521 0.3405414904872176 0 0.22911797145913079 0.32265431862792732 0 0.21557211804579521 0.3405414904872176 0 0.22911797145913079 0.32265431862792732 0 0.23191561331700611 0.33789634342717823 0 0.21557211804579521 0.3405414904872176 0 0.23191561331700611 0.33789634342717823 0 0.2247800138731561 0.34627984339781698 0 0.22911797145913079 0.32265431862792732 0 0.23191561331700611 0.33789634342717823 0 0.238218048709539 0.32886178149414552 0 0.23191561331700611 0.33789634342717823 0 0.238218048709539 0.32886178149414552 0 0.24736773437451201 0.33907025772135901 0 0.23191561331700611 0.33789634342717823 0 0.24736773437451201 0.33907025772135901 0 0.23238766173936939 0.35338580081705612 0 0.238218048709539 0.32886178149414552 0 0.24736773437451201 0.33907025772135901 0 0.24690780095318471 0.32696603956563181 0 0.24690780095318471 0.32696603956563181 0 0.2396976137190335 0.31517740442136111 0 0.26234780700965482 0.32475471462566191 0 0.22911797145913079 0.32265431862792732 0 0.2396976137190335 0.31517740442136111 0 0.238218048709539 0.32886178149414552 0 0.24690780095318471 0.32696603956563181 0 0.2396976137190335 0.31517740442136111 0 0.22911797145913079 0.32265431862792732 0 0.238218048709539 0.32886178149414552 0 0.2396976137190335 0.31517740442136111 0 0.2438446016193678 0.37824901949424272 0 0.25413830588915659 0.35090467720135682 0 0.2396004534179004 0.36165440873624038 0 0.23531658829289631 0.37138899225918992 0 0.2438446016193678 0.37824901949424272 0 0.2396004534179004 0.36165440873624038 0 0.2438446016193678 0.37824901949424272 0 0.25413830588915659 0.35090467720135682 0 0.2396004534179004 0.36165440873624038 0 0.23531658829289631 0.37138899225918992 0 0.22947559467710629 0.3659767657588503 0 0.2396004534179004 0.36165440873624038 0 0.25413830588915659 0.35090467720135682 0 0.2396004534179004 0.36165440873624038 0 0.24337353885523499 0.35125378611900321 0 0.25413830588915659 0.35090467720135682 0 0.24736773437451201 0.33907025772135901 0 0.24337353885523499 0.35125378611900321 0 0.25413830588915659 0.35090467720135682 0 0.24736773437451201 0.33907025772135901 0 0.23238766173936939 0.35338580081705612 0 0.24736773437451201 0.33907025772135901 0 0.24337353885523499 0.35125378611900321 0 0.23238766173936939 0.35338580081705612 0 0.2396004534179004 0.36165440873624038 0 0.24337353885523499 0.35125378611900321 0 0.23238766173936939 0.35338580081705612 0 0.23191561331700611 0.33789634342717823 0 0.23238766173936939 0.35338580081705612 0 0.2247800138731561 0.34627984339781698 0 0.21557211804579521 0.3405414904872176 0 0.2247800138731561 0.34627984339781698 0 0.21862262350253919 0.35397728396719708 0 0.23238766173936939 0.35338580081705612 0 0.2247800138731561 0.34627984339781698 0 0.21862262350253919 0.35397728396719708 0 0.23238766173936939 0.35338580081705612 0 0.2174075891042267 0.36770134391275322 0 0.21862262350253919 0.35397728396719708 0 0.23238766173936939 0.35338580081705612 0 0.22947559467710629 0.3659767657588503 0 0.2174075891042267 0.36770134391275322 0 0.23238766173936939 0.35338580081705612 0 0.2174075891042267 0.36770134391275322 0 0.2396004534179004 0.36165440873624038 0 0.23238766173936939 0.35338580081705612 0 0.22947559467710629 0.3659767657588503 0 0.23531658829289631 0.37138899225918992 0 0.22947559467710629 0.3659767657588503 0 0.2243043020988103 0.37930671535562632 0 0.22947559467710629 0.3659767657588503 0 0.2174075891042267 0.36770134391275322 0 0.2243043020988103 0.37930671535562632 0 0.2174075891042267 0.36770134391275322 0 0.21862262350253919 0.35397728396719708 0 0.20202626463246021 0.35842866234650828 0 0.2174075891042267 0.36770134391275322 0 0.20316956688351651 0.37070256292051829 0 0.20202626463246021 0.35842866234650828 0 0.2174075891042267 0.36770134391275322 0 0.20316956688351651 0.37070256292051829 0 0.20476400257825281 0.38036441121701048 0 0.21557211804579521 0.3405414904872176 0 0.20202626463246021 0.35842866234650828 0 0.21557211804579521 0.3405414904872176 0 0.2026157594272007 0.35133742306875237 0 0.20202626463246021 0.35842866234650828 0 0.21557211804579521 0.3405414904872176 0 0.21862262350253919 0.35397728396719708 0 0.20202626463246021 0.35842866234650828 0 0.20061487010495649 0.34279821746787259 0 0.21557211804579521 0.3405414904872176 0 0.2026157594272007 0.35133742306875237 0 0.20061487010495649 0.34279821746787259 0 0.18331310560985531 0.35502583401426518 0 0.18265927586196501 0.33664727074902773 0 0.20061487010495649 0.34279821746787259 0 0.18331310560985531 0.35502583401426518 0 0.20061487010495649 0.34279821746787259 0 0.2026157594272007 0.35133742306875237 0 0.19488215499889311 0.3594278140046997 0 0.20061487010495649 0.34279821746787259 0 0.19488215499889311 0.3594278140046997 0 0.18331310560985531 0.35502583401426518 0 0.20061487010495649 0.34279821746787259 0 0.2026157594272007 0.35133742306875237 0 0.2026157594272007 0.35133742306875237 0 0.20202626463246021 0.35842866234650828 0 0.19488215499889311 0.3594278140046997 0 0.20202626463246021 0.35842866234650828 0 0.19488215499889311 0.3594278140046997 0 0.18848041121912659 0.37631583420580023 0 0.20316956688351651 0.37070256292051829 0 0.20202626463246021 0.35842866234650828 0 0.18848041121912659 0.37631583420580023 0 0.20202626463246021 0.35842866234650828 0 0.18848041121912659 0.37631583420580023 0 0.19488215499889311 0.3594278140046997 0 0.1660113411147551 0.36725345056065928 0 0.19488215499889311 0.3594278140046997 0 0.1660113411147551 0.36725345056065928 0 0.18331310560985531 0.35502583401426518 0 0.1660113411147551 0.36725345056065928 0 0.16563043028250571 0.37063466071732859 0 0.18848041121912659 0.37631583420580023 0 0.19488215499889311 0.3594278140046997 0 0.1660113411147551 0.36725345056065928 0 0.18848041121912659 0.37631583420580023 0 0.1660113411147551 0.36725345056065928 0 0.18331310560985531 0.35502583401426518 0 0.16563043028250571 0.37063466071732859 0 0.18848041121912659 0.37631583420580023 0 0.1660113411147551 0.36725345056065928 0 0.16305892629386801 0.35129534785545952 0 0.1554004742195936 0.36419824268076151 0 0.1660113411147551 0.36725345056065928 0 0.16563043028250571 0.37063466071732859 0 0.16198918364244311 0.36834368454836369 0 0.16563043028250571 0.37063466071732859 0 0.16265249338615079 0.36989425851774499 0 0.1660113411147551 0.36725345056065928 0 0.16198918364244311 0.36834368454836369 0 0.1554004742195936 0.36419824268076151 0 0.16198918364244311 0.36834368454836369 0 0.1554004742195936 0.36419824268076151 0 0.16005547316905239 0.37146262064048652 0 0.16198918364244311 0.36834368454836369 0 0.15120494961181619 0.37126682680534262 0 0.16198918364244311 0.36834368454836369 0 0.15120494961181619 0.37126682680534262 0 0.16005547316905239 0.37146262064048652 0 0.16086224448234929 0.37667831897696102 0 0.15687441315595049 0.37557738596068102 0 0.16563043028250571 0.37063466071732859 0 0.16005547316905239 0.37146262064048652 0 0.16086224448234929 0.37667831897696102 0 0.1660113411147551 0.36725345056065928 0 0.16198918364244311 0.36834368454836369 0 0.16563043028250571 0.37063466071732859 0 0.16265249338615079 0.36989425851774499 0 0.16198918364244311 0.36834368454836369 0 0.16563043028250571 0.37063466071732859 0 0.16198918364244311 0.36834368454836369 0 0.16563043028250571 0.37063466071732859 0 0.16005547316905239 0.37146262064048652 0 0.16265249338615079 0.36989425851774499 0 0.16005547316905239 0.37146262064048652 0 0.16265249338615079 0.36989425851774499 0 0.16198918364244311 0.36834368454836369 0 0.16005547316905239 0.37146262064048652 0 0.16198918364244311 0.36834368454836369 0 0.1660113411147551 0.36725345056065928 0 0.16305892629386801 0.35129534785545952 0 0.18331310560985531 0.35502583401426518 0 0.16305892629386801 0.35129534785545952 0 0.1554004742195936 0.36419824268076151 0 0.15248820489950191 0.35334406931811951 0 0.16305892629386801 0.35129534785545952 0 0.1554004742195936 0.36419824268076151 0 0.16305892629386801 0.35129534785545952 0 0.17397638544714669 0.34520648086182648 0 0.16687423402289839 0.33785747082855377 0 0.16305892629386801 0.35129534785545952 0 0.17397638544714669 0.34520648086182648 0 0.18331310560985531 0.35502583401426518 0 0.17397638544714669 0.34520648086182648 0 0.18331310560985531 0.35502583401426518 0 0.18265927586196501 0.33664727074902773 0 0.17397638544714669 0.34520648086182648 0 0.18265927586196501 0.33664727074902773 0 0.16687423402289839 0.33785747082855377 0 0.19433631624425809 0.32208367501089052 0 0.18265927586196501 0.33664727074902773 0 0.1648015656167926 0.31803195673376189 0 0.18048678929143849 0.31122796509742712 0 0.19433631624425809 0.32208367501089052 0 0.1648015656167926 0.31803195673376189 0 0.19433631624425809 0.32208367501089052 0 0.1648015656167926 0.31803195673376189 0 0.16305892629386801 0.35129534785545952 0 0.16687423402289839 0.33785747082855377 0 0.1493201421512354 0.33745601286080978 0 0.1648015656167926 0.31803195673376189 0 0.16687423402289839 0.33785747082855377 0 0.1493201421512354 0.33745601286080978 0 0.18265927586196501 0.33664727074902773 0 0.1648015656167926 0.31803195673376189 0 0.16687423402289839 0.33785747082855377 0 0.1648015656167926 0.31803195673376189 0 0.13526681498932711 0.31398023845663331 0 0.1648015656167926 0.31803195673376189 0 0.1493201421512354 0.33745601286080978 0 0.13526681498932711 0.31398023845663331 0 0.1194809126545963 0.32439404854009551 0 0.13526681498932711 0.31398023845663331 0 0.13277712486615989 0.32926922951962889 0 0.1493201421512354 0.33745601286080978 0 0.13526681498932711 0.31398023845663331 0 0.13277712486615989 0.32926922951962889 0 0.13526681498932711 0.31398023845663331 0 0.13277712486615989 0.32926922951962889 0 0.1493201421512354 0.33745601286080978 0 0.13695239782753529 0.34037399891106318 0 0.13277712486615989 0.32926922951962889 0 0.1223829373700252 0.33779524080266932 0 0.13695239782753529 0.34037399891106318 0 0.13277712486615989 0.32926922951962889 0 0.1223829373700252 0.33779524080266932 0 0.13695239782753529 0.34037399891106318 0 0.1283176684464786 0.34715845692929642 0 0.13695239782753529 0.34037399891106318 0 0.1283176684464786 0.34715845692929642 0 0.1418590713330361 0.35567834980502888 0 0.1283176684464786 0.34715845692929642 0 0.1418590713330361 0.35567834980502888 0 0.1193125758122061 0.35100281949993323 0 0.1283176684464786 0.34715845692929642 0 0.1275222586369818 0.36092690036836511 0 0.1283176684464786 0.34715845692929642 0 0.1275222586369818 0.36092690036836511 0 0.1418590713330361 0.35567834980502888 0 0.13977924224669599 0.36721084578761548 0 0.15120494961181619 0.37126682680534262 0 0.1300384632157951 0.37700415137009757 0 0.15120494961181619 0.37126682680534262 0 0.1300384632157951 0.37700415137009757 0 0.1275222586369818 0.36092690036836511 0 0.13977924224669599 0.36721084578761548 0 0.1300384632157951 0.37700415137009757 0 0.1275222586369818 0.36092690036836511 0 0.13977924224669599 0.36721084578761548 0 0.1418590713330361 0.35567834980502888 0 0.13977924224669599 0.36721084578761548 0 0.1554004742195936 0.36419824268076151 0 0.1418590713330361 0.35567834980502888 0 0.16198918364244311 0.36834368454836369 0 0.15120494961181619 0.37126682680534262 0 0.1554004742195936 0.36419824268076151 0 0.13977924224669599 0.36721084578761548 0 0.15120494961181619 0.37126682680534262 0 0.1554004742195936 0.36419824268076151 0 0.16005547316905239 0.37146262064048652 0 0.15120494961181619 0.37126682680534262 0 0.15687441315595049 0.37557738596068102 0 0.15120494961181619 0.37126682680534262 0 0.1554004742195936 0.36419824268076151 0 0.1554004742195936 0.36419824268076151 0 0.1418590713330361 0.35567834980502888 0 0.1493201421512354 0.33745601286080978 0 0.13695239782753529 0.34037399891106318 0 0.1418590713330361 0.35567834980502888 0 0.1554004742195936 0.36419824268076151 0 0.15248820489950191 0.35334406931811951 0 0.1418590713330361 0.35567834980502888 0 0.1493201421512354 0.33745601286080978 0 0.15248820489950191 0.35334406931811951 0 0.1418590713330361 0.35567834980502888 0 0.16305892629386801 0.35129534785545952 0 0.1493201421512354 0.33745601286080978 0 0.15248820489950191 0.35334406931811951 0 0.14195860567292221 0.38684498831957848 0 0.1642727717728916 0.40526675391871247 0 0.16248255031317749 0.3910499684239469 0 0.14466901720450309 0.39577650027151989 0 0.14195860567292221 0.38684498831957848 0 0.1642727717728916 0.40526675391871247 0 0.14466901720450309 0.39577650027151989 0 0.15010625381624201 0.40480743259596957 0 0.1642727717728916 0.40526675391871247 0 0.14195860567292221 0.38684498831957848 0 0.1642727717728916 0.40526675391871247 0 0.14466901720450309 0.39577650027151989 0 0.1427474541570484 0.40478327506476391 0 0.13519840243025261 0.39823452116405939 0 0.14466901720450309 0.39577650027151989 0 0.1427474541570484 0.40478327506476391 0 0.15010625381624201 0.40480743259596957 0 0.15120494961181619 0.37126682680534262 0 0.14195860567292221 0.38684498831957848 0 0.1300384632157951 0.37700415137009757 0 0.15537498536058431 0.3829017774199337 0 0.14195860567292221 0.38684498831957848 0 0.16248255031317749 0.3910499684239469 0 0.15120494961181619 0.37126682680534262 0 0.15537498536058431 0.3829017774199337 0 0.15687441315595049 0.37557738596068102 0 0.15120494961181619 0.37126682680534262 0 0.15537498536058431 0.3829017774199337 0 0.14195860567292221 0.38684498831957848 0 0.15120494961181619 0.37126682680534262 0 0.14195860567292221 0.38684498831957848 0 0.14195860567292221 0.38684498831957848 0 0.1300384632157951 0.37700415137009757 0 0.12825049790669141 0.38505415057667142 0 0.14195860567292221 0.38684498831957848 0 0.12825049790669141 0.38505415057667142 0 0.13519840243025261 0.39823452116405939 0 0.11351007740173941 0.38361019695416432 0 0.12825049790669141 0.38505415057667142 0 0.13519840243025261 0.39823452116405939 0 0.14195860567292221 0.38684498831957848 0 0.1300384632157951 0.37700415137009757 0 0.1205469408127475 0.37957689507545689 0 0.1300384632157951 0.37700415137009757 0 0.12825049790669141 0.38505415057667142 0 0.1205469408127475 0.37957689507545689 0 0.1300384632157951 0.37700415137009757 0 0.1427474541570484 0.40478327506476391 0 0.13519840243025261 0.39823452116405939 0 0.13804692899961479 0.41447843308736221 0 0.14195860567292221 0.38684498831957848 0 0.13519840243025261 0.39823452116405939 0 0.14466901720450309 0.39577650027151989 0 0.14195860567292221 0.38684498831957848 0 0.13519840243025261 0.39823452116405939 0 0.1215404685210171 0.4212452918854287 0 0.13519840243025261 0.39823452116405939 0 0.1215404685210171 0.4212452918854287 0 0.13519840243025261 0.39823452116405939 0 0.13804692899961479 0.41447843308736221 0 0.1215404685210171 0.4212452918854287 0 0.13804692899961479 0.41447843308736221 0 0.1269485872343194 0.43585301573587421 0 0.13804692899961479 0.41447843308736221 0 0.1269485872343194 0.43585301573587421 0 0.1451883968407075 0.43297028482558131 0 0.1451883968407075 0.43297028482558131 0 0.1619615030926754 0.41174259193944918 0 0.13804692899961479 0.41447843308736221 0 0.1451883968407075 0.43297028482558131 0 0.14894557716019949 0.41585374404704961 0 0.1451883968407075 0.43297028482558131 0 0.14894557716019949 0.41585374404704961 0 0.1619615030926754 0.41174259193944918 0 0.13804692899961479 0.41447843308736221 0 0.14635870121688421 0.41003237839284629 0 0.14894557716019949 0.41585374404704961 0 0.1427474541570484 0.40478327506476391 0 0.13804692899961479 0.41447843308736221 0 0.14635870121688421 0.41003237839284629 0 0.1427474541570484 0.40478327506476391 0 0.15010625381624201 0.40480743259596957 0 0.14635870121688421 0.41003237839284629 0 0.14894557716019949 0.41585374404704961 0 0.15439741935091519 0.4098510568109312 0 0.1619615030926754 0.41174259193944918 0 0.14635870121688421 0.41003237839284629 0 0.14894557716019949 0.41585374404704961 0 0.15439741935091519 0.4098510568109312 0 0.15010625381624201 0.40480743259596957 0 0.14635870121688421 0.41003237839284629 0 0.15439741935091519 0.4098510568109312 0 0.15010625381624201 0.40480743259596957 0 0.15439741935091519 0.4098510568109312 0 0.1642727717728916 0.40526675391871247 0 0.15439741935091519 0.4098510568109312 0 0.1619615030926754 0.41174259193944918 0 0.1642727717728916 0.40526675391871247 0 0.1619615030926754 0.41174259193944918 0 0.18658693787286151 0.42368851951784597 0 0.1642727717728916 0.40526675391871247 0 0.1451883968407075 0.43297028482558131 0 0.1619615030926754 0.41174259193944918 0 0.16902577893651641 0.43809627277192442 0 0.18658693787286151 0.42368851951784597 0 0.1880442959914195 0.44487172023625088 0 0.16902577893651641 0.43809627277192442 0 0.1619615030926754 0.41174259193944918 0 0.18658693787286151 0.42368851951784597 0 0.16902577893651641 0.43809627277192442 0 0.18658693787286151 0.42368851951784597 0 0.1642727717728916 0.40526675391871247 0 0.18658693787286151 0.42368851951784597 0 0.1822913951337653 0.40463999158208402 0 0.1642727717728916 0.40526675391871247 0 0.1822913951337653 0.40463999158208402 0 0.17393515476393889 0.39438680603478199 0 0.1642727717728916 0.40526675391871247 0 0.1822913951337653 0.40463999158208402 0 0.1869152296860204 0.39375949402907828 0 0.17393515476393889 0.39438680603478199 0 0.1869152296860204 0.39375949402907828 0 0.17393515476393889 0.39438680603478199 0 0.18229464269772289 0.38448408328157818 0 0.17393515476393889 0.39438680603478199 0 0.1642727717728916 0.40526675391871247 0 0.16248255031317749 0.3910499684239469 0 0.17393515476393889 0.39438680603478199 0 0.16248255031317749 0.3910499684239469 0 0.17456957325913311 0.38645402561299241 0 0.15537498536058431 0.3829017774199337 0 0.16086224448234929 0.37667831897696102 0 0.16772317712555629 0.38236939214078541 0 0.15537498536058431 0.3829017774199337 0 0.16086224448234929 0.37667831897696102 0 0.15687441315595049 0.37557738596068102 0 0.15537498536058431 0.3829017774199337 0 0.16248255031317749 0.3910499684239469 0 0.16772317712555629 0.38236939214078541 0 0.16248255031317749 0.3910499684239469 0 0.16772317712555629 0.38236939214078541 0 0.17456957325913311 0.38645402561299241 0 0.16563043028250571 0.37063466071732859 0 0.16086224448234929 0.37667831897696102 0 0.16772317712555629 0.38236939214078541 0 0.16563043028250571 0.37063466071732859 0 0.1829697627038171 0.38154411049914949 0 0.18848041121912659 0.37631583420580023 0 0.16563043028250571 0.37063466071732859 0 0.1829697627038171 0.38154411049914949 0 0.16772317712555629 0.38236939214078541 0 0.1829697627038171 0.38154411049914949 0 0.16563043028250571 0.37063466071732859 0 0.16772317712555629 0.38236939214078541 0 0.1829697627038171 0.38154411049914949 0 0.16772317712555629 0.38236939214078541 0 0.17456957325913311 0.38645402561299241 0 0.1829697627038171 0.38154411049914949 0 0.17393515476393889 0.39438680603478199 0 0.17456957325913311 0.38645402561299241 0 0.18229464269772289 0.38448408328157818 0 0.1869152296860204 0.39375949402907828 0 0.18229464269772289 0.38448408328157818 0 0.1829697627038171 0.38154411049914949 0 0.17456957325913311 0.38645402561299241 0 0.18229464269772289 0.38448408328157818 0 0.1829697627038171 0.38154411049914949 0 0.18229464269772289 0.38448408328157818 0 0.1829697627038171 0.38154411049914949 0 0.1829697627038171 0.38154411049914949 0 0.1845873758071683 0.38145655080320418 0 0.18848041121912659 0.37631583420580023 0 0.1829697627038171 0.38154411049914949 0 0.1845873758071683 0.38145655080320418 0 0.1845873758071683 0.38145655080320418 0 0.18848041121912659 0.37631583420580023 0 0.20316956688351651 0.37070256292051829 0 0.18848041121912659 0.37631583420580023 0 0.20476400257825281 0.38036441121701048 0 0.18848041121912659 0.37631583420580023 0 0.20476400257825281 0.38036441121701048 0 0.1845873758071683 0.38145655080320418 0 0.20476400257825281 0.38036441121701048 0 0.1845873758071683 0.38145655080320418 0 0.18848041121912659 0.37631583420580023 0 0.20476400257825281 0.38036441121701048 0 0.1845873758071683 0.38145655080320418 0 0.19662304817070961 0.39013439693802232 0 0.20476400257825281 0.38036441121701048 0 0.1869152296860204 0.39375949402907828 0 0.1829697627038171 0.38154411049914949 0 0.19662304817070961 0.39013439693802232 0 0.1829697627038171 0.38154411049914949 0 0.19662304817070961 0.39013439693802232 0 0.1829697627038171 0.38154411049914949 0 0.1845873758071683 0.38145655080320418 0 0.19662304817070961 0.39013439693802232 0 0.19662304817070961 0.39013439693802232 0 0.21229277005905209 0.3982142212659544 0 0.19739405373302249 0.40646189122899989 0 0.1869152296860204 0.39375949402907828 0 0.19662304817070961 0.39013439693802232 0 0.19739405373302249 0.40646189122899989 0 0.1822913951337653 0.40463999158208402 0 0.1869152296860204 0.39375949402907828 0 0.19739405373302249 0.40646189122899989 0 0.19662304817070961 0.39013439693802232 0 0.21229277005905209 0.3982142212659544 0 0.21088656283710111 0.38843321138944409 0 0.21229277005905209 0.3982142212659544 0 0.21506973549117639 0.41321495195846408 0 0.19739405373302249 0.40646189122899989 0 0.21229277005905209 0.3982142212659544 0 0.21747128489501949 0.39150384343571171 0 0.21088656283710111 0.38843321138944409 0 0.21229277005905209 0.3982142212659544 0 0.21747128489501949 0.39150384343571171 0 0.22252649978966729 0.39568595260811568 0 0.21229277005905209 0.3982142212659544 0 0.22295836102708869 0.40534542476614288 0 0.21506973549117639 0.41321495195846408 0 0.20476400257825281 0.38036441121701048 0 0.21088656283710111 0.38843321138944409 0 0.2250769053060428 0.38541479286814329 0 0.20476400257825281 0.38036441121701048 0 0.2243043020988103 0.37930671535562632 0 0.2250769053060428 0.38541479286814329 0 0.20476400257825281 0.38036441121701048 0 0.2250769053060428 0.38541479286814329 0 0.2174075891042267 0.36770134391275322 0 0.20476400257825281 0.38036441121701048 0 0.2243043020988103 0.37930671535562632 0 0.20476400257825281 0.38036441121701048 0 0.2243043020988103 0.37930671535562632 0 0.19662304817070961 0.39013439693802232 0 0.20476400257825281 0.38036441121701048 0 0.21088656283710111 0.38843321138944409 0 0.21747128489501949 0.39150384343571171 0 0.21088656283710111 0.38843321138944409 0 0.2250769053060428 0.38541479286814329 0 0.2243043020988103 0.37930671535562632 0 0.2438446016193678 0.37824901949424272 0 0.2243043020988103 0.37930671535562632 0 0.2250769053060428 0.38541479286814329 0 0.23981509106248161 0.38907913685249512 0 0.2250769053060428 0.38541479286814329 0 0.23981509106248161 0.38907913685249512 0 0.2250769053060428 0.38541479286814329 0 0.23633391167131351 0.39404402206496991 0 0.23981509106248161 0.38907913685249512 0 0.2250769053060428 0.38541479286814329 0 0.22252649978966729 0.39568595260811568 0 0.22979527273324771 0.39411748260588281 0 0.21747128489501949 0.39150384343571171 0 0.2250769053060428 0.38541479286814329 0 0.22252649978966729 0.39568595260811568 0 0.22252649978966729 0.39568595260811568 0 0.22295836102708869 0.40534542476614288 0 0.2337478887841164 0.40168571932940622 0 0.21229277005905209 0.3982142212659544 0 0.22252649978966729 0.39568595260811568 0 0.22295836102708869 0.40534542476614288 0 0.22252649978966729 0.39568595260811568 0 0.2337478887841164 0.40168571932940622 0 0.22979527273324771 0.39411748260588281 0 0.2250769053060428 0.38541479286814329 0 0.22979527273324771 0.39411748260588281 0 0.23633391167131351 0.39404402206496991 0 0.2337478887841164 0.40168571932940622 0 0.22979527273324771 0.39411748260588281 0 0.23633391167131351 0.39404402206496991 0 0.23633391167131351 0.39404402206496991 0 0.24538980803383281 0.39046517451927581 0 0.23981509106248161 0.38907913685249512 0 0.23633391167131351 0.39404402206496991 0 0.24286146160820779 0.39871830643921619 0 0.24538980803383281 0.39046517451927581 0 0.2337478887841164 0.40168571932940622 0 0.23633391167131351 0.39404402206496991 0 0.24286146160820779 0.39871830643921619 0 0.2337478887841164 0.40168571932940622 0 0.24286146160820779 0.39871830643921619 0 0.24609480539678319 0.40796436413059078 0 0.24286146160820779 0.39871830643921619 0 0.24609480539678319 0.40796436413059078 0 0.2527408941549929 0.3994322521518382 0 0.24286146160820779 0.39871830643921619 0 0.24538980803383281 0.39046517451927581 0 0.2527408941549929 0.3994322521518382 0 0.2243043020988103 0.37930671535562632 0 0.2438446016193678 0.37824901949424272 0 0.23981509106248161 0.38907913685249512 0 0.24538980803383281 0.39046517451927581 0 0.2438446016193678 0.37824901949424272 0 0.23981509106248161 0.38907913685249512 0 0.23531658829289631 0.37138899225918992 0 0.2243043020988103 0.37930671535562632 0 0.2438446016193678 0.37824901949424272 0 0.24538980803383281 0.39046517451927581 0 0.23981509106248161 0.38907913685249512 0 0.2438446016193678 0.37824901949424272 0 0.23981509106248161 0.38907913685249512 0 0.2386550377347921 0.43424820742335191 0 0.24609480539678319 0.40796436413059078 0 0.2546487833246221 0.42878447523760599 0 0.2337478887841164 0.40168571932940622 0 0.24609480539678319 0.40796436413059078 0 0.2296068838591159 0.41551819835938208 0 0.2386550377347921 0.43424820742335191 0 0.24609480539678319 0.40796436413059078 0 0.2296068838591159 0.41551819835938208 0 0.2386550377347921 0.43424820742335191 0 0.24609480539678319 0.40796436413059078 0 0.2296068838591159 0.41551819835938208 0 0.220341461144581 0.42944648239364092 0 0.21506973549117639 0.41321495195846408 0 0.22295836102708869 0.40534542476614288 0 0.2337478887841164 0.40168571932940622 0 0.2296068838591159 0.41551819835938208 0 0.22295836102708869 0.40534542476614288 0 0.2296068838591159 0.41551819835938208 0 0.21506973549117639 0.41321495195846408 0 0.2386550377347921 0.43424820742335191 0 0.2296068838591159 0.41551819835938208 0 0.220341461144581 0.42944648239364092 0 0.220341461144581 0.42944648239364092 0 0.20565865844289449 0.42298442604318609 0 0.20890110397283129 0.44211028511697958 0 0.220341461144581 0.42944648239364092 0 0.20565865844289449 0.42298442604318609 0 0.21506973549117639 0.41321495195846408 0 0.20565865844289449 0.42298442604318609 0 0.21506973549117639 0.41321495195846408 0 0.19739405373302249 0.40646189122899989 0 0.18658693787286151 0.42368851951784597 0 0.1822913951337653 0.40463999158208402 0 0.19739405373302249 0.40646189122899989 0 0.18658693787286151 0.42368851951784597 0 0.20565865844289449 0.42298442604318609 0 0.19739405373302249 0.40646189122899989 0 0.18658693787286151 0.42368851951784597 0 0.20890110397283129 0.44211028511697958 0 0.18658693787286151 0.42368851951784597 0 0.20565865844289449 0.42298442604318609 0 0.20890110397283129 0.44211028511697958 0 0.18658693787286151 0.42368851951784597 0 0.1880442959914195 0.44487172023625088 0 0.20890110397283129 0.44211028511697958 0 0.1880442959914195 0.44487172023625088 0 0.19733341429445031 0.45837714378151218 0 0.20890110397283129 0.44211028511697958 0 0.1880442959914195 0.44487172023625088 0 0.19733341429445031 0.45837714378151218 0 0.17846688574458819 0.46060844909677418 0 0.19733341429445031 0.45837714378151218 0 0.19893534328007451 0.47919691076737497 0 0.17846688574458819 0.46060844909677418 0 0.19733341429445031 0.45837714378151218 0 0.21231944248333809 0.46509835369018088 0 0.19893534328007451 0.47919691076737497 0 0.19733341429445031 0.45837714378151218 0 0.21231944248333809 0.46509835369018088 0 0.20890110397283129 0.44211028511697958 0 0.21231944248333809 0.46509835369018088 0 0.20890110397283129 0.44211028511697958 0 0.23121527007280099 0.46053205071611308 0 0.220341461144581 0.42944648239364092 0 0.20890110397283129 0.44211028511697958 0 0.23121527007280099 0.46053205071611308 0 0.2386550377347921 0.43424820742335191 0 0.220341461144581 0.42944648239364092 0 0.23121527007280099 0.46053205071611308 0 0.20890110397283129 0.44211028511697958 0 0.23121527007280099 0.46053205071611308 0 0.21231944248333809 0.46509835369018088 0 0.23121527007280099 0.46053205071611308 0 0.22601872186795299 0.47889085772258738 0 0.23121527007280099 0.46053205071611308 0 0.24992213474243991 0.4530986838645511 0 0.24484173132309561 0.47178156252730918 0 0.23121527007280099 0.46053205071611308 0 0.24484173132309561 0.47178156252730918 0 0.2386550377347921 0.43424820742335191 0 0.23121527007280099 0.46053205071611308 0 0.24992213474243991 0.4530986838645511 0 0.2386550377347921 0.43424820742335191 0 0.23121527007280099 0.46053205071611308 0 0.2386550377347921 0.43424820742335191 0 0.24992213474243991 0.4530986838645511 0 0.2546487833246221 0.42878447523760599 0 0.2396451831182454 0.49014036953378631 0 0.25846819257338632 0.48303107433850989 0 0.23854830386601319 0.5 0 0.25413232236278688 0.4909986756859902 0 0.25525419682524192 0.50000000000000056 0 0.2396451831182454 0.49014036953378631 0 0.23854830386601319 0.5 0 0.25413232236278688 0.4909986756859902 0 0.2396451831182454 0.49014036953378631 0 0.24484173132309561 0.47178156252730918 0 0.25846819257338632 0.48303107433850989 0 0.2396451831182454 0.49014036953378631 0 0.24484173132309561 0.47178156252730918 0 0.22601872186795299 0.47889085772258738 0 0.23121527007280099 0.46053205071611308 0 0.24484173132309561 0.47178156252730918 0 0.22601872186795299 0.47889085772258738 0 0.23121527007280099 0.46053205071611308 0 0.22601872186795299 0.47889085772258738 0 0.2396451831182454 0.49014036953378631 0 0.22601872186795299 0.47889085772258738 0 0.220822173663104 0.49724966472906151 0 0.2396451831182454 0.49014036953378631 0 0.23854830386601319 0.5 0 0.220822173663104 0.49724966472906151 0 0.22601872186795299 0.47889085772258738 0 0.220822173663104 0.49724966472906151 0 0.2194038008155603 0.49778537243797599 0 0.2396451831182454 0.49014036953378631 0 0.220822173663104 0.49724966472906151 0 0.23854830386601319 0.5 0 0.2218424109067845 0.500000000000001 0 0.220822173663104 0.49724966472906151 0 0.22601872186795299 0.47889085772258738 0 0.220822173663104 0.49724966472906151 0 0.220822173663104 0.49724966472906151 0 0.2194038008155603 0.49778537243797599 0 0.2218424109067845 0.500000000000001 0 0.2194038008155603 0.49778537243797599 0 0.2218424109067845 0.500000000000001 0 0.2194038008155603 0.49778537243797599 0 0.2200436780991013 0.50000000000000155 0 0.2194038008155603 0.49778537243797599 0 0.2200436780991013 0.50000000000000155 0 0.2218424109067845 0.500000000000001 0 0.220822173663104 0.49724966472906151 0 0.2194038008155603 0.49778537243797599 0 0.2194038008155603 0.49778537243797599 0 0.21354021597422901 0.49999999999999972 0 0.2194038008155603 0.49778537243797599 0 0.19893534328007451 0.47919691076737497 0 0.22601872186795299 0.47889085772258738 0 0.2194038008155603 0.49778537243797599 0 0.19893534328007451 0.47919691076737497 0 0.2194038008155603 0.49778537243797599 0 0.2200436780991013 0.50000000000000155 0 0.21354021597422901 0.49999999999999972 0 0.2194038008155603 0.49778537243797599 0 0.21354021597422901 0.49999999999999972 0 0.19893534328007451 0.47919691076737497 0 0.21231944248333809 0.46509835369018088 0 0.22601872186795299 0.47889085772258738 0 0.19893534328007451 0.47919691076737497 0 0.19893534328007451 0.47919691076737497 0 0.17846688574458819 0.46060844909677418 0 0.21354021597422901 0.49999999999999972 0 0.19893534328007451 0.47919691076737497 0 0.1853782640357883 0.5 0 0.1853782640357883 0.5 0 0.15721631209734771 0.5 0 0.17587814623203421 0.48119466098464347 0 0.19893534328007451 0.47919691076737497 0 0.1853782640357883 0.5 0 0.17587814623203421 0.48119466098464347 0 0.15721631209734771 0.5 0 0.17587814623203421 0.48119466098464347 0 0.15474615600242131 0.47966683250521758 0 0.17587814623203421 0.48119466098464347 0 0.15474615600242131 0.47966683250521758 0 0.16552471395459151 0.46936951334661597 0 0.17587814623203421 0.48119466098464347 0 0.15474615600242131 0.47966683250521758 0 0.16552471395459151 0.46936951334661597 0 0.17587814623203421 0.48119466098464347 0 0.17846688574458819 0.46060844909677418 0 0.19893534328007451 0.47919691076737497 0 0.17587814623203421 0.48119466098464347 0 0.17846688574458819 0.46060844909677418 0 0.1880442959914195 0.44487172023625088 0 0.17846688574458819 0.46060844909677418 0 0.16902577893651641 0.43809627277192442 0 0.17846688574458819 0.46060844909677418 0 0.16902577893651641 0.43809627277192442 0 0.1530076678393224 0.45600811079982873 0 0.16552471395459151 0.46936951334661597 0 0.17846688574458819 0.46060844909677418 0 0.1530076678393224 0.45600811079982873 0 0.16552471395459151 0.46936951334661597 0 0.1530076678393224 0.45600811079982873 0 0.15474615600242131 0.47966683250521758 0 0.1530076678393224 0.45600811079982873 0 0.1396031265702545 0.4652704853943822 0 0.15474615600242131 0.47966683250521758 0 0.1451883968407075 0.43297028482558131 0 0.1530076678393224 0.45600811079982873 0 0.12841529058873949 0.45419797771171339 0 0.1451883968407075 0.43297028482558131 0 0.16902577893651641 0.43809627277192442 0 0.1530076678393224 0.45600811079982873 0 0.1206179038440536 0.44797004429836063 0 0.1269485872343194 0.43585301573587421 0 0.12841529058873949 0.45419797771171339 0 0.1451883968407075 0.43297028482558131 0 0.12841529058873949 0.45419797771171339 0 0.1269485872343194 0.43585301573587421 0 0.1451883968407075 0.43297028482558131 0 0.12841529058873949 0.45419797771171339 0 0.1396031265702545 0.4652704853943822 0 0.12841529058873949 0.45419797771171339 0 0.1251513885623548 0.46992886265521888 0 0.1530076678393224 0.45600811079982873 0 0.1396031265702545 0.4652704853943822 0 0.12841529058873949 0.45419797771171339 0 0.1396031265702545 0.4652704853943822 0 0.1251513885623548 0.46992886265521888 0 0.13361416577280841 0.47813900402579163 0 0.13361416577280841 0.47813900402579163 0 0.12905436015890709 0.49999999999999711 0 0.1436577485078715 0.48945145913275129 0 0.15721631209734771 0.5 0 0.1436577485078715 0.48945145913275129 0 0.15474615600242131 0.47966683250521758 0 0.15721631209734771 0.5 0 0.12905436015890709 0.49999999999999711 0 0.1436577485078715 0.48945145913275129 0 0.13361416577280841 0.47813900402579163 0 0.1436577485078715 0.48945145913275129 0 0.15474615600242131 0.47966683250521758 0 0.1396031265702545 0.4652704853943822 0 0.13361416577280841 0.47813900402579163 0 0.15474615600242131 0.47966683250521758 0 0.13361416577280841 0.47813900402579163 0 0.15474615600242131 0.47966683250521758 0 0.3551669397957411 0.47358703595120138 0 0.33438182885505058 0.46845829063477268 0 0.34175530822927008 0.48451088802135961 0 0.3551669397957411 0.47358703595120138 0 0.33438182885505058 0.46845829063477268 0 0.3551669397957411 0.47358703595120138 0 0.36205912883144248 0.48729370091154262 0 0.34175530822927008 0.48451088802135961 0 0.35199098103879678 0.5 0 0.36205912883144248 0.48729370091154262 0 0.34175530822927008 0.48451088802135961 0 0.35199098103879678 0.5 0 0.36205912883144248 0.48729370091154262 0 0.37589293007580532 0.49631720584851591 0 0.35199098103879678 0.5 0 0.37589293007580532 0.49631720584851591 0 0.37962384504520269 0.5 0 0.36205912883144248 0.48729370091154262 0 0.37595205073643151 0.47871578126763042 0 0.37589293007580532 0.49631720584851591 0 0.3551669397957411 0.47358703595120138 0 0.37595205073643151 0.47871578126763042 0 0.3551669397957411 0.47358703595120138 0 0.3613366525749756 0.45974195823113789 0 0.37595205073643151 0.47871578126763042 0 0.3551669397957411 0.47358703595120138 0 0.36205912883144248 0.48729370091154262 0 0.37595205073643151 0.47871578126763042 0 0.3613366525749756 0.45974195823113789 0 0.37601306139282631 0.4605516664581169 0 0.37595205073643151 0.47871578126763042 0 0.3613366525749756 0.45974195823113789 0 0.37607407204922311 0.44238755164860338 0 0.37601306139282631 0.4605516664581169 0 0.354304786313271 0.44683438448240442 0 0.37607407204922311 0.44238755164860338 0 0.354304786313271 0.44683438448240442 0 0.37608676866807861 0.43860750966371292 0 0.3613366525749756 0.45974195823113789 0 0.354304786313271 0.44683438448240442 0 0.37607407204922311 0.44238755164860338 0 0.354304786313271 0.44683438448240442 0 0.37607407204922311 0.44238755164860338 0 0.37608676866807861 0.43860750966371292 0 0.354304786313271 0.44683438448240442 0 0.35673519907307799 0.43588840606921808 0 0.37608676866807861 0.43860750966371292 0 0.354304786313271 0.44683438448240442 0 0.34990654081025041 0.44773281830109513 0 0.33611783484157509 0.45370344583109878 0 0.33733304122147911 0.44823045662450622 0 0.34189019265115339 0.4310777411203931 0 0.35673519907307799 0.43588840606921808 0 0.33733304122147911 0.44823045662450622 0 0.35673519907307799 0.43588840606921808 0 0.34990654081025041 0.44773281830109513 0 0.33733304122147911 0.44823045662450622 0 0.35673519907307799 0.43588840606921808 0 0.354304786313271 0.44683438448240442 0 0.33611783484157509 0.45370344583109878 0 0.354304786313271 0.44683438448240442 0 0.34990654081025041 0.44773281830109513 0 0.35673519907307799 0.43588840606921808 0 0.354304786313271 0.44683438448240442 0 0.34990654081025041 0.44773281830109513 0 0.3551669397957411 0.47358703595120138 0 0.3482616084761227 0.46046502302612291 0 0.33438182885505058 0.46845829063477268 0 0.354304786313271 0.44683438448240442 0 0.3482616084761227 0.46046502302612291 0 0.33611783484157509 0.45370344583109878 0 0.3551669397957411 0.47358703595120138 0 0.3613366525749756 0.45974195823113789 0 0.3482616084761227 0.46046502302612291 0 0.3613366525749756 0.45974195823113789 0 0.354304786313271 0.44683438448240442 0 0.3482616084761227 0.46046502302612291 0 0.33611783484157509 0.45370344583109878 0 0.33733304122147911 0.44823045662450622 0 0.3179308833698794 0.46057250717979331 0 0.33611783484157509 0.45370344583109878 0 0.33438182885505058 0.46845829063477268 0 0.3179308833698794 0.46057250717979331 0 0.3482616084761227 0.46046502302612291 0 0.33611783484157509 0.45370344583109878 0 0.33438182885505058 0.46845829063477268 0 0.33733304122147911 0.44823045662450622 0 0.32399520066000798 0.44104244940338111 0 0.34189019265115339 0.4310777411203931 0 0.34990654081025041 0.44773281830109513 0 0.33611783484157509 0.45370344583109878 0 0.33733304122147911 0.44823045662450622 0 0.32399520066000798 0.44104244940338111 0 0.31130865906799332 0.44932599339663998 0 0.30826261139157268 0.43608334073454641 0 0.32399520066000798 0.44104244940338111 0 0.3179308833698794 0.46057250717979331 0 0.31130865906799332 0.44932599339663998 0 0.33733304122147911 0.44823045662450622 0 0.32399520066000798 0.44104244940338111 0 0.3179308833698794 0.46057250717979331 0 0.33438182885505058 0.46845829063477268 0 0.3179308833698794 0.46057250717979331 0 0.31359671791436022 0.46332954531834403 0 0.33733304122147911 0.44823045662450622 0 0.3179308833698794 0.46057250717979331 0 0.33438182885505058 0.46845829063477268 0 0.31359671791436022 0.46332954531834403 0 0.33611783484157509 0.45370344583109878 0 0.3179308833698794 0.46057250717979331 0 0.3179308833698794 0.46057250717979331 0 0.30917191319734999 0.4560841378694161 0 0.31130865906799332 0.44932599339663998 0 0.3179308833698794 0.46057250717979331 0 0.30917191319734999 0.4560841378694161 0 0.31180302297443663 0.46288694943571762 0 0.3179308833698794 0.46057250717979331 0 0.31180302297443663 0.46288694943571762 0 0.3179308833698794 0.46057250717979331 0 0.31359671791436022 0.46332954531834403 0 0.3179308833698794 0.46057250717979331 0 0.31359671791436022 0.46332954531834403 0 0.31180302297443663 0.46288694943571762 0 0.31359671791436022 0.46332954531834403 0 0.31180302297443663 0.46288694943571762 0 0.33438182885505058 0.46845829063477268 0 0.31359671791436022 0.46332954531834403 0 0.32257485382219903 0.47772630063064098 0 0.31359671791436022 0.46332954531834403 0 0.31315282751082868 0.47542086593361432 0 0.32257485382219903 0.47772630063064098 0 0.31315282751082868 0.47542086593361432 0 0.32257485382219903 0.47772630063064098 0 0.31156915634743232 0.48383881864357448 0 0.33438182885505058 0.46845829063477268 0 0.32257485382219903 0.47772630063064098 0 0.34175530822927008 0.48451088802135961 0 0.32257485382219903 0.47772630063064098 0 0.34175530822927008 0.48451088802135961 0 0.32435811703239081 0.5 0 0.35199098103879678 0.5 0 0.34175530822927008 0.48451088802135961 0 0.32435811703239081 0.5 0 0.32257485382219903 0.47772630063064098 0 0.32435811703239081 0.5 0 0.31156915634743232 0.48383881864357448 0 0.32435811703239081 0.5 0 0.31156915634743232 0.48383881864357448 0 0.29672525302598468 0.5 0 0.29890612370307629 0.48559178933151098 0 0.31156915634743232 0.48383881864357448 0 0.29672525302598468 0.5 0 0.29077391904603311 0.47082946829144862 0 0.29213383783544039 0.47698245717599458 0 0.31180302297443663 0.46288694943571762 0 0.31359671791436022 0.46332954531834403 0 0.30487058195932337 0.47678879914189759 0 0.29213383783544039 0.47698245717599458 0 0.31359671791436022 0.46332954531834403 0 0.29213383783544039 0.47698245717599458 0 0.31359671791436022 0.46332954531834403 0 0.31315282751082868 0.47542086593361432 0 0.30487058195932337 0.47678879914189759 0 0.31315282751082868 0.47542086593361432 0 0.31156915634743232 0.48383881864357448 0 0.30487058195932337 0.47678879914189759 0 0.29890612370307629 0.48559178933151098 0 0.31156915634743232 0.48383881864357448 0 0.30487058195932337 0.47678879914189759 0 0.29890612370307629 0.48559178933151098 0 0.30487058195932337 0.47678879914189759 0 0.29213383783544039 0.47698245717599458 0 0.29213383783544039 0.47698245717599458 0 0.2818898461725089 0.48976928734606262 0 0.26974481511762938 0.47877198714717889 0 0.29077391904603311 0.47082946829144862 0 0.29213383783544039 0.47698245717599458 0 0.26974481511762938 0.47877198714717889 0 0.29890612370307629 0.48559178933151098 0 0.29213383783544039 0.47698245717599458 0 0.29105477848730332 0.48675414980105619 0 0.29672525302598468 0.5 0 0.2818898461725089 0.48976928734606262 0 0.26909238901957883 0.49999999999999267 0 0.29672525302598468 0.5 0 0.29105477848730332 0.48675414980105619 0 0.2818898461725089 0.48976928734606262 0 0.29890612370307629 0.48559178933151098 0 0.29672525302598468 0.5 0 0.29105477848730332 0.48675414980105619 0 0.29213383783544039 0.47698245717599458 0 0.29105477848730332 0.48675414980105619 0 0.2818898461725089 0.48976928734606262 0 0.26909238901957883 0.49999999999999267 0 0.26974481511762938 0.47877198714717889 0 0.2675596559061082 0.47959730373220621 0 0.26909238901957883 0.49999999999999267 0 0.26974481511762938 0.47877198714717889 0 0.2818898461725089 0.48976928734606262 0 0.26909238901957883 0.49999999999999267 0 0.26974481511762938 0.47877198714717889 0 0.29077391904603311 0.47082946829144862 0 0.26974481511762938 0.47877198714717889 0 0.29077391904603311 0.47082946829144862 0 0.26983541776864028 0.47582404523335609 0 0.26974481511762938 0.47877198714717889 0 0.29077391904603311 0.47082946829144862 0 0.26983541776864028 0.47582404523335609 0 0.27826957128272017 0.46184005070761008 0 0.26983541776864028 0.47582404523335609 0 0.27826957128272017 0.46184005070761008 0 0.26983541776864028 0.47582404523335609 0 0.2675596559061082 0.47959730373220621 0 0.2595747685361402 0.47220846778611619 0 0.26983541776864028 0.47582404523335609 0 0.26974481511762938 0.47877198714717889 0 0.26974481511762938 0.47877198714717889 0 0.2675596559061082 0.47959730373220621 0 0.26983541776864028 0.47582404523335609 0 0.2675596559061082 0.47959730373220621 0 0.26983541776864028 0.47582404523335609 0 0.26974481511762938 0.47877198714717889 0 0.2675596559061082 0.47959730373220621 0 0.2675596559061082 0.47959730373220621 0 0.25846819257338632 0.48303107433850989 0 0.2675596559061082 0.47959730373220621 0 0.25846819257338632 0.48303107433850989 0 0.26113464320117658 0.48523239919315941 0 0.2675596559061082 0.47959730373220621 0 0.25846819257338632 0.48303107433850989 0 0.2595747685361402 0.47220846778611619 0 0.25846819257338632 0.48303107433850989 0 0.26113464320117658 0.48523239919315941 0 0.24484173132309561 0.47178156252730918 0 0.25846819257338632 0.48303107433850989 0 0.2595747685361402 0.47220846778611619 0 0.24484173132309561 0.47178156252730918 0 0.25846819257338632 0.48303107433850989 0 0.2675596559061082 0.47959730373220621 0 0.25525419682524192 0.50000000000000056 0 0.26113464320117658 0.48523239919315941 0 0.2675596559061082 0.47959730373220621 0 0.25525419682524192 0.50000000000000056 0 0.25413232236278688 0.4909986756859902 0 0.25525419682524192 0.50000000000000056 0 0.26113464320117658 0.48523239919315941 0 0.2396451831182454 0.49014036953378631 0 0.25846819257338632 0.48303107433850989 0 0.25413232236278688 0.4909986756859902 0 0.26909238901957883 0.49999999999999267 0 0.2675596559061082 0.47959730373220621 0 0.25525419682524192 0.50000000000000056 0 0.25846819257338632 0.48303107433850989 0 0.25413232236278688 0.4909986756859902 0 0.26113464320117658 0.48523239919315941 0 0.24992213474243991 0.4530986838645511 0 0.27059721746318849 0.45103733949681057 0 0.2546487833246221 0.42878447523760599 0 0.24992213474243991 0.4530986838645511 0 0.24484173132309561 0.47178156252730918 0 0.2595747685361402 0.47220846778611619 0 0.24992213474243991 0.4530986838645511 0 0.2595747685361402 0.47220846778611619 0 0.27059721746318849 0.45103733949681057 0 0.26983541776864028 0.47582404523335609 0 0.2595747685361402 0.47220846778611619 0 0.27059721746318849 0.45103733949681057 0 0.26983541776864028 0.47582404523335609 0 0.27059721746318849 0.45103733949681057 0 0.27826957128272017 0.46184005070761008 0 0.27059721746318849 0.45103733949681057 0 0.28670372479679701 0.44785605618186231 0 0.26983541776864028 0.47582404523335609 0 0.27826957128272017 0.46184005070761008 0 0.27059721746318849 0.45103733949681057 0 0.27059721746318849 0.45103733949681057 0 0.27135901715773991 0.42625063376026512 0 0.27059721746318849 0.45103733949681057 0 0.28670372479679701 0.44785605618186231 0 0.27135901715773991 0.42625063376026512 0 0.28670372479679701 0.44785605618186231 0 0.29827852899257601 0.44100610599892398 0 0.29219238871615222 0.42481866487073427 0 0.28670372479679701 0.44785605618186231 0 0.29827852899257601 0.44100610599892398 0 0.29934602363752721 0.45306367478119131 0 0.29077391904603311 0.47082946829144862 0 0.27826957128272017 0.46184005070761008 0 0.28980753012957172 0.45934998323010262 0 0.27826957128272017 0.46184005070761008 0 0.28670372479679701 0.44785605618186231 0 0.27826957128272017 0.46184005070761008 0 0.28670372479679701 0.44785605618186231 0 0.28980753012957172 0.45934998323010262 0 0.28670372479679701 0.44785605618186231 0 0.28980753012957172 0.45934998323010262 0 0.29934602363752721 0.45306367478119131 0 0.28980753012957172 0.45934998323010262 0 0.29818625070884452 0.46053061679911711 0 0.29934602363752721 0.45306367478119131 0 0.29077391904603311 0.47082946829144862 0 0.28980753012957172 0.45934998323010262 0 0.29818625070884452 0.46053061679911711 0 0.29077391904603311 0.47082946829144862 0 0.31180302297443663 0.46288694943571762 0 0.29077391904603311 0.47082946829144862 0 0.29818625070884452 0.46053061679911711 0 0.30788012064905229 0.46191896966474211 0 0.29077391904603311 0.47082946829144862 0 0.30788012064905229 0.46191896966474211 0 0.31180302297443663 0.46288694943571762 0 0.31359671791436022 0.46332954531834403 0 0.29213383783544039 0.47698245717599458 0 0.31180302297443663 0.46288694943571762 0 0.30353066694691389 0.45768891304975029 0 0.29818625070884452 0.46053061679911711 0 0.30788012064905229 0.46191896966474211 0 0.30353066694691389 0.45768891304975029 0 0.30917191319734999 0.4560841378694161 0 0.29934602363752721 0.45306367478119131 0 0.30353066694691389 0.45768891304975029 0 0.29818625070884452 0.46053061679911711 0 0.29934602363752721 0.45306367478119131 0 0.30917191319734999 0.4560841378694161 0 0.30788012064905229 0.46191896966474211 0 0.31180302297443663 0.46288694943571762 0 0.30353066694691389 0.45768891304975029 0 0.30917191319734999 0.4560841378694161 0 0.30788012064905229 0.46191896966474211 0 0.30788012064905229 0.46191896966474211 0 0.31180302297443663 0.46288694943571762 0 0.29827852899257601 0.44100610599892398 0 0.29934602363752721 0.45306367478119131 0 0.31130865906799332 0.44932599339663998 0 0.30917191319734999 0.4560841378694161 0 0.29934602363752721 0.45306367478119131 0 0.31130865906799332 0.44932599339663998 0 0.29827852899257601 0.44100610599892398 0 0.31130865906799332 0.44932599339663998 0 0.30826261139157268 0.43608334073454641 0 0.29827852899257601 0.44100610599892398 0 0.30826261139157268 0.43608334073454641 0 0.29219238871615222 0.42481866487073427 0 0.30826261139157268 0.43608334073454641 0 0.29219238871615222 0.42481866487073427 0 0.31687593840595968 0.4254979066635427 0 0.30756258610112819 0.4134080011229746 0 0.29219238871615222 0.42481866487073427 0 0.2951537008532138 0.40271620523066659 0 0.30756258610112819 0.4134080011229746 0 0.29219238871615222 0.42481866487073427 0 0.31687593840595968 0.4254979066635427 0 0.28285283623669932 0.41254293818410631 0 0.29219238871615222 0.42481866487073427 0 0.2951537008532138 0.40271620523066659 0 0.28285283623669932 0.41254293818410631 0 0.29219238871615222 0.42481866487073427 0 0.27135901715773991 0.42625063376026512 0 0.28670372479679701 0.44785605618186231 0 0.29219238871615222 0.42481866487073427 0 0.27135901715773991 0.42625063376026512 0 0.27135901715773991 0.42625063376026512 0 0.27212081685229123 0.40146392802371972 0 0.28285283623669932 0.41254293818410631 0 0.27135901715773991 0.42625063376026512 0 0.27212081685229123 0.40146392802371972 0 0.27135901715773991 0.42625063376026512 0 0.26121453131570721 0.41368430263894967 0 0.27212081685229123 0.40146392802371972 0 0.24609480539678319 0.40796436413059078 0 0.26121453131570721 0.41368430263894967 0 0.2546487833246221 0.42878447523760599 0 0.26121453131570721 0.41368430263894967 0 0.26102034093499299 0.40383200729786378 0 0.27212081685229123 0.40146392802371972 0 0.24609480539678319 0.40796436413059078 0 0.26121453131570721 0.41368430263894967 0 0.26102034093499299 0.40383200729786378 0 0.27135901715773991 0.42625063376026512 0 0.26121453131570721 0.41368430263894967 0 0.2546487833246221 0.42878447523760599 0 0.27059721746318849 0.45103733949681057 0 0.27135901715773991 0.42625063376026512 0 0.2546487833246221 0.42878447523760599 0 0.24538980803383281 0.39046517451927581 0 0.2438446016193678 0.37824901949424272 0 0.26570271076162277 0.39551555617040829 0 0.2438446016193678 0.37824901949424272 0 0.27288261654684293 0.37667722228717432 0 0.2438446016193678 0.37824901949424272 0 0.26570271076162277 0.39551555617040829 0 0.27288261654684293 0.37667722228717432 0 0.24538980803383281 0.39046517451927581 0 0.2527408941549929 0.3994322521518382 0 0.26570271076162277 0.39551555617040829 0 0.24538980803383281 0.39046517451927581 0 0.26570271076162277 0.39551555617040829 0 0.24609480539678319 0.40796436413059078 0 0.2527408941549929 0.3994322521518382 0 0.26102034093499299 0.40383200729786378 0 0.2527408941549929 0.3994322521518382 0 0.26102034093499299 0.40383200729786378 0 0.26570271076162277 0.39551555617040829 0 0.28285283623669932 0.41254293818410631 0 0.27212081685229123 0.40146392802371972 0 0.28170485255207511 0.39046701801947159 0 0.26570271076162277 0.39551555617040829 0 0.27212081685229123 0.40146392802371972 0 0.27288261654684293 0.37667722228717432 0 0.26102034093499299 0.40383200729786378 0 0.26570271076162277 0.39551555617040829 0 0.27212081685229123 0.40146392802371972 0 0.27212081685229123 0.40146392802371972 0 0.27288261654684293 0.37667722228717432 0 0.28170485255207511 0.39046701801947159 0 0.27288261654684293 0.37667722228717432 0 0.28208582404029009 0.38279224121168309 0 0.28170485255207511 0.39046701801947159 0 0.27212081685229123 0.40146392802371972 0 0.27288261654684293 0.37667722228717432 0 0.27288261654684293 0.37667722228717432 0 0.27780514967480507 0.37641077074627488 0 0.27288261654684293 0.37667722228717432 0 0.27780514967480507 0.37641077074627488 0 0.28208582404029009 0.38279224121168309 0 0.27780514967480507 0.37641077074627488 0 0.28208582404029009 0.38279224121168309 0 0.28597851056891921 0.37579566130643688 0 0.28208582404029009 0.38279224121168309 0 0.28597851056891921 0.37579566130643688 0 0.29271794338052359 0.3812828835618382 0 0.28208582404029009 0.38279224121168309 0 0.28170485255207511 0.39046701801947159 0 0.29271794338052359 0.3812828835618382 0 0.28170485255207511 0.39046701801947159 0 0.29271794338052359 0.3812828835618382 0 0.29430745286484672 0.39108246809801173 0 0.28597851056891921 0.37579566130643688 0 0.29271794338052359 0.3812828835618382 0 0.29376222262966689 0.36932328381688329 0 0.28285283623669932 0.41254293818410631 0 0.28170485255207511 0.39046701801947159 0 0.2951537008532138 0.40271620523066659 0 0.28170485255207511 0.39046701801947159 0 0.29430745286484672 0.39108246809801173 0 0.2951537008532138 0.40271620523066659 0 0.2951537008532138 0.40271620523066659 0 0.31237326001419508 0.40105389954825521 0 0.30602020955398579 0.38905243034382658 0 0.30756258610112819 0.4134080011229746 0 0.2951537008532138 0.40271620523066659 0 0.31237326001419508 0.40105389954825521 0 0.29430745286484672 0.39108246809801173 0 0.2951537008532138 0.40271620523066659 0 0.30602020955398579 0.38905243034382658 0 0.29271794338052359 0.3812828835618382 0 0.30602020955398579 0.38905243034382658 0 0.30415884971604479 0.36958315897853378 0 0.30602020955398579 0.38905243034382658 0 0.31816452118902 0.37736562644072918 0 0.30415884971604479 0.36958315897853378 0 0.29271794338052359 0.3812828835618382 0 0.29430745286484672 0.39108246809801173 0 0.30602020955398579 0.38905243034382658 0 0.30602020955398579 0.38905243034382658 0 0.31816452118902 0.37736562644072918 0 0.31816452118902 0.37736562644072918 0 0.33269997325289119 0.38683359434655418 0 0.33030883282405421 0.36567882253763201 0 0.30602020955398579 0.38905243034382658 0 0.31816452118902 0.37736562644072918 0 0.3199451453554058 0.39011242520747808 0 0.31816452118902 0.37736562644072918 0 0.3199451453554058 0.39011242520747808 0 0.33269997325289119 0.38683359434655418 0 0.33269997325289119 0.38683359434655418 0 0.35355909600745422 0.3848101730923944 0 0.33030883282405421 0.36567882253763201 0 0.35355909600745422 0.3848101730923944 0 0.33030883282405421 0.36567882253763201 0 0.33269997325289119 0.38683359434655418 0 0.35355909600745422 0.3848101730923944 0 0.343811942607544 0.40186485775282133 0 0.32970639289363701 0.40156671829772478 0 0.33763161954675158 0.41520835951209789 0 0.343811942607544 0.40186485775282133 0 0.33269997325289119 0.38683359434655418 0 0.32970639289363701 0.40156671829772478 0 0.343811942607544 0.40186485775282133 0 0.31237326001419508 0.40105389954825521 0 0.32970639289363701 0.40156671829772478 0 0.32208384121974748 0.41355098140915603 0 0.31237326001419508 0.40105389954825521 0 0.3199451453554058 0.39011242520747808 0 0.32970639289363701 0.40156671829772478 0 0.3199451453554058 0.39011242520747808 0 0.33269997325289119 0.38683359434655418 0 0.32970639289363701 0.40156671829772478 0 0.31237326001419508 0.40105389954825521 0 0.30602020955398579 0.38905243034382658 0 0.3199451453554058 0.39011242520747808 0 0.30756258610112819 0.4134080011229746 0 0.31237326001419508 0.40105389954825521 0 0.32208384121974748 0.41355098140915603 0 0.30756258610112819 0.4134080011229746 0 0.32208384121974748 0.41355098140915603 0 0.31687593840595968 0.4254979066635427 0 0.32208384121974748 0.41355098140915603 0 0.31687593840595968 0.4254979066635427 0 0.32943524964360987 0.42527992072740628 0 0.32399520066000798 0.44104244940338111 0 0.30826261139157268 0.43608334073454641 0 0.31687593840595968 0.4254979066635427 0 0.32399520066000798 0.44104244940338111 0 0.31687593840595968 0.4254979066635427 0 0.32943524964360987 0.42527992072740628 0 0.34189019265115339 0.4310777411203931 0 0.32943524964360987 0.42527992072740628 0 0.33763161954675158 0.41520835951209789 0 0.32399520066000798 0.44104244940338111 0 0.34189019265115339 0.4310777411203931 0 0.32943524964360987 0.42527992072740628 0 0.32970639289363701 0.40156671829772478 0 0.32208384121974748 0.41355098140915603 0 0.33763161954675158 0.41520835951209789 0 0.32208384121974748 0.41355098140915603 0 0.32943524964360987 0.42527992072740628 0 0.33763161954675158 0.41520835951209789 0 0.35244279786640698 0.42017234156594191 0 0.35683177607812289 0.4025979597022149 0 0.343811942607544 0.40186485775282133 0 0.33763161954675158 0.41520835951209789 0 0.35244279786640698 0.42017234156594191 0 0.343811942607544 0.40186485775282133 0 0.34189019265115339 0.4310777411203931 0 0.35244279786640698 0.42017234156594191 0 0.35673519907307799 0.43588840606921808 0 0.34189019265115339 0.4310777411203931 0 0.33763161954675158 0.41520835951209789 0 0.35244279786640698 0.42017234156594191 0 0.35244279786640698 0.42017234156594191 0 0.35673519907307799 0.43588840606921808 0 0.36670346557329042 0.42093503744157929 0 0.35673519907307799 0.43588840606921808 0 0.36670346557329042 0.42093503744157929 0 0.37613735692467759 0.42354635551393088 0 0.35673519907307799 0.43588840606921808 0 0.37613735692467759 0.42354635551393088 0 0.37608676866807861 0.43860750966371292 0 0.35673519907307799 0.43588840606921808 0 0.37613735692467759 0.42354635551393088 0 0.35244279786640698 0.42017234156594191 0 0.35683177607812289 0.4025979597022149 0 0.37680935919085567 0.40394152364715508 0 0.35244279786640698 0.42017234156594191 0 0.37680935919085567 0.40394152364715508 0 0.36670346557329042 0.42093503744157929 0 0.37680935919085567 0.40394152364715508 0 0.37615005849931082 0.41976483809527643 0 0.35244279786640698 0.42017234156594191 0 0.36670346557329042 0.42093503744157929 0 0.37680935919085567 0.40394152364715508 0 0.36670346557329042 0.42093503744157929 0 0.37615005849931082 0.41976483809527643 0 0.37613735692467759 0.42354635551393088 0 0.35355909600745422 0.3848101730923944 0 0.37680935919085567 0.40394152364715508 0 0.35355909600745422 0.3848101730923944 0 0.35683177607812289 0.4025979597022149 0 0.37680935919085567 0.40394152364715508 0 0.3747010532189271 0.38018926041028822 0 0.35355909600745422 0.3848101730923944 0 0.36302543887613642 0.36280987999725017 0 0.3747010532189271 0.38018926041028822 0 0.35355909600745422 0.3848101730923944 0 0.37680935919085567 0.40394152364715508 0 0.35355909600745422 0.3848101730923944 0 0.35683177607812289 0.4025979597022149 0 0.343811942607544 0.40186485775282133 0 0.35134982453334529 0.34543049958421251 0 0.36302543887613642 0.36280987999725017 0 0.33030883282405421 0.36567882253763201 0 0.35355909600745422 0.3848101730923944 0 0.36302543887613642 0.36280987999725017 0 0.33030883282405421 0.36567882253763201 0 0.35134982453334529 0.34543049958421251 0 0.36302543887613642 0.36280987999725017 0 0.3747010532189271 0.38018926041028822 0 0.36302543887613642 0.36280987999725017 0 0.38083002372273828 0.36304822517317559 0 0.3747010532189271 0.38018926041028822 0 0.36302543887613642 0.36280987999725017 0 0.35134982453334529 0.34543049958421251 0 0.36302543887613642 0.36280987999725017 0 0.36765657213880137 0.34861635503237859 0 0.36302543887613642 0.36280987999725017 0 0.36765657213880137 0.34861635503237859 0 0.38083002372273828 0.36304822517317559 0 0.36765657213880137 0.34861635503237859 0 0.37299430616314189 0.33809011383927817 0 0.38158267744313779 0.34525795922912839 0 0.36765657213880137 0.34861635503237859 0 0.37299430616314189 0.33809011383927817 0 0.36226422992893698 0.33492726816109442 0 0.35134982453334529 0.34543049958421251 0 0.36765657213880137 0.34861635503237859 0 0.36226422992893698 0.33492726816109442 0 0.37299430616314189 0.33809011383927817 0 0.36226422992893698 0.33492726816109442 0 0.37079027171431489 0.325442681928716 0 0.37309927486741051 0.31561328935559102 0 0.3644719650514141 0.31406790127284501 0 0.3712130401064716 0.30930699277670037 0 0.37309927486741051 0.31561328935559102 0 0.37079027171431489 0.325442681928716 0 0.3644719650514141 0.31406790127284501 0 0.37079027171431489 0.325442681928716 0 0.3644719650514141 0.31406790127284501 0 0.35750429798750261 0.32228608193591951 0 0.36226422992893698 0.33492726816109442 0 0.37079027171431489 0.325442681928716 0 0.35750429798750261 0.32228608193591951 0 0.3644719650514141 0.31406790127284501 0 0.35750429798750261 0.32228608193591951 0 0.35640250459301842 0.31132026314595751 0 0.35750429798750261 0.32228608193591951 0 0.35073669131944962 0.31548907685117061 0 0.35640250459301842 0.31132026314595751 0 0.35750429798750261 0.32228608193591951 0 0.34564825257321252 0.32228375401280812 0 0.35220725515213208 0.33184979782179891 0 0.34564825257321252 0.32228375401280812 0 0.35073669131944962 0.31548907685117061 0 0.34364096937748978 0.31417430581459438 0 0.35750429798750261 0.32228608193591951 0 0.34564825257321252 0.32228375401280812 0 0.35073669131944962 0.31548907685117061 0 0.35073669131944962 0.31548907685117061 0 0.34364096937748978 0.31417430581459438 0 0.34691341727662661 0.31007847064713329 0 0.35134982453334529 0.34543049958421251 0 0.36226422992893698 0.33492726816109442 0 0.35134982453334529 0.34543049958421251 0 0.36226422992893698 0.33492726816109442 0 0.35220725515213208 0.33184979782179891 0 0.36226422992893698 0.33492726816109442 0 0.35750429798750261 0.32228608193591951 0 0.35220725515213208 0.33184979782179891 0 0.34564825257321252 0.32228375401280812 0 0.35220725515213208 0.33184979782179891 0 0.34171727414351122 0.33109225984301521 0 0.35134982453334529 0.34543049958421251 0 0.35220725515213208 0.33184979782179891 0 0.34171727414351122 0.33109225984301521 0 0.35134982453334529 0.34543049958421251 0 0.34171727414351122 0.33109225984301521 0 0.35134982453334529 0.34543049958421251 0 0.34171727414351122 0.33109225984301521 0 0.33591413233487999 0.33911071857035502 0 0.34171727414351122 0.33109225984301521 0 0.32878222273170282 0.3322471917345925 0 0.33591413233487999 0.33911071857035502 0 0.32878222273170282 0.3322471917345925 0 0.33591413233487999 0.33911071857035502 0 0.32038380827537172 0.3424466517412193 0 0.33591413233487999 0.33911071857035502 0 0.32038380827537172 0.3424466517412193 0 0.33375627807480529 0.34877072893294808 0 0.34564825257321252 0.32228375401280812 0 0.34364096937748978 0.31417430581459438 0 0.33208472375367759 0.31675402010181769 0 0.34171727414351122 0.33109225984301521 0 0.33208472375367759 0.31675402010181769 0 0.34564825257321252 0.32228375401280812 0 0.34171727414351122 0.33109225984301521 0 0.33208472375367759 0.31675402010181769 0 0.34171727414351122 0.33109225984301521 0 0.32878222273170282 0.3322471917345925 0 0.33208472375367759 0.31675402010181769 0 0.33208472375367759 0.31675402010181769 0 0.32032928954486262 0.3292345596466606 0 0.32878222273170282 0.3322471917345925 0 0.33208472375367759 0.31675402010181769 0 0.32032928954486262 0.3292345596466606 0 0.33208472375367759 0.31675402010181769 0 0.31688256185034558 0.31719936467485021 0 0.32032928954486262 0.3292345596466606 0 0.32038380827537172 0.3424466517412193 0 0.32032928954486262 0.3292345596466606 0 0.30534799700236182 0.34513993674189442 0 0.32032928954486262 0.3292345596466606 0 0.30534799700236182 0.34513993674189442 0 0.32878222273170282 0.3322471917345925 0 0.32032928954486262 0.3292345596466606 0 0.32878222273170282 0.3322471917345925 0 0.32038380827537172 0.3424466517412193 0 0.32032928954486262 0.3292345596466606 0 0.32038380827537172 0.3424466517412193 0 0.3178284149132074 0.35540937963976388 0 0.30534799700236182 0.34513993674189442 0 0.32038380827537172 0.3424466517412193 0 0.3178284149132074 0.35540937963976388 0 0.33375627807480529 0.34877072893294808 0 0.3178284149132074 0.35540937963976388 0 0.33375627807480529 0.34877072893294808 0 0.33030883282405421 0.36567882253763201 0 0.35134982453334529 0.34543049958421251 0 0.33030883282405421 0.36567882253763201 0 0.35134982453334529 0.34543049958421251 0 0.33591413233487999 0.33911071857035502 0 0.33375627807480529 0.34877072893294808 0 0.35134982453334529 0.34543049958421251 0 0.33375627807480529 0.34877072893294808 0 0.33030883282405421 0.36567882253763201 0 0.31816452118902 0.37736562644072918 0 0.3178284149132074 0.35540937963976388 0 0.30415884971604479 0.36958315897853378 0 0.31816452118902 0.37736562644072918 0 0.33030883282405421 0.36567882253763201 0 0.31816452118902 0.37736562644072918 0 0.3178284149132074 0.35540937963976388 0 0.33030883282405421 0.36567882253763201 0 0.3178284149132074 0.35540937963976388 0 0.33030883282405421 0.36567882253763201 0 0.3178284149132074 0.35540937963976388 0 0.30415884971604479 0.36958315897853378 0 0.30543389332956378 0.35672384468253338 0 0.30415884971604479 0.36958315897853378 0 0.30543389332956378 0.35672384468253338 0 0.29440031168664232 0.35676290336994032 0 0.30415884971604479 0.36958315897853378 0 0.29440031168664232 0.35676290336994032 0 0.29376222262966689 0.36932328381688329 0 0.29271794338052359 0.3812828835618382 0 0.30415884971604479 0.36958315897853378 0 0.29376222262966689 0.36932328381688329 0 0.3178284149132074 0.35540937963976388 0 0.30534799700236182 0.34513993674189442 0 0.3178284149132074 0.35540937963976388 0 0.30534799700236182 0.34513993674189442 0 0.30543389332956378 0.35672384468253338 0 0.30534799700236182 0.34513993674189442 0 0.30543389332956378 0.35672384468253338 0 0.29440031168664232 0.35676290336994032 0 0.30534799700236182 0.34513993674189442 0 0.29440031168664232 0.35676290336994032 0 0.30534799700236182 0.34513993674189442 0 0.29440031168664232 0.35676290336994032 0 0.28601901407532981 0.34675450739416519 0 0.29440031168664232 0.35676290336994032 0 0.28393071007748483 0.35786887571914328 0 0.28601901407532981 0.34675450739416519 0 0.29440031168664232 0.35676290336994032 0 0.29376222262966689 0.36932328381688329 0 0.28345262637092289 0.36838586999798639 0 0.29440031168664232 0.35676290336994032 0 0.28393071007748483 0.35786887571914328 0 0.28345262637092289 0.36838586999798639 0 0.29440031168664232 0.35676290336994032 0 0.28345262637092289 0.36838586999798639 0 0.28597851056891921 0.37579566130643688 0 0.29376222262966689 0.36932328381688329 0 0.28345262637092289 0.36838586999798639 0 0.27780514967480507 0.37641077074627488 0 0.28597851056891921 0.37579566130643688 0 0.28345262637092289 0.36838586999798639 0 0.27288261654684293 0.37667722228717432 0 0.27780514967480507 0.37641077074627488 0 0.28345262637092289 0.36838586999798639 0 0.27288261654684293 0.37667722228717432 0 0.28345262637092289 0.36838586999798639 0 0.27350581846382038 0.35640007772927601 0 0.27288261654684293 0.37667722228717432 0 0.27350581846382038 0.35640007772927601 0 0.27288261654684293 0.37667722228717432 0 0.27350581846382038 0.35640007772927601 0 0.26109283562979668 0.3655577491780122 0 0.28393071007748483 0.35786887571914328 0 0.28345262637092289 0.36838586999798639 0 0.27350581846382038 0.35640007772927601 0 0.27350581846382038 0.35640007772927601 0 0.25413830588915659 0.35090467720135682 0 0.27412902038079828 0.33612293317137759 0 0.27350581846382038 0.35640007772927601 0 0.27412902038079828 0.33612293317137759 0 0.28601901407532981 0.34675450739416519 0 0.27350581846382038 0.35640007772927601 0 0.27412902038079828 0.33612293317137759 0 0.28393071007748483 0.35786887571914328 0 0.28601901407532981 0.34675450739416519 0 0.27350581846382038 0.35640007772927601 0 0.27350581846382038 0.35640007772927601 0 0.25413830588915659 0.35090467720135682 0 0.26109283562979668 0.3655577491780122 0 0.2438446016193678 0.37824901949424272 0 0.25413830588915659 0.35090467720135682 0 0.26109283562979668 0.3655577491780122 0 0.2438446016193678 0.37824901949424272 0 0.27288261654684293 0.37667722228717432 0 0.26109283562979668 0.3655577491780122 0 0.2396976137190335 0.31517740442136111 0 0.26234780700965482 0.32475471462566191 0 0.2396976137190335 0.31517740442136111 0 0.26234780700965482 0.32475471462566191 0 0.25948805590394047 0.31565863508322789 0 0.26234780700965482 0.32475471462566191 0 0.26490083539871739 0.32231494087967683 0 0.25948805590394047 0.31565863508322789 0 0.26234780700965482 0.32475471462566191 0 0.26490083539871739 0.32231494087967683 0 0.26895420645238088 0.32196135286338018 0 0.26234780700965482 0.32475471462566191 0 0.26490083539871739 0.32231494087967683 0 0.25948805590394047 0.31565863508322789 0 0.26790628238126463 0.31433122880868841 0 0.25980183027386999 0.307662525185947 0 0.26490083539871739 0.32231494087967683 0 0.25948805590394047 0.31565863508322789 0 0.26790628238126463 0.31433122880868841 0 0.25413830588915659 0.35090467720135682 0 0.26234780700965482 0.32475471462566191 0 0.24736773437451201 0.33907025772135901 0 0.25413830588915659 0.35090467720135682 0 0.26234780700965482 0.32475471462566191 0 0.24736773437451201 0.33907025772135901 0 0.24690780095318471 0.32696603956563181 0 0.26234780700965482 0.32475471462566191 0 0.25413830588915659 0.35090467720135682 0 0.27412902038079828 0.33612293317137759 0 0.24736773437451201 0.33907025772135901 0 0.26234780700965482 0.32475471462566191 0 0.25413830588915659 0.35090467720135682 0 0.26234780700965482 0.32475471462566191 0 0.27412902038079828 0.33612293317137759 0 0.26234780700965482 0.32475471462566191 0 0.27890068649706079 0.33175386291509068 0 0.26234780700965482 0.32475471462566191 0 0.27428982183432937 0.33089093014066889 0 0.27890068649706079 0.33175386291509068 0 0.26234780700965482 0.32475471462566191 0 0.27412902038079828 0.33612293317137759 0 0.27428982183432937 0.33089093014066889 0 0.27412902038079828 0.33612293317137759 0 0.27890068649706079 0.33175386291509068 0 0.28480022684087292 0.32823231763335847 0 0.27412902038079828 0.33612293317137759 0 0.28480022684087292 0.32823231763335847 0 0.27890068649706079 0.33175386291509068 0 0.27319748563250962 0.32511109408404221 0 0.28480022684087292 0.32823231763335847 0 0.27412902038079828 0.33612293317137759 0 0.27428982183432937 0.33089093014066889 0 0.27412902038079828 0.33612293317137759 0 0.27428982183432937 0.33089093014066889 0 0.27890068649706079 0.33175386291509068 0 0.2740022805417936 0.31361724405588659 0 0.29544086483403459 0.32036430535214061 0 0.26916101274631871 0.31099814523759722 0 0.27078041038172651 0.31669618914838071 0 0.28480022684087292 0.32823231763335847 0 0.27319748563250962 0.32511109408404221 0 0.27078041038172651 0.31669618914838071 0 0.28480022684087292 0.32823231763335847 0 0.29544086483403459 0.32036430535214061 0 0.26985135572568708 0.30916430833762532 0 0.26916101274631871 0.31099814523759722 0 0.26234780700965482 0.32475471462566191 0 0.27890068649706079 0.33175386291509068 0 0.27319748563250962 0.32511109408404221 0 0.27319748563250962 0.32511109408404221 0 0.26895420645238088 0.32196135286338018 0 0.27078041038172651 0.31669618914838071 0 0.26234780700965482 0.32475471462566191 0 0.27319748563250962 0.32511109408404221 0 0.26895420645238088 0.32196135286338018 0 0.26490083539871739 0.32231494087967683 0 0.26895420645238088 0.32196135286338018 0 0.27078041038172651 0.31669618914838071 0 0.26490083539871739 0.32231494087967683 0 0.26790628238126463 0.31433122880868841 0 0.26490083539871739 0.32231494087967683 0 0.26790628238126463 0.31433122880868841 0 0.27078041038172651 0.31669618914838071 0 0.26790628238126463 0.31433122880868841 0 0.27078041038172651 0.31669618914838071 0 0.26790628238126463 0.31433122880868841 0 0.26916101274631871 0.31099814523759722 0 0.26490083539871739 0.32231494087967683 0 0.27078041038172651 0.31669618914838071 0 0.27078041038172651 0.31669618914838071 0 0.2740022805417936 0.31361724405588659 0 0.26790628238126463 0.31433122880868841 0 0.27078041038172651 0.31669618914838071 0 0.2740022805417936 0.31361724405588659 0 0.26790628238126463 0.31433122880868841 0 0.2740022805417936 0.31361724405588659 0 0.26916101274631871 0.31099814523759722 0 0.27078041038172651 0.31669618914838071 0 0.2740022805417936 0.31361724405588659 0 0.28480022684087292 0.32823231763335847 0 0.29544086483403459 0.32036430535214061 0 0.26916101274631871 0.31099814523759722 0 0.2740022805417936 0.31361724405588659 0 0.29544086483403459 0.32036430535214061 0 0.28480022684087292 0.32823231763335847 0 0.29544086483403459 0.32036430535214061 0 0.28480022684087292 0.32823231763335847 0 0.30534799700236182 0.34513993674189442 0 0.29544086483403459 0.32036430535214061 0 0.28480022684087292 0.32823231763335847 0 0.30534799700236182 0.34513993674189442 0 0.28601901407532981 0.34675450739416519 0 0.28480022684087292 0.32823231763335847 0 0.30534799700236182 0.34513993674189442 0 0.28480022684087292 0.32823231763335847 0 0.28601901407532981 0.34675450739416519 0 0.27412902038079828 0.33612293317137759 0 0.28480022684087292 0.32823231763335847 0 0.32032928954486262 0.3292345596466606 0 0.30534799700236182 0.34513993674189442 0 0.29544086483403459 0.32036430535214061 0 0.31688256185034558 0.31719936467485021 0 0.29544086483403459 0.32036430535214061 0 0.31967536926880991 0.3024445735987803 0 0.32032928954486262 0.3292345596466606 0 0.29544086483403459 0.32036430535214061 0 0.31688256185034558 0.31719936467485021 0 0.32032928954486262 0.3292345596466606 0 0.29544086483403459 0.32036430535214061 0 0.29544086483403459 0.32036430535214061 0 0.30389482061131867 0.30300965398004048 0 0.31967536926880991 0.3024445735987803 0 0.29544086483403459 0.32036430535214061 0 0.31967536926880991 0.3024445735987803 0 0.30389482061131867 0.30300965398004048 0 0.28988218484745037 0.29573015738220509 0 0.31621862332532152 0.29313701915264623 0 0.30441669722306369 0.27556962121402329 0 0.31621862332532152 0.29313701915264623 0 0.30033875874595312 0.28586806630571499 0 0.28988218484745037 0.29573015738220509 0 0.31621862332532152 0.29313701915264623 0 0.28988218484745037 0.29573015738220509 0 0.31621862332532152 0.29313701915264623 0 0.30033875874595312 0.28586806630571499 0 0.30441669722306369 0.27556962121402329 0 0.31621862332532152 0.29313701915264623 0 0.28988218484745037 0.29573015738220509 0 0.27719163797877838 0.28867938154287542 0 0.29083752958797671 0.27903546747398528 0 0.30033875874595312 0.28586806630571499 0 0.28988218484745037 0.29573015738220509 0 0.29083752958797671 0.27903546747398528 0 0.27719163797877838 0.28867938154287542 0 0.29083752958797671 0.27903546747398528 0 0.29544086483403459 0.32036430535214061 0 0.30389482061131867 0.30300965398004048 0 0.28988218484745037 0.29573015738220509 0 0.29544086483403459 0.32036430535214061 0 0.28988218484745037 0.29573015738220509 0 0.26985135572568708 0.30916430833762532 0 0.28988218484745037 0.29573015738220509 0 0.26354574636957961 0.29832329561176502 0 0.28988218484745037 0.29573015738220509 0 0.26985135572568708 0.30916430833762532 0 0.26354574636957961 0.29832329561176502 0 0.26985135572568708 0.30916430833762532 0 0.26916101274631871 0.31099814523759722 0 0.25980183027386999 0.307662525185947 0 0.26985135572568708 0.30916430833762532 0 0.26916101274631871 0.31099814523759722 0 0.28988218484745037 0.29573015738220509 0 0.27719163797877838 0.28867938154287542 0 0.26354574636957961 0.29832329561176502 0 0.27719163797877838 0.28867938154287542 0 0.2666253302236441 0.28301104264855631 0 0.26354574636957961 0.29832329561176502 0 0.27719163797877838 0.28867938154287542 0 0.26354574636957961 0.29832329561176502 0 0.2666253302236441 0.28301104264855631 0 0.25732806410640241 0.28737241074447162 0 0.26354574636957961 0.29832329561176502 0 0.25732806410640241 0.28737241074447162 0 0.25514732927262268 0.29915022049988849 0 0.26354574636957961 0.29832329561176502 0 0.2666253302236441 0.28301104264855631 0 0.25732806410640241 0.28737241074447162 0 0.25696340764577252 0.27453320402547582 0 0.2396976137190335 0.31517740442136111 0 0.25948805590394047 0.31565863508322789 0 0.25602822764116517 0.30631761021653908 0 0.2396976137190335 0.31517740442136111 0 0.25542589449403352 0.3040618106155859 0 0.25602822764116517 0.30631761021653908 0 0.25542589449403352 0.3040618106155859 0 0.25602822764116517 0.30631761021653908 0 0.25980183027386999 0.307662525185947 0 0.25542589449403352 0.3040618106155859 0 0.25980183027386999 0.307662525185947 0 0.26985135572568708 0.30916430833762532 0 0.25980183027386999 0.307662525185947 0 0.26354574636957961 0.29832329561176502 0 0.26790628238126463 0.31433122880868841 0 0.26916101274631871 0.31099814523759722 0 0.25980183027386999 0.307662525185947 0 0.25948805590394047 0.31565863508322789 0 0.25602822764116517 0.30631761021653908 0 0.25980183027386999 0.307662525185947 0 0.26916101274631871 0.31099814523759722 0 0.25980183027386999 0.307662525185947 0 0.26790628238126463 0.31433122880868841 0 0.25980183027386999 0.307662525185947 0 0.25602822764116517 0.30631761021653908 0 0.25980183027386999 0.307662525185947 0 0.25542589449403352 0.3040618106155859 0 0.26354574636957961 0.29832329561176502 0 0.25514732927262268 0.29915022049988849 0 0.26354574636957961 0.29832329561176502 0 0.25542589449403352 0.3040618106155859 0 0.25980183027386999 0.307662525185947 0 0.26354574636957961 0.29832329561176502 0 0.25514732927262268 0.29915022049988849 0 0.25542589449403352 0.3040618106155859 0 0.26354574636957961 0.29832329561176502 0 0.24280420534391789 0.2688963630538404 0 0.25556392931817717 0.25644551735543158 0 0.25696340764577252 0.27453320402547582 0 0.25556392931817717 0.25644551735543158 0 0.25696340764577252 0.27453320402547582 0 0.27471021349250391 0.27069197865582972 0 0.27719163797877838 0.28867938154287542 0 0.27471021349250391 0.27069197865582972 0 0.29083752958797671 0.27903546747398528 0 0.27719163797877838 0.28867938154287542 0 0.2666253302236441 0.28301104264855631 0 0.27471021349250391 0.27069197865582972 0 0.2666253302236441 0.28301104264855631 0 0.25696340764577252 0.27453320402547582 0 0.27471021349250391 0.27069197865582972 0 0.25556392931817717 0.25644551735543158 0 0.27471021349250391 0.27069197865582972 0 0.2715308159621993 0.25197005680426943 0 0.27471021349250391 0.27069197865582972 0 0.2715308159621993 0.25197005680426943 0 0.29261477112080608 0.25800222327540018 0 0.2715308159621993 0.25197005680426943 0 0.29261477112080608 0.25800222327540018 0 0.28081284501854842 0.2404348253367771 0 0.29261477112080608 0.25800222327540018 0 0.29083752958797671 0.27903546747398528 0 0.30441669722306369 0.27556962121402329 0 0.27471021349250391 0.27069197865582972 0 0.29261477112080608 0.25800222327540018 0 0.29083752958797671 0.27903546747398528 0 0.30441669722306369 0.27556962121402329 0 0.30778376210931502 0.25531882413801787 0 0.31645581031292291 0.26805045790962229 0 0.29261477112080608 0.25800222327540018 0 0.30441669722306369 0.27556962121402329 0 0.30033875874595312 0.28586806630571499 0 0.29083752958797671 0.27903546747398528 0 0.30441669722306369 0.27556962121402329 0 0.29261477112080608 0.25800222327540018 0 0.30778376210931502 0.25531882413801787 0 0.29646385361770672 0.24212054302972821 0 0.29261477112080608 0.25800222327540018 0 0.30441669722306369 0.27556962121402329 0 0.30778376210931502 0.25531882413801787 0 0.30778376210931502 0.25531882413801787 0 0.32318648542418538 0.25555341532606313 0 0.31201463870830531 0.23915474712436649 0 0.32318648542418538 0.25555341532606313 0 0.32922759836918419 0.27281151748451432 0 0.31645581031292291 0.26805045790962229 0 0.30778376210931502 0.25531882413801787 0 0.32318648542418538 0.25555341532606313 0 0.31645581031292291 0.26805045790962229 0 0.32318648542418538 0.25555341532606313 0 0.33723588769926238 0.26031022526587888 0 0.32922759836918419 0.27281151748451432 0 0.32318648542418538 0.25555341532606313 0 0.33723588769926238 0.26031022526587888 0 0.33882618331877828 0.24382358116630509 0 0.33723588769926238 0.26031022526587888 0 0.35022216346339469 0.25177717101264768 0 0.33882618331877828 0.24382358116630509 0 0.33723588769926238 0.26031022526587888 0 0.3402065813717739 0.27085041208384331 0 0.34946634817471539 0.26344786027662609 0 0.3402065813717739 0.27085041208384331 0 0.33874952646714551 0.28208430637516357 0 0.34790021630855539 0.27779948885585592 0 0.3402065813717739 0.27085041208384331 0 0.32922759836918419 0.27281151748451432 0 0.33874952646714551 0.28208430637516357 0 0.33723588769926238 0.26031022526587888 0 0.3402065813717739 0.27085041208384331 0 0.32922759836918419 0.27281151748451432 0 0.32922759836918419 0.27281151748451432 0 0.32676913707721378 0.28398525320542828 0 0.33874952646714551 0.28208430637516357 0 0.32922759836918419 0.27281151748451432 0 0.31784676559487468 0.27924763598257818 0 0.32676913707721378 0.28398525320542828 0 0.32922759836918419 0.27281151748451432 0 0.31645581031292291 0.26805045790962229 0 0.31784676559487468 0.27924763598257818 0 0.30441669722306369 0.27556962121402329 0 0.31645581031292291 0.26805045790962229 0 0.31784676559487468 0.27924763598257818 0 0.31621862332532152 0.29313701915264623 0 0.33516900405009858 0.29127112689225509 0 0.31621862332532152 0.29313701915264623 0 0.32956249047802288 0.29885605297959889 0 0.33516900405009858 0.29127112689225509 0 0.31784676559487468 0.27924763598257818 0 0.31621862332532152 0.29313701915264623 0 0.32676913707721378 0.28398525320542828 0 0.31621862332532152 0.29313701915264623 0 0.32676913707721378 0.28398525320542828 0 0.33516900405009858 0.29127112689225509 0 0.30441669722306369 0.27556962121402329 0 0.31784676559487468 0.27924763598257818 0 0.31621862332532152 0.29313701915264623 0 0.30389482061131867 0.30300965398004048 0 0.31621862332532152 0.29313701915264623 0 0.31967536926880991 0.3024445735987803 0 0.33208472375367759 0.31675402010181769 0 0.31621862332532152 0.29313701915264623 0 0.32956249047802288 0.29885605297959889 0 0.33208472375367759 0.31675402010181769 0 0.31621862332532152 0.29313701915264623 0 0.33208472375367759 0.31675402010181769 0 0.31621862332532152 0.29313701915264623 0 0.31967536926880991 0.3024445735987803 0 0.33208472375367759 0.31675402010181769 0 0.31688256185034558 0.31719936467485021 0 0.31967536926880991 0.3024445735987803 0 0.33208472375367759 0.31675402010181769 0 0.32956249047802288 0.29885605297959889 0 0.33597152356466198 0.30458935410857979 0 0.32956249047802288 0.29885605297959889 0 0.33597152356466198 0.30458935410857979 0 0.33830292229015979 0.29857557174602511 0 0.33830292229015979 0.29857557174602511 0 0.34621564873806709 0.29548940812171048 0 0.34393595773678859 0.30417177160687708 0 0.33597152356466198 0.30458935410857979 0 0.33830292229015979 0.29857557174602511 0 0.34393595773678859 0.30417177160687708 0 0.33208472375367759 0.31675402010181769 0 0.34409164793144459 0.30620514711774433 0 0.34393595773678859 0.30417177160687708 0 0.33208472375367759 0.31675402010181769 0 0.34393595773678859 0.30417177160687708 0 0.34364096937748978 0.31417430581459438 0 0.33208472375367759 0.31675402010181769 0 0.34409164793144459 0.30620514711774433 0 0.33208472375367759 0.31675402010181769 0 0.33597152356466198 0.30458935410857979 0 0.34393595773678859 0.30417177160687708 0 0.32676913707721378 0.28398525320542828 0 0.33516900405009858 0.29127112689225509 0 0.33874952646714551 0.28208430637516357 0 0.32956249047802288 0.29885605297959889 0 0.33830292229015979 0.29857557174602511 0 0.33516900405009858 0.29127112689225509 0 0.33830292229015979 0.29857557174602511 0 0.34260729294696929 0.29128259062237649 0 0.34621564873806709 0.29548940812171048 0 0.33830292229015979 0.29857557174602511 0 0.33516900405009858 0.29127112689225509 0 0.34260729294696929 0.29128259062237649 0 0.34260729294696929 0.29128259062237649 0 0.33874952646714551 0.28208430637516357 0 0.34936685514622318 0.28658975548187188 0 0.33516900405009858 0.29127112689225509 0 0.34260729294696929 0.29128259062237649 0 0.33874952646714551 0.28208430637516357 0 0.33874952646714551 0.28208430637516357 0 0.34936685514622318 0.28658975548187188 0 0.34790021630855539 0.27779948885585592 0 0.35578719171989631 0.29158952311193348 0 0.34393595773678859 0.30417177160687708 0 0.35964437402246618 0.29325458366658202 0 0.34936685514622318 0.28658975548187188 0 0.35624099409526871 0.28438463566713312 0 0.34790021630855539 0.27779948885585592 0 0.34260729294696929 0.29128259062237649 0 0.34621564873806709 0.29548940812171048 0 0.34849424713778898 0.29123781933447312 0 0.34260729294696929 0.29128259062237649 0 0.34936685514622318 0.28658975548187188 0 0.34849424713778898 0.29123781933447312 0 0.34621564873806709 0.29548940812171048 0 0.34849424713778898 0.29123781933447312 0 0.35578719171989631 0.29158952311193348 0 0.34936685514622318 0.28658975548187188 0 0.34849424713778898 0.29123781933447312 0 0.35578719171989631 0.29158952311193348 0 0.35578719171989631 0.29158952311193348 0 0.35624099409526871 0.28438463566713312 0 0.35964437402246618 0.29325458366658202 0 0.34936685514622318 0.28658975548187188 0 0.35578719171989631 0.29158952311193348 0 0.35624099409526871 0.28438463566713312 0 0.34409164793144459 0.30620514711774433 0 0.34393595773678859 0.30417177160687708 0 0.35964437402246618 0.29325458366658202 0 0.34364096937748978 0.31417430581459438 0 0.34691341727662661 0.31007847064713329 0 0.34409164793144459 0.30620514711774433 0 0.34409164793144459 0.30620514711774433 0 0.34904065232352322 0.30654866614472043 0 0.35358625892511908 0.30305050740384187 0 0.35073669131944962 0.31548907685117061 0 0.35084146629775059 0.30971087238969353 0 0.34691341727662661 0.31007847064713329 0 0.35084146629775059 0.30971087238969353 0 0.34691341727662661 0.31007847064713329 0 0.34904065232352322 0.30654866614472043 0 0.34691341727662661 0.31007847064713329 0 0.34409164793144459 0.30620514711774433 0 0.34904065232352322 0.30654866614472043 0 0.35084146629775059 0.30971087238969353 0 0.34904065232352322 0.30654866614472043 0 0.35333393234211319 0.30689882920479672 0 0.35578719171989631 0.29158952311193348 0 0.34393595773678859 0.30417177160687708 0 0.34621564873806709 0.29548940812171048 0 0.35578719171989631 0.29158952311193348 0 0.34393595773678859 0.30417177160687708 0 0.34409164793144459 0.30620514711774433 0 0.35964437402246618 0.29325458366658202 0 0.358416715200846 0.30039574359608401 0 0.35358625892511908 0.30305050740384187 0 0.35964437402246618 0.29325458366658202 0 0.34409164793144459 0.30620514711774433 0 0.35358625892511908 0.30305050740384187 0 0.35964437402246618 0.29325458366658202 0 0.358416715200846 0.30039574359608401 0 0.35699023173032118 0.30500007469312429 0 0.36052484923359301 0.30268766628869642 0 0.358416715200846 0.30039574359608401 0 0.35358625892511908 0.30305050740384187 0 0.35699023173032118 0.30500007469312429 0 0.34904065232352322 0.30654866614472043 0 0.35358625892511908 0.30305050740384187 0 0.35333393234211319 0.30689882920479672 0 0.35358625892511908 0.30305050740384187 0 0.35333393234211319 0.30689882920479672 0 0.35699023173032118 0.30500007469312429 0 0.35333393234211319 0.30689882920479672 0 0.35699023173032118 0.30500007469312429 0 0.35640250459301842 0.31132026314595751 0 0.35699023173032118 0.30500007469312429 0 0.35640250459301842 0.31132026314595751 0 0.36175515267345187 0.30696286292236258 0 0.35084146629775059 0.30971087238969353 0 0.35333393234211319 0.30689882920479672 0 0.35640250459301842 0.31132026314595751 0 0.35073669131944962 0.31548907685117061 0 0.35084146629775059 0.30971087238969353 0 0.35640250459301842 0.31132026314595751 0 0.3644719650514141 0.31406790127284501 0 0.35640250459301842 0.31132026314595751 0 0.36175515267345187 0.30696286292236258 0 0.3644719650514141 0.31406790127284501 0 0.36175515267345187 0.30696286292236258 0 0.36704789656805381 0.30630522887205131 0 0.35699023173032118 0.30500007469312429 0 0.36175515267345187 0.30696286292236258 0 0.36052484923359301 0.30268766628869642 0 0.36175515267345187 0.30696286292236258 0 0.36704789656805381 0.30630522887205131 0 0.3654001604359946 0.30181180734520291 0 0.3654001604359946 0.30181180734520291 0 0.36052484923359301 0.30268766628869642 0 0.36152931425189688 0.29912212368152902 0 0.36175515267345187 0.30696286292236258 0 0.3654001604359946 0.30181180734520291 0 0.36052484923359301 0.30268766628869642 0 0.358416715200846 0.30039574359608401 0 0.36152931425189688 0.29912212368152902 0 0.35964437402246618 0.29325458366658202 0 0.358416715200846 0.30039574359608401 0 0.36052484923359301 0.30268766628869642 0 0.36152931425189688 0.29912212368152902 0 0.3654001604359946 0.30181180734520291 0 0.36152931425189688 0.29912212368152902 0 0.36543449206281392 0.29673086238960239 0 0.3654001604359946 0.30181180734520291 0 0.3712551052286216 0.29772656840024819 0 0.36543449206281392 0.29673086238960239 0 0.3712551052286216 0.29772656840024819 0 0.37160303639205022 0.3038531247757344 0 0.37689621422520431 0.29989072204694128 0 0.36704789656805381 0.30630522887205131 0 0.3654001604359946 0.30181180734520291 0 0.37160303639205022 0.3038531247757344 0 0.3654001604359946 0.30181180734520291 0 0.3712551052286216 0.29772656840024819 0 0.37160303639205022 0.3038531247757344 0 0.36704789656805381 0.30630522887205131 0 0.37160303639205022 0.3038531247757344 0 0.3712130401064716 0.30930699277670037 0 0.37160303639205022 0.3038531247757344 0 0.3712130401064716 0.30930699277670037 0 0.37780580178795509 0.3080774292132627 0 0.37309927486741051 0.31561328935559102 0 0.3712130401064716 0.30930699277670037 0 0.37780580178795509 0.3080774292132627 0 0.3644719650514141 0.31406790127284501 0 0.36704789656805381 0.30630522887205131 0 0.3712130401064716 0.30930699277670037 0 0.35964437402246618 0.29325458366658202 0 0.36263344120019791 0.28103009252405081 0 0.37519710011348761 0.28030402021541972 0 0.35624099409526871 0.28438463566713312 0 0.35964437402246618 0.29325458366658202 0 0.36263344120019791 0.28103009252405081 0 0.35964437402246618 0.29325458366658202 0 0.36543449206281392 0.29673086238960239 0 0.37037182160145538 0.29166030305947632 0 0.36152931425189688 0.29912212368152902 0 0.35964437402246618 0.29325458366658202 0 0.36543449206281392 0.29673086238960239 0 0.3712551052286216 0.29772656840024819 0 0.37037182160145538 0.29166030305947632 0 0.37923495218576042 0.29191264134305761 0 0.3712551052286216 0.29772656840024819 0 0.36543449206281392 0.29673086238960239 0 0.37037182160145538 0.29166030305947632 0 0.35964437402246618 0.29325458366658202 0 0.37519710011348761 0.28030402021541972 0 0.35964437402246618 0.29325458366658202 0 0.37037182160145538 0.29166030305947632 0 0.37519710011348761 0.28030402021541972 0 0.37037182160145538 0.29166030305947632 0 0.37519710011348761 0.28030402021541972 0 0.37923495218576042 0.29191264134305761 0 0.36263344120019791 0.28103009252405081 0 0.36531798838542828 0.26674677639802891 0 0.37519710011348761 0.28030402021541972 0 0.36263344120019791 0.28103009252405081 0 0.36531798838542828 0.26674677639802891 0 0.35638235681614222 0.27333639285664763 0 0.36531798838542828 0.26674677639802891 0 0.37746733503903518 0.26488172373786423 0 0.37519710011348761 0.28030402021541972 0 0.37027290959279657 0.25948600128962268 0 0.37605123504741222 0.25226081239862558 0 0.37746733503903518 0.26488172373786423 0 0.36531798838542828 0.26674677639802891 0 0.37027290959279657 0.25948600128962268 0 0.37746733503903518 0.26488172373786423 0 0.37027290959279657 0.25948600128962268 0 0.36225507989931049 0.25405469262397201 0 0.37605123504741222 0.25226081239862558 0 0.36531798838542828 0.26674677639802891 0 0.37027290959279657 0.25948600128962268 0 0.36225507989931049 0.25405469262397201 0 0.36531798838542828 0.26674677639802891 0 0.36225507989931049 0.25405469262397201 0 0.34946634817471539 0.26344786027662609 0 0.36225507989931049 0.25405469262397201 0 0.35022216346339469 0.25177717101264768 0 0.34946634817471539 0.26344786027662609 0 0.33723588769926238 0.26031022526587888 0 0.35022216346339469 0.25177717101264768 0 0.34946634817471539 0.26344786027662609 0 0.3402065813717739 0.27085041208384331 0 0.34946634817471539 0.26344786027662609 0 0.34790021630855539 0.27779948885585592 0 0.36531798838542828 0.26674677639802891 0 0.34946634817471539 0.26344786027662609 0 0.35638235681614222 0.27333639285664763 0 0.34946634817471539 0.26344786027662609 0 0.34790021630855539 0.27779948885585592 0 0.35638235681614222 0.27333639285664763 0 0.35624099409526871 0.28438463566713312 0 0.36263344120019791 0.28103009252405081 0 0.35638235681614222 0.27333639285664763 0 0.35624099409526871 0.28438463566713312 0 0.34790021630855539 0.27779948885585592 0 0.35638235681614222 0.27333639285664763 0 0.39678677961098763 0.27355225431171132 0 0.39513003698253601 0.26370610920093879 0 0.41091403550689859 0.26611270197099418 0 0.39074982620450921 0.26735345676425742 0 0.39678677961098763 0.27355225431171132 0 0.38628462221337528 0.27940132942572687 0 0.39678677961098763 0.27355225431171132 0 0.39513003698253601 0.26370610920093879 0 0.39074982620450921 0.26735345676425742 0 0.39678677961098763 0.27355225431171132 0 0.39513003698253601 0.26370610920093879 0 0.39074982620450921 0.26735345676425742 0 0.39678677961098763 0.27355225431171132 0 0.39513003698253601 0.26370610920093879 0 0.41091403550689859 0.26611270197099418 0 0.41140535580559168 0.25015385168212267 0 0.39513003698253601 0.26370610920093879 0 0.39216857874620448 0.2461059418406239 0 0.39513003698253601 0.26370610920093879 0 0.41140535580559168 0.25015385168212267 0 0.39513003698253601 0.26370610920093879 0 0.39006560778017019 0.2608741572143109 0 0.39216857874620448 0.2461059418406239 0 0.39920465933770111 0.25860804760805162 0 0.39513003698253601 0.26370610920093879 0 0.39216857874620448 0.2461059418406239 0 0.39920465933770111 0.25860804760805162 0 0.39513003698253601 0.26370610920093879 0 0.41140535580559168 0.25015385168212267 0 0.39920465933770111 0.25860804760805162 0 0.41140535580559168 0.25015385168212267 0 0.40224412412270649 0.2496628480490046 0 0.39920465933770111 0.25860804760805162 0 0.39900925343851668 0.2483724417061336 0 0.40224412412270649 0.2496628480490046 0 0.39920465933770111 0.25860804760805162 0 0.39900925343851668 0.2483724417061336 0 0.39420588992379602 0.2435569110441789 0 0.39920465933770111 0.25860804760805162 0 0.39420588992379602 0.2435569110441789 0 0.39074982620450921 0.26735345676425742 0 0.39513003698253601 0.26370610920093879 0 0.39074982620450921 0.26735345676425742 0 0.39513003698253601 0.26370610920093879 0 0.39006560778017019 0.2608741572143109 0 0.38603684297022678 0.25723965360381912 0 0.37605123504741222 0.25226081239862558 0 0.39216857874620448 0.2461059418406239 0 0.39074982620450921 0.26735345676425742 0 0.37605123504741222 0.25226081239862558 0 0.39074982620450921 0.26735345676425742 0 0.38603684297022678 0.25723965360381912 0 0.37605123504741222 0.25226081239862558 0 0.39074982620450921 0.26735345676425742 0 0.39006560778017019 0.2608741572143109 0 0.38603684297022678 0.25723965360381912 0 0.39006560778017019 0.2608741572143109 0 0.38603684297022678 0.25723965360381912 0 0.39216857874620448 0.2461059418406239 0 0.39074982620450921 0.26735345676425742 0 0.37605123504741222 0.25226081239862558 0 0.37746733503903518 0.26488172373786423 0 0.39074982620450921 0.26735345676425742 0 0.37746733503903518 0.26488172373786423 0 0.37519710011348761 0.28030402021541972 0 0.39074982620450921 0.26735345676425742 0 0.38628462221337528 0.27940132942572687 0 0.37519710011348761 0.28030402021541972 0 0.39074982620450921 0.26735345676425742 0 0.37519710011348761 0.28030402021541972 0 0.39678677961098763 0.27355225431171132 0 0.38628462221337528 0.27940132942572687 0 0.38841619279824008 0.28794334273696731 0 0.38628462221337528 0.27940132942572687 0 0.37519710011348761 0.28030402021541972 0 0.37923495218576042 0.29191264134305761 0 0.3712551052286216 0.29772656840024819 0 0.37923495218576042 0.29191264134305761 0 0.37689621422520431 0.29989072204694128 0 0.37923495218576042 0.29191264134305761 0 0.38841619279824008 0.28794334273696731 0 0.38517796430081341 0.29968449278982912 0 0.38841619279824008 0.28794334273696731 0 0.38517796430081341 0.29968449278982912 0 0.39318393561665133 0.29362456893783762 0 0.38628462221337528 0.27940132942572687 0 0.37923495218576042 0.29191264134305761 0 0.38841619279824008 0.28794334273696731 0 0.37780580178795509 0.3080774292132627 0 0.38594633424613128 0.30885263331523488 0 0.38125963726688761 0.31810234063486698 0 0.37923495218576042 0.29191264134305761 0 0.37689621422520431 0.29989072204694128 0 0.38517796430081341 0.29968449278982912 0 0.37780580178795509 0.3080774292132627 0 0.37689621422520431 0.29989072204694128 0 0.38517796430081341 0.29968449278982912 0 0.37160303639205022 0.3038531247757344 0 0.37780580178795509 0.3080774292132627 0 0.37689621422520431 0.29989072204694128 0 0.38517796430081341 0.29968449278982912 0 0.38594633424613128 0.30885263331523488 0 0.39402887022372268 0.3053208149644373 0 0.37780580178795509 0.3080774292132627 0 0.38517796430081341 0.29968449278982912 0 0.38594633424613128 0.30885263331523488 0 0.39402887022372268 0.3053208149644373 0 0.40150987114948228 0.30162193988624447 0 0.40623296268796671 0.32969162546077951 0 0.38594633424613128 0.30885263331523488 0 0.39402887022372268 0.3053208149644373 0 0.39211775034987761 0.31780011545775899 0 0.38517796430081341 0.29968449278982912 0 0.39402887022372268 0.3053208149644373 0 0.39318393561665133 0.29362456893783762 0 0.39402887022372268 0.3053208149644373 0 0.40150987114948228 0.30162193988624447 0 0.39318393561665133 0.29362456893783762 0 0.39678677961098763 0.27355225431171132 0 0.40150987114948228 0.30162193988624447 0 0.39318393561665133 0.29362456893783762 0 0.39678677961098763 0.27355225431171132 0 0.38841619279824008 0.28794334273696731 0 0.39318393561665133 0.29362456893783762 0 0.39678677961098763 0.27355225431171132 0 0.40150987114948228 0.30162193988624447 0 0.4167427484537562 0.29404322092863139 0 0.39678677961098763 0.27355225431171132 0 0.40150987114948228 0.30162193988624447 0 0.39678677961098763 0.27355225431171132 0 0.4167427484537562 0.29404322092863139 0 0.39678677961098763 0.27355225431171132 0 0.4167427484537562 0.29404322092863139 0 0.42252670993331809 0.27943501266051463 0 0.40150987114948228 0.30162193988624447 0 0.41678737667744969 0.30595964124769631 0 0.41407252248981108 0.31663445802452439 0 0.40150987114948228 0.30162193988624447 0 0.4167427484537562 0.29404322092863139 0 0.41678737667744969 0.30595964124769631 0 0.4167427484537562 0.29404322092863139 0 0.41678737667744969 0.30595964124769631 0 0.42821949013993083 0.29892936991192059 0 0.41678737667744969 0.30595964124769631 0 0.42821949013993083 0.29892936991192059 0 0.42453476550502378 0.31571388505220438 0 0.42821949013993083 0.29892936991192059 0 0.43544587406690588 0.3117431540670107 0 0.42453476550502378 0.31571388505220438 0 0.42821949013993083 0.29892936991192059 0 0.43544587406690588 0.3117431540670107 0 0.44018848475897288 0.30244123827896241 0 0.42821949013993083 0.29892936991192059 0 0.43625724835642238 0.2896799473058202 0 0.44018848475897288 0.30244123827896241 0 0.42821949013993083 0.29892936991192059 0 0.43625724835642238 0.2896799473058202 0 0.42252670993331809 0.27943501266051463 0 0.4167427484537562 0.29404322092863139 0 0.42821949013993083 0.29892936991192059 0 0.42252670993331809 0.27943501266051463 0 0.43625724835642238 0.2896799473058202 0 0.43546280721581709 0.27919554808921382 0 0.42252670993331809 0.27943501266051463 0 0.43324454702900161 0.26950052300764982 0 0.42252670993331809 0.27943501266051463 0 0.42326085327855528 0.26362962869785678 0 0.43546280721581709 0.27919554808921382 0 0.43324454702900161 0.26950052300764982 0 0.42252670993331809 0.27943501266051463 0 0.39678677961098763 0.27355225431171132 0 0.42252670993331809 0.27943501266051463 0 0.41091403550689859 0.26611270197099418 0 0.42252670993331809 0.27943501266051463 0 0.41091403550689859 0.26611270197099418 0 0.42326085327855528 0.26362962869785678 0 0.41091403550689859 0.26611270197099418 0 0.41140535580559168 0.25015385168212267 0 0.42326085327855528 0.26362962869785678 0 0.41140535580559168 0.25015385168212267 0 0.42921631198338711 0.2519841112062397 0 0.42326085327855528 0.26362962869785678 0 0.42921631198338711 0.2519841112062397 0 0.42326085327855528 0.26362962869785678 0 0.43614518093218563 0.25977098699217471 0 0.43324454702900161 0.26950052300764982 0 0.42326085327855528 0.26362962869785678 0 0.43614518093218563 0.25977098699217471 0 0.42921631198338711 0.2519841112062397 0 0.43614518093218563 0.25977098699217471 0 0.44441316121955771 0.25143830530496258 0 0.43324454702900161 0.26950052300764982 0 0.43614518093218563 0.25977098699217471 0 0.44547050059931398 0.26451264543958047 0 0.43614518093218563 0.25977098699217471 0 0.44441316121955771 0.25143830530496258 0 0.44547050059931398 0.26451264543958047 0 0.44441316121955771 0.25143830530496258 0 0.44547050059931398 0.26451264543958047 0 0.45294252573841842 0.25944529492978319 0 0.44547050059931398 0.26451264543958047 0 0.45294252573841842 0.25944529492978319 0 0.45297528396141201 0.26881352949285481 0 0.44441316121955771 0.25143830530496258 0 0.45294252573841842 0.25944529492978319 0 0.4549555794621889 0.25106794244242242 0 0.43546280721581709 0.27919554808921382 0 0.43324454702900161 0.26950052300764982 0 0.44486315561147299 0.27594783510484328 0 0.43546280721581709 0.27919554808921382 0 0.44486315561147299 0.27594783510484328 0 0.44754593615489041 0.28701181148972121 0 0.43324454702900161 0.26950052300764982 0 0.44547050059931398 0.26451264543958047 0 0.44486315561147299 0.27594783510484328 0 0.44547050059931398 0.26451264543958047 0 0.44486315561147299 0.27594783510484328 0 0.45297528396141201 0.26881352949285481 0 0.44486315561147299 0.27594783510484328 0 0.45297528396141201 0.26881352949285481 0 0.45952093513172548 0.28218103533742739 0 0.46734683989092418 0.26120828543022478 0 0.47286351386231912 0.27625449058587848 0 0.45952093513172548 0.28218103533742739 0 0.46734683989092418 0.26120828543022478 0 0.46145510574122078 0.26205684503133692 0 0.45952093513172548 0.28218103533742739 0 0.46145510574122078 0.26205684503133692 0 0.45952093513172548 0.28218103533742739 0 0.45297528396141201 0.26881352949285481 0 0.46145510574122078 0.26205684503133692 0 0.45952093513172548 0.28218103533742739 0 0.46734683989092418 0.26120828543022478 0 0.45952093513172548 0.28218103533742739 0 0.46734683989092418 0.26120828543022478 0 0.46145510574122078 0.26205684503133692 0 0.46338927635071558 0.24193265472524619 0 0.46145510574122078 0.26205684503133692 0 0.46338927635071558 0.24193265472524619 0 0.4549555794621889 0.25106794244242242 0 0.46145510574122078 0.26205684503133692 0 0.46338927635071558 0.24193265472524619 0 0.45294252573841842 0.25944529492978319 0 0.4549555794621889 0.25106794244242242 0 0.46145510574122078 0.26205684503133692 0 0.45294252573841842 0.25944529492978319 0 0.45297528396141201 0.26881352949285481 0 0.46145510574122078 0.26205684503133692 0 0.46734683989092418 0.26120828543022478 0 0.48284333511629879 0.25491712394722937 0 0.47517274465012338 0.24023553552302229 0 0.46734683989092418 0.26120828543022478 0 0.47517274465012338 0.24023553552302229 0 0.46734683989092418 0.26120828543022478 0 0.48284333511629879 0.25491712394722937 0 0.47286351386231912 0.27625449058587848 0 0.48284333511629879 0.25491712394722937 0 0.47286351386231912 0.27625449058587848 0 0.48713250133722419 0.28144865884171311 0 0.48284333511629879 0.25491712394722937 0 0.5 0.27884449745031081 0 0.48713250133722419 0.28144865884171311 0 0.48284333511629879 0.25491712394722937 0 0.48713250133722419 0.28144865884171311 0 0.48284333511629879 0.25491712394722937 0 0.5 0.27884449745031081 0 0.5 0.25144490875869291 0 0.49142166755814948 0.30798019373619689 0 0.5 0.30624408614192872 0 0.48713250133722419 0.28144865884171311 0 0.49142166755814948 0.30798019373619689 0 0.48713250133722419 0.28144865884171311 0 0.49142166755814948 0.30798019373619689 0 0.48713250133722419 0.28144865884171311 0 0.47487579452247342 0.29207630796972989 0 0.5 0.27884449745031081 0 0.5 0.30624408614192872 0 0.48713250133722419 0.28144865884171311 0 0.47286351386231912 0.27625449058587848 0 0.47487579452247342 0.29207630796972989 0 0.46497170266978938 0.29101578111785609 0 0.47286351386231912 0.27625449058587848 0 0.48713250133722419 0.28144865884171311 0 0.47487579452247342 0.29207630796972989 0 0.47487579452247342 0.29207630796972989 0 0.47003448424822658 0.30513785338302252 0 0.46497170266978938 0.29101578111785609 0 0.49142166755814948 0.30798019373619689 0 0.47487579452247342 0.29207630796972989 0 0.47003448424822658 0.30513785338302252 0 0.49142166755814948 0.30798019373619689 0 0.47003448424822658 0.30513785338302252 0 0.47300998234669728 0.32027760415164519 0 0.47003448424822658 0.30513785338302252 0 0.45890646334739321 0.31092083805953391 0 0.47300998234669728 0.32027760415164519 0 0.47003448424822658 0.30513785338302252 0 0.4579064657632605 0.29897887553563102 0 0.45890646334739321 0.31092083805953391 0 0.45352170047956081 0.298258466876134 0 0.45890646334739321 0.31092083805953391 0 0.44752246582739652 0.31433589841484078 0 0.47003448424822658 0.30513785338302252 0 0.4579064657632605 0.29897887553563102 0 0.46497170266978938 0.29101578111785609 0 0.4579064657632605 0.29897887553563102 0 0.45352170047956081 0.298258466876134 0 0.45890646334739321 0.31092083805953391 0 0.45352170047956081 0.298258466876134 0 0.45952093513172548 0.28218103533742739 0 0.44754593615489041 0.28701181148972121 0 0.45352170047956081 0.298258466876134 0 0.45952093513172548 0.28218103533742739 0 0.4579064657632605 0.29897887553563102 0 0.45352170047956081 0.298258466876134 0 0.45952093513172548 0.28218103533742739 0 0.4579064657632605 0.29897887553563102 0 0.46497170266978938 0.29101578111785609 0 0.45952093513172548 0.28218103533742739 0 0.4579064657632605 0.29897887553563102 0 0.45952093513172548 0.28218103533742739 0 0.47286351386231912 0.27625449058587848 0 0.46497170266978938 0.29101578111785609 0 0.45952093513172548 0.28218103533742739 0 0.44486315561147299 0.27594783510484328 0 0.45952093513172548 0.28218103533742739 0 0.44754593615489041 0.28701181148972121 0 0.45352170047956081 0.298258466876134 0 0.44754593615489041 0.28701181148972121 0 0.44463766841787061 0.29463364136349929 0 0.43625724835642238 0.2896799473058202 0 0.44463766841787061 0.29463364136349929 0 0.44018848475897288 0.30244123827896241 0 0.43625724835642238 0.2896799473058202 0 0.44754593615489041 0.28701181148972121 0 0.44463766841787061 0.29463364136349929 0 0.43625724835642238 0.2896799473058202 0 0.43546280721581709 0.27919554808921382 0 0.44754593615489041 0.28701181148972121 0 0.45352170047956081 0.298258466876134 0 0.44752246582739652 0.31433589841484078 0 0.45352170047956081 0.298258466876134 0 0.44018848475897288 0.30244123827896241 0 0.44752246582739652 0.31433589841484078 0 0.45352170047956081 0.298258466876134 0 0.44463766841787061 0.29463364136349929 0 0.44018848475897288 0.30244123827896241 0 0.43544587406690588 0.3117431540670107 0 0.44018848475897288 0.30244123827896241 0 0.44752246582739652 0.31433589841484078 0 0.44752246582739652 0.31433589841484078 0 0.45515978549172292 0.3282695531943991 0 0.43676416410320529 0.32729537867712521 0 0.43544587406690588 0.3117431540670107 0 0.44752246582739652 0.31433589841484078 0 0.43676416410320529 0.32729537867712521 0 0.44724681045672132 0.3421868287148736 0 0.43356167257942918 0.34419337805750583 0 0.43676416410320529 0.32729537867712521 0 0.44724681045672132 0.3421868287148736 0 0.45515978549172292 0.3282695531943991 0 0.43676416410320529 0.32729537867712521 0 0.45515978549172292 0.3282695531943991 0 0.47300998234669728 0.32027760415164519 0 0.47471124015793581 0.33779473087878498 0 0.45515978549172292 0.3282695531943991 0 0.47471124015793581 0.33779473087878498 0 0.46042659402605568 0.34424541437203282 0 0.44724681045672132 0.3421868287148736 0 0.45515978549172292 0.3282695531943991 0 0.46042659402605568 0.34424541437203282 0 0.45890646334739321 0.31092083805953391 0 0.44752246582739652 0.31433589841484078 0 0.45515978549172292 0.3282695531943991 0 0.45890646334739321 0.31092083805953391 0 0.45515978549172292 0.3282695531943991 0 0.47300998234669728 0.32027760415164519 0 0.47471124015793581 0.33779473087878498 0 0.49571083377907482 0.33451172863068063 0 0.47530052555688929 0.35753105968051252 0 0.47300998234669728 0.32027760415164519 0 0.47471124015793581 0.33779473087878498 0 0.49571083377907482 0.33451172863068063 0 0.5 0.33364367483354651 0 0.49571083377907482 0.33451172863068063 0 0.50000000000000011 0.36104326352516442 0 0.49142166755814948 0.30798019373619689 0 0.49571083377907482 0.33451172863068063 0 0.49142166755814948 0.30798019373619689 0 0.5 0.30624408614192872 0 0.5 0.33364367483354651 0 0.49142166755814948 0.30798019373619689 0 0.5 0.33364367483354651 0 0.49571083377907482 0.33451172863068063 0 0.49142166755814948 0.30798019373619689 0 0.47300998234669728 0.32027760415164519 0 0.49571083377907482 0.33451172863068063 0 0.50000000000000011 0.36104326352516442 0 0.48643359337272363 0.37175689636449971 0 0.5 0.38905817362765088 0 0.50000000000000011 0.36104326352516442 0 0.48643359337272363 0.37175689636449971 0 0.47530052555688929 0.35753105968051252 0 0.49571083377907482 0.33451172863068063 0 0.50000000000000011 0.36104326352516442 0 0.47530052555688929 0.35753105968051252 0 0.49571083377907482 0.33451172863068063 0 0.50000000000000011 0.36104326352516442 0 0.47471124015793581 0.33779473087878498 0 0.47530052555688929 0.35753105968051252 0 0.46042659402605568 0.34424541437203282 0 0.48643359337272363 0.37175689636449971 0 0.47530052555688929 0.35753105968051252 0 0.47494602395641738 0.38458141886202279 0 0.47530052555688929 0.35753105968051252 0 0.45422267454024923 0.37179159098585829 0 0.45430863961484091 0.35543891886792822 0 0.47530052555688929 0.35753105968051252 0 0.45422267454024923 0.37179159098585829 0 0.47494602395641738 0.38458141886202279 0 0.47530052555688929 0.35753105968051252 0 0.45430863961484091 0.35543891886792822 0 0.46042659402605568 0.34424541437203282 0 0.44724681045672132 0.3421868287148736 0 0.45430863961484091 0.35543891886792822 0 0.46042659402605568 0.34424541437203282 0 0.44724681045672132 0.3421868287148736 0 0.45430863961484091 0.35543891886792822 0 0.44326000692507411 0.35367832912025099 0 0.45430863961484091 0.35543891886792822 0 0.44326000692507411 0.35367832912025099 0 0.44745935660438729 0.36311708628637102 0 0.44326000692507411 0.35367832912025099 0 0.44745935660438729 0.36311708628637102 0 0.44113472509112001 0.35958259427376399 0 0.44326000692507411 0.35367832912025099 0 0.43730882318470432 0.35736112626096289 0 0.43356167257942918 0.34419337805750583 0 0.44326000692507411 0.35367832912025099 0 0.44113472509112001 0.35958259427376399 0 0.43730882318470432 0.35736112626096289 0 0.44724681045672132 0.3421868287148736 0 0.44326000692507411 0.35367832912025099 0 0.43356167257942918 0.34419337805750583 0 0.45422267454024923 0.37179159098585829 0 0.43539764339466253 0.36491526300971272 0 0.45422267454024923 0.37179159098585829 0 0.45430863961484091 0.35543891886792822 0 0.44745935660438729 0.36311708628637102 0 0.45422267454024923 0.37179159098585829 0 0.43539764339466253 0.36491526300971272 0 0.44233774226977363 0.37512205721731617 0 0.45422267454024923 0.37179159098585829 0 0.44745935660438729 0.36311708628637102 0 0.43539764339466253 0.36491526300971272 0 0.44745935660438729 0.36311708628637102 0 0.44113472509112001 0.35958259427376399 0 0.43539764339466253 0.36491526300971272 0 0.44113472509112001 0.35958259427376399 0 0.43539764339466253 0.36491526300971272 0 0.43730882318470432 0.35736112626096289 0 0.43362104505849319 0.37161427169373978 0 0.43539764339466253 0.36491526300971272 0 0.42675476139959939 0.37067237588614738 0 0.43539764339466253 0.36491526300971272 0 0.42675476139959939 0.37067237588614738 0 0.43362104505849319 0.37161427169373978 0 0.43026222427224831 0.37767656019913298 0 0.44233774226977363 0.37512205721731617 0 0.43362104505849319 0.37161427169373978 0 0.43539764339466253 0.36491526300971272 0 0.44233774226977363 0.37512205721731617 0 0.43362104505849319 0.37161427169373978 0 0.42675476139959939 0.37067237588614738 0 0.43026222427224831 0.37767656019913298 0 0.43539764339466253 0.36491526300971272 0 0.43051927807020868 0.35638538953698068 0 0.43730882318470432 0.35736112626096289 0 0.43539764339466253 0.36491526300971272 0 0.42129152843226841 0.35976264083339488 0 0.42675476139959939 0.37067237588614738 0 0.42129152843226841 0.35976264083339488 0 0.43539764339466253 0.36491526300971272 0 0.42129152843226841 0.35976264083339488 0 0.43051927807020868 0.35638538953698068 0 0.43539764339466253 0.36491526300971272 0 0.42675476139959939 0.37067237588614738 0 0.42129152843226841 0.35976264083339488 0 0.42675476139959939 0.37067237588614738 0 0.43026222427224831 0.37767656019913298 0 0.42675476139959939 0.37067237588614738 0 0.41450183889426262 0.37883417399581992 0 0.42129152843226841 0.35976264083339488 0 0.41063801324473093 0.35587116974036942 0 0.41450183889426262 0.37883417399581992 0 0.42675476139959939 0.37067237588614738 0 0.42129152843226841 0.35976264083339488 0 0.41450183889426262 0.37883417399581992 0 0.41063801324473093 0.35587116974036942 0 0.39854106435188807 0.36949981781480729 0 0.41450183889426262 0.37883417399581992 0 0.41063801324473093 0.35587116974036942 0 0.41450183889426262 0.37883417399581992 0 0.42129152843226841 0.35976264083339488 0 0.41376224556011743 0.34472713314708731 0 0.43051927807020868 0.35638538953698068 0 0.42129152843226841 0.35976264083339488 0 0.41376224556011743 0.34472713314708731 0 0.42129152843226841 0.35976264083339488 0 0.41376224556011743 0.34472713314708731 0 0.41063801324473093 0.35587116974036942 0 0.42129152843226841 0.35976264083339488 0 0.41063801324473093 0.35587116974036942 0 0.41376224556011743 0.34472713314708731 0 0.43051927807020868 0.35638538953698068 0 0.43356167257942918 0.34419337805750583 0 0.43051927807020868 0.35638538953698068 0 0.43730882318470432 0.35736112626096289 0 0.43356167257942918 0.34419337805750583 0 0.43356167257942918 0.34419337805750583 0 0.43676416410320529 0.32729537867712521 0 0.42129763642913293 0.33018519847569711 0 0.41376224556011743 0.34472713314708731 0 0.43356167257942918 0.34419337805750583 0 0.42129763642913293 0.33018519847569711 0 0.43544587406690588 0.3117431540670107 0 0.43676416410320529 0.32729537867712521 0 0.42453476550502378 0.31571388505220438 0 0.43676416410320529 0.32729537867712521 0 0.42453476550502378 0.31571388505220438 0 0.42129763642913293 0.33018519847569711 0 0.40150987114948228 0.30162193988624447 0 0.41407252248981108 0.31663445802452439 0 0.40623296268796671 0.32969162546077951 0 0.41678737667744969 0.30595964124769631 0 0.42453476550502378 0.31571388505220438 0 0.41407252248981108 0.31663445802452439 0 0.42453476550502378 0.31571388505220438 0 0.41407252248981108 0.31663445802452439 0 0.42129763642913293 0.33018519847569711 0 0.41407252248981108 0.31663445802452439 0 0.42129763642913293 0.33018519847569711 0 0.40623296268796671 0.32969162546077951 0 0.41063801324473093 0.35587116974036942 0 0.40623296268796671 0.32969162546077951 0 0.41376224556011743 0.34472713314708731 0 0.41063801324473093 0.35587116974036942 0 0.40623296268796671 0.32969162546077951 0 0.41376224556011743 0.34472713314708731 0 0.42129763642913293 0.33018519847569711 0 0.40623296268796671 0.32969162546077951 0 0.41376224556011743 0.34472713314708731 0 0.40623296268796671 0.32969162546077951 0 0.40623296268796671 0.32969162546077951 0 0.39181560712449959 0.33691031327397503 0 0.3961103453439343 0.35056456448474899 0 0.40623296268796671 0.32969162546077951 0 0.39181560712449959 0.33691031327397503 0 0.39069141205040231 0.32690172982182442 0 0.40150987114948228 0.30162193988624447 0 0.40623296268796671 0.32969162546077951 0 0.39402887022372268 0.3053208149644373 0 0.40623296268796671 0.32969162546077951 0 0.39402887022372268 0.3053208149644373 0 0.40623296268796671 0.32969162546077951 0 0.39211775034987761 0.31780011545775899 0 0.40623296268796671 0.32969162546077951 0 0.39069141205040231 0.32690172982182442 0 0.39211775034987761 0.31780011545775899 0 0.38594633424613128 0.30885263331523488 0 0.39211775034987761 0.31780011545775899 0 0.38125963726688761 0.31810234063486698 0 0.39069141205040231 0.32690172982182442 0 0.38125963726688761 0.31810234063486698 0 0.38203110282278019 0.33200425428174152 0 0.39069141205040231 0.32690172982182442 0 0.39211775034987761 0.31780011545775899 0 0.38125963726688761 0.31810234063486698 0 0.37079027171431489 0.325442681928716 0 0.38125963726688761 0.31810234063486698 0 0.38203110282278019 0.33200425428174152 0 0.37309927486741051 0.31561328935559102 0 0.37780580178795509 0.3080774292132627 0 0.38125963726688761 0.31810234063486698 0 0.37309927486741051 0.31561328935559102 0 0.37079027171431489 0.325442681928716 0 0.38125963726688761 0.31810234063486698 0 0.39181560712449959 0.33691031327397503 0 0.38203110282278019 0.33200425428174152 0 0.38158267744313779 0.34525795922912839 0 0.39181560712449959 0.33691031327397503 0 0.39069141205040231 0.32690172982182442 0 0.38203110282278019 0.33200425428174152 0 0.37299430616314189 0.33809011383927817 0 0.37079027171431489 0.325442681928716 0 0.38203110282278019 0.33200425428174152 0 0.37299430616314189 0.33809011383927817 0 0.38203110282278019 0.33200425428174152 0 0.38158267744313779 0.34525795922912839 0 0.36765657213880137 0.34861635503237859 0 0.38158267744313779 0.34525795922912839 0 0.38083002372273828 0.36304822517317559 0 0.38158267744313779 0.34525795922912839 0 0.38083002372273828 0.36304822517317559 0 0.3961103453439343 0.35056456448474899 0 0.39181560712449959 0.33691031327397503 0 0.38158267744313779 0.34525795922912839 0 0.3961103453439343 0.35056456448474899 0 0.38158267744313779 0.34525795922912839 0 0.3961103453439343 0.35056456448474899 0 0.3747010532189271 0.38018926041028822 0 0.38083002372273828 0.36304822517317559 0 0.38872691167767132 0.38047936608515659 0 0.38083002372273828 0.36304822517317559 0 0.39854106435188807 0.36949981781480729 0 0.38872691167767132 0.38047936608515659 0 0.38083002372273828 0.36304822517317559 0 0.39854106435188807 0.36949981781480729 0 0.3961103453439343 0.35056456448474899 0 0.41063801324473093 0.35587116974036942 0 0.40623296268796671 0.32969162546077951 0 0.3961103453439343 0.35056456448474899 0 0.41063801324473093 0.35587116974036942 0 0.39854106435188807 0.36949981781480729 0 0.3961103453439343 0.35056456448474899 0 0.41063801324473093 0.35587116974036942 0 0.3961103453439343 0.35056456448474899 0 0.40043925322799029 0.3882014074095731 0 0.38637666756171779 0.39756864082332621 0 0.39667507151035958 0.39937196860066032 0 0.40043925322799029 0.3882014074095731 0 0.38637666756171779 0.39756864082332621 0 0.38637666756171779 0.39756864082332621 0 0.39633064728202899 0.41238533441253961 0 0.39702139350248578 0.40870272474055602 0 0.38637666756171779 0.39756864082332621 0 0.39633064728202899 0.41238533441253961 0 0.39667507151035958 0.39937196860066032 0 0.38637666756171779 0.39756864082332621 0 0.39702139350248578 0.40870272474055602 0 0.40241116382630171 0.40474046703118671 0 0.4056195321692681 0.39966982249750571 0 0.41032865812309338 0.41121735228602468 0 0.39667507151035958 0.39937196860066032 0 0.40241116382630171 0.40474046703118671 0 0.39702139350248578 0.40870272474055602 0 0.39667507151035958 0.39937196860066032 0 0.40241116382630171 0.40474046703118671 0 0.4056195321692681 0.39966982249750571 0 0.39667507151035958 0.39937196860066032 0 0.4056195321692681 0.39966982249750571 0 0.40043925322799029 0.3882014074095731 0 0.39854106435188807 0.36949981781480729 0 0.40043925322799029 0.3882014074095731 0 0.38872691167767132 0.38047936608515659 0 0.40043925322799029 0.3882014074095731 0 0.38872691167767132 0.38047936608515659 0 0.38637666756171779 0.39756864082332621 0 0.39854106435188807 0.36949981781480729 0 0.40043925322799029 0.3882014074095731 0 0.41450183889426262 0.37883417399581992 0 0.3747010532189271 0.38018926041028822 0 0.38872691167767132 0.38047936608515659 0 0.38637666756171779 0.39756864082332621 0 0.3747010532189271 0.38018926041028822 0 0.38637666756171779 0.39756864082332621 0 0.38637666756171779 0.39756864082332621 0 0.37680935919085567 0.40394152364715508 0 0.39113340421790121 0.41572798492774449 0 0.3747010532189271 0.38018926041028822 0 0.38637666756171779 0.39756864082332621 0 0.37680935919085567 0.40394152364715508 0 0.38637666756171779 0.39756864082332621 0 0.37680935919085567 0.40394152364715508 0 0.37680935919085567 0.40394152364715508 0 0.37615005849931082 0.41976483809527643 0 0.3890309765717076 0.41534449947598451 0 0.3890309765717076 0.41534449947598451 0 0.37613735692467759 0.42354635551393088 0 0.37615005849931082 0.41976483809527643 0 0.3890309765717076 0.41534449947598451 0 0.37613735692467759 0.42354635551393088 0 0.37615005849931082 0.41976483809527643 0 0.37613735692467759 0.42354635551393088 0 0.3890309765717076 0.41534449947598451 0 0.38586285797956099 0.4245996508173045 0 0.39113340421790121 0.41572798492774449 0 0.3890309765717076 0.41534449947598451 0 0.37613735692467759 0.42354635551393088 0 0.38586285797956099 0.4245996508173045 0 0.37680935919085567 0.40394152364715508 0 0.3890309765717076 0.41534449947598451 0 0.39113340421790121 0.41572798492774449 0 0.37680935919085567 0.40394152364715508 0 0.39113340421790121 0.41572798492774449 0 0.38586285797956099 0.4245996508173045 0 0.39077210895651271 0.43306097793602211 0 0.39113340421790121 0.41572798492774449 0 0.39077210895651271 0.43306097793602211 0 0.39384193078987129 0.43875809413710842 0 0.37608676866807861 0.43860750966371292 0 0.37613735692467759 0.42354635551393088 0 0.37608676866807861 0.43860750966371292 0 0.37613735692467759 0.42354635551393088 0 0.38586285797956099 0.4245996508173045 0 0.37608676866807861 0.43860750966371292 0 0.38586285797956099 0.4245996508173045 0 0.39077210895651271 0.43306097793602211 0 0.37608676866807861 0.43860750966371292 0 0.39077210895651271 0.43306097793602211 0 0.37608676866807861 0.43860750966371292 0 0.41160978953052041 0.43512863662561663 0 0.40777643112772038 0.42942260763341139 0 0.39384193078987129 0.43875809413710842 0 0.39077210895651271 0.43306097793602211 0 0.39113340421790121 0.41572798492774449 0 0.40628462700233881 0.42720202800175378 0 0.41160978953052041 0.43512863662561663 0 0.39384193078987129 0.43875809413710842 0 0.39077210895651271 0.43306097793602211 0 0.40628462700233881 0.42720202800175378 0 0.39384193078987129 0.43875809413710842 0 0.39077210895651271 0.43306097793602211 0 0.40628462700233881 0.42720202800175378 0 0.40777643112772038 0.42942260763341139 0 0.40628462700233881 0.42720202800175378 0 0.39384193078987129 0.43875809413710842 0 0.38637666756171779 0.39756864082332621 0 0.39633064728202899 0.41238533441253961 0 0.39113340421790121 0.41572798492774449 0 0.39702139350248578 0.40870272474055602 0 0.41445427802351681 0.42411641829145702 0 0.39633064728202899 0.41238533441253961 0 0.39702139350248578 0.40870272474055602 0 0.41445427802351681 0.42411641829145702 0 0.39633064728202899 0.41238533441253961 0 0.40628462700233881 0.42720202800175378 0 0.41445427802351681 0.42411641829145702 0 0.39633064728202899 0.41238533441253961 0 0.39113340421790121 0.41572798492774449 0 0.40628462700233881 0.42720202800175378 0 0.39113340421790121 0.41572798492774449 0 0.40628462700233881 0.42720202800175378 0 0.39633064728202899 0.41238533441253961 0 0.40628462700233881 0.42720202800175378 0 0.40241116382630171 0.40474046703118671 0 0.39702139350248578 0.40870272474055602 0 0.41032865812309338 0.41121735228602468 0 0.41032865812309338 0.41121735228602468 0 0.42166304027086648 0.42139372833420902 0 0.41808243958256469 0.40011395116501453 0 0.42166304027086648 0.42139372833420902 0 0.41808243958256469 0.40011395116501453 0 0.39702139350248578 0.40870272474055602 0 0.41032865812309338 0.41121735228602468 0 0.41445427802351681 0.42411641829145702 0 0.41032865812309338 0.41121735228602468 0 0.42166304027086648 0.42139372833420902 0 0.41445427802351681 0.42411641829145702 0 0.41264270438070461 0.43666615059178648 0 0.41160978953052041 0.43512863662561663 0 0.41160978953052041 0.43512863662561663 0 0.41409419502469907 0.43462114473735969 0 0.41264270438070461 0.43666615059178648 0 0.41160978953052041 0.43512863662561663 0 0.41409419502469907 0.43462114473735969 0 0.41160978953052041 0.43512863662561663 0 0.40777643112772038 0.42942260763341139 0 0.41315010420948572 0.42933024829443461 0 0.40777643112772038 0.42942260763341139 0 0.41409419502469907 0.43462114473735969 0 0.41160978953052041 0.43512863662561663 0 0.40777643112772038 0.42942260763341139 0 0.41409419502469907 0.43462114473735969 0 0.40777643112772038 0.42942260763341139 0 0.41409419502469907 0.43462114473735969 0 0.41315010420948572 0.42933024829443461 0 0.40628462700233881 0.42720202800175378 0 0.41445427802351681 0.42411641829145702 0 0.40628462700233881 0.42720202800175378 0 0.41445427802351681 0.42411641829145702 0 0.41315010420948572 0.42933024829443461 0 0.40777643112772038 0.42942260763341139 0 0.40628462700233881 0.42720202800175378 0 0.40777643112772038 0.42942260763341139 0 0.40628462700233881 0.42720202800175378 0 0.41315010420948572 0.42933024829443461 0 0.41445427802351681 0.42411641829145702 0 0.42346115526448602 0.43208005996391607 0 0.42166304027086648 0.42139372833420902 0 0.41445427802351681 0.42411641829145702 0 0.42346115526448602 0.43208005996391607 0 0.41445427802351681 0.42411641829145702 0 0.42346115526448602 0.43208005996391607 0 0.42166304027086648 0.42139372833420902 0 0.41445427802351681 0.42411641829145702 0 0.41409419502469907 0.43462114473735969 0 0.42346115526448602 0.43208005996391607 0 0.42546275204590001 0.44397569904753559 0 0.41315010420948572 0.42933024829443461 0 0.41409419502469907 0.43462114473735969 0 0.42346115526448602 0.43208005996391607 0 0.41409419502469907 0.43462114473735969 0 0.42346115526448602 0.43208005996391607 0 0.42346115526448602 0.43208005996391607 0 0.43359937546614219 0.42437988124074832 0 0.44935855851034862 0.42741765945479138 0 0.42346115526448602 0.43208005996391607 0 0.44935855851034862 0.42741765945479138 0 0.42166304027086648 0.42139372833420902 0 0.42346115526448602 0.43208005996391607 0 0.42166304027086648 0.42139372833420902 0 0.42346115526448602 0.43208005996391607 0 0.42569035219175411 0.42761090421399811 0 0.42346115526448602 0.43208005996391607 0 0.42569035219175411 0.42761090421399811 0 0.43359937546614219 0.42437988124074832 0 0.42166304027086648 0.42139372833420902 0 0.42569035219175411 0.42761090421399811 0 0.43359937546614219 0.42437988124074832 0 0.42166304027086648 0.42139372833420902 0 0.42862458180427038 0.40928122794538258 0 0.44185526409428399 0.41376729218158143 0 0.42166304027086648 0.42139372833420902 0 0.43359937546614219 0.42437988124074832 0 0.44185526409428399 0.41376729218158143 0 0.42166304027086648 0.42139372833420902 0 0.44185526409428399 0.41376729218158143 0 0.42166304027086648 0.42139372833420902 0 0.42862458180427038 0.40928122794538258 0 0.41808243958256469 0.40011395116501453 0 0.42862458180427038 0.40928122794538258 0 0.44182236634485789 0.40264285563042479 0 0.44185526409428399 0.41376729218158143 0 0.42862458180427038 0.40928122794538258 0 0.43137043331395669 0.39280929841709128 0 0.41808243958256469 0.40011395116501453 0 0.42862458180427038 0.40928122794538258 0 0.43137043331395669 0.39280929841709128 0 0.44182236634485789 0.40264285563042479 0 0.43137043331395669 0.39280929841709128 0 0.41808243958256469 0.40011395116501453 0 0.42355423401575809 0.38735849594426491 0 0.4056195321692681 0.39966982249750571 0 0.41808243958256469 0.40011395116501453 0 0.41450183889426262 0.37883417399581992 0 0.4056195321692681 0.39966982249750571 0 0.41032865812309338 0.41121735228602468 0 0.41808243958256469 0.40011395116501453 0 0.41808243958256469 0.40011395116501453 0 0.41450183889426262 0.37883417399581992 0 0.4056195321692681 0.39966982249750571 0 0.40043925322799029 0.3882014074095731 0 0.41450183889426262 0.37883417399581992 0 0.41808243958256469 0.40011395116501453 0 0.41450183889426262 0.37883417399581992 0 0.42355423401575809 0.38735849594426491 0 0.40043925322799029 0.3882014074095731 0 0.41450183889426262 0.37883417399581992 0 0.42675476139959939 0.37067237588614738 0 0.41450183889426262 0.37883417399581992 0 0.43026222427224831 0.37767656019913298 0 0.41450183889426262 0.37883417399581992 0 0.42355423401575809 0.38735849594426491 0 0.43026222427224831 0.37767656019913298 0 0.43137043331395669 0.39280929841709128 0 0.42355423401575809 0.38735849594426491 0 0.43026222427224831 0.37767656019913298 0 0.43137043331395669 0.39280929841709128 0 0.43729611611251279 0.38420587985316113 0 0.43026222427224831 0.37767656019913298 0 0.43729611611251279 0.38420587985316113 0 0.43026222427224831 0.37767656019913298 0 0.44233774226977363 0.37512205721731617 0 0.45422267454024923 0.37179159098585829 0 0.44233774226977363 0.37512205721731617 0 0.45873000366226913 0.38625660744414742 0 0.43729611611251279 0.38420587985316113 0 0.44233774226977363 0.37512205721731617 0 0.44521406459407259 0.39121560357910401 0 0.44233774226977363 0.37512205721731617 0 0.44521406459407259 0.39121560357910401 0 0.45873000366226913 0.38625660744414742 0 0.43137043331395669 0.39280929841709128 0 0.43729611611251279 0.38420587985316113 0 0.44521406459407259 0.39121560357910401 0 0.44182236634485789 0.40264285563042479 0 0.44521406459407259 0.39121560357910401 0 0.46204748791770572 0.40614085602896471 0 0.43137043331395669 0.39280929841709128 0 0.44182236634485789 0.40264285563042479 0 0.44521406459407259 0.39121560357910401 0 0.46204748791770572 0.40614085602896471 0 0.45873000366226913 0.38625660744414742 0 0.47494602395641738 0.38458141886202279 0 0.44521406459407259 0.39121560357910401 0 0.46204748791770572 0.40614085602896471 0 0.45873000366226913 0.38625660744414742 0 0.45422267454024923 0.37179159098585829 0 0.45873000366226913 0.38625660744414742 0 0.47494602395641738 0.38458141886202279 0 0.46204748791770572 0.40614085602896471 0 0.47494602395641738 0.38458141886202279 0 0.48233455822586108 0.40381978076824843 0 0.48233455822586108 0.40381978076824843 0 0.5 0.38905817362765088 0 0.50000000000000522 0.41707308373013752 0 0.47494602395641738 0.38458141886202279 0 0.48233455822586108 0.40381978076824843 0 0.5 0.38905817362765088 0 0.48643359337272363 0.37175689636449971 0 0.47494602395641738 0.38458141886202279 0 0.5 0.38905817362765088 0 0.50000000000000522 0.41707308373013752 0 0.48295075830907791 0.4371665395776016 0 0.47467927925517711 0.422245371592465 0 0.50000000000000522 0.41707308373013752 0 0.48295075830907791 0.4371665395776016 0 0.499999999999999 0.43778458289676148 0 0.48233455822586108 0.40381978076824843 0 0.50000000000000522 0.41707308373013752 0 0.47467927925517711 0.422245371592465 0 0.50000000000000522 0.41707308373013752 0 0.47467927925517711 0.422245371592465 0 0.46204748791770572 0.40614085602896471 0 0.48233455822586108 0.40381978076824843 0 0.47467927925517711 0.422245371592465 0 0.48295075830907791 0.4371665395776016 0 0.47467927925517711 0.422245371592465 0 0.4616916751005643 0.44360767472843199 0 0.47467927925517711 0.422245371592465 0 0.44935855851034862 0.42741765945479138 0 0.4616916751005643 0.44360767472843199 0 0.47467927925517711 0.422245371592465 0 0.44935855851034862 0.42741765945479138 0 0.46204748791770572 0.40614085602896471 0 0.47467927925517711 0.422245371592465 0 0.44935855851034862 0.42741765945479138 0 0.43359937546614219 0.42437988124074832 0 0.44185526409428399 0.41376729218158143 0 0.44935855851034862 0.42741765945479138 0 0.44182236634485789 0.40264285563042479 0 0.46204748791770572 0.40614085602896471 0 0.44185526409428399 0.41376729218158143 0 0.46204748791770572 0.40614085602896471 0 0.44185526409428399 0.41376729218158143 0 0.44935855851034862 0.42741765945479138 0 0.46204748791770572 0.40614085602896471 0 0.44185526409428399 0.41376729218158143 0 0.44935855851034862 0.42741765945479138 0 0.44598804343730319 0.43846501009934441 0 0.4616916751005643 0.44360767472843199 0 0.42346115526448602 0.43208005996391607 0 0.44935855851034862 0.42741765945479138 0 0.44598804343730319 0.43846501009934441 0 0.44598804343730319 0.43846501009934441 0 0.44206621757315651 0.4485301619866367 0 0.4616916751005643 0.44360767472843199 0 0.44082513700840492 0.45661655260501011 0 0.46009459738079311 0.46447037665615448 0 0.45618752197089291 0.469257406162505 0 0.44082513700840492 0.45661655260501011 0 0.45618752197089291 0.469257406162505 0 0.42901701543568083 0.46509895168574289 0 0.44206621757315651 0.4485301619866367 0 0.46009459738079311 0.46447037665615448 0 0.44206621757315651 0.4485301619866367 0 0.44082513700840492 0.45661655260501011 0 0.46009459738079311 0.46447037665615448 0 0.44082513700840492 0.45661655260501011 0 0.45618752197089291 0.469257406162505 0 0.46009459738079311 0.46447037665615448 0 0.47809376098544581 0.45352099452963313 0 0.45618752197089291 0.469257406162505 0 0.46009459738079311 0.46447037665615448 0 0.4616916751005643 0.44360767472843199 0 0.47809376098544581 0.45352099452963313 0 0.47809376098544581 0.45352099452963313 0 0.45618752197089291 0.469257406162505 0 0.44206621757315651 0.4485301619866367 0 0.46009459738079311 0.46447037665615448 0 0.4616916751005643 0.44360767472843199 0 0.48295075830907791 0.4371665395776016 0 0.4616916751005643 0.44360767472843199 0 0.47809376098544581 0.45352099452963313 0 0.47809376098544581 0.45352099452963313 0 0.499999999999999 0.43778458289676148 0 0.5 0.5 0 0.48295075830907791 0.4371665395776016 0 0.47809376098544581 0.45352099452963313 0 0.499999999999999 0.43778458289676148 0 0.47809376098544581 0.45352099452963313 0 0.499999999999999 0.43778458289676148 0 0.47809376098544581 0.45352099452963313 0 0.5 0.5 0 0.47486820516719469 0.48462870308124489 0 0.5 0.5 0 0.49354888836349159 0.49999999999999067 0 0.47486820516719469 0.48462870308124489 0 0.47809376098544581 0.45352099452963313 0 0.47486820516719469 0.48462870308124489 0 0.45618752197089291 0.469257406162505 0 0.49354888836349159 0.49999999999999067 0 0.47486820516719469 0.48462870308124489 0 0.49354888836349159 0.49999999999999067 0 0.47486820516719469 0.48462870308124489 0 0.46421923071075311 0.5 0 0.47486820516719469 0.48462870308124489 0 0.456253485695018 0.48625133303229851 0 0.46421923071075311 0.5 0 0.456253485695018 0.48625133303229851 0 0.46421923071075311 0.5 0 0.44584713628521377 0.49596245816401918 0 0.47486820516719469 0.48462870308124489 0 0.45618752197089291 0.469257406162505 0 0.47486820516719469 0.48462870308124489 0 0.456253485695018 0.48625133303229851 0 0.45618752197089291 0.469257406162505 0 0.45618752197089291 0.469257406162505 0 0.43257127882548119 0.48622220432394692 0 0.45618752197089291 0.469257406162505 0 0.43257127882548119 0.48622220432394692 0 0.42901701543568083 0.46509895168574289 0 0.456253485695018 0.48625133303229851 0 0.45618752197089291 0.469257406162505 0 0.43257127882548119 0.48622220432394692 0 0.46421923071075311 0.5 0 0.44584713628521377 0.49596245816401918 0 0.43488957305801479 0.49999999999999412 0 0.456253485695018 0.48625133303229851 0 0.44584713628521377 0.49596245816401918 0 0.43257127882548119 0.48622220432394692 0 0.44584713628521377 0.49596245816401918 0 0.43488957305801479 0.49999999999999412 0 0.4337061201842044 0.4929666512306955 0 0.44584713628521377 0.49596245816401918 0 0.4337061201842044 0.4929666512306955 0 0.43488957305801479 0.49999999999999412 0 0.4337061201842044 0.4929666512306955 0 0.40725670905160882 0.5 0 0.4337061201842044 0.4929666512306955 0 0.4309887473816511 0.48735902047050372 0 0.40482908546031082 0.48584121624919191 0 0.43488957305801479 0.49999999999999412 0 0.4337061201842044 0.4929666512306955 0 0.44584713628521377 0.49596245816401918 0 0.4337061201842044 0.4929666512306955 0 0.43257127882548119 0.48622220432394692 0 0.4337061201842044 0.4929666512306955 0 0.4309887473816511 0.48735902047050372 0 0.43257127882548119 0.48622220432394692 0 0.4337061201842044 0.4929666512306955 0 0.43257127882548119 0.48622220432394692 0 0.4309887473816511 0.48735902047050372 0 0.43257127882548119 0.48622220432394692 0 0.4337061201842044 0.4929666512306955 0 0.40725670905160882 0.5 0 0.40482908546031082 0.48584121624919191 0 0.4337061201842044 0.4929666512306955 0 0.40482908546031082 0.48584121624919191 0 0.42085573572853968 0.47739991590942349 0 0.40687255153957469 0.46247818681773228 0 0.40482908546031082 0.48584121624919191 0 0.4309887473816511 0.48735902047050372 0 0.42085573572853968 0.47739991590942349 0 0.40482908546031082 0.48584121624919191 0 0.43257127882548119 0.48622220432394692 0 0.42085573572853968 0.47739991590942349 0 0.42901701543568083 0.46509895168574289 0 0.43257127882548119 0.48622220432394692 0 0.42901701543568083 0.46509895168574289 0 0.4309887473816511 0.48735902047050372 0 0.43257127882548119 0.48622220432394692 0 0.42085573572853968 0.47739991590942349 0 0.44082513700840492 0.45661655260501011 0 0.42901701543568083 0.46509895168574289 0 0.42546275204590001 0.44397569904753559 0 0.42901701543568083 0.46509895168574289 0 0.42546275204590001 0.44397569904753559 0 0.42901701543568083 0.46509895168574289 0 0.42546275204590001 0.44397569904753559 0 0.41379425893732591 0.44954363223747867 0 0.44206621757315651 0.4485301619866367 0 0.44082513700840492 0.45661655260501011 0 0.42546275204590001 0.44397569904753559 0 0.42346115526448602 0.43208005996391607 0 0.44206621757315651 0.4485301619866367 0 0.42346115526448602 0.43208005996391607 0 0.44206621757315651 0.4485301619866367 0 0.42546275204590001 0.44397569904753559 0 0.42346115526448602 0.43208005996391607 0 0.44598804343730319 0.43846501009934441 0 0.44206621757315651 0.4485301619866367 0 0.44082513700840492 0.45661655260501011 0 0.42546275204590001 0.44397569904753559 0 0.42346115526448602 0.43208005996391607 0 0.42546275204590001 0.44397569904753559 0 0.41379425893732591 0.44954363223747867 0 0.40687255153957469 0.46247818681773228 0 0.40393473991998102 0.44393507975395352 0 0.41264270438070461 0.43666615059178648 0 0.42546275204590001 0.44397569904753559 0 0.41379425893732591 0.44954363223747867 0 0.41264270438070461 0.43666615059178648 0 0.41409419502469907 0.43462114473735969 0 0.42546275204590001 0.44397569904753559 0 0.41409419502469907 0.43462114473735969 0 0.42546275204590001 0.44397569904753559 0 0.41264270438070461 0.43666615059178648 0 0.41160978953052041 0.43512863662561663 0 0.40393473991998102 0.44393507975395352 0 0.41264270438070461 0.43666615059178648 0 0.41379425893732591 0.44954363223747867 0 0.40393473991998102 0.44393507975395352 0 0.42085573572853968 0.47739991590942349 0 0.42901701543568083 0.46509895168574289 0 0.40687255153957469 0.46247818681773228 0 0.42901701543568083 0.46509895168574289 0 0.41379425893732591 0.44954363223747867 0 0.40687255153957469 0.46247818681773228 0 0.40687255153957469 0.46247818681773228 0 0.39078795090819202 0.46832295627400827 0 0.39125405109994471 0.45273892251492043 0 0.41160978953052041 0.43512863662561663 0 0.40393473991998102 0.44393507975395352 0 0.39384193078987129 0.43875809413710842 0 0.40687255153957469 0.46247818681773228 0 0.40393473991998102 0.44393507975395352 0 0.39125405109994471 0.45273892251492043 0 0.40393473991998102 0.44393507975395352 0 0.39125405109994471 0.45273892251492043 0 0.39384193078987129 0.43875809413710842 0 0.39384193078987129 0.43875809413710842 0 0.37607407204922311 0.44238755164860338 0 0.39125405109994471 0.45273892251492043 0 0.39384193078987129 0.43875809413710842 0 0.37607407204922311 0.44238755164860338 0 0.37607407204922311 0.44238755164860338 0 0.37601306139282631 0.4605516664581169 0 0.39125405109994471 0.45273892251492043 0 0.37607407204922311 0.44238755164860338 0 0.37601306139282631 0.4605516664581169 0 0.39384193078987129 0.43875809413710842 0 0.37607407204922311 0.44238755164860338 0 0.37608676866807861 0.43860750966371292 0 0.37607407204922311 0.44238755164860338 0 0.37608676866807861 0.43860750966371292 0 0.39078795090819202 0.46832295627400827 0 0.39125405109994471 0.45273892251492043 0 0.37601306139282631 0.4605516664581169 0 0.39078795090819202 0.46832295627400827 0 0.37601306139282631 0.4605516664581169 0 0.37595205073643151 0.47871578126763042 0 0.37595205073643151 0.47871578126763042 0 0.40482908546031082 0.48584121624919191 0 0.39078795090819202 0.46832295627400827 0 0.37595205073643151 0.47871578126763042 0 0.40482908546031082 0.48584121624919191 0 0.37601306139282631 0.4605516664581169 0 0.37595205073643151 0.47871578126763042 0 0.37595205073643151 0.47871578126763042 0 0.37589293007580532 0.49631720584851591 0 0.37595205073643151 0.47871578126763042 0 0.37962384504520269 0.5 0 0.40482908546031082 0.48584121624919191 0 0.37595205073643151 0.47871578126763042 0 0.37589293007580532 0.49631720584851591 0 0.37962384504520269 0.5 0 0.40725670905160882 0.5 0 0.37962384504520269 0.5 0 0.40482908546031082 0.48584121624919191 0 0.40687255153957469 0.46247818681773228 0 0.39078795090819202 0.46832295627400827 0 0.40482908546031082 0.48584121624919191 0 0.32884699907714071 0.093609829659067473 0 0.34172610890102062 0.08554195063838349 0 0.31434965017797961 0.081386102419083395 0 0.34172610890102062 0.08554195063838349 0 0.33892754892425969 0.077115575083781168 0 0.31434965017797961 0.081386102419083395 0 0.34172610890102062 0.08554195063838349 0 0.33892754892425969 0.077115575083781168 0 0.34172610890102062 0.08554195063838349 0 0.33892754892425969 0.077115575083781168 0 0.34907949136008132 0.086658221435406732 0 0.33892754892425969 0.077115575083781168 0 0.33974845272666881 0.064628061704510423 0 0.34907949136008132 0.086658221435406732 0 0.33892754892425969 0.077115575083781168 0 0.33974845272666881 0.064628061704510423 0 0.33279408872108829 0.067280186349744059 0 0.33974845272666881 0.064628061704510423 0 0.33279408872108829 0.067280186349744059 0 0.32748120251349488 0.057446582381019892 0 0.33279408872108829 0.067280186349744059 0 0.32501915071992982 0.069930526229664752 0 0.32748120251349488 0.057446582381019892 0 0.33892754892425969 0.077115575083781168 0 0.33279408872108829 0.067280186349744059 0 0.32501915071992982 0.069930526229664752 0 0.33892754892425969 0.077115575083781168 0 0.32501915071992982 0.069930526229664752 0 0.31434965017797961 0.081386102419083395 0 0.32501915071992982 0.069930526229664752 0 0.32748120251349488 0.057446582381019892 0 0.31945352023348689 0.062471474207446642 0 0.32501915071992982 0.069930526229664752 0 0.31945352023348689 0.062471474207446642 0 0.31244914875870627 0.067537689107763477 0 0.32501915071992982 0.069930526229664752 0 0.31434965017797961 0.081386102419083395 0 0.31244914875870627 0.067537689107763477 0 0.31434965017797961 0.081386102419083395 0 0.31909131050269979 0.098184328079712266 0 0.3041598411051748 0.098782734211045442 0 0.32884699907714071 0.093609829659067473 0 0.31434965017797961 0.081386102419083395 0 0.31909131050269979 0.098184328079712266 0 0.34172610890102062 0.08554195063838349 0 0.31434965017797961 0.081386102419083395 0 0.32361491313342189 0.10810604176768961 0 0.3041598411051748 0.098782734211045442 0 0.31909131050269979 0.098184328079712266 0 0.32361491313342189 0.10810604176768961 0 0.3041598411051748 0.098782734211045442 0 0.31909131050269979 0.098184328079712266 0 0.32361491313342189 0.10810604176768961 0 0.32884699907714071 0.093609829659067473 0 0.31909131050269979 0.098184328079712266 0 0.32361491313342189 0.10810604176768961 0 0.32361491313342189 0.10810604176768961 0 0.33552770590970937 0.13423462307758949 0 0.31777628018035498 0.1253832488499648 0 0.32361491313342189 0.10810604176768961 0 0.30782780461849357 0.1148184020700128 0 0.31777628018035498 0.1253832488499648 0 0.32361491313342189 0.10810604176768961 0 0.34285572505932149 0.11732667107012761 0 0.32361491313342189 0.10810604176768961 0 0.34285572505932149 0.11732667107012761 0 0.33783621898074723 0.1029989486692518 0 0.32361491313342189 0.10810604176768961 0 0.33552770590970937 0.13423462307758949 0 0.32361491313342189 0.10810604176768961 0 0.34285572505932149 0.11732667107012761 0 0.33627693450954921 0.12178507243017341 0 0.32361491313342189 0.10810604176768961 0 0.33627693450954921 0.12178507243017341 0 0.33552770590970937 0.13423462307758949 0 0.34285572505932149 0.11732667107012761 0 0.33783621898074723 0.1029989486692518 0 0.35055051671411758 0.1121119633940708 0 0.34285572505932149 0.11732667107012761 0 0.33627693450954921 0.12178507243017341 0 0.34285572505932149 0.11732667107012761 0 0.34301944748306079 0.1249988191839228 0 0.33627693450954921 0.12178507243017341 0 0.34172610890102062 0.08554195063838349 0 0.33783621898074723 0.1029989486692518 0 0.35055051671411758 0.1121119633940708 0 0.32884699907714071 0.093609829659067473 0 0.34172610890102062 0.08554195063838349 0 0.33783621898074723 0.1029989486692518 0 0.32884699907714071 0.093609829659067473 0 0.32361491313342189 0.10810604176768961 0 0.33783621898074723 0.1029989486692518 0 0.34172610890102062 0.08554195063838349 0 0.35055051671411758 0.1121119633940708 0 0.35778423333581588 0.1072097231144462 0 0.34907949136008132 0.086658221435406732 0 0.35778423333581588 0.1072097231144462 0 0.36576562874988361 0.08919123912991038 0 0.34907949136008132 0.086658221435406732 0 0.35778423333581588 0.1072097231144462 0 0.35055051671411758 0.1121119633940708 0 0.34907949136008132 0.086658221435406732 0 0.34172610890102062 0.08554195063838349 0 0.35055051671411758 0.1121119633940708 0 0.34907949136008132 0.086658221435406732 0 0.34285572505932149 0.11732667107012761 0 0.35406675611800548 0.12269924899919279 0 0.34285572505932149 0.11732667107012761 0 0.34301944748306079 0.1249988191839228 0 0.35406675611800548 0.12269924899919279 0 0.34285572505932149 0.11732667107012761 0 0.35055051671411758 0.1121119633940708 0 0.35406675611800548 0.12269924899919279 0 0.34285572505932149 0.11732667107012761 0 0.35055051671411758 0.1121119633940708 0 0.35778423333581588 0.1072097231144462 0 0.35055051671411758 0.1121119633940708 0 0.35406675611800548 0.12269924899919279 0 0.35778423333581588 0.1072097231144462 0 0.35055051671411758 0.1121119633940708 0 0.35055051671411758 0.1121119633940708 0 0.35406675611800548 0.12269924899919279 0 0.35778423333581588 0.1072097231144462 0 0.36696249150552379 0.12887917508799479 0 0.36421300658887512 0.11310406559815871 0 0.37011553970039851 0.1150430846135256 0 0.36696249150552379 0.12887917508799479 0 0.37011553970039851 0.1150430846135256 0 0.37292438252557358 0.13173624719332361 0 0.35778423333581588 0.1072097231144462 0 0.35406675611800548 0.12269924899919279 0 0.36696249150552379 0.12887917508799479 0 0.35778423333581588 0.1072097231144462 0 0.36421300658887512 0.11310406559815871 0 0.36696249150552379 0.12887917508799479 0 0.36421300658887512 0.11310406559815871 0 0.37011553970039851 0.1150430846135256 0 0.36421300658887512 0.11310406559815871 0 0.37011553970039851 0.1150430846135256 0 0.36767017324819268 0.1005100892505553 0 0.35778423333581588 0.1072097231144462 0 0.36767017324819268 0.1005100892505553 0 0.36576562874988361 0.08919123912991038 0 0.36767017324819268 0.1005100892505553 0 0.36576562874988361 0.08919123912991038 0 0.35778423333581588 0.1072097231144462 0 0.36421300658887512 0.11310406559815871 0 0.36767017324819268 0.1005100892505553 0 0.35778423333581588 0.1072097231144462 0 0.36767017324819268 0.1005100892505553 0 0.37011553970039851 0.1150430846135256 0 0.36767017324819268 0.1005100892505553 0 0.37827179320218057 0.1087904708163797 0 0.37011553970039851 0.1150430846135256 0 0.36767017324819268 0.1005100892505553 0 0.36767017324819268 0.1005100892505553 0 0.38096706859605117 0.091498874217217446 0 0.36460330040651001 0.082283435021710927 0 0.384378946272521 0.073501691032505992 0 0.37568087930747052 0.083696795083584005 0 0.36576562874988361 0.08919123912991038 0 0.37568087930747052 0.083696795083584005 0 0.38096706859605117 0.091498874217217446 0 0.36576562874988361 0.08919123912991038 0 0.38096706859605117 0.091498874217217446 0 0.36767017324819268 0.1005100892505553 0 0.36576562874988361 0.08919123912991038 0 0.38096706859605117 0.091498874217217446 0 0.36460330040651001 0.082283435021710927 0 0.36576562874988361 0.08919123912991038 0 0.37568087930747052 0.083696795083584005 0 0.36460330040651001 0.082283435021710927 0 0.36208793586741672 0.083400429509350088 0 0.36576562874988361 0.08919123912991038 0 0.36460330040651001 0.082283435021710927 0 0.36576562874988361 0.08919123912991038 0 0.36460330040651001 0.082283435021710927 0 0.36208793586741672 0.083400429509350088 0 0.36460330040651001 0.082283435021710927 0 0.36208793586741672 0.083400429509350088 0 0.35703950763788722 0.081152015928745685 0 0.36208793586741672 0.083400429509350088 0 0.36576562874988361 0.08919123912991038 0 0.34907949136008132 0.086658221435406732 0 0.36576562874988361 0.08919123912991038 0 0.34907949136008132 0.086658221435406732 0 0.36208793586741672 0.083400429509350088 0 0.35703950763788722 0.081152015928745685 0 0.34907949136008132 0.086658221435406732 0 0.36460330040651001 0.082283435021710927 0 0.35703950763788722 0.081152015928745685 0 0.35238730291754139 0.072265977748514537 0 0.35703950763788722 0.081152015928745685 0 0.34907949136008132 0.086658221435406732 0 0.35238730291754139 0.072265977748514537 0 0.34172610890102062 0.08554195063838349 0 0.34907949136008132 0.086658221435406732 0 0.33974845272666881 0.064628061704510423 0 0.35238730291754139 0.072265977748514537 0 0.35976974786308402 0.053557271449299393 0 0.36460330040651001 0.082283435021710927 0 0.35238730291754139 0.072265977748514537 0 0.35976974786308402 0.053557271449299393 0 0.33974845272666881 0.064628061704510423 0 0.34907949136008132 0.086658221435406732 0 0.35238730291754139 0.072265977748514537 0 0.33974845272666881 0.064628061704510423 0 0.34907949136008132 0.086658221435406732 0 0.36460330040651001 0.082283435021710927 0 0.384378946272521 0.073501691032505992 0 0.36460330040651001 0.082283435021710927 0 0.35976974786308402 0.053557271449299393 0 0.36951517817649521 0.066687211389262591 0 0.37007105360847559 0.048866781626128328 0 0.384378946272521 0.073501691032505992 0 0.36460330040651001 0.082283435021710927 0 0.36951517817649521 0.066687211389262591 0 0.35976974786308402 0.053557271449299393 0 0.36460330040651001 0.082283435021710927 0 0.36951517817649521 0.066687211389262591 0 0.384378946272521 0.073501691032505992 0 0.36951517817649521 0.066687211389262591 0 0.35976974786308402 0.053557271449299393 0 0.37007105360847559 0.048866781626128328 0 0.37007105360847559 0.048866781626128328 0 0.37129698061096511 0.02732855158218889 0 0.35576316094443372 0.02423187221974871 0 0.37007105360847559 0.048866781626128328 0 0.35576316094443372 0.02423187221974871 0 0.35976974786308402 0.053557271449299393 0 0.37007105360847559 0.048866781626128328 0 0.35576316094443372 0.02423187221974871 0 0.35976974786308402 0.053557271449299393 0 0.35576316094443372 0.02423187221974871 0 0.35976974786308402 0.053557271449299393 0 0.35576316094443372 0.02423187221974871 0 0.33041741409325809 0.042597901973613281 0 0.36699169228329692 0.0045367262440111286 0 0.36806583311044272 0.015317112501689691 0 0.35108684538889678 0.001954133898624583 0 0.36699169228329692 0.0045367262440111286 0 0.35108684538889678 0.001954133898624583 0 0.36017932117315421 -0.0046142789962312003 0 0.36699169228329692 0.0045367262440111286 0 0.37327754619847281 0.004161094995811407 0 0.37055028871494972 -0.003448673200178198 0 0.36806583311044272 0.015317112501689691 0 0.38036850527645172 0.0064023527836306604 0 0.37327754619847281 0.004161094995811407 0 0.36806583311044272 0.015317112501689691 0 0.38036850527645172 0.0064023527836306604 0 0.36699169228329692 0.0045367262440111286 0 0.37327754619847281 0.004161094995811407 0 0.36806583311044272 0.015317112501689691 0 0.36806583311044272 0.015317112501689691 0 0.35576316094443372 0.02423187221974871 0 0.36806583311044272 0.015317112501689691 0 0.37129698061096511 0.02732855158218889 0 0.35576316094443372 0.02423187221974871 0 0.36806583311044272 0.015317112501689691 0 0.35576316094443372 0.02423187221974871 0 0.35445694038379838 0.02198286001847127 0 0.36806583311044272 0.015317112501689691 0 0.37129698061096511 0.02732855158218889 0 0.38085699947886031 0.019181615618172061 0 0.35576316094443372 0.02423187221974871 0 0.35445694038379838 0.02198286001847127 0 0.34243776052845581 0.0218674026636318 0 0.35576316094443372 0.02423187221974871 0 0.35445694038379838 0.02198286001847127 0 0.35445694038379838 0.02198286001847127 0 0.35108684538889678 0.001954133898624583 0 0.34195504038934332 0.00045745575366230862 0 0.36699169228329692 0.0045367262440111286 0 0.35108684538889678 0.001954133898624583 0 0.35445694038379838 0.02198286001847127 0 0.34195504038934332 0.00045745575366230862 0 0.36806583311044272 0.015317112501689691 0 0.35445694038379838 0.02198286001847127 0 0.35108684538889678 0.001954133898624583 0 0.35445694038379838 0.02198286001847127 0 0.35108684538889678 0.001954133898624583 0 0.35445694038379838 0.02198286001847127 0 0.34195504038934332 0.00045745575366230862 0 0.34243776052845581 0.0218674026636318 0 0.35108684538889678 0.001954133898624583 0 0.34195504038934332 0.00045745575366230862 0 0.34195504038934332 0.00045745575366230862 0 0.34243776052845581 0.0218674026636318 0 0.32660294110907989 0.014090229688044249 0 0.35576316094443372 0.02423187221974871 0 0.34243776052845581 0.0218674026636318 0 0.33264275985654129 0.033630200938381122 0 0.34243776052845581 0.0218674026636318 0 0.33074796049490529 0.024664292002067462 0 0.32660294110907989 0.014090229688044249 0 0.34243776052845581 0.0218674026636318 0 0.33074796049490529 0.024664292002067462 0 0.33264275985654129 0.033630200938381122 0 0.33074796049490529 0.024664292002067462 0 0.32931048299624599 0.029764561743738659 0 0.33264275985654129 0.033630200938381122 0 0.33074796049490529 0.024664292002067462 0 0.32931048299624599 0.029764561743738659 0 0.32661826900834939 0.02773838823376637 0 0.32022623190615268 0.02391130651044629 0 0.32657627812693291 0.033529153872713699 0 0.29736288379066561 0.033042557537767858 0 0.32022623190615268 0.02391130651044629 0 0.32660294110907989 0.014090229688044249 0 0.3079906970056252 0.016240077492204921 0 0.33074796049490529 0.024664292002067462 0 0.32661826900834939 0.02773838823376637 0 0.32022623190615268 0.02391130651044629 0 0.32661826900834939 0.02773838823376637 0 0.32022623190615268 0.02391130651044629 0 0.32657627812693291 0.033529153872713699 0 0.32931048299624599 0.029764561743738659 0 0.32661826900834939 0.02773838823376637 0 0.32657627812693291 0.033529153872713699 0 0.33074796049490529 0.024664292002067462 0 0.32022623190615268 0.02391130651044629 0 0.32660294110907989 0.014090229688044249 0 0.32660294110907989 0.014090229688044249 0 0.3079906970056252 0.016240077492204921 0 0.31269936233099183 -0.0042791370383590136 0 0.34195504038934332 0.00045745575366230862 0 0.32660294110907989 0.014090229688044249 0 0.31269936233099183 -0.0042791370383590136 0 0.33974845272666881 0.064628061704510423 0 0.33041741409325809 0.042597901973613281 0 0.33974845272666881 0.064628061704510423 0 0.33041741409325809 0.042597901973613281 0 0.32748120251349488 0.057446582381019892 0 0.33974845272666881 0.064628061704510423 0 0.35976974786308402 0.053557271449299393 0 0.33041741409325809 0.042597901973613281 0 0.35576316094443372 0.02423187221974871 0 0.33264275985654129 0.033630200938381122 0 0.33041741409325809 0.042597901973613281 0 0.35576316094443372 0.02423187221974871 0 0.33041741409325809 0.042597901973613281 0 0.33264275985654129 0.033630200938381122 0 0.33041741409325809 0.042597901973613281 0 0.32657627812693291 0.033529153872713699 0 0.33041741409325809 0.042597901973613281 0 0.32657627812693291 0.033529153872713699 0 0.33264275985654129 0.033630200938381122 0 0.32657627812693291 0.033529153872713699 0 0.33264275985654129 0.033630200938381122 0 0.32886913272431839 0.032017973388775801 0 0.32657627812693291 0.033529153872713699 0 0.32931048299624599 0.029764561743738659 0 0.32886913272431839 0.032017973388775801 0 0.32657627812693291 0.033529153872713699 0 0.32931048299624599 0.029764561743738659 0 0.33264275985654129 0.033630200938381122 0 0.32886913272431839 0.032017973388775801 0 0.33041741409325809 0.042597901973613281 0 0.31512506845762173 0.041922871179640712 0 0.31385350020283498 0.054600441774010598 0 0.33041741409325809 0.042597901973613281 0 0.32657627812693291 0.033529153872713699 0 0.31512506845762173 0.041922871179640712 0 0.32657627812693291 0.033529153872713699 0 0.31512506845762173 0.041922871179640712 0 0.29736288379066561 0.033042557537767858 0 0.33041741409325809 0.042597901973613281 0 0.31385350020283498 0.054600441774010598 0 0.32748120251349488 0.057446582381019892 0 0.33041741409325809 0.042597901973613281 0 0.31385350020283498 0.054600441774010598 0 0.31385350020283498 0.054600441774010598 0 0.31945352023348689 0.062471474207446642 0 0.31244914875870627 0.067537689107763477 0 0.31385350020283498 0.054600441774010598 0 0.32748120251349488 0.057446582381019892 0 0.31945352023348689 0.062471474207446642 0 0.31385350020283498 0.054600441774010598 0 0.29728958631241109 0.066602981574406819 0 0.31385350020283498 0.054600441774010598 0 0.30285098698662949 0.055707779888292959 0 0.29728958631241109 0.066602981574406819 0 0.30285098698662949 0.055707779888292959 0 0.30470364757159452 0.046209729977998049 0 0.29432579842022072 0.045774999510278143 0 0.31512506845762173 0.041922871179640712 0 0.31385350020283498 0.054600441774010598 0 0.30470364757159452 0.046209729977998049 0 0.31385350020283498 0.054600441774010598 0 0.30285098698662949 0.055707779888292959 0 0.30470364757159452 0.046209729977998049 0 0.31512506845762173 0.041922871179640712 0 0.30470364757159452 0.046209729977998049 0 0.29736288379066561 0.033042557537767858 0 0.32657627812693291 0.033529153872713699 0 0.29736288379066561 0.033042557537767858 0 0.30470364757159452 0.046209729977998049 0 0.29736288379066561 0.033042557537767858 0 0.29432579842022072 0.045774999510278143 0 0.29736288379066561 0.033042557537767858 0 0.26814948945439843 0.032555961202815738 0 0.29736288379066561 0.033042557537767858 0 0.29432579842022072 0.045774999510278143 0 0.27519873759648611 0.048959559988030567 0 0.30285098698662949 0.055707779888292959 0 0.27519873759648611 0.048959559988030567 0 0.30285098698662949 0.055707779888292959 0 0.28356048946397322 0.062434669750428322 0 0.29728958631241109 0.066602981574406819 0 0.30285098698662949 0.055707779888292959 0 0.29432579842022072 0.045774999510278143 0 0.27519873759648611 0.048959559988030567 0 0.30285098698662949 0.055707779888292959 0 0.28356048946397322 0.062434669750428322 0 0.27519873759648611 0.048959559988030567 0 0.3079906970056252 0.016240077492204921 0 0.28790506904240071 0.01257759637567136 0 0.31269936233099183 -0.0042791370383590136 0 0.32022623190615268 0.02391130651044629 0 0.29736288379066561 0.033042557537767858 0 0.3079906970056252 0.016240077492204921 0 0.29736288379066561 0.033042557537767858 0 0.3079906970056252 0.016240077492204921 0 0.28790506904240071 0.01257759637567136 0 0.29736288379066561 0.033042557537767858 0 0.28790506904240071 0.01257759637567136 0 0.26814948945439843 0.032555961202815738 0 0.28790506904240071 0.01257759637567136 0 0.26940860199408739 0.0065617808238383497 0 0.28344587965724111 -0.0090292500655863479 0 0.28790506904240071 0.01257759637567136 0 0.26940860199408739 0.0065617808238383497 0 0.26814948945439843 0.032555961202815738 0 0.23893609511813119 0.032069364867863617 0 0.25004513687211888 0.022757565809461391 0 0.26814948945439843 0.032555961202815738 0 0.25004513687211888 0.022757565809461391 0 0.25335017483290689 0.01048395969910469 0 0.26814948945439843 0.032555961202815738 0 0.26940860199408739 0.0065617808238383497 0 0.25335017483290689 0.01048395969910469 0 0.26814948945439843 0.032555961202815738 0 0.26940860199408739 0.0065617808238383497 0 0.25335017483290689 0.01048395969910469 0 0.2541923969834905 -0.01377936309281369 0 0.27211032888933379 0.061121053974183798 0 0.27519873759648611 0.048959559988030567 0 0.25987952338521159 0.057606331267101678 0 0.28356048946397322 0.062434669750428322 0 0.27211032888933379 0.061121053974183798 0 0.27519873759648611 0.048959559988030567 0 0.29736288379066561 0.033042557537767858 0 0.27519873759648611 0.048959559988030567 0 0.26814948945439843 0.032555961202815738 0 0.23893609511813119 0.032069364867863617 0 0.26814948945439843 0.032555961202815738 0 0.23893609511813119 0.032069364867863617 0 0.24754648820634259 0.042211340087768182 0 0.26814948945439843 0.032555961202815738 0 0.24754648820634259 0.042211340087768182 0 0.27519873759648611 0.048959559988030567 0 0.24754648820634259 0.042211340087768182 0 0.27519873759648611 0.048959559988030567 0 0.26814948945439843 0.032555961202815738 0 0.24754648820634259 0.042211340087768182 0 0.27519873759648611 0.048959559988030567 0 0.25987952338521159 0.057606331267101678 0 0.24573884098798271 0.05901489172417592 0 0.24754648820634259 0.042211340087768182 0 0.25987952338521159 0.057606331267101678 0 0.27211032888933379 0.061121053974183798 0 0.25987952338521159 0.057606331267101678 0 0.26431546923607291 0.067825792454327891 0 0.24573884098798271 0.05901489172417592 0 0.25987952338521159 0.057606331267101678 0 0.25304554754672143 0.067403128222263575 0 0.25304554754672143 0.067403128222263575 0 0.26431546923607291 0.067825792454327891 0 0.255912719983374 0.081523751841415595 0 0.24654045631779969 0.075456633084063252 0 0.25304554754672143 0.067403128222263575 0 0.255912719983374 0.081523751841415595 0 0.26431546923607291 0.067825792454327891 0 0.255912719983374 0.081523751841415595 0 0.26758714191678068 0.079086691050480273 0 0.25987952338521159 0.057606331267101678 0 0.25304554754672143 0.067403128222263575 0 0.26431546923607291 0.067825792454327891 0 0.24360620741595251 0.096305158868952717 0 0.255912719983374 0.081523751841415595 0 0.2622632456203085 0.092466277413243814 0 0.255912719983374 0.081523751841415595 0 0.2622632456203085 0.092466277413243814 0 0.26758714191678068 0.079086691050480273 0 0.2622632456203085 0.092466277413243814 0 0.276163230695746 0.0871095435360041 0 0.27549682229862182 0.099755354149905551 0 0.2622632456203085 0.092466277413243814 0 0.26758714191678068 0.079086691050480273 0 0.276163230695746 0.0871095435360041 0 0.26758714191678068 0.079086691050480273 0 0.28072567242198732 0.078605521374803033 0 0.276163230695746 0.0871095435360041 0 0.28072567242198732 0.078605521374803033 0 0.276163230695746 0.0871095435360041 0 0.2838486898319289 0.083329385342778131 0 0.276163230695746 0.0871095435360041 0 0.28470476907692788 0.089459426654400848 0 0.27549682229862182 0.099755354149905551 0 0.27211032888933379 0.061121053974183798 0 0.26431546923607291 0.067825792454327891 0 0.27450688335872692 0.070221739936528652 0 0.26431546923607291 0.067825792454327891 0 0.26758714191678068 0.079086691050480273 0 0.27450688335872692 0.070221739936528652 0 0.28072567242198732 0.078605521374803033 0 0.27450688335872692 0.070221739936528652 0 0.28402065788927461 0.069466228159041701 0 0.26758714191678068 0.079086691050480273 0 0.28072567242198732 0.078605521374803033 0 0.27450688335872692 0.070221739936528652 0 0.28356048946397322 0.062434669750428322 0 0.27211032888933379 0.061121053974183798 0 0.27450688335872692 0.070221739936528652 0 0.28356048946397322 0.062434669750428322 0 0.27450688335872692 0.070221739936528652 0 0.28402065788927461 0.069466228159041701 0 0.28072567242198732 0.078605521374803033 0 0.28402065788927461 0.069466228159041701 0 0.29728958631241109 0.066602981574406819 0 0.28072567242198732 0.078605521374803033 0 0.29728958631241109 0.066602981574406819 0 0.28072567242198732 0.078605521374803033 0 0.28697319145493838 0.077230254199782161 0 0.29728958631241109 0.066602981574406819 0 0.28356048946397322 0.062434669750428322 0 0.28402065788927461 0.069466228159041701 0 0.29728958631241109 0.066602981574406819 0 0.28072567242198732 0.078605521374803033 0 0.28697319145493838 0.077230254199782161 0 0.2838486898319289 0.083329385342778131 0 0.28470476907692788 0.089459426654400848 0 0.29847341750958489 0.085688436470357829 0 0.3041598411051748 0.098782734211045442 0 0.2838486898319289 0.083329385342778131 0 0.28470476907692788 0.089459426654400848 0 0.29067658551004472 0.084242180948900514 0 0.28697319145493838 0.077230254199782161 0 0.2838486898319289 0.083329385342778131 0 0.29067658551004472 0.084242180948900514 0 0.276163230695746 0.0871095435360041 0 0.2838486898319289 0.083329385342778131 0 0.28470476907692788 0.089459426654400848 0 0.28470476907692788 0.089459426654400848 0 0.29067658551004472 0.084242180948900514 0 0.29847341750958489 0.085688436470357829 0 0.28697319145493838 0.077230254199782161 0 0.29067658551004472 0.084242180948900514 0 0.29847341750958489 0.085688436470357829 0 0.31434965017797961 0.081386102419083395 0 0.28697319145493838 0.077230254199782161 0 0.29847341750958489 0.085688436470357829 0 0.31434965017797961 0.081386102419083395 0 0.28697319145493838 0.077230254199782161 0 0.31434965017797961 0.081386102419083395 0 0.29847341750958489 0.085688436470357829 0 0.3041598411051748 0.098782734211045442 0 0.31434965017797961 0.081386102419083395 0 0.28697319145493838 0.077230254199782161 0 0.29728958631241109 0.066602981574406819 0 0.31385350020283498 0.054600441774010598 0 0.31244914875870627 0.067537689107763477 0 0.29728958631241109 0.066602981574406819 0 0.31434965017797961 0.081386102419083395 0 0.31244914875870627 0.067537689107763477 0 0.29728958631241109 0.066602981574406819 0 0.30782780461849357 0.1148184020700128 0 0.29916340764285643 0.1088775774694614 0 0.29518658815541537 0.1174527921927337 0 0.30782780461849357 0.1148184020700128 0 0.29518658815541537 0.1174527921927337 0 0.30444544245404109 0.12617273937756451 0 0.30782780461849357 0.1148184020700128 0 0.30444544245404109 0.12617273937756451 0 0.31777628018035498 0.1253832488499648 0 0.32361491313342189 0.10810604176768961 0 0.30782780461849357 0.1148184020700128 0 0.3041598411051748 0.098782734211045442 0 0.30782780461849357 0.1148184020700128 0 0.3041598411051748 0.098782734211045442 0 0.29916340764285643 0.1088775774694614 0 0.3041598411051748 0.098782734211045442 0 0.29916340764285643 0.1088775774694614 0 0.28947939669234202 0.1044563814040535 0 0.28470476907692788 0.089459426654400848 0 0.3041598411051748 0.098782734211045442 0 0.28947939669234202 0.1044563814040535 0 0.28470476907692788 0.089459426654400848 0 0.3041598411051748 0.098782734211045442 0 0.28470476907692788 0.089459426654400848 0 0.28947939669234202 0.1044563814040535 0 0.27549682229862182 0.099755354149905551 0 0.29518658815541537 0.1174527921927337 0 0.27700055524314399 0.1140472226974323 0 0.29248341921087018 0.131982854580137 0 0.28947939669234202 0.1044563814040535 0 0.29518658815541537 0.1174527921927337 0 0.27700055524314399 0.1140472226974323 0 0.29916340764285643 0.1088775774694614 0 0.28947939669234202 0.1044563814040535 0 0.29518658815541537 0.1174527921927337 0 0.27700055524314399 0.1140472226974323 0 0.27549682229862182 0.099755354149905551 0 0.25600669688109667 0.1081870513112866 0 0.28947939669234202 0.1044563814040535 0 0.27700055524314399 0.1140472226974323 0 0.27549682229862182 0.099755354149905551 0 0.24360620741595251 0.096305158868952717 0 0.2622632456203085 0.092466277413243814 0 0.25600669688109667 0.1081870513112866 0 0.2622632456203085 0.092466277413243814 0 0.27549682229862182 0.099755354149905551 0 0.25600669688109667 0.1081870513112866 0 0.27700055524314399 0.1140472226974323 0 0.25600669688109667 0.1081870513112866 0 0.25450459716433171 0.1216951107282765 0 0.27700055524314399 0.1140472226974323 0 0.25450459716433171 0.1216951107282765 0 0.26241490948659429 0.13114210047098979 0 0.2422175093248283 0.1226149632485156 0 0.25600669688109667 0.1081870513112866 0 0.25450459716433171 0.1216951107282765 0 0.24739120652553581 0.13898772355578279 0 0.25450459716433171 0.1216951107282765 0 0.26241490948659429 0.13114210047098979 0 0.24739120652553581 0.13898772355578279 0 0.26241490948659429 0.13114210047098979 0 0.26119385350893959 0.14384699655545741 0 0.26241490948659429 0.13114210047098979 0 0.2706945213487667 0.13697807096099099 0 0.26119385350893959 0.14384699655545741 0 0.27700055524314399 0.1140472226974323 0 0.28141305499127012 0.14208365017332211 0 0.27700055524314399 0.1140472226974323 0 0.26241490948659429 0.13114210047098979 0 0.2706945213487667 0.13697807096099099 0 0.27700055524314399 0.1140472226974323 0 0.2706945213487667 0.13697807096099099 0 0.28141305499127012 0.14208365017332211 0 0.27157419738538618 0.15106079740860329 0 0.27059632621744473 0.16782298245743399 0 0.2823785343004343 0.1482181753123632 0 0.27157419738538618 0.15106079740860329 0 0.2823785343004343 0.1482181753123632 0 0.27157419738538618 0.15106079740860329 0 0.28141305499127012 0.14208365017332211 0 0.2706945213487667 0.13697807096099099 0 0.27157419738538618 0.15106079740860329 0 0.28141305499127012 0.14208365017332211 0 0.27157419738538618 0.15106079740860329 0 0.28141305499127012 0.14208365017332211 0 0.2823785343004343 0.1482181753123632 0 0.2706945213487667 0.13697807096099099 0 0.27157419738538618 0.15106079740860329 0 0.26119385350893959 0.14384699655545741 0 0.27157419738538618 0.15106079740860329 0 0.26119385350893959 0.14384699655545741 0 0.2541423605414147 0.1556471153826201 0 0.24739120652553581 0.13898772355578279 0 0.26119385350893959 0.14384699655545741 0 0.2541423605414147 0.1556471153826201 0 0.27157419738538618 0.15106079740860329 0 0.2541423605414147 0.1556471153826201 0 0.25259635090382643 0.16837651930415931 0 0.26086595689185038 0.1773065867091396 0 0.27059632621744473 0.16782298245743399 0 0.27157419738538618 0.15106079740860329 0 0.25259635090382643 0.16837651930415931 0 0.27157419738538618 0.15106079740860329 0 0.25259635090382643 0.16837651930415931 0 0.27059632621744473 0.16782298245743399 0 0.27157419738538618 0.15106079740860329 0 0.2541423605414147 0.1556471153826201 0 0.25259635090382643 0.16837651930415931 0 0.26086595689185038 0.1773065867091396 0 0.2503233785568697 0.1849429854552001 0 0.26927428796688319 0.18726188415223799 0 0.25259635090382643 0.16837651930415931 0 0.26086595689185038 0.1773065867091396 0 0.2503233785568697 0.1849429854552001 0 0.26086595689185038 0.1773065867091396 0 0.26927428796688319 0.18726188415223799 0 0.27059632621744473 0.16782298245743399 0 0.26927428796688319 0.18726188415223799 0 0.27059632621744473 0.16782298245743399 0 0.28646770240480202 0.17420019719089691 0 0.27059632621744473 0.16782298245743399 0 0.28646770240480202 0.17420019719089691 0 0.2823785343004343 0.1482181753123632 0 0.28646770240480202 0.17420019719089691 0 0.2823785343004343 0.1482181753123632 0 0.28646770240480202 0.17420019719089691 0 0.29986107502263842 0.15920002851776471 0 0.2823785343004343 0.1482181753123632 0 0.28646770240480202 0.17420019719089691 0 0.29055687050916917 0.20018221906943071 0 0.26927428796688319 0.18726188415223799 0 0.28646770240480202 0.17420019719089691 0 0.29055687050916917 0.20018221906943071 0 0.28646770240480202 0.17420019719089691 0 0.30584672574358301 0.18026070509424211 0 0.29055687050916917 0.20018221906943071 0 0.30584672574358301 0.18026070509424211 0 0.29986107502263842 0.15920002851776471 0 0.32246580398101099 0.1613979512283932 0 0.28646770240480202 0.17420019719089691 0 0.30584672574358301 0.18026070509424211 0 0.29986107502263842 0.15920002851776471 0 0.29986107502263842 0.15920002851776471 0 0.30895312010507131 0.14122639919497421 0 0.2823785343004343 0.1482181753123632 0 0.29986107502263842 0.15920002851776471 0 0.30895312010507131 0.14122639919497421 0 0.32246580398101099 0.1613979512283932 0 0.30895312010507131 0.14122639919497421 0 0.30444544245404109 0.12617273937756451 0 0.31777628018035498 0.1253832488499648 0 0.30895312010507131 0.14122639919497421 0 0.30444544245404109 0.12617273937756451 0 0.29248341921087018 0.131982854580137 0 0.29518658815541537 0.1174527921927337 0 0.30444544245404109 0.12617273937756451 0 0.29248341921087018 0.131982854580137 0 0.27700055524314399 0.1140472226974323 0 0.29248341921087018 0.131982854580137 0 0.28141305499127012 0.14208365017332211 0 0.30895312010507131 0.14122639919497421 0 0.29248341921087018 0.131982854580137 0 0.2823785343004343 0.1482181753123632 0 0.29248341921087018 0.131982854580137 0 0.28141305499127012 0.14208365017332211 0 0.29248341921087018 0.131982854580137 0 0.28141305499127012 0.14208365017332211 0 0.2823785343004343 0.1482181753123632 0 0.30895312010507131 0.14122639919497421 0 0.2823785343004343 0.1482181753123632 0 0.28141305499127012 0.14208365017332211 0 0.2823785343004343 0.1482181753123632 0 0.2715308159621993 0.25197005680426943 0 0.28081284501854842 0.2404348253367771 0 0.26865876056860449 0.2345221015426501 0 0.24301938260949851 0.2441670494208753 0 0.25556392931817717 0.25644551735543158 0 0.25476213896605832 0.23832149790900789 0 0.25556392931817717 0.25644551735543158 0 0.2715308159621993 0.25197005680426943 0 0.25476213896605832 0.23832149790900789 0 0.2715308159621993 0.25197005680426943 0 0.26865876056860449 0.2345221015426501 0 0.25476213896605832 0.23832149790900789 0 0.24577729341156829 0.2273306001458493 0 0.25476213896605832 0.23832149790900789 0 0.25899067417183719 0.21986970888888621 0 0.26865876056860449 0.2345221015426501 0 0.25476213896605832 0.23832149790900789 0 0.25899067417183719 0.21986970888888621 0 0.28081284501854842 0.2404348253367771 0 0.26865876056860449 0.2345221015426501 0 0.27719732872437941 0.22201441877430969 0 0.26865876056860449 0.2345221015426501 0 0.25899067417183719 0.21986970888888621 0 0.27719732872437941 0.22201441877430969 0 0.27719732872437941 0.22201441877430969 0 0.27307199981280489 0.2048454091172188 0 0.29055687050916917 0.20018221906943071 0 0.25899067417183719 0.21986970888888621 0 0.27719732872437941 0.22201441877430969 0 0.27307199981280489 0.2048454091172188 0 0.25899067417183719 0.21986970888888621 0 0.27307199981280489 0.2048454091172188 0 0.25196513540250198 0.2008395694888471 0 0.26927428796688319 0.18726188415223799 0 0.27307199981280489 0.2048454091172188 0 0.25196513540250198 0.2008395694888471 0 0.2503233785568697 0.1849429854552001 0 0.26927428796688319 0.18726188415223799 0 0.25196513540250198 0.2008395694888471 0 0.26927428796688319 0.18726188415223799 0 0.27307199981280489 0.2048454091172188 0 0.29055687050916917 0.20018221906943071 0 0.30584672574358301 0.18026070509424211 0 0.29055687050916917 0.20018221906943071 0 0.31161458872618519 0.20697255545284479 0 0.29055687050916917 0.20018221906943071 0 0.31161458872618519 0.20697255545284479 0 0.29464603861353661 0.22616424094796439 0 0.29055687050916917 0.20018221906943071 0 0.29464603861353661 0.22616424094796439 0 0.27719732872437941 0.22201441877430969 0 0.29055687050916917 0.20018221906943071 0 0.29464603861353661 0.22616424094796439 0 0.28081284501854842 0.2404348253367771 0 0.27719732872437941 0.22201441877430969 0 0.29464603861353661 0.22616424094796439 0 0.31161458872618519 0.20697255545284479 0 0.29464603861353661 0.22616424094796439 0 0.31471375400796509 0.22403812780108889 0 0.29464603861353661 0.22616424094796439 0 0.31201463870830531 0.23915474712436649 0 0.31471375400796509 0.22403812780108889 0 0.29464603861353661 0.22616424094796439 0 0.31201463870830531 0.23915474712436649 0 0.29646385361770672 0.24212054302972821 0 0.30778376210931502 0.25531882413801787 0 0.31201463870830531 0.23915474712436649 0 0.29646385361770672 0.24212054302972821 0 0.29261477112080608 0.25800222327540018 0 0.28081284501854842 0.2404348253367771 0 0.29646385361770672 0.24212054302972821 0 0.29261477112080608 0.25800222327540018 0 0.28081284501854842 0.2404348253367771 0 0.28081284501854842 0.2404348253367771 0 0.29464603861353661 0.22616424094796439 0 0.29646385361770672 0.24212054302972821 0 0.32318648542418538 0.25555341532606313 0 0.33882618331877828 0.24382358116630509 0 0.32600459642258361 0.24191643675427921 0 0.33882618331877828 0.24382358116630509 0 0.32600459642258361 0.24191643675427921 0 0.32999107823906532 0.22913400340038231 0 0.32318648542418538 0.25555341532606313 0 0.31201463870830531 0.23915474712436649 0 0.32600459642258361 0.24191643675427921 0 0.31201463870830531 0.23915474712436649 0 0.32600459642258361 0.24191643675427921 0 0.32999107823906532 0.22913400340038231 0 0.31471375400796509 0.22403812780108889 0 0.32999107823906532 0.22913400340038231 0 0.33228986694576718 0.20899386018269689 0 0.31201463870830531 0.23915474712436649 0 0.31471375400796509 0.22403812780108889 0 0.32999107823906532 0.22913400340038231 0 0.32999107823906532 0.22913400340038231 0 0.34387953842933849 0.2168855506054784 0 0.34606154408586598 0.22927690459132249 0 0.33882618331877828 0.24382358116630509 0 0.32999107823906532 0.22913400340038231 0 0.34606154408586598 0.22927690459132249 0 0.32999107823906532 0.22913400340038231 0 0.33228986694576718 0.20899386018269689 0 0.34387953842933849 0.2168855506054784 0 0.33228986694576718 0.20899386018269689 0 0.35212451196584471 0.20425986706461499 0 0.34387953842933849 0.2168855506054784 0 0.31161458872618519 0.20697255545284479 0 0.31471375400796509 0.22403812780108889 0 0.33228986694576718 0.20899386018269689 0 0.31161458872618519 0.20697255545284479 0 0.33228986694576718 0.20899386018269689 0 0.32488793990194481 0.18712141087370579 0 0.30584672574358301 0.18026070509424211 0 0.31161458872618519 0.20697255545284479 0 0.32488793990194481 0.18712141087370579 0 0.33228986694576718 0.20899386018269689 0 0.34045229331556032 0.19083461466118321 0 0.35212451196584471 0.20425986706461499 0 0.33228986694576718 0.20899386018269689 0 0.34045229331556032 0.19083461466118321 0 0.32488793990194481 0.18712141087370579 0 0.36688593304473732 0.20301328840137611 0 0.35212451196584471 0.20425986706461499 0 0.35643319066639351 0.18008706662678109 0 0.34045229331556032 0.19083461466118321 0 0.35212451196584471 0.20425986706461499 0 0.35643319066639351 0.18008706662678109 0 0.36688593304473732 0.20301328840137611 0 0.35643319066639351 0.18008706662678109 0 0.368534970380205 0.18925719974810609 0 0.36688593304473732 0.20301328840137611 0 0.35643319066639351 0.18008706662678109 0 0.368534970380205 0.18925719974810609 0 0.37114165434747692 0.1741112273855453 0 0.37967910346221362 0.1998172165787214 0 0.368534970380205 0.18925719974810609 0 0.36688593304473732 0.20301328840137611 0 0.37967910346221362 0.1998172165787214 0 0.36688593304473732 0.20301328840137611 0 0.38036260069813782 0.2018752051329247 0 0.36688593304473732 0.20301328840137611 0 0.35212451196584471 0.20425986706461499 0 0.36688593304473732 0.20301328840137611 0 0.36355198554427087 0.2129434591099886 0 0.35212451196584471 0.20425986706461499 0 0.36688593304473732 0.20301328840137611 0 0.37323499253972248 0.21693881538497189 0 0.36688593304473732 0.20301328840137611 0 0.37412315053676082 0.2097163489282631 0 0.38036260069813782 0.2018752051329247 0 0.36688593304473732 0.20301328840137611 0 0.37412315053676082 0.2097163489282631 0 0.37323499253972248 0.21693881538497189 0 0.37323499253972248 0.21693881538497189 0 0.36355198554427087 0.2129434591099886 0 0.36711854541894118 0.2244525296430484 0 0.36688593304473732 0.20301328840137611 0 0.37323499253972248 0.21693881538497189 0 0.36355198554427087 0.2129434591099886 0 0.35212451196584471 0.20425986706461499 0 0.34387953842933849 0.2168855506054784 0 0.35555500961543279 0.22111272026805329 0 0.36355198554427087 0.2129434591099886 0 0.35212451196584471 0.20425986706461499 0 0.35555500961543279 0.22111272026805329 0 0.34606154408586598 0.22927690459132249 0 0.35555500961543279 0.22111272026805329 0 0.36135264389031613 0.23716816803299301 0 0.34387953842933849 0.2168855506054784 0 0.34606154408586598 0.22927690459132249 0 0.35555500961543279 0.22111272026805329 0 0.35555500961543279 0.22111272026805329 0 0.36711854541894118 0.2244525296430484 0 0.36135264389031613 0.23716816803299301 0 0.36355198554427087 0.2129434591099886 0 0.35555500961543279 0.22111272026805329 0 0.36711854541894118 0.2244525296430484 0 0.37323499253972248 0.21693881538497189 0 0.36711854541894118 0.2244525296430484 0 0.37838547910380821 0.22236939360144831 0 0.36711854541894118 0.2244525296430484 0 0.37063116182009742 0.23618262146083549 0 0.37838547910380821 0.22236939360144831 0 0.36711854541894118 0.2244525296430484 0 0.36135264389031613 0.23716816803299301 0 0.37063116182009742 0.23618262146083549 0 0.36225507989931049 0.25405469262397201 0 0.37605123504741222 0.25226081239862558 0 0.36135264389031613 0.23716816803299301 0 0.37605123504741222 0.25226081239862558 0 0.36135264389031613 0.23716816803299301 0 0.37063116182009742 0.23618262146083549 0 0.37605123504741222 0.25226081239862558 0 0.37063116182009742 0.23618262146083549 0 0.37721380549578182 0.2427955632614355 0 0.37605123504741222 0.25226081239862558 0 0.36135264389031613 0.23716816803299301 0 0.33882618331877828 0.24382358116630509 0 0.34606154408586598 0.22927690459132249 0 0.36135264389031613 0.23716816803299301 0 0.36225507989931049 0.25405469262397201 0 0.35022216346339469 0.25177717101264768 0 0.36135264389031613 0.23716816803299301 0 0.35022216346339469 0.25177717101264768 0 0.33882618331877828 0.24382358116630509 0 0.36135264389031613 0.23716816803299301 0 0.33552770590970937 0.13423462307758949 0 0.34598044828805141 0.15716084485218529 0 0.33552770590970937 0.13423462307758949 0 0.32246580398101099 0.1613979512283932 0 0.34598044828805141 0.15716084485218529 0 0.33552770590970937 0.13423462307758949 0 0.34598044828805141 0.15716084485218529 0 0.34957758737589251 0.142884239443201 0 0.33552770590970937 0.13423462307758949 0 0.34957758737589251 0.142884239443201 0 0.34602669118853763 0.13147233902661851 0 0.33552770590970937 0.13423462307758949 0 0.34602669118853763 0.13147233902661851 0 0.34301944748306079 0.1249988191839228 0 0.33552770590970937 0.13423462307758949 0 0.34602669118853763 0.13147233902661851 0 0.34301944748306079 0.1249988191839228 0 0.33627693450954921 0.12178507243017341 0 0.33552770590970937 0.13423462307758949 0 0.30895312010507131 0.14122639919497421 0 0.33552770590970937 0.13423462307758949 0 0.31777628018035498 0.1253832488499648 0 0.30895312010507131 0.14122639919497421 0 0.33552770590970937 0.13423462307758949 0 0.30895312010507131 0.14122639919497421 0 0.33552770590970937 0.13423462307758949 0 0.32246580398101099 0.1613979512283932 0 0.32246580398101099 0.1613979512283932 0 0.32488793990194481 0.18712141087370579 0 0.33652595709785121 0.17371086855811721 0 0.30584672574358301 0.18026070509424211 0 0.32246580398101099 0.1613979512283932 0 0.32488793990194481 0.18712141087370579 0 0.34045229331556032 0.19083461466118321 0 0.32488793990194481 0.18712141087370579 0 0.33652595709785121 0.17371086855811721 0 0.32246580398101099 0.1613979512283932 0 0.33652595709785121 0.17371086855811721 0 0.34598044828805141 0.15716084485218529 0 0.34598044828805141 0.15716084485218529 0 0.35891603566233943 0.16510909613835781 0 0.35643319066639351 0.18008706662678109 0 0.34598044828805141 0.15716084485218529 0 0.35643319066639351 0.18008706662678109 0 0.34598044828805141 0.15716084485218529 0 0.35891603566233943 0.16510909613835781 0 0.36260420523273978 0.1484052381923695 0 0.33652595709785121 0.17371086855811721 0 0.34598044828805141 0.15716084485218529 0 0.35643319066639351 0.18008706662678109 0 0.34045229331556032 0.19083461466118321 0 0.33652595709785121 0.17371086855811721 0 0.35643319066639351 0.18008706662678109 0 0.368534970380205 0.18925719974810609 0 0.35643319066639351 0.18008706662678109 0 0.37114165434747692 0.1741112273855453 0 0.35891603566233943 0.16510909613835781 0 0.35643319066639351 0.18008706662678109 0 0.37114165434747692 0.1741112273855453 0 0.37114165434747692 0.1741112273855453 0 0.36260420523273978 0.1484052381923695 0 0.35891603566233943 0.16510909613835781 0 0.37114165434747692 0.1741112273855453 0 0.36260420523273978 0.1484052381923695 0 0.37114165434747692 0.1741112273855453 0 0.36260420523273978 0.1484052381923695 0 0.37605623821314499 0.15034909932600179 0 0.36260420523273978 0.1484052381923695 0 0.36696249150552379 0.12887917508799479 0 0.37605623821314499 0.15034909932600179 0 0.37292438252557358 0.13173624719332361 0 0.37605623821314499 0.15034909932600179 0 0.34598044828805141 0.15716084485218529 0 0.36260420523273978 0.1484052381923695 0 0.34957758737589251 0.142884239443201 0 0.35406675611800548 0.12269924899919279 0 0.34957758737589251 0.142884239443201 0 0.34602669118853763 0.13147233902661851 0 0.35406675611800548 0.12269924899919279 0 0.36260420523273978 0.1484052381923695 0 0.34957758737589251 0.142884239443201 0 0.35406675611800548 0.12269924899919279 0 0.36260420523273978 0.1484052381923695 0 0.34301944748306079 0.1249988191839228 0 0.35406675611800548 0.12269924899919279 0 0.34602669118853763 0.13147233902661851 0 0.35406675611800548 0.12269924899919279 0 0.36260420523273978 0.1484052381923695 0 0.36696249150552379 0.12887917508799479 0 0.36696249150552379 0.12887917508799479 0 0.37292438252557358 0.13173624719332361 0 0.37605623821314499 0.15034909932600179 0 0.37011553970039851 0.1150430846135256 0 0.36696249150552379 0.12887917508799479 0 0.37292438252557358 0.13173624719332361 0 0.35406675611800548 0.12269924899919279 0 0.36696249150552379 0.12887917508799479 0 0.36696249150552379 0.12887917508799479 0 0.37605623821314499 0.15034909932600179 0 0.36696249150552379 0.12887917508799479 0 0.37292438252557358 0.13173624719332361 0 0.37840156437971112 0.1343610357777949 0 0.38301057468651201 0.14173858787296509 0 0.38427505019464231 0.1196945723015298 0 0.39849195105094171 0.14042645567791309 0 0.38301057468651201 0.14173858787296509 0 0.38427505019464231 0.1196945723015298 0 0.37292438252557358 0.13173624719332361 0 0.37840156437971112 0.1343610357777949 0 0.38427505019464231 0.1196945723015298 0 0.38301057468651201 0.14173858787296509 0 0.38427505019464231 0.1196945723015298 0 0.37292438252557358 0.13173624719332361 0 0.37840156437971112 0.1343610357777949 0 0.37605623821314499 0.15034909932600179 0 0.37292438252557358 0.13173624719332361 0 0.37840156437971112 0.1343610357777949 0 0.39849195105094171 0.14042645567791309 0 0.41272045165453253 0.12903906445225119 0 0.38427505019464231 0.1196945723015298 0 0.39849195105094171 0.14042645567791309 0 0.38301057468651201 0.14173858787296509 0 0.39912993156370657 0.16040407349186819 0 0.39849195105094171 0.14042645567791309 0 0.39912993156370657 0.16040407349186819 0 0.41332374715531411 0.15125598027095119 0 0.38301057468651201 0.14173858787296509 0 0.38174609917838398 0.1637826034444004 0 0.38301057468651201 0.14173858787296509 0 0.38174609917838398 0.1637826034444004 0 0.39912993156370657 0.16040407349186819 0 0.38301057468651201 0.14173858787296509 0 0.37605623821314499 0.15034909932600179 0 0.38174609917838398 0.1637826034444004 0 0.37840156437971112 0.1343610357777949 0 0.38301057468651201 0.14173858787296509 0 0.37605623821314499 0.15034909932600179 0 0.37605623821314499 0.15034909932600179 0 0.38174609917838398 0.1637826034444004 0 0.37605623821314499 0.15034909932600179 0 0.38087420433968933 0.1789826316594095 0 0.37605623821314499 0.15034909932600179 0 0.38174609917838398 0.1637826034444004 0 0.38087420433968933 0.1789826316594095 0 0.37114165434747692 0.1741112273855453 0 0.37605623821314499 0.15034909932600179 0 0.38087420433968933 0.1789826316594095 0 0.38174609917838398 0.1637826034444004 0 0.38087420433968933 0.1789826316594095 0 0.38174609917838398 0.1637826034444004 0 0.38951082450919949 0.18211476838602389 0 0.38087420433968933 0.1789826316594095 0 0.37114165434747692 0.1741112273855453 0 0.37967910346221362 0.1998172165787214 0 0.38174609917838398 0.1637826034444004 0 0.38951082450919949 0.18211476838602389 0 0.39825371018066408 0.17405367006704231 0 0.37114165434747692 0.1741112273855453 0 0.38087420433968933 0.1789826316594095 0 0.37967910346221362 0.1998172165787214 0 0.38174609917838398 0.1637826034444004 0 0.38951082450919949 0.18211476838602389 0 0.38951082450919949 0.18211476838602389 0 0.39825371018066408 0.17405367006704231 0 0.40643631885036269 0.18644038388993109 0 0.39825371018066408 0.17405367006704231 0 0.40405323472372429 0.17088338621817331 0 0.40718059361229791 0.1766745672859297 0 0.39825371018066408 0.17405367006704231 0 0.40643631885036269 0.18644038388993109 0 0.40718059361229791 0.1766745672859297 0 0.38174609917838398 0.1637826034444004 0 0.39825371018066408 0.17405367006704231 0 0.39912993156370657 0.16040407349186819 0 0.40405323472372429 0.17088338621817331 0 0.39912993156370657 0.16040407349186819 0 0.41164870353822902 0.17240123402785321 0 0.39825371018066408 0.17405367006704231 0 0.40405323472372429 0.17088338621817331 0 0.39912993156370657 0.16040407349186819 0 0.39912993156370657 0.16040407349186819 0 0.41164870353822902 0.17240123402785321 0 0.41332374715531411 0.15125598027095119 0 0.41392704265609448 0.17347289608965119 0 0.42679459070814812 0.15577621523799881 0 0.41332374715531411 0.15125598027095119 0 0.41392704265609448 0.17347289608965119 0 0.41332374715531411 0.15125598027095119 0 0.41164870353822902 0.17240123402785321 0 0.41392704265609448 0.17347289608965119 0 0.41332374715531411 0.15125598027095119 0 0.41392704265609448 0.17347289608965119 0 0.43696868151495821 0.18431098863395251 0 0.41461974342128638 0.19898224361152669 0 0.40643631885036269 0.18644038388993109 0 0.41392704265609448 0.17347289608965119 0 0.41461974342128638 0.19898224361152669 0 0.41392704265609448 0.17347289608965119 0 0.41461974342128638 0.19898224361152669 0 0.40643631885036269 0.18644038388993109 0 0.40718059361229791 0.1766745672859297 0 0.41392704265609448 0.17347289608965119 0 0.40405323472372429 0.17088338621817331 0 0.40718059361229791 0.1766745672859297 0 0.41164870353822902 0.17240123402785321 0 0.40718059361229791 0.1766745672859297 0 0.41164870353822902 0.17240123402785321 0 0.41392704265609448 0.17347289608965119 0 0.41164870353822902 0.17240123402785321 0 0.41392704265609448 0.17347289608965119 0 0.41392704265609448 0.17347289608965119 0 0.42911310767519728 0.1738453575351491 0 0.43696868151495821 0.18431098863395251 0 0.41392704265609448 0.17347289608965119 0 0.43696868151495821 0.18431098863395251 0 0.42911310767519728 0.1738453575351491 0 0.43696868151495821 0.18431098863395251 0 0.43876211582158758 0.1818213301789938 0 0.42911310767519728 0.1738453575351491 0 0.42679459070814812 0.15577621523799881 0 0.43876211582158758 0.1818213301789938 0 0.42679459070814812 0.15577621523799881 0 0.43824524160925232 0.1663592242778236 0 0.43876211582158758 0.1818213301789938 0 0.41392704265609448 0.17347289608965119 0 0.42911310767519728 0.1738453575351491 0 0.42679459070814812 0.15577621523799881 0 0.42679459070814812 0.15577621523799881 0 0.43876211582158758 0.1818213301789938 0 0.42679459070814812 0.15577621523799881 0 0.43788448050111312 0.15676646366251959 0 0.43824524160925232 0.1663592242778236 0 0.43147105342077507 0.14575558100975039 0 0.44306420999712781 0.15021674555488171 0 0.43788448050111312 0.15676646366251959 0 0.42679459070814812 0.15577621523799881 0 0.43147105342077507 0.14575558100975039 0 0.41482706559470861 0.12973110029700369 0 0.42679459070814812 0.15577621523799881 0 0.43147105342077507 0.14575558100975039 0 0.43788448050111312 0.15676646366251959 0 0.43147105342077507 0.14575558100975039 0 0.43478492030277821 0.1362873802963481 0 0.44306420999712781 0.15021674555488171 0 0.43478492030277821 0.1362873802963481 0 0.41482706559470861 0.12973110029700369 0 0.43478492030277821 0.1362873802963481 0 0.42099165375860881 0.1260593869664989 0 0.41482706559470861 0.12973110029700369 0 0.43147105342077507 0.14575558100975039 0 0.43478492030277821 0.1362873802963481 0 0.41482706559470861 0.12973110029700369 0 0.43478492030277821 0.1362873802963481 0 0.43535246438088088 0.1215664823566846 0 0.42631517492458809 0.1228756203634644 0 0.43478492030277821 0.1362873802963481 0 0.42099165375860881 0.1260593869664989 0 0.42631517492458809 0.1228756203634644 0 0.41482706559470861 0.12973110029700369 0 0.41272045165453253 0.12903906445225119 0 0.41332374715531411 0.15125598027095119 0 0.41272045165453253 0.12903906445225119 0 0.41332374715531411 0.15125598027095119 0 0.39849195105094171 0.14042645567791309 0 0.41272045165453253 0.12903906445225119 0 0.41332374715531411 0.15125598027095119 0 0.42099165375860881 0.1260593869664989 0 0.41482706559470861 0.12973110029700369 0 0.41588939225821869 0.12603498765976351 0 0.41482706559470861 0.12973110029700369 0 0.41588939225821869 0.12603498765976351 0 0.41260810922279723 0.12490195030920689 0 0.41482706559470861 0.12973110029700369 0 0.41260810922279723 0.12490195030920689 0 0.41272045165453253 0.12903906445225119 0 0.41260810922279723 0.12490195030920689 0 0.41482706559470861 0.12973110029700369 0 0.41272045165453253 0.12903906445225119 0 0.41260810922279723 0.12490195030920689 0 0.41482706559470861 0.12973110029700369 0 0.41272045165453253 0.12903906445225119 0 0.42679459070814812 0.15577621523799881 0 0.41482706559470861 0.12973110029700369 0 0.42679459070814812 0.15577621523799881 0 0.41482706559470861 0.12973110029700369 0 0.41332374715531411 0.15125598027095119 0 0.39420588992379602 0.2435569110441789 0 0.39216857874620448 0.2461059418406239 0 0.38920712050989098 0.22850577448030621 0 0.39216857874620448 0.2461059418406239 0 0.38920712050989098 0.22850577448030621 0 0.41140535580559168 0.25015385168212267 0 0.40224412412270649 0.2496628480490046 0 0.40244478143579931 0.24407699705412489 0 0.39900925343851668 0.2483724417061336 0 0.40244478143579931 0.24407699705412489 0 0.39420588992379602 0.2435569110441789 0 0.39900925343851668 0.2483724417061336 0 0.40224412412270649 0.2496628480490046 0 0.40244478143579931 0.24407699705412489 0 0.40244478143579931 0.24407699705412489 0 0.40025939410132472 0.23600586428462819 0 0.39420588992379602 0.2435569110441789 0 0.40244478143579931 0.24407699705412489 0 0.40025939410132472 0.23600586428462819 0 0.40883369688907012 0.2382194636404473 0 0.40025939410132472 0.23600586428462819 0 0.39420588992379602 0.2435569110441789 0 0.38920712050989098 0.22850577448030621 0 0.39420588992379602 0.2435569110441789 0 0.38920712050989098 0.22850577448030621 0 0.39920465933770111 0.25860804760805162 0 0.39420588992379602 0.2435569110441789 0 0.39216857874620448 0.2461059418406239 0 0.37605123504741222 0.25226081239862558 0 0.39216857874620448 0.2461059418406239 0 0.37721380549578182 0.2427955632614355 0 0.39216857874620448 0.2461059418406239 0 0.37721380549578182 0.2427955632614355 0 0.38920712050989098 0.22850577448030621 0 0.37721380549578182 0.2427955632614355 0 0.37838547910380821 0.22236939360144831 0 0.37063116182009742 0.23618262146083549 0 0.37721380549578182 0.2427955632614355 0 0.37838547910380821 0.22236939360144831 0 0.37721380549578182 0.2427955632614355 0 0.38920712050989098 0.22850577448030621 0 0.37838547910380821 0.22236939360144831 0 0.40025939410132472 0.23600586428462819 0 0.38920712050989098 0.22850577448030621 0 0.40840400960863998 0.22672072297673221 0 0.40025939410132472 0.23600586428462819 0 0.40840400960863998 0.22672072297673221 0 0.40883369688907012 0.2382194636404473 0 0.39727554984001262 0.20044693332764829 0 0.40811159042431339 0.2078519960583487 0 0.40840400960863998 0.22672072297673221 0 0.39727554984001262 0.20044693332764829 0 0.40840400960863998 0.22672072297673221 0 0.38920712050989098 0.22850577448030621 0 0.39727554984001262 0.20044693332764829 0 0.40840400960863998 0.22672072297673221 0 0.38920712050989098 0.22850577448030621 0 0.37838547910380821 0.22236939360144831 0 0.38036260069813782 0.2018752051329247 0 0.37838547910380821 0.22236939360144831 0 0.38036260069813782 0.2018752051329247 0 0.38920712050989098 0.22850577448030621 0 0.3846650433144928 0.20151187065877729 0 0.38036260069813782 0.2018752051329247 0 0.37412315053676082 0.2097163489282631 0 0.37838547910380821 0.22236939360144831 0 0.38036260069813782 0.2018752051329247 0 0.38920712050989098 0.22850577448030621 0 0.3846650433144928 0.20151187065877729 0 0.38920712050989098 0.22850577448030621 0 0.38036260069813782 0.2018752051329247 0 0.38920712050989098 0.22850577448030621 0 0.3846650433144928 0.20151187065877729 0 0.39727554984001262 0.20044693332764829 0 0.37412315053676082 0.2097163489282631 0 0.37323499253972248 0.21693881538497189 0 0.37838547910380821 0.22236939360144831 0 0.38951082450919949 0.18211476838602389 0 0.3846650433144928 0.20151187065877729 0 0.39727554984001262 0.20044693332764829 0 0.38087420433968933 0.1789826316594095 0 0.37967910346221362 0.1998172165787214 0 0.38087420433968933 0.1789826316594095 0 0.3846650433144928 0.20151187065877729 0 0.38951082450919949 0.18211476838602389 0 0.38087420433968933 0.1789826316594095 0 0.3846650433144928 0.20151187065877729 0 0.38087420433968933 0.1789826316594095 0 0.3846650433144928 0.20151187065877729 0 0.37967910346221362 0.1998172165787214 0 0.3846650433144928 0.20151187065877729 0 0.38036260069813782 0.2018752051329247 0 0.3846650433144928 0.20151187065877729 0 0.38036260069813782 0.2018752051329247 0 0.37967910346221362 0.1998172165787214 0 0.36688593304473732 0.20301328840137611 0 0.38036260069813782 0.2018752051329247 0 0.37967910346221362 0.1998172165787214 0 0.38036260069813782 0.2018752051329247 0 0.37967910346221362 0.1998172165787214 0 0.38951082450919949 0.18211476838602389 0 0.39727554984001262 0.20044693332764829 0 0.38951082450919949 0.18211476838602389 0 0.40643631885036269 0.18644038388993109 0 0.39727554984001262 0.20044693332764829 0 0.40643631885036269 0.18644038388993109 0 0.39727554984001262 0.20044693332764829 0 0.41461974342128638 0.19898224361152669 0 0.39727554984001262 0.20044693332764829 0 0.41461974342128638 0.19898224361152669 0 0.3846650433144928 0.20151187065877729 0 0.39727554984001262 0.20044693332764829 0 0.39727554984001262 0.20044693332764829 0 0.41461974342128638 0.19898224361152669 0 0.40811159042431339 0.2078519960583487 0 0.41461974342128638 0.19898224361152669 0 0.43731503189755438 0.1970656623948894 0 0.42786706017458598 0.2080302405264155 0 0.41461974342128638 0.19898224361152669 0 0.43731503189755438 0.1970656623948894 0 0.43696868151495821 0.18431098863395251 0 0.41461974342128638 0.19898224361152669 0 0.43731503189755438 0.1970656623948894 0 0.42786706017458598 0.2080302405264155 0 0.43324726625064858 0.22026899253701879 0 0.44855204894056772 0.21371948035563171 0 0.42786706017458598 0.2080302405264155 0 0.42121450644034142 0.22080380180567261 0 0.43324726625064858 0.22026899253701879 0 0.42786706017458598 0.2080302405264155 0 0.41492301273203652 0.21015041698362599 0 0.42121450644034142 0.22080380180567261 0 0.41492301273203652 0.21015041698362599 0 0.40811159042431339 0.2078519960583487 0 0.40840400960863998 0.22672072297673221 0 0.41461974342128638 0.19898224361152669 0 0.41492301273203652 0.21015041698362599 0 0.41461974342128638 0.19898224361152669 0 0.42786706017458598 0.2080302405264155 0 0.41492301273203652 0.21015041698362599 0 0.41461974342128638 0.19898224361152669 0 0.41492301273203652 0.21015041698362599 0 0.40811159042431339 0.2078519960583487 0 0.40840400960863998 0.22672072297673221 0 0.42121450644034142 0.22080380180567261 0 0.42768067462862391 0.23660159416327819 0 0.41492301273203652 0.21015041698362599 0 0.40840400960863998 0.22672072297673221 0 0.42121450644034142 0.22080380180567261 0 0.40840400960863998 0.22672072297673221 0 0.42768067462862391 0.23660159416327819 0 0.40883369688907012 0.2382194636404473 0 0.43324726625064858 0.22026899253701879 0 0.42768067462862391 0.23660159416327819 0 0.44354494396458599 0.22966227965574421 0 0.42121450644034142 0.22080380180567261 0 0.43324726625064858 0.22026899253701879 0 0.42768067462862391 0.23660159416327819 0 0.41140535580559168 0.25015385168212267 0 0.42921631198338711 0.2519841112062397 0 0.42768067462862391 0.23660159416327819 0 0.42768067462862391 0.23660159416327819 0 0.43970649059766542 0.24135657328350341 0 0.44354494396458599 0.22966227965574421 0 0.42921631198338711 0.2519841112062397 0 0.42768067462862391 0.23660159416327819 0 0.43970649059766542 0.24135657328350341 0 0.41140535580559168 0.25015385168212267 0 0.42768067462862391 0.23660159416327819 0 0.41140535580559168 0.25015385168212267 0 0.42768067462862391 0.23660159416327819 0 0.40883369688907012 0.2382194636404473 0 0.41140535580559168 0.25015385168212267 0 0.40244478143579931 0.24407699705412489 0 0.40883369688907012 0.2382194636404473 0 0.46338927635071558 0.24193265472524619 0 0.46532344696021039 0.22180846441915569 0 0.47517274465012338 0.24023553552302229 0 0.46734683989092418 0.26120828543022478 0 0.46338927635071558 0.24193265472524619 0 0.47517274465012338 0.24023553552302229 0 0.46338927635071558 0.24193265472524619 0 0.45128212837665699 0.24074741375276129 0 0.45569143359860559 0.2300796559884474 0 0.4549555794621889 0.25106794244242242 0 0.46338927635071558 0.24193265472524619 0 0.45128212837665699 0.24074741375276129 0 0.44441316121955771 0.25143830530496258 0 0.4549555794621889 0.25106794244242242 0 0.45128212837665699 0.24074741375276129 0 0.44441316121955771 0.25143830530496258 0 0.43970649059766542 0.24135657328350341 0 0.45128212837665699 0.24074741375276129 0 0.42921631198338711 0.2519841112062397 0 0.44441316121955771 0.25143830530496258 0 0.43970649059766542 0.24135657328350341 0 0.43970649059766542 0.24135657328350341 0 0.45128212837665699 0.24074741375276129 0 0.44354494396458599 0.22966227965574421 0 0.45128212837665699 0.24074741375276129 0 0.44354494396458599 0.22966227965574421 0 0.45569143359860559 0.2300796559884474 0 0.44354494396458599 0.22966227965574421 0 0.45569143359860559 0.2300796559884474 0 0.44855204894056772 0.21371948035563171 0 0.43324726625064858 0.22026899253701879 0 0.44354494396458599 0.22966227965574421 0 0.44855204894056772 0.21371948035563171 0 0.46338927635071558 0.24193265472524619 0 0.46532344696021039 0.22180846441915569 0 0.46338927635071558 0.24193265472524619 0 0.46532344696021039 0.22180846441915569 0 0.45569143359860559 0.2300796559884474 0 0.46532344696021039 0.22180846441915569 0 0.45569143359860559 0.2300796559884474 0 0.44855204894056772 0.21371948035563171 0 0.46532344696021039 0.22180846441915569 0 0.46222625704825088 0.20828091692804859 0 0.44855204894056772 0.21371948035563171 0 0.46532344696021039 0.22180846441915569 0 0.46222625704825088 0.20828091692804859 0 0.47426500267444938 0.20185405415826169 0 0.46222625704825088 0.20828091692804859 0 0.44855204894056772 0.21371948035563171 0 0.4600103203738225 0.19514908117825219 0 0.43731503189755438 0.1970656623948894 0 0.42786706017458598 0.2080302405264155 0 0.44855204894056772 0.21371948035563171 0 0.43731503189755438 0.1970656623948894 0 0.4600103203738225 0.19514908117825219 0 0.43731503189755438 0.1970656623948894 0 0.44855204894056772 0.21371948035563171 0 0.4600103203738225 0.19514908117825219 0 0.43696868151495821 0.18431098863395251 0 0.43731503189755438 0.1970656623948894 0 0.4600103203738225 0.19514908117825219 0 0.43696868151495821 0.18431098863395251 0 0.4600103203738225 0.19514908117825219 0 0.43696868151495821 0.18431098863395251 0 0.4600103203738225 0.19514908117825219 0 0.45262439761944229 0.18505151517063001 0 0.4600103203738225 0.19514908117825219 0 0.45262439761944229 0.18505151517063001 0 0.46080071985195448 0.18717101750599921 0 0.46688140436944597 0.19020122427646 0 0.46317955201336908 0.1948814445787925 0 0.47426500267444938 0.20185405415826169 0 0.4600103203738225 0.19514908117825219 0 0.47426500267444938 0.20185405415826169 0 0.4600103203738225 0.19514908117825219 0 0.46317955201336908 0.1948814445787925 0 0.47426500267444938 0.20185405415826169 0 0.46222625704825088 0.20828091692804859 0 0.4600103203738225 0.19514908117825219 0 0.47426500267444938 0.20185405415826169 0 0.4600103203738225 0.19514908117825219 0 0.46317955201336908 0.1948814445787925 0 0.46080071985195448 0.18717101750599921 0 0.46688140436944597 0.19020122427646 0 0.46317955201336908 0.1948814445787925 0 0.46080071985195448 0.18717101750599921 0 0.4600103203738225 0.19514908117825219 0 0.46317955201336908 0.1948814445787925 0 0.47426500267444938 0.20185405415826169 0 0.47184593227921279 0.1868903881920698 0 0.47426500267444938 0.20185405415826169 0 0.4808333511109682 0.19324467295261141 0 0.47184593227921279 0.1868903881920698 0 0.46688140436944597 0.19020122427646 0 0.47426500267444938 0.20185405415826169 0 0.47184593227921279 0.1868903881920698 0 0.47426500267444938 0.20185405415826169 0 0.4808333511109682 0.19324467295261141 0 0.48574882066113362 0.19890351336199211 0 0.47426500267444938 0.20185405415826169 0 0.48574882066113362 0.19890351336199211 0 0.48730130994244392 0.2079859402394503 0 0.4808333511109682 0.19324467295261141 0 0.48585309684776862 0.18896193978729869 0 0.48574882066113362 0.19890351336199211 0 0.4808333511109682 0.19324467295261141 0 0.47184593227921279 0.1868903881920698 0 0.48008525060854679 0.18638040573157319 0 0.4808333511109682 0.19324467295261141 0 0.48585309684776862 0.18896193978729869 0 0.48008525060854679 0.18638040573157319 0 0.48585309684776862 0.18896193978729869 0 0.4939369971793261 0.19636765549384191 0 0.48574882066113362 0.19890351336199211 0 0.48585309684776862 0.18896193978729869 0 0.4939369971793261 0.19636765549384191 0 0.48699289014663499 0.18163213395070749 0 0.4939369971793261 0.19636765549384191 0 0.48574882066113362 0.19890351336199211 0 0.48730130994244392 0.2079859402394503 0 0.4939369971793261 0.19636765549384191 0 0.49700841784245592 0.22456948298245699 0 0.4939369971793261 0.19636765549384191 0 0.49700841784245592 0.22456948298245699 0 0.5 0.224045320067075 0 0.48730130994244392 0.2079859402394503 0 0.48637206109353032 0.2196626512226825 0 0.49700841784245592 0.22456948298245699 0 0.5 0.19664573137545721 0 0.4939369971793261 0.19636765549384191 0 0.5 0.224045320067075 0 0.4939369971793261 0.19636765549384191 0 0.48730130994244392 0.2079859402394503 0 0.49700841784245592 0.22456948298245699 0 0.46532344696021039 0.22180846441915569 0 0.47426500267444938 0.20185405415826169 0 0.47855416889537361 0.2283855890527457 0 0.47426500267444938 0.20185405415826169 0 0.47855416889537361 0.2283855890527457 0 0.47426500267444938 0.20185405415826169 0 0.47855416889537361 0.2283855890527457 0 0.48637206109353032 0.2196626512226825 0 0.47426500267444938 0.20185405415826169 0 0.48730130994244392 0.2079859402394503 0 0.48637206109353032 0.2196626512226825 0 0.47426500267444938 0.20185405415826169 0 0.48730130994244392 0.2079859402394503 0 0.46532344696021039 0.22180846441915569 0 0.47855416889537361 0.2283855890527457 0 0.47517274465012338 0.24023553552302229 0 0.48637206109353032 0.2196626512226825 0 0.49700841784245592 0.22456948298245699 0 0.48826654823526161 0.2270147106410946 0 0.47855416889537361 0.2283855890527457 0 0.48637206109353032 0.2196626512226825 0 0.48826654823526161 0.2270147106410946 0 0.49700841784245592 0.22456948298245699 0 0.5 0.224045320067075 0 0.4911315451096866 0.23544111930649339 0 0.47855416889537361 0.2283855890527457 0 0.48826654823526161 0.2270147106410946 0 0.4911315451096866 0.23544111930649339 0 0.49700841784245592 0.22456948298245699 0 0.48826654823526161 0.2270147106410946 0 0.4911315451096866 0.23544111930649339 0 0.48284333511629879 0.25491712394722937 0 0.5 0.25144490875869291 0 0.4911315451096866 0.23544111930649339 0 0.5 0.25144490875869291 0 0.5 0.224045320067075 0 0.4911315451096866 0.23544111930649339 0 0.48284333511629879 0.25491712394722937 0 0.47855416889537361 0.2283855890527457 0 0.48284333511629879 0.25491712394722937 0 0.47855416889537361 0.2283855890527457 0 0.4911315451096866 0.23544111930649339 0 0.48284333511629879 0.25491712394722937 0 0.47855416889537361 0.2283855890527457 0 0.47517274465012338 0.24023553552302229 0 0.45474277501084798 0.1428436602956917 0 0.45146181508213989 0.1541849434574156 0 0.45975113556466057 0.16129590869111229 0 0.45474277501084798 0.1428436602956917 0 0.46529284180632507 0.14630942317124679 0 0.45975113556466057 0.16129590869111229 0 0.45474277501084798 0.1428436602956917 0 0.45975113556466057 0.16129590869111229 0 0.45474277501084798 0.1428436602956917 0 0.46529284180632507 0.14630942317124679 0 0.46529284180632507 0.14630942317124679 0 0.45975113556466057 0.16129590869111229 0 0.4704907736735196 0.15734483405949209 0 0.45474277501084798 0.1428436602956917 0 0.46529284180632507 0.14630942317124679 0 0.46717528718376872 0.1352391794439623 0 0.45474277501084798 0.1428436602956917 0 0.45803055217376382 0.12890843444230671 0 0.44814833714374841 0.1185478444804185 0 0.46717528718376872 0.1352391794439623 0 0.45803055217376382 0.12890843444230671 0 0.46555367834138661 0.1225848427436874 0 0.45474277501084798 0.1428436602956917 0 0.46717528718376872 0.1352391794439623 0 0.45803055217376382 0.12890843444230671 0 0.43478492030277821 0.1362873802963481 0 0.45474277501084798 0.1428436602956917 0 0.45474277501084798 0.1428436602956917 0 0.44814833714374841 0.1185478444804185 0 0.45474277501084798 0.1428436602956917 0 0.44325712420956392 0.12981134185728571 0 0.44814833714374841 0.1185478444804185 0 0.43478492030277821 0.1362873802963481 0 0.45474277501084798 0.1428436602956917 0 0.44325712420956392 0.12981134185728571 0 0.43478492030277821 0.1362873802963481 0 0.44325712420956392 0.12981134185728571 0 0.43535246438088088 0.1215664823566846 0 0.43478492030277821 0.1362873802963481 0 0.45474277501084798 0.1428436602956917 0 0.44306420999712781 0.15021674555488171 0 0.45474277501084798 0.1428436602956917 0 0.45146181508213989 0.1541849434574156 0 0.44306420999712781 0.15021674555488171 0 0.45146181508213989 0.1541849434574156 0 0.44306420999712781 0.15021674555488171 0 0.44828913975592322 0.16238345928797659 0 0.43788448050111312 0.15676646366251959 0 0.43824524160925232 0.1663592242778236 0 0.44828913975592322 0.16238345928797659 0 0.44306420999712781 0.15021674555488171 0 0.43788448050111312 0.15676646366251959 0 0.44828913975592322 0.16238345928797659 0 0.43824524160925232 0.1663592242778236 0 0.44828913975592322 0.16238345928797659 0 0.44463139249458861 0.17250817008702091 0 0.45085764635872988 0.17126137410439621 0 0.44828913975592322 0.16238345928797659 0 0.45975113556466057 0.16129590869111229 0 0.45085764635872988 0.17126137410439621 0 0.44828913975592322 0.16238345928797659 0 0.44463139249458861 0.17250817008702091 0 0.43696868151495821 0.18431098863395251 0 0.45262439761944229 0.18505151517063001 0 0.44700281892744992 0.18071546258591409 0 0.43696868151495821 0.18431098863395251 0 0.43876211582158758 0.1818213301789938 0 0.44700281892744992 0.18071546258591409 0 0.43824524160925232 0.1663592242778236 0 0.43876211582158758 0.1818213301789938 0 0.44463139249458861 0.17250817008702091 0 0.43876211582158758 0.1818213301789938 0 0.44463139249458861 0.17250817008702091 0 0.44700281892744992 0.18071546258591409 0 0.45085764635872988 0.17126137410439621 0 0.44700281892744992 0.18071546258591409 0 0.45596603574011829 0.1775405725240975 0 0.45085764635872988 0.17126137410439621 0 0.44463139249458861 0.17250817008702091 0 0.44700281892744992 0.18071546258591409 0 0.45262439761944229 0.18505151517063001 0 0.44700281892744992 0.18071546258591409 0 0.45596603574011829 0.1775405725240975 0 0.45596603574011829 0.1775405725240975 0 0.46475949611847278 0.17974815708653299 0 0.45975113556466057 0.16129590869111229 0 0.46080071985195448 0.18717101750599921 0 0.45596603574011829 0.1775405725240975 0 0.46475949611847278 0.17974815708653299 0 0.45262439761944229 0.18505151517063001 0 0.46080071985195448 0.18717101750599921 0 0.45596603574011829 0.1775405725240975 0 0.46475949611847278 0.17974815708653299 0 0.47184593227921279 0.1868903881920698 0 0.46942686188397742 0.17192672222587771 0 0.46688140436944597 0.19020122427646 0 0.46475949611847278 0.17974815708653299 0 0.47184593227921279 0.1868903881920698 0 0.46688140436944597 0.19020122427646 0 0.46080071985195448 0.18717101750599921 0 0.46475949611847278 0.17974815708653299 0 0.46475949611847278 0.17974815708653299 0 0.45975113556466057 0.16129590869111229 0 0.46942686188397742 0.17192672222587771 0 0.45085764635872988 0.17126137410439621 0 0.45596603574011829 0.1775405725240975 0 0.45975113556466057 0.16129590869111229 0 0.46475949611847278 0.17974815708653299 0 0.45975113556466057 0.16129590869111229 0 0.45146181508213989 0.1541849434574156 0 0.44828913975592322 0.16238345928797659 0 0.45975113556466057 0.16129590869111229 0 0.45975113556466057 0.16129590869111229 0 0.4704907736735196 0.15734483405949209 0 0.46942686188397742 0.17192672222587771 0 0.4704907736735196 0.15734483405949209 0 0.47589390588546709 0.16573412464702131 0 0.47856247556037851 0.1541296903534505 0 0.4704907736735196 0.15734483405949209 0 0.47589390588546709 0.16573412464702131 0 0.46942686188397742 0.17192672222587771 0 0.47589390588546709 0.16573412464702131 0 0.47523155374484732 0.17582624203126701 0 0.46942686188397742 0.17192672222587771 0 0.47589390588546709 0.16573412464702131 0 0.4827638203690896 0.16024274808772709 0 0.48070298803033951 0.17322009691632509 0 0.47589390588546709 0.16573412464702131 0 0.47523155374484732 0.17582624203126701 0 0.48070298803033951 0.17322009691632509 0 0.47589390588546709 0.16573412464702131 0 0.4827638203690896 0.16024274808772709 0 0.47856247556037851 0.1541296903534505 0 0.47184593227921279 0.1868903881920698 0 0.47523155374484732 0.17582624203126701 0 0.4782880806452397 0.18135987817504129 0 0.47184593227921279 0.1868903881920698 0 0.47523155374484732 0.17582624203126701 0 0.46942686188397742 0.17192672222587771 0 0.47184593227921279 0.1868903881920698 0 0.46942686188397742 0.17192672222587771 0 0.48070298803033951 0.17322009691632509 0 0.4782880806452397 0.18135987817504129 0 0.48360579215954441 0.18144514955084501 0 0.47523155374484732 0.17582624203126701 0 0.48070298803033951 0.17322009691632509 0 0.4782880806452397 0.18135987817504129 0 0.48070298803033951 0.17322009691632509 0 0.48360579215954441 0.18144514955084501 0 0.48699289014663499 0.18163213395070749 0 0.47184593227921279 0.1868903881920698 0 0.4782880806452397 0.18135987817504129 0 0.48008525060854679 0.18638040573157319 0 0.4782880806452397 0.18135987817504129 0 0.48360579215954441 0.18144514955084501 0 0.48008525060854679 0.18638040573157319 0 0.48585309684776862 0.18896193978729869 0 0.48360579215954441 0.18144514955084501 0 0.48008525060854679 0.18638040573157319 0 0.5 0.19664573137545721 0 0.4939369971793261 0.19636765549384191 0 0.5 0.16924614268383931 0 0.4939369971793261 0.19636765549384191 0 0.48699289014663499 0.18163213395070749 0 0.49086557651619628 0.16816582800522689 0 0.4939369971793261 0.19636765549384191 0 0.49086557651619628 0.16816582800522689 0 0.4939369971793261 0.19636765549384191 0 0.5 0.16924614268383931 0 0.49086557651619628 0.16816582800522689 0 0.48585309684776862 0.18896193978729869 0 0.48360579215954441 0.18144514955084501 0 0.48699289014663499 0.18163213395070749 0 0.48070298803033951 0.17322009691632509 0 0.48699289014663499 0.18163213395070749 0 0.49086557651619628 0.16816582800522689 0 0.5 0.16924614268383931 0 0.49086557651619628 0.16816582800522689 0 0.5 0.14184655399222129 0 0.4827638203690896 0.16024274808772709 0 0.48070298803033951 0.17322009691632509 0 0.49086557651619628 0.16816582800522689 0 0.49086557651619628 0.16816582800522689 0 0.48779415585306651 0.13996400051661179 0 0.4827638203690896 0.16024274808772709 0 0.49086557651619628 0.16816582800522689 0 0.48779415585306651 0.13996400051661179 0 0.49086557651619628 0.16816582800522689 0 0.5 0.14184655399222129 0 0.48779415585306651 0.13996400051661179 0 0.4827638203690896 0.16024274808772709 0 0.47856247556037851 0.1541296903534505 0 0.48779415585306651 0.13996400051661179 0 0.47856247556037851 0.1541296903534505 0 0.47401742134030911 0.1446731352682441 0 0.48779415585306651 0.13996400051661179 0 0.46529284180632507 0.14630942317124679 0 0.46717528718376872 0.1352391794439623 0 0.47401742134030911 0.1446731352682441 0 0.4704907736735196 0.15734483405949209 0 0.47856247556037851 0.1541296903534505 0 0.47401742134030911 0.1446731352682441 0 0.46529284180632507 0.14630942317124679 0 0.4704907736735196 0.15734483405949209 0 0.47401742134030911 0.1446731352682441 0 0.46717528718376872 0.1352391794439623 0 0.47433986664317529 0.12607671719196781 0 0.46555367834138661 0.1225848427436874 0 0.46717528718376872 0.1352391794439623 0 0.47433986664317529 0.12607671719196781 0 0.47795169044933772 0.1346304693990055 0 0.46717528718376872 0.1352391794439623 0 0.47401742134030911 0.1446731352682441 0 0.47795169044933772 0.1346304693990055 0 0.47401742134030911 0.1446731352682441 0 0.47795169044933772 0.1346304693990055 0 0.48779415585306651 0.13996400051661179 0 0.47795169044933772 0.1346304693990055 0 0.48643172122636941 0.12719931457424141 0 0.48779415585306651 0.13996400051661179 0 0.47433986664317529 0.12607671719196781 0 0.47795169044933772 0.1346304693990055 0 0.48643172122636941 0.12719931457424141 0 0.5 0.14184655399222129 0 0.48643172122636941 0.12719931457424141 0 0.5 0.1144469653006034 0 0.5 0.14184655399222129 0 0.48643172122636941 0.12719931457424141 0 0.48779415585306651 0.13996400051661179 0 0.48643172122636941 0.12719931457424141 0 0.5 0.1144469653006034 0 0.47480910228934542 0.1123227641812109 0 0.5 0.1144469653006034 0 0.48671678383897782 0.097614972921513818 0 0.5 0.087047376608985427 0 0.5 0.1144469653006034 0 0.48671678383897782 0.097614972921513818 0 0.47480910228934542 0.1123227641812109 0 0.48671678383897782 0.097614972921513818 0 0.47251654460369569 0.096289243038723757 0 0.47480910228934542 0.1123227641812109 0 0.47433986664317529 0.12607671719196781 0 0.47480910228934542 0.1123227641812109 0 0.46555367834138661 0.1225848427436874 0 0.47433986664317529 0.12607671719196781 0 0.48643172122636941 0.12719931457424141 0 0.47480910228934542 0.1123227641812109 0 0.48541277033557467 0.065174956270966047 0 0.48625827230184782 0.077968515478045619 0 0.5 0.059647787917367481 0 0.48625827230184782 0.077968515478045619 0 0.5 0.087047376608985427 0 0.5 0.059647787917367481 0 0.48625827230184782 0.077968515478045619 0 0.5 0.059647787917367481 0 0.48671678383897782 0.097614972921513818 0 0.48625827230184782 0.077968515478045619 0 0.5 0.087047376608985427 0 0.47251654460369569 0.096289243038723757 0 0.48625827230184782 0.077968515478045619 0 0.48625827230184782 0.077968515478045619 0 0.46946909061593223 0.084258173563445726 0 0.47669327023160768 0.074574974818657228 0 0.47251654460369569 0.096289243038723757 0 0.48625827230184782 0.077968515478045619 0 0.46946909061593223 0.084258173563445726 0 0.48671678383897782 0.097614972921513818 0 0.47251654460369569 0.096289243038723757 0 0.48625827230184782 0.077968515478045619 0 0.47669327023160768 0.074574974818657228 0 0.46022904474289039 0.061758121459542452 0 0.47974165120752471 0.053675893761549479 0 0.48541277033557467 0.065174956270966047 0 0.47669327023160768 0.074574974818657228 0 0.47974165120752471 0.053675893761549479 0 0.48541277033557467 0.065174956270966047 0 0.48625827230184782 0.077968515478045619 0 0.47669327023160768 0.074574974818657228 0 0.46946909061593223 0.084258173563445726 0 0.47669327023160768 0.074574974818657228 0 0.4656345523813763 0.075160048509872429 0 0.47669327023160768 0.074574974818657228 0 0.46022904474289039 0.061758121459542452 0 0.47669327023160768 0.074574974818657228 0 0.4656345523813763 0.075160048509872429 0 0.46022904474289039 0.061758121459542452 0 0.45614680393507501 0.08004892419784429 0 0.44308702465999572 0.070139726782694825 0 0.46022904474289039 0.061758121459542452 0 0.4656345523813763 0.075160048509872429 0 0.45614680393507501 0.08004892419784429 0 0.46022904474289039 0.061758121459542452 0 0.47251654460369569 0.096289243038723757 0 0.46946909061593223 0.084258173563445726 0 0.45680193659145107 0.098816228110718274 0 0.46946909061593223 0.084258173563445726 0 0.45614680393507501 0.08004892419784429 0 0.45680193659145107 0.098816228110718274 0 0.46946909061593223 0.084258173563445726 0 0.4656345523813763 0.075160048509872429 0 0.45614680393507501 0.08004892419784429 0 0.45614680393507501 0.08004892419784429 0 0.45680193659145107 0.098816228110718274 0 0.44155389927664818 0.094252028665145524 0 0.45614680393507501 0.08004892419784429 0 0.44308702465999572 0.070139726782694825 0 0.44155389927664818 0.094252028665145524 0 0.45877481690554361 0.11460997059940189 0 0.45680193659145107 0.098816228110718274 0 0.44814833714374841 0.1185478444804185 0 0.47480910228934542 0.1123227641812109 0 0.45877481690554361 0.11460997059940189 0 0.46555367834138661 0.1225848427436874 0 0.45803055217376382 0.12890843444230671 0 0.45877481690554361 0.11460997059940189 0 0.44814833714374841 0.1185478444804185 0 0.45803055217376382 0.12890843444230671 0 0.45877481690554361 0.11460997059940189 0 0.46555367834138661 0.1225848427436874 0 0.47251654460369569 0.096289243038723757 0 0.45877481690554361 0.11460997059940189 0 0.45680193659145107 0.098816228110718274 0 0.47251654460369569 0.096289243038723757 0 0.45877481690554361 0.11460997059940189 0 0.47251654460369569 0.096289243038723757 0 0.47480910228934542 0.1123227641812109 0 0.45877481690554361 0.11460997059940189 0 0.45680193659145107 0.098816228110718274 0 0.44155389927664818 0.094252028665145524 0 0.44814833714374841 0.1185478444804185 0 0.44155389927664818 0.094252028665145524 0 0.44814833714374841 0.1185478444804185 0 0.43502169930896939 0.1111612911647429 0 0.44155389927664818 0.094252028665145524 0 0.44814833714374841 0.1185478444804185 0 0.44814833714374841 0.1185478444804185 0 0.43535246438088088 0.1215664823566846 0 0.43502169930896939 0.1111612911647429 0 0.44325712420956392 0.12981134185728571 0 0.44814833714374841 0.1185478444804185 0 0.43535246438088088 0.1215664823566846 0 0.43535246438088088 0.1215664823566846 0 0.43502169930896939 0.1111612911647429 0 0.42628982102934337 0.1130426996149739 0 0.42628982102934337 0.1130426996149739 0 0.41925315010578379 0.1121179898114779 0 0.42062546555991592 0.1061421721132782 0 0.43535246438088088 0.1215664823566846 0 0.42628982102934337 0.1130426996149739 0 0.42631517492458809 0.1228756203634644 0 0.42628982102934337 0.1130426996149739 0 0.42631517492458809 0.1228756203634644 0 0.41881955954217459 0.1182340053519202 0 0.42099165375860881 0.1260593869664989 0 0.42631517492458809 0.1228756203634644 0 0.41881955954217459 0.1182340053519202 0 0.41101031153796791 0.1098325429084715 0 0.4124968146952086 0.12080342620726139 0 0.40212425408929148 0.10208576990527191 0 0.41260810922279723 0.12490195030920689 0 0.4124968146952086 0.12080342620726139 0 0.40212425408929148 0.10208576990527191 0 0.42099165375860881 0.1260593869664989 0 0.41561892571656012 0.12276941910407491 0 0.41881955954217459 0.1182340053519202 0 0.41260810922279723 0.12490195030920689 0 0.40212425408929148 0.10208576990527191 0 0.42099165375860881 0.1260593869664989 0 0.41588939225821869 0.12603498765976351 0 0.41561892571656012 0.12276941910407491 0 0.41588939225821869 0.12603498765976351 0 0.41561892571656012 0.12276941910407491 0 0.41260810922279723 0.12490195030920689 0 0.41561892571656012 0.12276941910407491 0 0.41881955954217459 0.1182340053519202 0 0.4124968146952086 0.12080342620726139 0 0.41881955954217459 0.1182340053519202 0 0.41539495897028372 0.1152469910697827 0 0.4124968146952086 0.12080342620726139 0 0.42628982102934337 0.1130426996149739 0 0.41881955954217459 0.1182340053519202 0 0.41925315010578379 0.1121179898114779 0 0.41925315010578379 0.1121179898114779 0 0.41539495897028372 0.1152469910697827 0 0.41101031153796791 0.1098325429084715 0 0.41881955954217459 0.1182340053519202 0 0.41925315010578379 0.1121179898114779 0 0.41539495897028372 0.1152469910697827 0 0.41539495897028372 0.1152469910697827 0 0.41101031153796791 0.1098325429084715 0 0.4124968146952086 0.12080342620726139 0 0.41272045165453253 0.12903906445225119 0 0.41260810922279723 0.12490195030920689 0 0.39965510383535752 0.1195157060031616 0 0.41260810922279723 0.12490195030920689 0 0.4124968146952086 0.12080342620726139 0 0.41561892571656012 0.12276941910407491 0 0.41260810922279723 0.12490195030920689 0 0.4124968146952086 0.12080342620726139 0 0.40763428171305971 0.095547056316562878 0 0.41334740682558491 0.099800065289736908 0 0.40212425408929148 0.10208576990527191 0 0.40763428171305971 0.095547056316562878 0 0.41334740682558491 0.099800065289736908 0 0.41406138714411239 0.087477622244947706 0 0.41101031153796791 0.1098325429084715 0 0.41334740682558491 0.099800065289736908 0 0.40212425408929148 0.10208576990527191 0 0.41101031153796791 0.1098325429084715 0 0.41334740682558491 0.099800065289736908 0 0.42062546555991592 0.1061421721132782 0 0.41925315010578379 0.1121179898114779 0 0.41101031153796791 0.1098325429084715 0 0.42062546555991592 0.1061421721132782 0 0.41334740682558491 0.099800065289736908 0 0.42062546555991592 0.1061421721132782 0 0.42495940805861759 0.092500254896128814 0 0.42062546555991592 0.1061421721132782 0 0.43073775075089887 0.1010577958953978 0 0.42495940805861759 0.092500254896128814 0 0.44155389927664818 0.094252028665145524 0 0.43073775075089887 0.1010577958953978 0 0.42495940805861759 0.092500254896128814 0 0.44155389927664818 0.094252028665145524 0 0.43502169930896939 0.1111612911647429 0 0.43073775075089887 0.1010577958953978 0 0.42628982102934337 0.1130426996149739 0 0.42062546555991592 0.1061421721132782 0 0.43073775075089887 0.1010577958953978 0 0.43502169930896939 0.1111612911647429 0 0.42628982102934337 0.1130426996149739 0 0.43073775075089887 0.1010577958953978 0 0.44308702465999572 0.070139726782694825 0 0.44155389927664818 0.094252028665145524 0 0.427615736208944 0.078329458465243793 0 0.44155389927664818 0.094252028665145524 0 0.427615736208944 0.078329458465243793 0 0.42495940805861759 0.092500254896128814 0 0.427615736208944 0.078329458465243793 0 0.42495940805861759 0.092500254896128814 0 0.41406138714411239 0.087477622244947706 0 0.44308702465999572 0.070139726782694825 0 0.427615736208944 0.078329458465243793 0 0.42614848411179279 0.060879737939774928 0 0.40853214896941348 0.072818207779119862 0 0.42614848411179279 0.060879737939774928 0 0.40853214896941348 0.072818207779119862 0 0.40368046007025438 0.064930494221829879 0 0.42298197386798791 0.0563592974111541 0 0.427615736208944 0.078329458465243793 0 0.40853214896941348 0.072818207779119862 0 0.42614848411179279 0.060879737939774928 0 0.40853214896941348 0.072818207779119862 0 0.42614848411179279 0.060879737939774928 0 0.42298197386798791 0.0563592974111541 0 0.427615736208944 0.078329458465243793 0 0.40853214896941348 0.072818207779119862 0 0.41406138714411239 0.087477622244947706 0 0.41334740682558491 0.099800065289736908 0 0.42495940805861759 0.092500254896128814 0 0.41406138714411239 0.087477622244947706 0 0.40853214896941348 0.072818207779119862 0 0.41406138714411239 0.087477622244947706 0 0.40306813969491928 0.086201161324270345 0 0.40763428171305971 0.095547056316562878 0 0.41406138714411239 0.087477622244947706 0 0.40306813969491928 0.086201161324270345 0 0.40763428171305971 0.095547056316562878 0 0.40306813969491928 0.086201161324270345 0 0.39419706682097733 0.090406242662256484 0 0.40853214896941348 0.072818207779119862 0 0.40306813969491928 0.086201161324270345 0 0.39091581382703428 0.084756677618464976 0 0.40763428171305971 0.095547056316562878 0 0.39419706682097733 0.090406242662256484 0 0.38096706859605117 0.091498874217217446 0 0.40853214896941348 0.072818207779119862 0 0.39091581382703428 0.084756677618464976 0 0.40763428171305971 0.095547056316562878 0 0.38096706859605117 0.091498874217217446 0 0.40306813969491928 0.086201161324270345 0 0.39091581382703428 0.084756677618464976 0 0.39419706682097733 0.090406242662256484 0 0.39091581382703428 0.084756677618464976 0 0.39419706682097733 0.090406242662256484 0 0.40368046007025438 0.064930494221829879 0 0.384378946272521 0.073501691032505992 0 0.40853214896941348 0.072818207779119862 0 0.39091581382703428 0.084756677618464976 0 0.39687207569812188 0.074161720824892904 0 0.40368046007025438 0.064930494221829879 0 0.39687207569812188 0.074161720824892904 0 0.384378946272521 0.073501691032505992 0 0.40368046007025438 0.064930494221829879 0 0.384378946272521 0.073501691032505992 0 0.38899619542631109 0.052285161269184033 0 0.40853214896941348 0.072818207779119862 0 0.40368046007025438 0.064930494221829879 0 0.39687207569812188 0.074161720824892904 0 0.39091581382703428 0.084756677618464976 0 0.39687207569812188 0.074161720824892904 0 0.384378946272521 0.073501691032505992 0 0.39091581382703428 0.084756677618464976 0 0.38096706859605117 0.091498874217217446 0 0.39091581382703428 0.084756677618464976 0 0.39419706682097733 0.090406242662256484 0 0.38096706859605117 0.091498874217217446 0 0.39091581382703428 0.084756677618464976 0 0.38298567700076902 0.083363509487942758 0 0.38096706859605117 0.091498874217217446 0 0.39091581382703428 0.084756677618464976 0 0.384378946272521 0.073501691032505992 0 0.38298567700076902 0.083363509487942758 0 0.39091581382703428 0.084756677618464976 0 0.384378946272521 0.073501691032505992 0 0.384378946272521 0.073501691032505992 0 0.38298567700076902 0.083363509487942758 0 0.37568087930747052 0.083696795083584005 0 0.38298567700076902 0.083363509487942758 0 0.37568087930747052 0.083696795083584005 0 0.38096706859605117 0.091498874217217446 0 0.36767017324819268 0.1005100892505553 0 0.38096706859605117 0.091498874217217446 0 0.3802325599444718 0.10150250067107799 0 0.38096706859605117 0.091498874217217446 0 0.3802325599444718 0.10150250067107799 0 0.3911143058682145 0.10080135626856961 0 0.3802325599444718 0.10150250067107799 0 0.38512307860462958 0.1064652608903998 0 0.3911143058682145 0.10080135626856961 0 0.38512307860462958 0.1064652608903998 0 0.38577915677669128 0.11167255741930079 0 0.39072596477184779 0.1084509149682195 0 0.38512307860462958 0.1064652608903998 0 0.3911143058682145 0.10080135626856961 0 0.39072596477184779 0.1084509149682195 0 0.38512307860462958 0.1064652608903998 0 0.37827179320218057 0.1087904708163797 0 0.38577915677669128 0.11167255741930079 0 0.36767017324819268 0.1005100892505553 0 0.3802325599444718 0.10150250067107799 0 0.37827179320218057 0.1087904708163797 0 0.3802325599444718 0.10150250067107799 0 0.38512307860462958 0.1064652608903998 0 0.37827179320218057 0.1087904708163797 0 0.37011553970039851 0.1150430846135256 0 0.37292438252557358 0.13173624719332361 0 0.38427505019464231 0.1196945723015298 0 0.37011553970039851 0.1150430846135256 0 0.3811660976941304 0.11437753391563101 0 0.38427505019464231 0.1196945723015298 0 0.37011553970039851 0.1150430846135256 0 0.37827179320218057 0.1087904708163797 0 0.3811660976941304 0.11437753391563101 0 0.37827179320218057 0.1087904708163797 0 0.3811660976941304 0.11437753391563101 0 0.38577915677669128 0.11167255741930079 0 0.37011553970039851 0.1150430846135256 0 0.38427505019464231 0.1196945723015298 0 0.38427505019464231 0.1196945723015298 0 0.38749071632713911 0.1162293473152875 0 0.39152550794878022 0.1159901532025686 0 0.3811660976941304 0.11437753391563101 0 0.38427505019464231 0.1196945723015298 0 0.38749071632713911 0.1162293473152875 0 0.3811660976941304 0.11437753391563101 0 0.38577915677669128 0.11167255741930079 0 0.38749071632713911 0.1162293473152875 0 0.38577915677669128 0.11167255741930079 0 0.38749071632713911 0.1162293473152875 0 0.38967502515708452 0.1129028513714843 0 0.38749071632713911 0.1162293473152875 0 0.38967502515708452 0.1129028513714843 0 0.39152550794878022 0.1159901532025686 0 0.38577915677669128 0.11167255741930079 0 0.38967502515708452 0.1129028513714843 0 0.39072596477184779 0.1084509149682195 0 0.41272045165453253 0.12903906445225119 0 0.38427505019464231 0.1196945723015298 0 0.41260810922279723 0.12490195030920689 0 0.40121016356106493 0.10780248905819299 0 0.40212425408929148 0.10208576990527191 0 0.41260810922279723 0.12490195030920689 0 0.40120956631951782 0.11529033225376149 0 0.40121016356106493 0.10780248905819299 0 0.41272045165453253 0.12903906445225119 0 0.38427505019464231 0.1196945723015298 0 0.39965510383535752 0.1195157060031616 0 0.38967502515708452 0.1129028513714843 0 0.39285377996096388 0.1121712839520453 0 0.39072596477184779 0.1084509149682195 0 0.39285377996096388 0.1121712839520453 0 0.39629805546675351 0.1101480330240394 0 0.39072596477184779 0.1084509149682195 0 0.39152550794878022 0.1159901532025686 0 0.39627639951161442 0.1140834828742063 0 0.39965510383535752 0.1195157060031616 0 0.39285377996096388 0.1121712839520453 0 0.39152550794878022 0.1159901532025686 0 0.39627639951161442 0.1140834828742063 0 0.38967502515708452 0.1129028513714843 0 0.39285377996096388 0.1121712839520453 0 0.39152550794878022 0.1159901532025686 0 0.39285377996096388 0.1121712839520453 0 0.39627639951161442 0.1140834828742063 0 0.39629805546675351 0.1101480330240394 0 0.39627639951161442 0.1140834828742063 0 0.39629805546675351 0.1101480330240394 0 0.40120956631951782 0.11529033225376149 0 0.38427505019464231 0.1196945723015298 0 0.39152550794878022 0.1159901532025686 0 0.39965510383535752 0.1195157060031616 0 0.41260810922279723 0.12490195030920689 0 0.39965510383535752 0.1195157060031616 0 0.40120956631951782 0.11529033225376149 0 0.39629805546675351 0.1101480330240394 0 0.40120956631951782 0.11529033225376149 0 0.40121016356106493 0.10780248905819299 0 0.39627639951161442 0.1140834828742063 0 0.39965510383535752 0.1195157060031616 0 0.40120956631951782 0.11529033225376149 0 0.40763428171305971 0.095547056316562878 0 0.40212425408929148 0.10208576990527191 0 0.3911143058682145 0.10080135626856961 0 0.40763428171305971 0.095547056316562878 0 0.38096706859605117 0.091498874217217446 0 0.3911143058682145 0.10080135626856961 0 0.40121016356106493 0.10780248905819299 0 0.40212425408929148 0.10208576990527191 0 0.39594816866327459 0.1054557437027777 0 0.40212425408929148 0.10208576990527191 0 0.3911143058682145 0.10080135626856961 0 0.39594816866327459 0.1054557437027777 0 0.3911143058682145 0.10080135626856961 0 0.39072596477184779 0.1084509149682195 0 0.39594816866327459 0.1054557437027777 0 0.39629805546675351 0.1101480330240394 0 0.39072596477184779 0.1084509149682195 0 0.39594816866327459 0.1054557437027777 0 0.39629805546675351 0.1101480330240394 0 0.40121016356106493 0.10780248905819299 0 0.39594816866327459 0.1054557437027777 0 0.40019207352154901 0.01502133102888127 0 0.38436160487489313 0.031838730194469797 0 0.40248891230541162 0.042288109270986543 0 0.40019207352154901 0.01502133102888127 0 0.41041036806540759 0.0026535002581054559 0 0.40027666082147328 -0.0073853161395013274 0 0.40019207352154901 0.01502133102888127 0 0.40027666082147328 -0.0073853161395013274 0 0.38948726555437418 -0.0066302620254631494 0 0.40019207352154901 0.01502133102888127 0 0.38948726555437418 -0.0066302620254631494 0 0.37914636644946292 -0.001362053756917628 0 0.40019207352154901 0.01502133102888127 0 0.38036850527645172 0.0064023527836306604 0 0.38085699947886031 0.019181615618172061 0 0.40019207352154901 0.01502133102888127 0 0.37914636644946292 -0.001362053756917628 0 0.40019207352154901 0.01502133102888127 0 0.38036850527645172 0.0064023527836306604 0 0.37914636644946292 -0.001362053756917628 0 0.37327754619847281 0.004161094995811407 0 0.38036850527645172 0.0064023527836306604 0 0.37914636644946292 -0.001362053756917628 0 0.36806583311044272 0.015317112501689691 0 0.38036850527645172 0.0064023527836306604 0 0.38085699947886031 0.019181615618172061 0 0.40019207352154901 0.01502133102888127 0 0.38085699947886031 0.019181615618172061 0 0.38436160487489313 0.031838730194469797 0 0.37129698061096511 0.02732855158218889 0 0.38085699947886031 0.019181615618172061 0 0.38436160487489313 0.031838730194469797 0 0.37007105360847559 0.048866781626128328 0 0.38436160487489313 0.031838730194469797 0 0.38899619542631109 0.052285161269184033 0 0.37007105360847559 0.048866781626128328 0 0.37129698061096511 0.02732855158218889 0 0.38436160487489313 0.031838730194469797 0 0.37007105360847559 0.048866781626128328 0 0.384378946272521 0.073501691032505992 0 0.37007105360847559 0.048866781626128328 0 0.384378946272521 0.073501691032505992 0 0.38899619542631109 0.052285161269184033 0 0.40368046007025438 0.064930494221829879 0 0.38899619542631109 0.052285161269184033 0 0.40248891230541162 0.042288109270986543 0 0.38436160487489313 0.031838730194469797 0 0.38899619542631109 0.052285161269184033 0 0.40248891230541162 0.042288109270986543 0 0.40248891230541162 0.042288109270986543 0 0.42123778059363498 0.031404715814680101 0 0.42298197386798791 0.0563592974111541 0 0.40368046007025438 0.064930494221829879 0 0.40248891230541162 0.042288109270986543 0 0.42298197386798791 0.0563592974111541 0 0.40368046007025438 0.064930494221829879 0 0.42298197386798791 0.0563592974111541 0 0.42614848411179279 0.060879737939774928 0 0.44228348766572162 0.04778810060047857 0 0.44376481925417188 0.048941268100429432 0 0.42614848411179279 0.060879737939774928 0 0.42298197386798791 0.0563592974111541 0 0.44228348766572162 0.04778810060047857 0 0.42614848411179279 0.060879737939774928 0 0.44376481925417188 0.048941268100429432 0 0.42298197386798791 0.0563592974111541 0 0.44228348766572162 0.04778810060047857 0 0.42123778059363498 0.031404715814680101 0 0.42298197386798791 0.0563592974111541 0 0.44228348766572162 0.04778810060047857 0 0.42123778059363498 0.031404715814680101 0 0.44228348766572162 0.04778810060047857 0 0.44058940540227348 0.03152722836232414 0 0.42123778059363498 0.031404715814680101 0 0.44228348766572162 0.04778810060047857 0 0.42123778059363498 0.031404715814680101 0 0.42318393967504142 0.011882769680617871 0 0.44058940540227348 0.03152722836232414 0 0.42318393967504142 0.011882769680617871 0 0.44346023251192751 0.01419207968049453 0 0.44058940540227348 0.03152722836232414 0 0.40019207352154901 0.01502133102888127 0 0.40248891230541162 0.042288109270986543 0 0.42123778059363498 0.031404715814680101 0 0.40019207352154901 0.01502133102888127 0 0.42123778059363498 0.031404715814680101 0 0.40019207352154901 0.01502133102888127 0 0.42123778059363498 0.031404715814680101 0 0.42318393967504142 0.011882769680617871 0 0.41041036806540759 0.0026535002581054559 0 0.42318393967504142 0.011882769680617871 0 0.41798879824356672 -0.0089047835375759849 0 0.40019207352154901 0.01502133102888127 0 0.41041036806540759 0.0026535002581054559 0 0.42318393967504142 0.011882769680617871 0 0.42318393967504142 0.011882769680617871 0 0.44346023251192751 0.01419207968049453 0 0.43266324969735642 -0.0027043282310792111 0 0.42318393967504142 0.011882769680617871 0 0.41798879824356672 -0.0089047835375759849 0 0.43266324969735642 -0.0027043282310792111 0 0.44346023251192751 0.01419207968049453 0 0.44813409226436401 0.0003450015698036016 0 0.43266324969735642 -0.0027043282310792111 0 0.44346023251192751 0.01419207968049453 0 0.44813409226436401 0.0003450015698036016 0 0.46014986257071239 0.01417629971691171 0 0.44346023251192751 0.01419207968049453 0 0.45318573563188808 0.027273060776824169 0 0.46014986257071239 0.01417629971691171 0 0.44346023251192751 0.01419207968049453 0 0.45318573563188808 0.027273060776824169 0 0.44058940540227348 0.03152722836232414 0 0.45318573563188808 0.027273060776824169 0 0.46014986257071239 0.01417629971691171 0 0.46875300635545092 0.032006944608203899 0 0.44813409226436401 0.0003450015698036016 0 0.46014986257071239 0.01417629971691171 0 0.46336268872109698 -0.0062774750429061329 0 0.46014986257071239 0.01417629971691171 0 0.48050018436931591 0.0156588165924832 0 0.46336268872109698 -0.0062774750429061329 0 0.44376481925417188 0.048941268100429432 0 0.46022904474289039 0.061758121459542452 0 0.44376481925417188 0.048941268100429432 0 0.45151648983147979 0.04368801396761697 0 0.46022904474289039 0.061758121459542452 0 0.44308702465999572 0.070139726782694825 0 0.42614848411179279 0.060879737939774928 0 0.44376481925417188 0.048941268100429432 0 0.44308702465999572 0.070139726782694825 0 0.44376481925417188 0.048941268100429432 0 0.46022904474289039 0.061758121459542452 0 0.44228348766572162 0.04778810060047857 0 0.44376481925417188 0.048941268100429432 0 0.45318573563188808 0.027273060776824169 0 0.44058940540227348 0.03152722836232414 0 0.45151648983147979 0.04368801396761697 0 0.44228348766572162 0.04778810060047857 0 0.44058940540227348 0.03152722836232414 0 0.45151648983147979 0.04368801396761697 0 0.44228348766572162 0.04778810060047857 0 0.44376481925417188 0.048941268100429432 0 0.45151648983147979 0.04368801396761697 0 0.44228348766572162 0.04778810060047857 0 0.45151648983147979 0.04368801396761697 0 0.44376481925417188 0.048941268100429432 0 0.45151648983147979 0.04368801396761697 0 0.45151648983147979 0.04368801396761697 0 0.46591191011635152 0.047882665784499567 0 0.46875300635545092 0.032006944608203899 0 0.45318573563188808 0.027273060776824169 0 0.45151648983147979 0.04368801396761697 0 0.46875300635545092 0.032006944608203899 0 0.45151648983147979 0.04368801396761697 0 0.46875300635545092 0.032006944608203899 0 0.46022904474289039 0.061758121459542452 0 0.46591191011635152 0.047882665784499567 0 0.47974165120752471 0.053675893761549479 0 0.45151648983147979 0.04368801396761697 0 0.46022904474289039 0.061758121459542452 0 0.46591191011635152 0.047882665784499567 0 0.46591191011635152 0.047882665784499567 0 0.46875300635545092 0.032006944608203899 0 0.48386700737147809 0.038354494459587947 0 0.46591191011635152 0.047882665784499567 0 0.47974165120752471 0.053675893761549479 0 0.48386700737147809 0.038354494459587947 0 0.48386700737147809 0.038354494459587947 0 0.5 0.032133998306559268 0 0.5 0.059647787917367481 0 0.47974165120752471 0.053675893761549479 0 0.48386700737147809 0.038354494459587947 0 0.5 0.059647787917367481 0 0.48541277033557467 0.065174956270966047 0 0.47974165120752471 0.053675893761549479 0 0.5 0.059647787917367481 0 0.48050018436931591 0.0156588165924832 0 0.48441744509288298 -0.0061353341844099553 0 0.46336268872109698 -0.0062774750429061329 0 0.46014986257071239 0.01417629971691171 0 0.46875300635545092 0.032006944608203899 0 0.48050018436931591 0.0156588165924832 0 0.46875300635545092 0.032006944608203899 0 0.48386700737147809 0.038354494459587947 0 0.48050018436931591 0.0156588165924832 0 0.5 0.032133998306559268 0 0.48050018436931591 0.0156588165924832 0 0.5 0.0046202086957509714 0 0.48386700737147809 0.038354494459587947 0 0.5 0.032133998306559268 0 0.48050018436931591 0.0156588165924832 0 0.48050018436931591 0.0156588165924832 0 0.5 0.0046202086957509714 0 0.48441744509288298 -0.0061353341844099553 0 0.5 0.0046202086957509714 0 0.48441744509288298 -0.0061353341844099553 0 0.5 -0.022893580915057391 0 0.48441744509288298 -0.0061353341844099553 0 0.47822435237400213 -0.021784640252320429 0 0.46336268872109698 -0.0062774750429061329 0 0.47822435237400213 -0.021784640252320429 0 0.5 -0.022893580915057391 0 0.48454636032268789 -0.038197895431328621 0 0.48441744509288298 -0.0061353341844099553 0 0.47822435237400213 -0.021784640252320429 0 0.5 -0.022893580915057391 0 0.5 -0.022893580915057391 0 0.48454636032268789 -0.038197895431328621 0 0.5 -0.050407370525865691 0 0.5 -0.050407370525865691 0 0.47867340680435511 -0.058733813503331553 0 0.5 -0.077921160136673828 0 0.48454636032268789 -0.038197895431328621 0 0.5 -0.050407370525865691 0 0.47867340680435511 -0.058733813503331553 0 0.48454636032268789 -0.038197895431328621 0 0.47867340680435511 -0.058733813503331553 0 0.4658340424350822 -0.037170071960068017 0 0.47822435237400213 -0.021784640252320429 0 0.48454636032268789 -0.038197895431328621 0 0.4658340424350822 -0.037170071960068017 0 0.4658340424350822 -0.037170071960068017 0 0.45807075252767188 -0.052430858479427779 0 0.44941877053724227 -0.032589800506682753 0 0.47867340680435511 -0.058733813503331553 0 0.4658340424350822 -0.037170071960068017 0 0.45807075252767188 -0.052430858479427779 0 0.47867340680435511 -0.058733813503331553 0 0.45807075252767188 -0.052430858479427779 0 0.46477931974370562 -0.074345733690274765 0 0.4398676088053719 -0.047774543523573132 0 0.44985136684027482 -0.063971187692636503 0 0.43011106095267271 -0.062105921840961503 0 0.45807075252767188 -0.052430858479427779 0 0.4398676088053719 -0.047774543523573132 0 0.44985136684027482 -0.063971187692636503 0 0.45807075252767188 -0.052430858479427779 0 0.4398676088053719 -0.047774543523573132 0 0.44941877053724227 -0.032589800506682753 0 0.4398676088053719 -0.047774543523573132 0 0.44941877053724227 -0.032589800506682753 0 0.43297464881175468 -0.034684749631937531 0 0.44941877053724227 -0.032589800506682753 0 0.44180136882674242 -0.01437254879595023 0 0.43297464881175468 -0.034684749631937531 0 0.44941877053724227 -0.032589800506682753 0 0.44180136882674242 -0.01437254879595023 0 0.46043322240793477 -0.02236513063805436 0 0.44813409226436401 0.0003450015698036016 0 0.44180136882674242 -0.01437254879595023 0 0.46336268872109698 -0.0062774750429061329 0 0.44813409226436401 0.0003450015698036016 0 0.44180136882674242 -0.01437254879595023 0 0.43266324969735642 -0.0027043282310792111 0 0.44180136882674242 -0.01437254879595023 0 0.46336268872109698 -0.0062774750429061329 0 0.46043322240793477 -0.02236513063805436 0 0.4658340424350822 -0.037170071960068017 0 0.44941877053724227 -0.032589800506682753 0 0.46043322240793477 -0.02236513063805436 0 0.47822435237400213 -0.021784640252320429 0 0.46336268872109698 -0.0062774750429061329 0 0.46043322240793477 -0.02236513063805436 0 0.47822435237400213 -0.021784640252320429 0 0.4658340424350822 -0.037170071960068017 0 0.46043322240793477 -0.02236513063805436 0 0.48153985426825963 -0.12095519600358649 0 0.47306583355947812 -0.1001230259586014 0 0.45940530112661893 -0.12573620486182779 0 0.48153985426825963 -0.12095519600358649 0 0.5 -0.10543494974748201 0 0.5 -0.13294873935829021 0 0.5 -0.10543494974748201 0 0.47306583355947812 -0.1001230259586014 0 0.48330371202150768 -0.083311736607272729 0 0.48153985426825963 -0.12095519600358649 0 0.5 -0.10543494974748201 0 0.47306583355947812 -0.1001230259586014 0 0.47306583355947812 -0.1001230259586014 0 0.48330371202150768 -0.083311736607272729 0 0.46477931974370562 -0.074345733690274765 0 0.5 -0.10543494974748201 0 0.48330371202150768 -0.083311736607272729 0 0.5 -0.077921160136673828 0 0.47867340680435511 -0.058733813503331553 0 0.48330371202150768 -0.083311736607272729 0 0.5 -0.077921160136673828 0 0.47867340680435511 -0.058733813503331553 0 0.48330371202150768 -0.083311736607272729 0 0.46477931974370562 -0.074345733690274765 0 0.45807075252767188 -0.052430858479427779 0 0.46477931974370562 -0.074345733690274765 0 0.44985136684027482 -0.063971187692636503 0 0.44985136684027482 -0.063971187692636503 0 0.43819634447429923 -0.081928016733578787 0 0.43011106095267271 -0.062105921840961503 0 0.46477931974370562 -0.074345733690274765 0 0.44985136684027482 -0.063971187692636503 0 0.43819634447429923 -0.081928016733578787 0 0.44985136684027482 -0.063971187692636503 0 0.43011106095267271 -0.062105921840961503 0 0.46477931974370562 -0.074345733690274765 0 0.43819634447429923 -0.081928016733578787 0 0.45378208686506499 -0.097136934470356262 0 0.47306583355947812 -0.1001230259586014 0 0.46477931974370562 -0.074345733690274765 0 0.45378208686506499 -0.097136934470356262 0 0.47306583355947812 -0.1001230259586014 0 0.45378208686506499 -0.097136934470356262 0 0.45940530112661893 -0.12573620486182779 0 0.43819634447429923 -0.081928016733578787 0 0.45378208686506499 -0.097136934470356262 0 0.439107951689928 -0.1083730428081925 0 0.45378208686506499 -0.097136934470356262 0 0.439107951689928 -0.1083730428081925 0 0.45940530112661893 -0.12573620486182779 0 0.439107951689928 -0.1083730428081925 0 0.45940530112661893 -0.12573620486182779 0 0.439107951689928 -0.1083730428081925 0 0.43607126809156399 -0.12873712678322791 0 0.45940530112661893 -0.12573620486182779 0 0.41678016710629923 -0.1130675930679272 0 0.3967946209624808 -0.1187959324314076 0 0.41408544184600699 -0.1353331903489923 0 0.439107951689928 -0.1083730428081925 0 0.41678016710629923 -0.1130675930679272 0 0.43607126809156399 -0.12873712678322791 0 0.43819634447429923 -0.081928016733578787 0 0.439107951689928 -0.1083730428081925 0 0.41881060225323719 -0.09100988075455721 0 0.439107951689928 -0.1083730428081925 0 0.41881060225323719 -0.09100988075455721 0 0.439107951689928 -0.1083730428081925 0 0.41678016710629923 -0.1130675930679272 0 0.41881060225323719 -0.09100988075455721 0 0.41678016710629923 -0.1130675930679272 0 0.41881060225323719 -0.09100988075455721 0 0.40119295796445797 -0.098817324272788595 0 0.41881060225323719 -0.09100988075455721 0 0.41920040311236528 -0.073786238803861051 0 0.39851325281654643 -0.073646718700922015 0 0.41881060225323719 -0.09100988075455721 0 0.39851325281654643 -0.073646718700922015 0 0.43819634447429923 -0.081928016733578787 0 0.41881060225323719 -0.09100988075455721 0 0.41920040311236528 -0.073786238803861051 0 0.43819634447429923 -0.081928016733578787 0 0.41920040311236528 -0.073786238803861051 0 0.43011106095267271 -0.062105921840961503 0 0.41920040311236528 -0.073786238803861051 0 0.39851325281654643 -0.073646718700922015 0 0.4103707550650707 -0.060240655989285741 0 0.41920040311236528 -0.073786238803861051 0 0.43011106095267271 -0.062105921840961503 0 0.4103707550650707 -0.060240655989285741 0 0.39851325281654643 -0.073646718700922015 0 0.39039670899706658 -0.066703503475080334 0 0.4103707550650707 -0.060240655989285741 0 0.39851325281654643 -0.073646718700922015 0 0.4103707550650707 -0.060240655989285741 0 0.39851325281654643 -0.073646718700922015 0 0.39039670899706658 -0.066703503475080334 0 0.39039670899706658 -0.066703503475080334 0 0.37772626567058198 -0.070830272231833011 0 0.38176967900032688 -0.057538134011740467 0 0.39851325281654643 -0.073646718700922015 0 0.39039670899706658 -0.066703503475080334 0 0.37772626567058198 -0.070830272231833011 0 0.39851325281654643 -0.073646718700922015 0 0.37772626567058198 -0.070830272231833011 0 0.37951900913010012 -0.095121563628942682 0 0.39851325281654643 -0.073646718700922015 0 0.37951900913010012 -0.095121563628942682 0 0.39851325281654643 -0.073646718700922015 0 0.40119295796445797 -0.098817324272788595 0 0.37951900913010012 -0.095121563628942682 0 0.41881060225323719 -0.09100988075455721 0 0.39851325281654643 -0.073646718700922015 0 0.40119295796445797 -0.098817324272788595 0 0.40119295796445797 -0.098817324272788595 0 0.37951900913010012 -0.095121563628942682 0 0.3967946209624808 -0.1187959324314076 0 0.37951900913010012 -0.095121563628942682 0 0.3967946209624808 -0.1187959324314076 0 0.37806658382386471 -0.12615445725430741 0 0.41678016710629923 -0.1130675930679272 0 0.40119295796445797 -0.098817324272788595 0 0.3967946209624808 -0.1187959324314076 0 0.40696373393582841 -0.02089985525085828 0 0.41798879824356672 -0.0089047835375759849 0 0.42589470409484159 -0.020275552821529048 0 0.40696373393582841 -0.02089985525085828 0 0.42589470409484159 -0.020275552821529048 0 0.41575044413056761 -0.032366403130636073 0 0.40696373393582841 -0.02089985525085828 0 0.41575044413056761 -0.032366403130636073 0 0.40428774217635111 -0.037029289395793613 0 0.40696373393582841 -0.02089985525085828 0 0.41798879824356672 -0.0089047835375759849 0 0.40027666082147328 -0.0073853161395013274 0 0.41041036806540759 0.0026535002581054559 0 0.41798879824356672 -0.0089047835375759849 0 0.40027666082147328 -0.0073853161395013274 0 0.41798879824356672 -0.0089047835375759849 0 0.43266324969735642 -0.0027043282310792111 0 0.42589470409484159 -0.020275552821529048 0 0.44180136882674242 -0.01437254879595023 0 0.43266324969735642 -0.0027043282310792111 0 0.42589470409484159 -0.020275552821529048 0 0.44180136882674242 -0.01437254879595023 0 0.42589470409484159 -0.020275552821529048 0 0.43297464881175468 -0.034684749631937531 0 0.42589470409484159 -0.020275552821529048 0 0.43297464881175468 -0.034684749631937531 0 0.41575044413056761 -0.032366403130636073 0 0.4398676088053719 -0.047774543523573132 0 0.43297464881175468 -0.034684749631937531 0 0.42167270193841222 -0.047462702810611233 0 0.43297464881175468 -0.034684749631937531 0 0.42167270193841222 -0.047462702810611233 0 0.41575044413056761 -0.032366403130636073 0 0.43297464881175468 -0.034684749631937531 0 0.42167270193841222 -0.047462702810611233 0 0.4398676088053719 -0.047774543523573132 0 0.43011106095267271 -0.062105921840961503 0 0.42167270193841222 -0.047462702810611233 0 0.43011106095267271 -0.062105921840961503 0 0.4103707550650707 -0.060240655989285741 0 0.43011106095267271 -0.062105921840961503 0 0.42167270193841222 -0.047462702810611233 0 0.4103707550650707 -0.060240655989285741 0 0.42167270193841222 -0.047462702810611233 0 0.4103707550650707 -0.060240655989285741 0 0.42167270193841222 -0.047462702810611233 0 0.4103707550650707 -0.060240655989285741 0 0.40968789828473878 -0.046050145149306443 0 0.42167270193841222 -0.047462702810611233 0 0.41575044413056761 -0.032366403130636073 0 0.40968789828473878 -0.046050145149306443 0 0.41575044413056761 -0.032366403130636073 0 0.40968789828473878 -0.046050145149306443 0 0.40428774217635111 -0.037029289395793613 0 0.40968789828473878 -0.046050145149306443 0 0.40428774217635111 -0.037029289395793613 0 0.39771545769980821 -0.048408459555830577 0 0.40428774217635111 -0.037029289395793613 0 0.39196279095618991 -0.037850703591395751 0 0.39771545769980821 -0.048408459555830577 0 0.39196279095618991 -0.037850703591395751 0 0.39771545769980821 -0.048408459555830577 0 0.38603865864120412 -0.046244731220594297 0 0.40428774217635111 -0.037029289395793613 0 0.39196279095618991 -0.037850703591395751 0 0.39572106204290552 -0.028737339943049361 0 0.39196279095618991 -0.037850703591395751 0 0.38434301273324478 -0.02755845503309522 0 0.39572106204290552 -0.028737339943049361 0 0.4103707550650707 -0.060240655989285741 0 0.39771545769980821 -0.048408459555830577 0 0.38176967900032688 -0.057538134011740467 0 0.39039670899706658 -0.066703503475080334 0 0.4103707550650707 -0.060240655989285741 0 0.38176967900032688 -0.057538134011740467 0 0.4103707550650707 -0.060240655989285741 0 0.38176967900032688 -0.057538134011740467 0 0.4103707550650707 -0.060240655989285741 0 0.40968789828473878 -0.046050145149306443 0 0.39771545769980821 -0.048408459555830577 0 0.39771545769980821 -0.048408459555830577 0 0.38176967900032688 -0.057538134011740467 0 0.38603865864120412 -0.046244731220594297 0 0.38176967900032688 -0.057538134011740467 0 0.38603865864120412 -0.046244731220594297 0 0.37378550757715218 -0.047644070536286311 0 0.39196279095618991 -0.037850703591395751 0 0.38015659056888501 -0.038249417280377118 0 0.38434301273324478 -0.02755845503309522 0 0.39196279095618991 -0.037850703591395751 0 0.38603865864120412 -0.046244731220594297 0 0.38015659056888501 -0.038249417280377118 0 0.38603865864120412 -0.046244731220594297 0 0.38015659056888501 -0.038249417280377118 0 0.37378550757715218 -0.047644070536286311 0 0.38015659056888501 -0.038249417280377118 0 0.38434301273324478 -0.02755845503309522 0 0.37124128698600189 -0.024853596284373201 0 0.38346304278319132 -0.017515832200234342 0 0.37657279662640247 -0.01121663178097097 0 0.37124128698600189 -0.024853596284373201 0 0.38346304278319132 -0.017515832200234342 0 0.38434301273324478 -0.02755845503309522 0 0.37124128698600189 -0.024853596284373201 0 0.38346304278319132 -0.017515832200234342 0 0.38434301273324478 -0.02755845503309522 0 0.39337579631183628 -0.018121176765366939 0 0.38434301273324478 -0.02755845503309522 0 0.39572106204290552 -0.028737339943049361 0 0.39337579631183628 -0.018121176765366939 0 0.40696373393582841 -0.02089985525085828 0 0.40428774217635111 -0.037029289395793613 0 0.39572106204290552 -0.028737339943049361 0 0.40696373393582841 -0.02089985525085828 0 0.39572106204290552 -0.028737339943049361 0 0.39337579631183628 -0.018121176765366939 0 0.40696373393582841 -0.02089985525085828 0 0.39337579631183628 -0.018121176765366939 0 0.40027666082147328 -0.0073853161395013274 0 0.39337579631183628 -0.018121176765366939 0 0.40027666082147328 -0.0073853161395013274 0 0.38948726555437418 -0.0066302620254631494 0 0.38346304278319132 -0.017515832200234342 0 0.39337579631183628 -0.018121176765366939 0 0.38948726555437418 -0.0066302620254631494 0 0.38346304278319132 -0.017515832200234342 0 0.38948726555437418 -0.0066302620254631494 0 0.37657279662640247 -0.01121663178097097 0 0.37657279662640247 -0.01121663178097097 0 0.37914636644946292 -0.001362053756917628 0 0.37055028871494972 -0.003448673200178198 0 0.38948726555437418 -0.0066302620254631494 0 0.37657279662640247 -0.01121663178097097 0 0.37914636644946292 -0.001362053756917628 0 0.37327754619847281 0.004161094995811407 0 0.37914636644946292 -0.001362053756917628 0 0.37055028871494972 -0.003448673200178198 0 0.37657279662640247 -0.01121663178097097 0 0.37055028871494972 -0.003448673200178198 0 0.36554852927043541 -0.013489373218659329 0 0.36699169228329692 0.0045367262440111286 0 0.37055028871494972 -0.003448673200178198 0 0.36017932117315421 -0.0046142789962312003 0 0.37055028871494972 -0.003448673200178198 0 0.36554852927043541 -0.013489373218659329 0 0.36017932117315421 -0.0046142789962312003 0 0.36554852927043541 -0.013489373218659329 0 0.37124128698600189 -0.024853596284373201 0 0.34646425931670449 -0.025518240187360149 0 0.37657279662640247 -0.01121663178097097 0 0.36554852927043541 -0.013489373218659329 0 0.37124128698600189 -0.024853596284373201 0 0.37124128698600189 -0.024853596284373201 0 0.34646425931670449 -0.025518240187360149 0 0.35542450829086508 -0.039730579338952438 0 0.35108684538889678 0.001954133898624583 0 0.36017932117315421 -0.0046142789962312003 0 0.34646425931670449 -0.025518240187360149 0 0.36554852927043541 -0.013489373218659329 0 0.36017932117315421 -0.0046142789962312003 0 0.34646425931670449 -0.025518240187360149 0 0.35108684538889678 0.001954133898624583 0 0.34646425931670449 -0.025518240187360149 0 0.35108684538889678 0.001954133898624583 0 0.34646425931670449 -0.025518240187360149 0 0.34089602025371513 -0.01046504586344975 0 0.35108684538889678 0.001954133898624583 0 0.34195504038934332 0.00045745575366230862 0 0.34089602025371513 -0.01046504586344975 0 0.34195504038934332 0.00045745575366230862 0 0.32843863199943762 -0.01190891821956089 0 0.34089602025371513 -0.01046504586344975 0 0.32843863199943762 -0.01190891821956089 0 0.34089602025371513 -0.01046504586344975 0 0.33666802333001838 -0.019256249113521799 0 0.34646425931670449 -0.025518240187360149 0 0.34089602025371513 -0.01046504586344975 0 0.33666802333001838 -0.019256249113521799 0 0.34646425931670449 -0.025518240187360149 0 0.33666802333001838 -0.019256249113521799 0 0.33423364649584381 -0.028497063733352191 0 0.32843863199943762 -0.01190891821956089 0 0.33666802333001838 -0.019256249113521799 0 0.33027264864822398 -0.020248768156006632 0 0.33666802333001838 -0.019256249113521799 0 0.33423364649584381 -0.028497063733352191 0 0.33027264864822398 -0.020248768156006632 0 0.33423364649584381 -0.028497063733352191 0 0.33027264864822398 -0.020248768156006632 0 0.32175029276759609 -0.021332841557591641 0 0.31500001505590469 -0.0082851498858897213 0 0.31360932821199239 -0.034363607003638483 0 0.32175029276759609 -0.021332841557591641 0 0.31500001505590469 -0.0082851498858897213 0 0.31360932821199239 -0.034363607003638483 0 0.33423364649584381 -0.028497063733352191 0 0.32175029276759609 -0.021332841557591641 0 0.31360932821199239 -0.034363607003638483 0 0.32843863199943762 -0.01190891821956089 0 0.33027264864822398 -0.020248768156006632 0 0.32175029276759609 -0.021332841557591641 0 0.34195504038934332 0.00045745575366230862 0 0.31269936233099183 -0.0042791370383590136 0 0.34195504038934332 0.00045745575366230862 0 0.32843863199943762 -0.01190891821956089 0 0.31269936233099183 -0.0042791370383590136 0 0.32843863199943762 -0.01190891821956089 0 0.31500001505590469 -0.0082851498858897213 0 0.31269936233099183 -0.0042791370383590136 0 0.32843863199943762 -0.01190891821956089 0 0.32175029276759609 -0.021332841557591641 0 0.31500001505590469 -0.0082851498858897213 0 0.32608281193719452 -0.056710320496273767 0 0.32520184386871381 -0.046241368841168813 0 0.31238200945422923 -0.057378550831051867 0 0.32608281193719452 -0.056710320496273767 0 0.32490572118132061 -0.070230748039529362 0 0.31238200945422923 -0.057378550831051867 0 0.31360932821199239 -0.034363607003638483 0 0.31238200945422923 -0.057378550831051867 0 0.31360932821199239 -0.034363607003638483 0 0.32520184386871381 -0.046241368841168813 0 0.31238200945422923 -0.057378550831051867 0 0.33423364649584381 -0.028497063733352191 0 0.31360932821199239 -0.034363607003638483 0 0.32520184386871381 -0.046241368841168813 0 0.33423364649584381 -0.028497063733352191 0 0.31360932821199239 -0.034363607003638483 0 0.34646425931670449 -0.025518240187360149 0 0.33423364649584381 -0.028497063733352191 0 0.34184167324451448 -0.05299061427334506 0 0.33423364649584381 -0.028497063733352191 0 0.32520184386871381 -0.046241368841168813 0 0.34184167324451448 -0.05299061427334506 0 0.32608281193719452 -0.056710320496273767 0 0.32520184386871381 -0.046241368841168813 0 0.34184167324451448 -0.05299061427334506 0 0.32608281193719452 -0.056710320496273767 0 0.34184167324451448 -0.05299061427334506 0 0.32490572118132061 -0.070230748039529362 0 0.34184167324451448 -0.05299061427334506 0 0.35316860293558322 -0.054835612034194438 0 0.35015944753651579 -0.070739704538779258 0 0.34184167324451448 -0.05299061427334506 0 0.35316860293558322 -0.054835612034194438 0 0.35542450829086508 -0.039730579338952438 0 0.34646425931670449 -0.025518240187360149 0 0.34184167324451448 -0.05299061427334506 0 0.34646425931670449 -0.025518240187360149 0 0.34184167324451448 -0.05299061427334506 0 0.35542450829086508 -0.039730579338952438 0 0.35316860293558322 -0.054835612034194438 0 0.35542450829086508 -0.039730579338952438 0 0.3677940067397622 -0.041352458134525219 0 0.37124128698600189 -0.024853596284373201 0 0.35542450829086508 -0.039730579338952438 0 0.3677940067397622 -0.041352458134525219 0 0.38015659056888501 -0.038249417280377118 0 0.37124128698600189 -0.024853596284373201 0 0.3677940067397622 -0.041352458134525219 0 0.38015659056888501 -0.038249417280377118 0 0.3677940067397622 -0.041352458134525219 0 0.37378550757715218 -0.047644070536286311 0 0.37772626567058198 -0.070830272231833011 0 0.38176967900032688 -0.057538134011740467 0 0.35316860293558322 -0.054835612034194438 0 0.35316860293558322 -0.054835612034194438 0 0.3677940067397622 -0.041352458134525219 0 0.37378550757715218 -0.047644070536286311 0 0.38176967900032688 -0.057538134011740467 0 0.35316860293558322 -0.054835612034194438 0 0.37378550757715218 -0.047644070536286311 0 0.38176967900032688 -0.057538134011740467 0 0.35316860293558322 -0.054835612034194438 0 0.37772626567058198 -0.070830272231833011 0 0.35316860293558322 -0.054835612034194438 0 0.36299034114386891 -0.07713610154011824 0 0.37951900913010012 -0.095121563628942682 0 0.36299034114386891 -0.07713610154011824 0 0.35444130183543782 -0.094937509467870621 0 0.37772626567058198 -0.070830272231833011 0 0.37951900913010012 -0.095121563628942682 0 0.36299034114386891 -0.07713610154011824 0 0.36299034114386891 -0.07713610154011824 0 0.35015944753651579 -0.070739704538779258 0 0.35444130183543782 -0.094937509467870621 0 0.35015944753651579 -0.070739704538779258 0 0.35444130183543782 -0.094937509467870621 0 0.33721908717232452 -0.08046298835933019 0 0.35316860293558322 -0.054835612034194438 0 0.36299034114386891 -0.07713610154011824 0 0.35015944753651579 -0.070739704538779258 0 0.37951900913010012 -0.095121563628942682 0 0.36052476544365247 -0.11659640855696229 0 0.37806658382386471 -0.12615445725430741 0 0.37951900913010012 -0.095121563628942682 0 0.36052476544365247 -0.11659640855696229 0 0.35444130183543782 -0.094937509467870621 0 0.37951900913010012 -0.095121563628942682 0 0.36052476544365247 -0.11659640855696229 0 0.36052476544365247 -0.11659640855696229 0 0.34362977924900739 -0.11976526843013451 0 0.34153052175720561 -0.1380712534849825 0 0.36052476544365247 -0.11659640855696229 0 0.35444130183543782 -0.094937509467870621 0 0.34362977924900739 -0.11976526843013451 0 0.33259650110013439 -0.10793536244531519 0 0.3279739150279456 -0.1354077365313005 0 0.34362977924900739 -0.11976526843013451 0 0.33259650110013439 -0.10793536244531519 0 0.3279739150279456 -0.1354077365313005 0 0.33259650110013439 -0.10793536244531519 0 0.33721908717232452 -0.08046298835933019 0 0.35444130183543782 -0.094937509467870621 0 0.34362977924900739 -0.11976526843013451 0 0.33259650110013439 -0.10793536244531519 0 0.35444130183543782 -0.094937509467870621 0 0.33259650110013439 -0.10793536244531519 0 0.33721908717232452 -0.08046298835933019 0 0.31950395985753338 -0.1095483525997771 0 0.32289430458340118 -0.092181831750527424 0 0.30993071296430552 -0.103408616652874 0 0.33259650110013439 -0.10793536244531519 0 0.31950395985753338 -0.1095483525997771 0 0.32289430458340118 -0.092181831750527424 0 0.33259650110013439 -0.10793536244531519 0 0.31938007015246522 -0.12143340795007659 0 0.3279739150279456 -0.1354077365313005 0 0.33259650110013439 -0.10793536244531519 0 0.31950395985753338 -0.1095483525997771 0 0.31938007015246522 -0.12143340795007659 0 0.31950395985753338 -0.1095483525997771 0 0.3092498922923092 -0.1161126817049301 0 0.30993071296430552 -0.103408616652874 0 0.31950395985753338 -0.1095483525997771 0 0.31938007015246522 -0.12143340795007659 0 0.3092498922923092 -0.1161126817049301 0 0.34184167324451448 -0.05299061427334506 0 0.33721908717232452 -0.08046298835933019 0 0.32490572118132061 -0.070230748039529362 0 0.34184167324451448 -0.05299061427334506 0 0.35015944753651579 -0.070739704538779258 0 0.33721908717232452 -0.08046298835933019 0 0.34184167324451448 -0.05299061427334506 0 0.33721908717232452 -0.08046298835933019 0 0.33259650110013439 -0.10793536244531519 0 0.33721908717232452 -0.08046298835933019 0 0.32289430458340118 -0.092181831750527424 0 0.33721908717232452 -0.08046298835933019 0 0.32289430458340118 -0.092181831750527424 0 0.32490572118132061 -0.070230748039529362 0 0.32289430458340118 -0.092181831750527424 0 0.31115469069646529 -0.080393494658465209 0 0.30993071296430552 -0.103408616652874 0 0.32289430458340118 -0.092181831750527424 0 0.32490572118132061 -0.070230748039529362 0 0.31115469069646529 -0.080393494658465209 0 0.32490572118132061 -0.070230748039529362 0 0.31115469069646529 -0.080393494658465209 0 0.31238200945422923 -0.057378550831051867 0 0.31115469069646529 -0.080393494658465209 0 0.31238200945422923 -0.057378550831051867 0 0.30775985038346643 -0.063924401895440935 0 0.31115469069646529 -0.080393494658465209 0 0.31238200945422923 -0.057378550831051867 0 0.30775985038346643 -0.063924401895440935 0 0.31115469069646529 -0.080393494658465209 0 0.28416056843084508 -0.080273476141983546 0 0.31115469069646529 -0.080393494658465209 0 0.2980956355581672 -0.091239102529737298 0 0.28416056843084508 -0.080273476141983546 0 0.31115469069646529 -0.080393494658465209 0 0.2980956355581672 -0.091239102529737298 0 0.30993071296430552 -0.103408616652874 0 0.31115469069646529 -0.080393494658465209 0 0.30993071296430552 -0.103408616652874 0 0.2980956355581672 -0.091239102529737298 0 0.28416056843084508 -0.080273476141983546 0 0.28610655677171998 -0.1010658866555499 0 0.30775985038346643 -0.063924401895440935 0 0.28416056843084508 -0.080273476141983546 0 0.30775985038346643 -0.063924401895440935 0 0.28416056843084508 -0.080273476141983546 0 0.28323985338672181 -0.060042391119365719 0 0.29835822332844281 -0.1238377187407555 0 0.29826288123433181 -0.11029142050160071 0 0.30993071296430552 -0.103408616652874 0 0.29835822332844281 -0.1238377187407555 0 0.3092498922923092 -0.1161126817049301 0 0.30993071296430552 -0.103408616652874 0 0.29835822332844281 -0.1238377187407555 0 0.30993071296430552 -0.103408616652874 0 0.31938007015246522 -0.12143340795007659 0 0.3092498922923092 -0.1161126817049301 0 0.30734717349596691 -0.12557172557875149 0 0.29835822332844281 -0.1238377187407555 0 0.3092498922923092 -0.1161126817049301 0 0.30734717349596691 -0.12557172557875149 0 0.3092498922923092 -0.1161126817049301 0 0.30993071296430552 -0.103408616652874 0 0.29826288123433181 -0.11029142050160071 0 0.30993071296430552 -0.103408616652874 0 0.2980989466321311 -0.1015012565849405 0 0.2980956355581672 -0.091239102529737298 0 0.30993071296430552 -0.103408616652874 0 0.2980989466321311 -0.1015012565849405 0 0.2980956355581672 -0.091239102529737298 0 0.2980989466321311 -0.1015012565849405 0 0.28610655677171998 -0.1010658866555499 0 0.28610655677171998 -0.1010658866555499 0 0.28695731087613952 -0.115127175426582 0 0.2739591583161689 -0.1118289843953329 0 0.29826288123433181 -0.11029142050160071 0 0.28610655677171998 -0.1010658866555499 0 0.28695731087613952 -0.115127175426582 0 0.29826288123433181 -0.11029142050160071 0 0.2980989466321311 -0.1015012565849405 0 0.28610655677171998 -0.1010658866555499 0 0.29826288123433181 -0.11029142050160071 0 0.28695731087613952 -0.115127175426582 0 0.29331646514149828 -0.11807267002928409 0 0.28695731087613952 -0.115127175426582 0 0.28968744512707939 -0.12303436544819819 0 0.27803205815049031 -0.12697055953932471 0 0.28695731087613952 -0.115127175426582 0 0.29331646514149828 -0.11807267002928409 0 0.28968744512707939 -0.12303436544819819 0 0.29835822332844281 -0.1238377187407555 0 0.29331646514149828 -0.11807267002928409 0 0.28968744512707939 -0.12303436544819819 0 0.29835822332844281 -0.1238377187407555 0 0.29826288123433181 -0.11029142050160071 0 0.29331646514149828 -0.11807267002928409 0 0.2739591583161689 -0.1118289843953329 0 0.25813857930427109 -0.1193587499666816 0 0.27803205815049031 -0.12697055953932471 0 0.28695731087613952 -0.115127175426582 0 0.2739591583161689 -0.1118289843953329 0 0.27803205815049031 -0.12697055953932471 0 0.28610655677171998 -0.1010658866555499 0 0.2739591583161689 -0.1118289843953329 0 0.2605612864782238 -0.096622550388526171 0 0.2739591583161689 -0.1118289843953329 0 0.2605612864782238 -0.096622550388526171 0 0.25813857930427109 -0.1193587499666816 0 0.2605612864782238 -0.096622550388526171 0 0.25813857930427109 -0.1193587499666816 0 0.23696200452560251 -0.1129716246350688 0 0.28416056843084508 -0.080273476141983546 0 0.26318929990685769 -0.072053923952931434 0 0.28323985338672181 -0.060042391119365719 0 0.28416056843084508 -0.080273476141983546 0 0.28610655677171998 -0.1010658866555499 0 0.2605612864782238 -0.096622550388526171 0 0.28416056843084508 -0.080273476141983546 0 0.2605612864782238 -0.096622550388526171 0 0.28416056843084508 -0.080273476141983546 0 0.2605612864782238 -0.096622550388526171 0 0.26318929990685769 -0.072053923952931434 0 0.2605612864782238 -0.096622550388526171 0 0.24873867953415979 -0.082772856728632341 0 0.24219862047115401 -0.095528701225509202 0 0.2605612864782238 -0.096622550388526171 0 0.26318929990685769 -0.072053923952931434 0 0.24873867953415979 -0.082772856728632341 0 0.26318929990685769 -0.072053923952931434 0 0.24103125380641571 -0.068007180236755518 0 0.24873867953415979 -0.082772856728632341 0 0.26318929990685769 -0.072053923952931434 0 0.25871427183938289 -0.04997838850100992 0 0.24103125380641571 -0.068007180236755518 0 0.26318929990685769 -0.072053923952931434 0 0.25871427183938289 -0.04997838850100992 0 0.28323985338672181 -0.060042391119365719 0 0.25871427183938289 -0.04997838850100992 0 0.28323985338672181 -0.060042391119365719 0 0.28616180002568742 -0.042170997752323372 0 0.25871427183938289 -0.04997838850100992 0 0.27075665621275352 -0.028733463157584928 0 0.28616180002568742 -0.042170997752323372 0 0.25871427183938289 -0.04997838850100992 0 0.28616180002568742 -0.042170997752323372 0 0.25871427183938289 -0.04997838850100992 0 0.27075665621275352 -0.028733463157584928 0 0.24252254146925081 -0.03690772785534524 0 0.2541923969834905 -0.01377936309281369 0 0.27075665621275352 -0.028733463157584928 0 0.24252254146925081 -0.03690772785534524 0 0.26940860199408739 0.0065617808238383497 0 0.2541923969834905 -0.01377936309281369 0 0.28344587965724111 -0.0090292500655863479 0 0.2541923969834905 -0.01377936309281369 0 0.28344587965724111 -0.0090292500655863479 0 0.2541923969834905 -0.01377936309281369 0 0.27075665621275352 -0.028733463157584928 0 0.28344587965724111 -0.0090292500655863479 0 0.27075665621275352 -0.028733463157584928 0 0.29950304730146832 -0.020535051678431029 0 0.28616180002568742 -0.042170997752323372 0 0.27075665621275352 -0.028733463157584928 0 0.28344587965724111 -0.0090292500655863479 0 0.29950304730146832 -0.020535051678431029 0 0.28790506904240071 0.01257759637567136 0 0.31269936233099183 -0.0042791370383590136 0 0.28344587965724111 -0.0090292500655863479 0 0.31269936233099183 -0.0042791370383590136 0 0.28344587965724111 -0.0090292500655863479 0 0.31269936233099183 -0.0042791370383590136 0 0.28344587965724111 -0.0090292500655863479 0 0.29950304730146832 -0.020535051678431029 0 0.31500001505590469 -0.0082851498858897213 0 0.31269936233099183 -0.0042791370383590136 0 0.29950304730146832 -0.020535051678431029 0 0.31500001505590469 -0.0082851498858897213 0 0.31360932821199239 -0.034363607003638483 0 0.29950304730146832 -0.020535051678431029 0 0.31360932821199239 -0.034363607003638483 0 0.29945332973409128 -0.051853158472505163 0 0.28616180002568742 -0.042170997752323372 0 0.31360932821199239 -0.034363607003638483 0 0.28616180002568742 -0.042170997752323372 0 0.31360932821199239 -0.034363607003638483 0 0.29950304730146832 -0.020535051678431029 0 0.28616180002568742 -0.042170997752323372 0 0.31360932821199239 -0.034363607003638483 0 0.31238200945422923 -0.057378550831051867 0 0.29945332973409128 -0.051853158472505163 0 0.30775985038346643 -0.063924401895440935 0 0.31238200945422923 -0.057378550831051867 0 0.29945332973409128 -0.051853158472505163 0 0.30775985038346643 -0.063924401895440935 0 0.29945332973409128 -0.051853158472505163 0 0.28323985338672181 -0.060042391119365719 0 0.29945332973409128 -0.051853158472505163 0 0.28323985338672181 -0.060042391119365719 0 0.28616180002568742 -0.042170997752323372 0 0.28994229142136818 -0.21494774106024411 0 0.28317223301609651 -0.19534383659271151 0 0.29147261291180132 -0.19974655713068701 0 0.28994229142136818 -0.21494774106024411 0 0.28317223301609651 -0.19534383659271151 0 0.2750855503522745 -0.20910745674181511 0 0.28994229142136818 -0.21494774106024411 0 0.28317223301609651 -0.19534383659271151 0 0.28994229142136818 -0.21494774106024411 0 0.29147261291180132 -0.19974655713068701 0 0.30324899631258079 -0.2015076498581998 0 0.28317223301609651 -0.19534383659271151 0 0.28548583424723839 -0.19501345860589761 0 0.29147261291180132 -0.19974655713068701 0 0.28317223301609651 -0.19534383659271151 0 0.28548583424723839 -0.19501345860589761 0 0.27993722958613282 -0.18597631058381051 0 0.28548583424723839 -0.19501345860589761 0 0.29551370956172218 -0.19192009953638201 0 0.27993722958613282 -0.18597631058381051 0 0.28317223301609651 -0.19534383659271151 0 0.27993722958613282 -0.18597631058381051 0 0.28317223301609651 -0.19534383659271151 0 0.28548583424723839 -0.19501345860589761 0 0.28548583424723839 -0.19501345860589761 0 0.29551370956172218 -0.19192009953638201 0 0.29147261291180132 -0.19974655713068701 0 0.29551370956172218 -0.19192009953638201 0 0.29147261291180132 -0.19974655713068701 0 0.30324899631258079 -0.2015076498581998 0 0.29551370956172218 -0.19192009953638201 0 0.30324899631258079 -0.2015076498581998 0 0.3069801996736487 -0.18702620885324081 0 0.30324899631258079 -0.2015076498581998 0 0.3069801996736487 -0.18702620885324081 0 0.31868954032589281 -0.19058546842983731 0 0.28994229142136818 -0.21494774106024411 0 0.30324899631258079 -0.2015076498581998 0 0.31404735297486708 -0.2181743343791058 0 0.30324899631258079 -0.2015076498581998 0 0.31404735297486708 -0.2181743343791058 0 0.31868954032589281 -0.19058546842983731 0 0.30940516562384129 -0.2457632003283742 0 0.31404735297486708 -0.2181743343791058 0 0.30940516562384129 -0.2457632003283742 0 0.29671234982663952 -0.23455164552777691 0 0.31404735297486708 -0.2181743343791058 0 0.28994229142136818 -0.21494774106024411 0 0.29671234982663952 -0.23455164552777691 0 0.31404735297486708 -0.2181743343791058 0 0.30940516562384129 -0.2457632003283742 0 0.29671234982663952 -0.23455164552777691 0 0.30348240823191069 -0.25415554999530948 0 0.29671234982663952 -0.23455164552777691 0 0.30348240823191069 -0.25415554999530948 0 0.29671234982663952 -0.23455164552777691 0 0.28836872773541877 -0.24840399774211699 0 0.30348240823191069 -0.25415554999530948 0 0.29671234982663952 -0.23455164552777691 0 0.28836872773541877 -0.24840399774211699 0 0.28189591396314562 -0.23334149584407571 0 0.28994229142136818 -0.21494774106024411 0 0.29671234982663952 -0.23455164552777691 0 0.28189591396314562 -0.23334149584407571 0 0.28994229142136818 -0.21494774106024411 0 0.29671234982663952 -0.23455164552777691 0 0.28189591396314562 -0.23334149584407571 0 0.26697740127272229 -0.22534260263072281 0 0.26747879955957909 -0.2434614922595176 0 0.28994229142136818 -0.21494774106024411 0 0.28189591396314562 -0.23334149584407571 0 0.26697740127272229 -0.22534260263072281 0 0.28836872773541877 -0.24840399774211699 0 0.28189591396314562 -0.23334149584407571 0 0.26747879955957909 -0.2434614922595176 0 0.26747879955957909 -0.2434614922595176 0 0.25131169626011179 -0.25128607895865762 0 0.24405375027002471 -0.2369664917254318 0 0.26697740127272229 -0.22534260263072281 0 0.26747879955957909 -0.2434614922595176 0 0.24405375027002471 -0.2369664917254318 0 0.26697740127272229 -0.22534260263072281 0 0.24989026777409651 -0.21826645038833409 0 0.24405375027002471 -0.2369664917254318 0 0.26697740127272229 -0.22534260263072281 0 0.24405375027002471 -0.2369664917254318 0 0.26697740127272229 -0.22534260263072281 0 0.2750855503522745 -0.20910745674181511 0 0.24989026777409651 -0.21826645038833409 0 0.26346978730415982 -0.198157309485991 0 0.24376734159222299 -0.2009707823792691 0 0.24989026777409651 -0.21826645038833409 0 0.2750855503522745 -0.20910745674181511 0 0.26346978730415982 -0.198157309485991 0 0.24989026777409651 -0.21826645038833409 0 0.28994229142136818 -0.21494774106024411 0 0.26697740127272229 -0.22534260263072281 0 0.2750855503522745 -0.20910745674181511 0 0.28317223301609651 -0.19534383659271151 0 0.2750855503522745 -0.20910745674181511 0 0.26346978730415982 -0.198157309485991 0 0.28317223301609651 -0.19534383659271151 0 0.26358990165332191 -0.1912140992205397 0 0.26346978730415982 -0.198157309485991 0 0.28317223301609651 -0.19534383659271151 0 0.26346978730415982 -0.198157309485991 0 0.28317223301609651 -0.19534383659271151 0 0.26358990165332191 -0.1912140992205397 0 0.27993722958613282 -0.18597631058381051 0 0.26358990165332191 -0.1912140992205397 0 0.27993722958613282 -0.18597631058381051 0 0.26358990165332191 -0.1912140992205397 0 0.25977223972246088 -0.1801593822148963 0 0.24724257372051081 -0.19645188785726869 0 0.25977223972246088 -0.1801593822148963 0 0.24724257372051081 -0.19645188785726869 0 0.26346978730415982 -0.198157309485991 0 0.24376734159222299 -0.2009707823792691 0 0.26358990165332191 -0.1912140992205397 0 0.24724257372051081 -0.19645188785726869 0 0.26346978730415982 -0.198157309485991 0 0.24376734159222299 -0.2009707823792691 0 0.24724257372051081 -0.19645188785726869 0 0.26358990165332191 -0.1912140992205397 0 0.26346978730415982 -0.198157309485991 0 0.24724257372051081 -0.19645188785726869 0 0.25977223972246088 -0.1801593822148963 0 0.26019197685065559 -0.16697082923989151 0 0.24434401197359071 -0.1686018817333991 0 0.26358990165332191 -0.1912140992205397 0 0.25977223972246088 -0.1801593822148963 0 0.26405025051440861 -0.18440213496405111 0 0.25977223972246088 -0.1801593822148963 0 0.26019197685065559 -0.16697082923989151 0 0.27230190572440932 -0.16386687657252261 0 0.26019197685065559 -0.16697082923989151 0 0.24992023239541011 -0.15479510654896081 0 0.24434401197359071 -0.1686018817333991 0 0.26019197685065559 -0.16697082923989151 0 0.27230190572440932 -0.16386687657252261 0 0.26378010466650781 -0.15583490022107829 0 0.26019197685065559 -0.16697082923989151 0 0.26378010466650781 -0.15583490022107829 0 0.24992023239541011 -0.15479510654896081 0 0.25977223972246088 -0.1801593822148963 0 0.27230190572440932 -0.16386687657252261 0 0.27358242217917089 -0.16757483900733791 0 0.27230190572440932 -0.16386687657252261 0 0.27358242217917089 -0.16757483900733791 0 0.28513729849221742 -0.14717683000152271 0 0.27358242217917089 -0.16757483900733791 0 0.28513729849221742 -0.14717683000152271 0 0.27230190572440932 -0.16386687657252261 0 0.27358242217917089 -0.16757483900733791 0 0.27230190572440932 -0.16386687657252261 0 0.26378010466650781 -0.15583490022107829 0 0.27360396305549961 -0.15379861508804801 0 0.27358242217917089 -0.16757483900733791 0 0.27993722958613282 -0.18597631058381051 0 0.25977223972246088 -0.1801593822148963 0 0.27230190572440932 -0.16386687657252261 0 0.25977223972246088 -0.1801593822148963 0 0.26405025051440861 -0.18440213496405111 0 0.27358242217917089 -0.16757483900733791 0 0.27358242217917089 -0.16757483900733791 0 0.27993722958613282 -0.18597631058381051 0 0.28568025621957882 -0.17415071463183901 0 0.26358990165332191 -0.1912140992205397 0 0.26405025051440861 -0.18440213496405111 0 0.27993722958613282 -0.18597631058381051 0 0.26405025051440861 -0.18440213496405111 0 0.27358242217917089 -0.16757483900733791 0 0.26405025051440861 -0.18440213496405111 0 0.27358242217917089 -0.16757483900733791 0 0.27993722958613282 -0.18597631058381051 0 0.26243953645716123 -0.14037926809898371 0 0.23809333922174181 -0.13649171536932961 0 0.25813857930427109 -0.1193587499666816 0 0.26243953645716123 -0.14037926809898371 0 0.24413202316997359 -0.1244139955573418 0 0.26243953645716123 -0.14037926809898371 0 0.23809333922174181 -0.13649171536932961 0 0.24992023239541011 -0.15479510654896081 0 0.26243953645716123 -0.14037926809898371 0 0.26378010466650781 -0.15583490022107829 0 0.24992023239541011 -0.15479510654896081 0 0.27230190572440932 -0.16386687657252261 0 0.27360396305549961 -0.15379861508804801 0 0.28513729849221742 -0.14717683000152271 0 0.26243953645716123 -0.14037926809898371 0 0.28731075357725072 -0.14435065496774441 0 0.27230190572440932 -0.16386687657252261 0 0.28513729849221742 -0.14717683000152271 0 0.26243953645716123 -0.14037926809898371 0 0.27342553265280811 -0.14897893271620241 0 0.28731075357725072 -0.14435065496774441 0 0.26378010466650781 -0.15583490022107829 0 0.27342553265280811 -0.14897893271620241 0 0.27360396305549961 -0.15379861508804801 0 0.27342553265280811 -0.14897893271620241 0 0.27360396305549961 -0.15379861508804801 0 0.28513729849221742 -0.14717683000152271 0 0.26243953645716123 -0.14037926809898371 0 0.26378010466650781 -0.15583490022107829 0 0.27342553265280811 -0.14897893271620241 0 0.26243953645716123 -0.14037926809898371 0 0.27803205815049031 -0.12697055953932471 0 0.28731075357725072 -0.14435065496774441 0 0.25813857930427109 -0.1193587499666816 0 0.26243953645716123 -0.14037926809898371 0 0.27803205815049031 -0.12697055953932471 0 0.28731075357725072 -0.14435065496774441 0 0.30343236522757722 -0.13775465252651001 0 0.29964595862784837 -0.12831100970860659 0 0.29835822332844281 -0.1238377187407555 0 0.28731075357725072 -0.14435065496774441 0 0.29835822332844281 -0.1238377187407555 0 0.28843817928890958 -0.12981850425440991 0 0.28731075357725072 -0.14435065496774441 0 0.29835822332844281 -0.1238377187407555 0 0.28731075357725072 -0.14435065496774441 0 0.29964595862784837 -0.12831100970860659 0 0.28731075357725072 -0.14435065496774441 0 0.29964595862784837 -0.12831100970860659 0 0.27803205815049031 -0.12697055953932471 0 0.28843817928890958 -0.12981850425440991 0 0.28731075357725072 -0.14435065496774441 0 0.29835822332844281 -0.1238377187407555 0 0.28968744512707939 -0.12303436544819819 0 0.28843817928890958 -0.12981850425440991 0 0.28968744512707939 -0.12303436544819819 0 0.27803205815049031 -0.12697055953932471 0 0.28843817928890958 -0.12981850425440991 0 0.28731075357725072 -0.14435065496774441 0 0.2974239471173673 -0.14596550975480849 0 0.30343236522757722 -0.13775465252651001 0 0.28731075357725072 -0.14435065496774441 0 0.2974239471173673 -0.14596550975480849 0 0.28731075357725072 -0.14435065496774441 0 0.29205251549459121 -0.15077625479676671 0 0.2974239471173673 -0.14596550975480849 0 0.27342553265280811 -0.14897893271620241 0 0.28731075357725072 -0.14435065496774441 0 0.28513729849221742 -0.14717683000152271 0 0.28731075357725072 -0.14435065496774441 0 0.28513729849221742 -0.14717683000152271 0 0.29205251549459121 -0.15077625479676671 0 0.28731075357725072 -0.14435065496774441 0 0.28513729849221742 -0.14717683000152271 0 0.28513729849221742 -0.14717683000152271 0 0.29205251549459121 -0.15077625479676671 0 0.29150049403804268 -0.16243197621239211 0 0.29205251549459121 -0.15077625479676671 0 0.30038332281029079 -0.15454601639105189 0 0.2974239471173673 -0.14596550975480849 0 0.29205251549459121 -0.15077625479676671 0 0.30038332281029079 -0.15454601639105189 0 0.29150049403804268 -0.16243197621239211 0 0.30038332281029079 -0.15454601639105189 0 0.31190747579521411 -0.152089396545914 0 0.30732293396243082 -0.1437611023568407 0 0.31190747579521411 -0.152089396545914 0 0.30732293396243082 -0.1437611023568407 0 0.31715933267345092 -0.14377247112638089 0 0.30038332281029079 -0.15454601639105189 0 0.30732293396243082 -0.1437611023568407 0 0.2974239471173673 -0.14596550975480849 0 0.30732293396243082 -0.1437611023568407 0 0.2974239471173673 -0.14596550975480849 0 0.30343236522757722 -0.13775465252651001 0 0.30343236522757722 -0.13775465252651001 0 0.30544718717811242 -0.13146591749266301 0 0.31200170939662319 -0.132269617875477 0 0.30732293396243082 -0.1437611023568407 0 0.30343236522757722 -0.13775465252651001 0 0.31200170939662319 -0.132269617875477 0 0.30732293396243082 -0.1437611023568407 0 0.31200170939662319 -0.132269617875477 0 0.31715933267345092 -0.14377247112638089 0 0.30544718717811242 -0.13146591749266301 0 0.31200170939662319 -0.132269617875477 0 0.30734717349596691 -0.12557172557875149 0 0.29835822332844281 -0.1238377187407555 0 0.30734717349596691 -0.12557172557875149 0 0.29964595862784837 -0.12831100970860659 0 0.30544718717811242 -0.13146591749266301 0 0.30734717349596691 -0.12557172557875149 0 0.29964595862784837 -0.12831100970860659 0 0.30343236522757722 -0.13775465252651001 0 0.30544718717811242 -0.13146591749266301 0 0.29964595862784837 -0.12831100970860659 0 0.27993722958613282 -0.18597631058381051 0 0.28568025621957882 -0.17415071463183901 0 0.29722636868264379 -0.1804367596143385 0 0.27993722958613282 -0.18597631058381051 0 0.29722636868264379 -0.1804367596143385 0 0.28568025621957882 -0.17415071463183901 0 0.29150049403804268 -0.16243197621239211 0 0.29722636868264379 -0.1804367596143385 0 0.29551370956172218 -0.19192009953638201 0 0.27993722958613282 -0.18597631058381051 0 0.29722636868264379 -0.1804367596143385 0 0.27358242217917089 -0.16757483900733791 0 0.28568025621957882 -0.17415071463183901 0 0.29150049403804268 -0.16243197621239211 0 0.27358242217917089 -0.16757483900733791 0 0.28513729849221742 -0.14717683000152271 0 0.29150049403804268 -0.16243197621239211 0 0.29150049403804268 -0.16243197621239211 0 0.30692245448646283 -0.1634470802872876 0 0.29722636868264379 -0.1804367596143385 0 0.30038332281029079 -0.15454601639105189 0 0.29150049403804268 -0.16243197621239211 0 0.30692245448646283 -0.1634470802872876 0 0.30038332281029079 -0.15454601639105189 0 0.31190747579521411 -0.152089396545914 0 0.30692245448646283 -0.1634470802872876 0 0.29722636868264379 -0.1804367596143385 0 0.31451550777915432 -0.17489720864486491 0 0.30692245448646283 -0.1634470802872876 0 0.29722636868264379 -0.1804367596143385 0 0.31451550777915432 -0.17489720864486491 0 0.29722636868264379 -0.1804367596143385 0 0.3069801996736487 -0.18702620885324081 0 0.31451550777915432 -0.17489720864486491 0 0.29551370956172218 -0.19192009953638201 0 0.29722636868264379 -0.1804367596143385 0 0.3069801996736487 -0.18702620885324081 0 0.3069801996736487 -0.18702620885324081 0 0.31451550777915432 -0.17489720864486491 0 0.31868954032589281 -0.19058546842983731 0 0.32333172767691859 -0.16299660248056869 0 0.31868954032589281 -0.19058546842983731 0 0.31451550777915432 -0.17489720864486491 0 0.32333172767691859 -0.16299660248056869 0 0.31868954032589281 -0.19058546842983731 0 0.32333172767691859 -0.16299660248056869 0 0.33944101804073051 -0.18255619114583399 0 0.31868954032589281 -0.19058546842983731 0 0.31190747579521411 -0.152089396545914 0 0.30692245448646283 -0.1634470802872876 0 0.32333172767691859 -0.16299660248056869 0 0.30692245448646283 -0.1634470802872876 0 0.31451550777915432 -0.17489720864486491 0 0.32333172767691859 -0.16299660248056869 0 0.32333172767691859 -0.16299660248056869 0 0.33599166683585241 -0.15523623269435491 0 0.34852367167430492 -0.16362686139465529 0 0.32333172767691859 -0.16299660248056869 0 0.33944101804073051 -0.18255619114583399 0 0.34852367167430492 -0.16362686139465529 0 0.31938007015246522 -0.12143340795007659 0 0.31200170939662319 -0.132269617875477 0 0.3279739150279456 -0.1354077365313005 0 0.31200170939662319 -0.132269617875477 0 0.3279739150279456 -0.1354077365313005 0 0.31200170939662319 -0.132269617875477 0 0.3279739150279456 -0.1354077365313005 0 0.31715933267345092 -0.14377247112638089 0 0.31938007015246522 -0.12143340795007659 0 0.31200170939662319 -0.132269617875477 0 0.30734717349596691 -0.12557172557875149 0 0.32333172767691859 -0.16299660248056869 0 0.3279739150279456 -0.1354077365313005 0 0.31190747579521411 -0.152089396545914 0 0.32333172767691859 -0.16299660248056869 0 0.31715933267345092 -0.14377247112638089 0 0.32333172767691859 -0.16299660248056869 0 0.3279739150279456 -0.1354077365313005 0 0.31715933267345092 -0.14377247112638089 0 0.32333172767691859 -0.16299660248056869 0 0.3279739150279456 -0.1354077365313005 0 0.33599166683585241 -0.15523623269435491 0 0.3279739150279456 -0.1354077365313005 0 0.33599166683585241 -0.15523623269435491 0 0.33917654879405518 -0.1407326494943664 0 0.3426618110190236 -0.1493276365516461 0 0.33599166683585241 -0.15523623269435491 0 0.34852367167430492 -0.16362686139465529 0 0.3426618110190236 -0.1493276365516461 0 0.33599166683585241 -0.15523623269435491 0 0.33917654879405518 -0.1407326494943664 0 0.3426618110190236 -0.1493276365516461 0 0.33917654879405518 -0.1407326494943664 0 0.34153052175720561 -0.1380712534849825 0 0.34362977924900739 -0.11976526843013451 0 0.3279739150279456 -0.1354077365313005 0 0.34153052175720561 -0.1380712534849825 0 0.3279739150279456 -0.1354077365313005 0 0.34153052175720561 -0.1380712534849825 0 0.3279739150279456 -0.1354077365313005 0 0.33917654879405518 -0.1407326494943664 0 0.34153052175720561 -0.1380712534849825 0 0.33917654879405518 -0.1407326494943664 0 0.34153052175720561 -0.1380712534849825 0 0.36052476544365247 -0.11659640855696229 0 0.34153052175720561 -0.1380712534849825 0 0.36136199377756661 -0.14196761656445131 0 0.36052476544365247 -0.11659640855696229 0 0.34153052175720561 -0.1380712534849825 0 0.34153052175720561 -0.1380712534849825 0 0.36136199377756661 -0.14196761656445131 0 0.34153052175720561 -0.1380712534849825 0 0.35052419188587047 -0.14996279025394629 0 0.36136199377756661 -0.14196761656445131 0 0.3426618110190236 -0.1493276365516461 0 0.34153052175720561 -0.1380712534849825 0 0.35052419188587047 -0.14996279025394629 0 0.3426618110190236 -0.1493276365516461 0 0.35052419188587047 -0.14996279025394629 0 0.34852367167430492 -0.16362686139465529 0 0.35052419188587047 -0.14996279025394629 0 0.36114602363463011 -0.15525981942745859 0 0.36136199377756661 -0.14196761656445131 0 0.36114602363463011 -0.15525981942745859 0 0.37077138467248377 -0.16500633186316011 0 0.3811934657979279 -0.1458639796439182 0 0.36136199377756661 -0.14196761656445131 0 0.3811934657979279 -0.1458639796439182 0 0.36114602363463011 -0.15525981942745859 0 0.36136199377756661 -0.14196761656445131 0 0.3811934657979279 -0.1458639796439182 0 0.36136199377756661 -0.14196761656445131 0 0.37806658382386471 -0.12615445725430741 0 0.3811934657979279 -0.1458639796439182 0 0.36052476544365247 -0.11659640855696229 0 0.36136199377756661 -0.14196761656445131 0 0.37806658382386471 -0.12615445725430741 0 0.33944101804073051 -0.18255619114583399 0 0.34852367167430492 -0.16362686139465529 0 0.35943940859648471 -0.18521145510866319 0 0.35052419188587047 -0.14996279025394629 0 0.36114602363463011 -0.15525981942745859 0 0.34852367167430492 -0.16362686139465529 0 0.36114602363463011 -0.15525981942745859 0 0.34852367167430492 -0.16362686139465529 0 0.37077138467248377 -0.16500633186316011 0 0.34852367167430492 -0.16362686139465529 0 0.37077138467248377 -0.16500633186316011 0 0.35943940859648471 -0.18521145510866319 0 0.37077138467248377 -0.16500633186316011 0 0.35943940859648471 -0.18521145510866319 0 0.37754351866712149 -0.18841649854060979 0 0.35943940859648471 -0.18521145510866319 0 0.36610603834643141 -0.20746436304971469 0 0.37754351866712149 -0.18841649854060979 0 0.36610603834643141 -0.20746436304971469 0 0.34377595840573938 -0.20652586381628371 0 0.35637628243351671 -0.233445306818473 0 0.33944101804073051 -0.18255619114583399 0 0.35943940859648471 -0.18521145510866319 0 0.34377595840573938 -0.20652586381628371 0 0.35943940859648471 -0.18521145510866319 0 0.36610603834643141 -0.20746436304971469 0 0.34377595840573938 -0.20652586381628371 0 0.33944101804073051 -0.18255619114583399 0 0.34377595840573938 -0.20652586381628371 0 0.31868954032589281 -0.19058546842983731 0 0.31404735297486708 -0.2181743343791058 0 0.31868954032589281 -0.19058546842983731 0 0.34377595840573938 -0.20652586381628371 0 0.31404735297486708 -0.2181743343791058 0 0.31868954032589281 -0.19058546842983731 0 0.30940516562384129 -0.2457632003283742 0 0.3337389889365418 -0.23277858806111421 0 0.33429727022642308 -0.25249254103527918 0 0.30940516562384129 -0.2457632003283742 0 0.31404735297486708 -0.2181743343791058 0 0.3337389889365418 -0.23277858806111421 0 0.34377595840573938 -0.20652586381628371 0 0.31404735297486708 -0.2181743343791058 0 0.3337389889365418 -0.23277858806111421 0 0.3337389889365418 -0.23277858806111421 0 0.34562046004826852 -0.24418007910069611 0 0.33429727022642308 -0.25249254103527918 0 0.34562046004826852 -0.24418007910069611 0 0.35637628243351671 -0.233445306818473 0 0.36150854347069927 -0.2491192527932449 0 0.3337389889365418 -0.23277858806111421 0 0.34562046004826852 -0.24418007910069611 0 0.35637628243351671 -0.233445306818473 0 0.34562046004826852 -0.24418007910069611 0 0.36150854347069927 -0.2491192527932449 0 0.35043358926258411 -0.25434000808505441 0 0.34377595840573938 -0.20652586381628371 0 0.3337389889365418 -0.23277858806111421 0 0.35637628243351671 -0.233445306818473 0 0.35637628243351671 -0.233445306818473 0 0.3827992677728238 -0.24507343478588661 0 0.3771154620847319 -0.2241303051544857 0 0.36610603834643141 -0.20746436304971469 0 0.35637628243351671 -0.233445306818473 0 0.3771154620847319 -0.2241303051544857 0 0.35637628243351671 -0.233445306818473 0 0.3827992677728238 -0.24507343478588661 0 0.35637628243351671 -0.233445306818473 0 0.36150854347069927 -0.2491192527932449 0 0.3827992677728238 -0.24507343478588661 0 0.3827992677728238 -0.24507343478588661 0 0.39316885759843112 -0.2404159339538933 0 0.3771154620847319 -0.2241303051544857 0 0.39316885759843112 -0.2404159339538933 0 0.4078503242457438 -0.2371746847664197 0 0.40922225311213067 -0.25670156275330058 0 0.3827992677728238 -0.24507343478588661 0 0.39316885759843112 -0.2404159339538933 0 0.40922225311213067 -0.25670156275330058 0 0.39316885759843112 -0.2404159339538933 0 0.40922225311213067 -0.25670156275330058 0 0.39316885759843112 -0.2404159339538933 0 0.39739657118659322 -0.22972880059888609 0 0.4078503242457438 -0.2371746847664197 0 0.39739657118659322 -0.22972880059888609 0 0.39586657922118978 -0.2195578181655454 0 0.41001629722994792 -0.22400183165230769 0 0.39739657118659322 -0.22972880059888609 0 0.4078503242457438 -0.2371746847664197 0 0.41001629722994792 -0.22400183165230769 0 0.39739657118659322 -0.22972880059888609 0 0.39586657922118978 -0.2195578181655454 0 0.3771154620847319 -0.2241303051544857 0 0.39316885759843112 -0.2404159339538933 0 0.3771154620847319 -0.2241303051544857 0 0.39316885759843112 -0.2404159339538933 0 0.39739657118659322 -0.22972880059888609 0 0.3771154620847319 -0.2241303051544857 0 0.36610603834643141 -0.20746436304971469 0 0.3771154620847319 -0.2241303051544857 0 0.38579370629093679 -0.20678167342739501 0 0.39586657922118978 -0.2195578181655454 0 0.3771154620847319 -0.2241303051544857 0 0.38579370629093679 -0.20678167342739501 0 0.36610603834643141 -0.20746436304971469 0 0.38579370629093679 -0.20678167342739501 0 0.37754351866712149 -0.18841649854060979 0 0.38579370629093679 -0.20678167342739501 0 0.37754351866712149 -0.18841649854060979 0 0.39453283027577568 -0.19200446272896671 0 0.39453283027577568 -0.19200446272896671 0 0.40534087458846479 -0.2101149319920233 0 0.4083529851311648 -0.195954198815151 0 0.38579370629093679 -0.20678167342739501 0 0.39453283027577568 -0.19200446272896671 0 0.40534087458846479 -0.2101149319920233 0 0.39453283027577568 -0.19200446272896671 0 0.4083529851311648 -0.195954198815151 0 0.40635870062627438 -0.18072412713024491 0 0.39586657922118978 -0.2195578181655454 0 0.38579370629093679 -0.20678167342739501 0 0.40534087458846479 -0.2101149319920233 0 0.39586657922118978 -0.2195578181655454 0 0.40534087458846479 -0.2101149319920233 0 0.41001629722994792 -0.22400183165230769 0 0.40534087458846479 -0.2101149319920233 0 0.42462444730772092 -0.21581763956961161 0 0.41001629722994792 -0.22400183165230769 0 0.40534087458846479 -0.2101149319920233 0 0.42042730961757069 -0.20259144087311931 0 0.42462444730772092 -0.21581763956961161 0 0.4083529851311648 -0.195954198815151 0 0.42042730961757069 -0.20259144087311931 0 0.42683160664319592 -0.1857115506199504 0 0.40534087458846479 -0.2101149319920233 0 0.4083529851311648 -0.195954198815151 0 0.42042730961757069 -0.20259144087311931 0 0.42042730961757069 -0.20259144087311931 0 0.43422694036472542 -0.20212427616155551 0 0.42683160664319592 -0.1857115506199504 0 0.43422694036472542 -0.20212427616155551 0 0.42683160664319592 -0.1857115506199504 0 0.44424770993008911 -0.19399834301937641 0 0.42042730961757069 -0.20259144087311931 0 0.43422694036472542 -0.20212427616155551 0 0.42462444730772092 -0.21581763956961161 0 0.43422694036472542 -0.20212427616155551 0 0.42462444730772092 -0.21581763956961161 0 0.4392822494182721 -0.21309617001463799 0 0.42462444730772092 -0.21581763956961161 0 0.44007535661287422 -0.2261464278930346 0 0.4392822494182721 -0.21309617001463799 0 0.42462444730772092 -0.21581763956961161 0 0.42486295331777202 -0.23193014289523059 0 0.44007535661287422 -0.2261464278930346 0 0.42486295331777202 -0.23193014289523059 0 0.43621602452289859 -0.2366703215591941 0 0.44007535661287422 -0.2261464278930346 0 0.42486295331777202 -0.23193014289523059 0 0.43621602452289859 -0.2366703215591941 0 0.43205941709077972 -0.24863391980172039 0 0.42486295331777202 -0.23193014289523059 0 0.43205941709077972 -0.24863391980172039 0 0.4078503242457438 -0.2371746847664197 0 0.4078503242457438 -0.2371746847664197 0 0.40922225311213067 -0.25670156275330058 0 0.421193066834606 -0.25294072515218557 0 0.43205941709077972 -0.24863391980172039 0 0.4078503242457438 -0.2371746847664197 0 0.43205941709077972 -0.24863391980172039 0 0.4078503242457438 -0.2371746847664197 0 0.421193066834606 -0.25294072515218557 0 0.42462444730772092 -0.21581763956961161 0 0.42486295331777202 -0.23193014289523059 0 0.41001629722994792 -0.22400183165230769 0 0.42486295331777202 -0.23193014289523059 0 0.4078503242457438 -0.2371746847664197 0 0.41001629722994792 -0.22400183165230769 0 0.3967946209624808 -0.1187959324314076 0 0.39349881627366767 -0.13564964669343099 0 0.41408544184600699 -0.1353331903489923 0 0.39349881627366767 -0.13564964669343099 0 0.4010249378182893 -0.14976034272338509 0 0.41408544184600699 -0.1353331903489923 0 0.3967946209624808 -0.1187959324314076 0 0.39349881627366767 -0.13564964669343099 0 0.37806658382386471 -0.12615445725430741 0 0.39349881627366767 -0.13564964669343099 0 0.37806658382386471 -0.12615445725430741 0 0.3811934657979279 -0.1458639796439182 0 0.3811934657979279 -0.1458639796439182 0 0.4010249378182893 -0.14976034272338509 0 0.3880896794243589 -0.15988904341093441 0 0.39349881627366767 -0.13564964669343099 0 0.3811934657979279 -0.1458639796439182 0 0.4010249378182893 -0.14976034272338509 0 0.3811934657979279 -0.1458639796439182 0 0.4010249378182893 -0.14976034272338509 0 0.40330123926935518 -0.1653052812465042 0 0.3880896794243589 -0.15988904341093441 0 0.389628363036988 -0.17487006611562961 0 0.4010249378182893 -0.14976034272338509 0 0.40330123926935518 -0.1653052812465042 0 0.3880896794243589 -0.15988904341093441 0 0.37077138467248377 -0.16500633186316011 0 0.3811934657979279 -0.1458639796439182 0 0.3880896794243589 -0.15988904341093441 0 0.37077138467248377 -0.16500633186316011 0 0.3880896794243589 -0.15988904341093441 0 0.389628363036988 -0.17487006611562961 0 0.37754351866712149 -0.18841649854060979 0 0.39453283027577568 -0.19200446272896671 0 0.389628363036988 -0.17487006611562961 0 0.37077138467248377 -0.16500633186316011 0 0.37754351866712149 -0.18841649854060979 0 0.389628363036988 -0.17487006611562961 0 0.39453283027577568 -0.19200446272896671 0 0.389628363036988 -0.17487006611562961 0 0.40635870062627438 -0.18072412713024491 0 0.40330123926935518 -0.1653052812465042 0 0.389628363036988 -0.17487006611562961 0 0.40635870062627438 -0.18072412713024491 0 0.40635870062627438 -0.18072412713024491 0 0.42683160664319592 -0.1857115506199504 0 0.4172353467247879 -0.1709031552064455 0 0.4083529851311648 -0.195954198815151 0 0.40635870062627438 -0.18072412713024491 0 0.42683160664319592 -0.1857115506199504 0 0.40330123926935518 -0.1653052812465042 0 0.40635870062627438 -0.18072412713024491 0 0.4172353467247879 -0.1709031552064455 0 0.42683160664319592 -0.1857115506199504 0 0.43280975906096991 -0.1670378974244775 0 0.4172353467247879 -0.1709031552064455 0 0.42683160664319592 -0.1857115506199504 0 0.43280975906096991 -0.1670378974244775 0 0.44418226466107308 -0.1810183076498848 0 0.43280975906096991 -0.1670378974244775 0 0.41747040798543272 -0.15568495289238601 0 0.43566501795486628 -0.1482957243499603 0 0.43280975906096991 -0.1670378974244775 0 0.4172353467247879 -0.1709031552064455 0 0.41747040798543272 -0.15568495289238601 0 0.4010249378182893 -0.14976034272338509 0 0.40330123926935518 -0.1653052812465042 0 0.41747040798543272 -0.15568495289238601 0 0.40330123926935518 -0.1653052812465042 0 0.4172353467247879 -0.1709031552064455 0 0.41747040798543272 -0.15568495289238601 0 0.4010249378182893 -0.14976034272338509 0 0.41747040798543272 -0.15568495289238601 0 0.41408544184600699 -0.1353331903489923 0 0.41747040798543272 -0.15568495289238601 0 0.43566501795486628 -0.1482957243499603 0 0.41408544184600699 -0.1353331903489923 0 0.43566501795486628 -0.1482957243499603 0 0.43607126809156399 -0.12873712678322791 0 0.41408544184600699 -0.1353331903489923 0 0.41678016710629923 -0.1130675930679272 0 0.43607126809156399 -0.12873712678322791 0 0.41408544184600699 -0.1353331903489923 0 0.45940530112661893 -0.12573620486182779 0 0.45565705811696089 -0.14356869392046401 0 0.47970265056330957 -0.14309936691546299 0 0.43607126809156399 -0.12873712678322791 0 0.45940530112661893 -0.12573620486182779 0 0.45565705811696089 -0.14356869392046401 0 0.43566501795486628 -0.1482957243499603 0 0.43607126809156399 -0.12873712678322791 0 0.45565705811696089 -0.14356869392046401 0 0.43566501795486628 -0.1482957243499603 0 0.45565705811696089 -0.14356869392046401 0 0.45488213816914203 -0.1618475617632972 0 0.45565705811696089 -0.14356869392046401 0 0.46849729895551162 -0.1569820936907011 0 0.45488213816914203 -0.1618475617632972 0 0.45565705811696089 -0.14356869392046401 0 0.46849729895551162 -0.1569820936907011 0 0.47970265056330957 -0.14309936691546299 0 0.46849729895551162 -0.1569820936907011 0 0.45488213816914203 -0.1618475617632972 0 0.47001332336224871 -0.1735045286307873 0 0.45488213816914203 -0.1618475617632972 0 0.45773286107449263 -0.17711951638498211 0 0.47001332336224871 -0.1735045286307873 0 0.43280975906096991 -0.1670378974244775 0 0.43566501795486628 -0.1482957243499603 0 0.45488213816914203 -0.1618475617632972 0 0.43280975906096991 -0.1670378974244775 0 0.45488213816914203 -0.1618475617632972 0 0.44418226466107308 -0.1810183076498848 0 0.45488213816914203 -0.1618475617632972 0 0.44418226466107308 -0.1810183076498848 0 0.45773286107449263 -0.17711951638498211 0 0.42683160664319592 -0.1857115506199504 0 0.44418226466107308 -0.1810183076498848 0 0.44424770993008911 -0.19399834301937641 0 0.44418226466107308 -0.1810183076498848 0 0.45773286107449263 -0.17711951638498211 0 0.45693860632676081 -0.18889246484965561 0 0.45773286107449263 -0.17711951638498211 0 0.46885832800397931 -0.18626424723257201 0 0.47001332336224871 -0.1735045286307873 0 0.45773286107449263 -0.17711951638498211 0 0.46885832800397931 -0.18626424723257201 0 0.45693860632676081 -0.18889246484965561 0 0.46885832800397931 -0.18626424723257201 0 0.47001332336224871 -0.1735045286307873 0 0.47820766746091858 -0.18426774941410129 0 0.47001332336224871 -0.1735045286307873 0 0.47820766746091858 -0.18426774941410129 0 0.484491926070026 -0.17539233224686071 0 0.47820766746091858 -0.18426774941410129 0 0.48743383374465221 -0.18560685201945051 0 0.4831829631855053 -0.19247877951738129 0 0.47820766746091858 -0.18426774941410129 0 0.48743383374465221 -0.18560685201945051 0 0.484491926070026 -0.17539233224686071 0 0.5 -0.18593970059665679 0 0.49609812584099899 -0.17935907070092211 0 0.50000000000000033 -0.16046252896909841 0 0.48743383374465221 -0.18560685201945051 0 0.49609812584099899 -0.17935907070092211 0 0.484491926070026 -0.17539233224686071 0 0.49609812584099899 -0.17935907070092211 0 0.484491926070026 -0.17539233224686071 0 0.49070534411923072 -0.16952606228509379 0 0.49070534411923072 -0.16952606228509379 0 0.50000000000000033 -0.16046252896909841 0 0.48223132456589729 -0.1628903172234942 0 0.49609812584099899 -0.17935907070092211 0 0.49070534411923072 -0.16952606228509379 0 0.50000000000000033 -0.16046252896909841 0 0.484491926070026 -0.17539233224686071 0 0.49070534411923072 -0.16952606228509379 0 0.48223132456589729 -0.1628903172234942 0 0.46849729895551162 -0.1569820936907011 0 0.47001332336224871 -0.1735045286307873 0 0.48223132456589729 -0.1628903172234942 0 0.47001332336224871 -0.1735045286307873 0 0.484491926070026 -0.17539233224686071 0 0.48223132456589729 -0.1628903172234942 0 0.46849729895551162 -0.1569820936907011 0 0.48223132456589729 -0.1628903172234942 0 0.47970265056330957 -0.14309936691546299 0 0.50000000000000033 -0.16046252896909841 0 0.48223132456589729 -0.1628903172234942 0 0.47970265056330957 -0.14309936691546299 0 0.50000000000000033 -0.16046252896909841 0 0.47970265056330957 -0.14309936691546299 0 0.5 -0.13294873935829021 0 0.50000000000000033 -0.16046252896909841 0 0.47970265056330957 -0.14309936691546299 0 0.48153985426825963 -0.12095519600358649 0 0.47970265056330957 -0.14309936691546299 0 0.5 -0.13294873935829021 0 0.45940530112661893 -0.12573620486182779 0 0.47970265056330957 -0.14309936691546299 0 0.48153985426825963 -0.12095519600358649 0 0.45940530112661893 -0.12573620486182779 0 0.47970265056330957 -0.14309936691546299 0 0.45554408514764799 -0.2291304505356129 0 0.46417708282889653 -0.2191001502649198 0 0.45072635164810948 -0.21698273959607289 0 0.45554408514764799 -0.2291304505356129 0 0.46417708282889653 -0.2191001502649198 0 0.4674586835723698 -0.22974028876861341 0 0.45554408514764799 -0.2291304505356129 0 0.4674586835723698 -0.22974028876861341 0 0.46296066515346929 -0.24284230104424609 0 0.46296066515346929 -0.24284230104424609 0 0.44786637107016869 -0.23997079564679091 0 0.45626850993581558 -0.26009315483702111 0 0.4674586835723698 -0.22974028876861341 0 0.46296066515346929 -0.24284230104424609 0 0.4751690545688001 -0.23767151533955419 0 0.45554408514764799 -0.2291304505356129 0 0.46296066515346929 -0.24284230104424609 0 0.44786637107016869 -0.23997079564679091 0 0.43621602452289859 -0.2366703215591941 0 0.43205941709077972 -0.24863391980172039 0 0.44786637107016869 -0.23997079564679091 0 0.43205941709077972 -0.24863391980172039 0 0.44786637107016869 -0.23997079564679091 0 0.45626850993581558 -0.26009315483702111 0 0.43621602452289859 -0.2366703215591941 0 0.44786637107016869 -0.23997079564679091 0 0.44007535661287422 -0.2261464278930346 0 0.45554408514764799 -0.2291304505356129 0 0.44786637107016869 -0.23997079564679091 0 0.44007535661287422 -0.2261464278930346 0 0.45554408514764799 -0.2291304505356129 0 0.44007535661287422 -0.2261464278930346 0 0.45072635164810948 -0.21698273959607289 0 0.44007535661287422 -0.2261464278930346 0 0.4392822494182721 -0.21309617001463799 0 0.45072635164810948 -0.21698273959607289 0 0.43422694036472542 -0.20212427616155551 0 0.4392822494182721 -0.21309617001463799 0 0.447140477820405 -0.20571456135277469 0 0.447140477820405 -0.20571456135277469 0 0.45072635164810948 -0.21698273959607289 0 0.45933599792547031 -0.2091042088824531 0 0.4392822494182721 -0.21309617001463799 0 0.447140477820405 -0.20571456135277469 0 0.45072635164810948 -0.21698273959607289 0 0.43422694036472542 -0.20212427616155551 0 0.447140477820405 -0.20571456135277469 0 0.44424770993008911 -0.19399834301937641 0 0.447140477820405 -0.20571456135277469 0 0.44424770993008911 -0.19399834301937641 0 0.45502361763576399 -0.19898163044255221 0 0.44418226466107308 -0.1810183076498848 0 0.44424770993008911 -0.19399834301937641 0 0.45693860632676081 -0.18889246484965561 0 0.44424770993008911 -0.19399834301937641 0 0.45693860632676081 -0.18889246484965561 0 0.45502361763576399 -0.19898163044255221 0 0.45693860632676081 -0.18889246484965561 0 0.45502361763576399 -0.19898163044255221 0 0.46699448578495389 -0.19789898065691849 0 0.45502361763576399 -0.19898163044255221 0 0.46699448578495389 -0.19789898065691849 0 0.45933599792547031 -0.2091042088824531 0 0.46885832800397931 -0.18626424723257201 0 0.45693860632676081 -0.18889246484965561 0 0.46699448578495389 -0.19789898065691849 0 0.46417708282889653 -0.2191001502649198 0 0.45072635164810948 -0.21698273959607289 0 0.45933599792547031 -0.2091042088824531 0 0.447140477820405 -0.20571456135277469 0 0.45502361763576399 -0.19898163044255221 0 0.45933599792547031 -0.2091042088824531 0 0.46699448578495389 -0.19789898065691849 0 0.45933599792547031 -0.2091042088824531 0 0.47108161898413392 -0.20880322293236631 0 0.46417708282889653 -0.2191001502649198 0 0.45933599792547031 -0.2091042088824531 0 0.47108161898413392 -0.20880322293236631 0 0.47108161898413392 -0.20880322293236631 0 0.48116625523201711 -0.21150689744317039 0 0.47497046708279111 -0.21984635842117251 0 0.46417708282889653 -0.2191001502649198 0 0.47108161898413392 -0.20880322293236631 0 0.47497046708279111 -0.21984635842117251 0 0.47108161898413392 -0.20880322293236631 0 0.48116625523201711 -0.21150689744317039 0 0.47929833070627481 -0.20102177508191679 0 0.48116625523201711 -0.21150689744317039 0 0.47929833070627481 -0.20102177508191679 0 0.49219299507596143 -0.20240740049377279 0 0.46885832800397931 -0.18626424723257201 0 0.46699448578495389 -0.19789898065691849 0 0.47526563039910069 -0.19235975683755641 0 0.46885832800397931 -0.18626424723257201 0 0.47820766746091858 -0.18426774941410129 0 0.47526563039910069 -0.19235975683755641 0 0.46699448578495389 -0.19789898065691849 0 0.47526563039910069 -0.19235975683755641 0 0.47929833070627481 -0.20102177508191679 0 0.46699448578495389 -0.19789898065691849 0 0.47108161898413392 -0.20880322293236631 0 0.47929833070627481 -0.20102177508191679 0 0.47820766746091858 -0.18426774941410129 0 0.47526563039910069 -0.19235975683755641 0 0.4831829631855053 -0.19247877951738129 0 0.47526563039910069 -0.19235975683755641 0 0.47929833070627481 -0.20102177508191679 0 0.4831829631855053 -0.19247877951738129 0 0.5 -0.18593970059665679 0 0.49219299507596143 -0.20240740049377279 0 0.5 -0.2114168722242151 0 0.48743383374465221 -0.18560685201945051 0 0.4831829631855053 -0.19247877951738129 0 0.49219299507596143 -0.20240740049377279 0 0.5 -0.18593970059665679 0 0.49609812584099899 -0.17935907070092211 0 0.49219299507596143 -0.20240740049377279 0 0.48743383374465221 -0.18560685201945051 0 0.49609812584099899 -0.17935907070092211 0 0.49219299507596143 -0.20240740049377279 0 0.49609812584099899 -0.17935907070092211 0 0.49219299507596143 -0.20240740049377279 0 0.47929833070627481 -0.20102177508191679 0 0.4831829631855053 -0.19247877951738129 0 0.49219299507596143 -0.20240740049377279 0 0.49219299507596143 -0.20240740049377279 0 0.48828786431092369 -0.22545573028662361 0 0.49219299507596143 -0.20240740049377279 0 0.5 -0.2114168722242151 0 0.48828786431092369 -0.22545573028662361 0 0.48116625523201711 -0.21150689744317039 0 0.49219299507596143 -0.20240740049377279 0 0.48828786431092369 -0.22545573028662361 0 0.5 -0.2114168722242151 0 0.48828786431092369 -0.22545573028662361 0 0.5 -0.23689404385177359 0 0.48116625523201711 -0.21150689744317039 0 0.48828786431092369 -0.22545573028662361 0 0.47497046708279111 -0.21984635842117251 0 0.4674586835723698 -0.22974028876861341 0 0.47497046708279111 -0.21984635842117251 0 0.4751690545688001 -0.23767151533955419 0 0.48828786431092369 -0.22545573028662361 0 0.47497046708279111 -0.21984635842117251 0 0.4751690545688001 -0.23767151533955419 0 0.46417708282889653 -0.2191001502649198 0 0.4674586835723698 -0.22974028876861341 0 0.47497046708279111 -0.21984635842117251 0 0.48828786431092369 -0.22545573028662361 0 0.4751690545688001 -0.23767151533955419 0 0.48438273354588618 -0.24850406007947451 0 0.4751690545688001 -0.23767151533955419 0 0.48438273354588618 -0.24850406007947451 0 0.4720437622771444 -0.25548334582618498 0 0.46296066515346929 -0.24284230104424609 0 0.4751690545688001 -0.23767151533955419 0 0.4720437622771444 -0.25548334582618498 0 0.48828786431092369 -0.22545573028662361 0 0.48438273354588618 -0.24850406007947451 0 0.48828786431092369 -0.22545573028662361 0 0.5 -0.23689404385177359 0 0.48438273354588618 -0.24850406007947451 0 0.5 -0.23689404385177359 0 0.48438273354588618 -0.24850406007947451 0 0.49999999999999989 -0.26237121547933212 0 0.48438273354588618 -0.24850406007947451 0 0.49999999999999989 -0.26237121547933212 0 0.4818932660018177 -0.27222248592605292 0 0.49999999999999989 -0.26237121547933212 0 0.4818932660018177 -0.27222248592605292 0 0.49999999999999989 -0.26237121547933212 0 0.50000000000000189 -0.28079320445462608 0 0.4818932660018177 -0.27222248592605292 0 0.50000000000000189 -0.28079320445462608 0 0.4818932660018177 -0.27222248592605292 0 0.48731149836772908 -0.28418752987852153 0 0.50000000000000189 -0.28079320445462608 0 0.4818932660018177 -0.27222248592605292 0 0.48020878753724461 -0.27313895451270742 0 0.48047760278084972 -0.27155238987232572 0 0.45626850993581558 -0.26009315483702111 0 0.48020878753724461 -0.27313895451270742 0 0.46059850199450009 -0.28380825723943309 0 0.48020878753724461 -0.27313895451270742 0 0.4818932660018177 -0.27222248592605292 0 0.48731149836772908 -0.28418752987852153 0 0.48020878753724461 -0.27313895451270742 0 0.48047760278084972 -0.27155238987232572 0 0.48020878753724461 -0.27313895451270742 0 0.4818932660018177 -0.27222248592605292 0 0.48047760278084972 -0.27155238987232572 0 0.4818932660018177 -0.27222248592605292 0 0.48020878753724461 -0.27313895451270742 0 0.48047760278084972 -0.27155238987232572 0 0.4818932660018177 -0.27222248592605292 0 0.48438273354588618 -0.24850406007947451 0 0.48047760278084972 -0.27155238987232572 0 0.4818932660018177 -0.27222248592605292 0 0.48438273354588618 -0.24850406007947451 0 0.48047760278084972 -0.27155238987232572 0 0.48047760278084972 -0.27155238987232572 0 0.4720437622771444 -0.25548334582618498 0 0.45626850993581558 -0.26009315483702111 0 0.48438273354588618 -0.24850406007947451 0 0.48047760278084972 -0.27155238987232572 0 0.4720437622771444 -0.25548334582618498 0 0.46296066515346929 -0.24284230104424609 0 0.4720437622771444 -0.25548334582618498 0 0.45626850993581558 -0.26009315483702111 0 0.48047760278084972 -0.27155238987232572 0 0.45626850993581558 -0.26009315483702111 0 0.45626850993581558 -0.26009315483702111 0 0.44712927760168408 -0.27830639326023648 0 0.46059850199450009 -0.28380825723943309 0 0.48020878753724461 -0.27313895451270742 0 0.45626850993581558 -0.26009315483702111 0 0.46059850199450009 -0.28380825723943309 0 0.45626850993581558 -0.26009315483702111 0 0.44712927760168408 -0.27830639326023648 0 0.437543214848163 -0.26916494503194482 0 0.44712927760168408 -0.27830639326023648 0 0.437543214848163 -0.26916494503194482 0 0.43446332415048849 -0.28230777877653351 0 0.43205941709077972 -0.24863391980172039 0 0.45626850993581558 -0.26009315483702111 0 0.43345060574422928 -0.25926020454686488 0 0.45626850993581558 -0.26009315483702111 0 0.437543214848163 -0.26916494503194482 0 0.43345060574422928 -0.25926020454686488 0 0.43205941709077972 -0.24863391980172039 0 0.45626850993581558 -0.26009315483702111 0 0.43751025346246009 -0.3094983205094437 0 0.4409882164517574 -0.29447755996616198 0 0.45542881082983172 -0.30778286695095691 0 0.4409882164517574 -0.29447755996616198 0 0.46059850199450009 -0.28380825723943309 0 0.45542881082983172 -0.30778286695095691 0 0.4409882164517574 -0.29447755996616198 0 0.46059850199450009 -0.28380825723943309 0 0.44712927760168408 -0.27830639326023648 0 0.4409882164517574 -0.29447755996616198 0 0.46059850199450009 -0.28380825723943309 0 0.44712927760168408 -0.27830639326023648 0 0.4409882164517574 -0.29447755996616198 0 0.43446332415048849 -0.28230777877653351 0 0.46059850199450009 -0.28380825723943309 0 0.45542881082983172 -0.30778286695095691 0 0.4752090794191785 -0.30264754936052218 0 0.48020878753724461 -0.27313895451270742 0 0.4752090794191785 -0.30264754936052218 0 0.48731149836772908 -0.28418752987852153 0 0.48020878753724461 -0.27313895451270742 0 0.46059850199450009 -0.28380825723943309 0 0.4752090794191785 -0.30264754936052218 0 0.48020878753724461 -0.27313895451270742 0 0.4752090794191785 -0.30264754936052218 0 0.50000000000000189 -0.28079320445462608 0 0.48731149836772908 -0.28418752987852153 0 0.5 -0.30501561975606339 0 0.4752090794191785 -0.30264754936052218 0 0.48731149836772908 -0.28418752987852153 0 0.5 -0.30501561975606339 0 0.4752090794191785 -0.30264754936052218 0 0.5 -0.30501561975606339 0 0.48572822675452509 -0.32118812567355631 0 0.5 -0.30501561975606339 0 0.48572822675452509 -0.32118812567355631 0 0.5 -0.32923803505750071 0 0.48572822675452509 -0.32118812567355631 0 0.5 -0.32923803505750071 0 0.48322268305233679 -0.33688327998535811 0 0.5 -0.32923803505750071 0 0.48322268305233679 -0.33688327998535811 0 0.50000000000000089 -0.35346045035893808 0 0.48572822675452509 -0.32118812567355631 0 0.48322268305233679 -0.33688327998535811 0 0.47020937130111179 -0.332156144208337 0 0.48322268305233679 -0.33688327998535811 0 0.47020937130111179 -0.332156144208337 0 0.48202795267076648 -0.35487096029130288 0 0.48322268305233679 -0.33688327998535811 0 0.47020937130111179 -0.332156144208337 0 0.4752090794191785 -0.30264754936052218 0 0.48572822675452509 -0.32118812567355631 0 0.47020937130111179 -0.332156144208337 0 0.4752090794191785 -0.30264754936052218 0 0.47020937130111179 -0.332156144208337 0 0.492059386441835 -0.37481820627390949 0 0.50000000000000089 -0.35346045035893808 0 0.5 -0.38745242098024663 0 0.492059386441835 -0.37481820627390949 0 0.50000000000000089 -0.35346045035893808 0 0.492059386441835 -0.37481820627390949 0 0.50000000000000089 -0.35346045035893808 0 0.48202795267076648 -0.35487096029130288 0 0.48322268305233679 -0.33688327998535811 0 0.50000000000000089 -0.35346045035893808 0 0.48202795267076648 -0.35487096029130288 0 0.47020937130111179 -0.332156144208337 0 0.48202795267076648 -0.35487096029130288 0 0.46524543655573192 -0.36145360233854351 0 0.48202795267076648 -0.35487096029130288 0 0.46524543655573192 -0.36145360233854351 0 0.47562389850291531 -0.38019256194084933 0 0.492059386441835 -0.37481820627390949 0 0.48202795267076648 -0.35487096029130288 0 0.47562389850291531 -0.38019256194084933 0 0.47020937130111179 -0.332156144208337 0 0.46524543655573192 -0.36145360233854351 0 0.47020937130111179 -0.332156144208337 0 0.46524543655573192 -0.36145360233854351 0 0.44521055538520582 -0.346094368040536 0 0.46524543655573192 -0.36145360233854351 0 0.44521055538520582 -0.346094368040536 0 0.4355763579862707 -0.37439105247682569 0 0.45542881082983172 -0.30778286695095691 0 0.4752090794191785 -0.30264754936052218 0 0.47020937130111179 -0.332156144208337 0 0.45542881082983172 -0.30778286695095691 0 0.47020937130111179 -0.332156144208337 0 0.44805744234998379 -0.32410937042184362 0 0.47020937130111179 -0.332156144208337 0 0.44521055538520582 -0.346094368040536 0 0.44805744234998379 -0.32410937042184362 0 0.47020937130111179 -0.332156144208337 0 0.44805744234998379 -0.32410937042184362 0 0.44521055538520582 -0.346094368040536 0 0.44805744234998379 -0.32410937042184362 0 0.429333603699323 -0.33339248602114951 0 0.43751025346246009 -0.3094983205094437 0 0.45542881082983172 -0.30778286695095691 0 0.44805744234998379 -0.32410937042184362 0 0.44805744234998379 -0.32410937042184362 0 0.42590551339885302 -0.31606259663535829 0 0.42590551339885302 -0.31606259663535829 0 0.429333603699323 -0.33339248602114951 0 0.41623072542569162 -0.32639743953179601 0 0.44805744234998379 -0.32410937042184362 0 0.42590551339885302 -0.31606259663535829 0 0.429333603699323 -0.33339248602114951 0 0.43751025346246009 -0.3094983205094437 0 0.44805744234998379 -0.32410937042184362 0 0.42590551339885302 -0.31606259663535829 0 0.429333603699323 -0.33339248602114951 0 0.41412547478066269 -0.33676017462389851 0 0.42284112041881511 -0.35106355277651691 0 0.44521055538520582 -0.346094368040536 0 0.429333603699323 -0.33339248602114951 0 0.42284112041881511 -0.35106355277651691 0 0.429333603699323 -0.33339248602114951 0 0.41412547478066269 -0.33676017462389851 0 0.41623072542569162 -0.32639743953179601 0 0.41412547478066269 -0.33676017462389851 0 0.40481658955785338 -0.348533910842038 0 0.40149207959402178 -0.33497231163460839 0 0.41412547478066269 -0.33676017462389851 0 0.4065457078192391 -0.32768749146651621 0 0.40149207959402178 -0.33497231163460839 0 0.41412547478066269 -0.33676017462389851 0 0.4065457078192391 -0.32768749146651621 0 0.41623072542569162 -0.32639743953179601 0 0.42590551339885302 -0.31606259663535829 0 0.40954899886351842 -0.31951762844878778 0 0.41623072542569162 -0.32639743953179601 0 0.4065457078192391 -0.32768749146651621 0 0.40954899886351842 -0.31951762844878778 0 0.41623072542569162 -0.32639743953179601 0 0.42590551339885302 -0.31606259663535829 0 0.40954899886351842 -0.31951762844878778 0 0.40375358444772219 -0.30801582284887291 0 0.4355763579862707 -0.37439105247682569 0 0.42284112041881511 -0.35106355277651691 0 0.41401646051385849 -0.36744549853367431 0 0.44521055538520582 -0.346094368040536 0 0.4355763579862707 -0.37439105247682569 0 0.42284112041881511 -0.35106355277651691 0 0.42284112041881511 -0.35106355277651691 0 0.41401646051385849 -0.36744549853367431 0 0.40481658955785338 -0.348533910842038 0 0.41412547478066269 -0.33676017462389851 0 0.42284112041881511 -0.35106355277651691 0 0.40481658955785338 -0.348533910842038 0 0.41401646051385849 -0.36744549853367431 0 0.39547167416199641 -0.36079884785279481 0 0.40556020116901881 -0.3823685108281365 0 0.39547167416199641 -0.36079884785279481 0 0.40556020116901881 -0.3823685108281365 0 0.38674895788149122 -0.37518564800640719 0 0.41401646051385849 -0.36744549853367431 0 0.39547167416199641 -0.36079884785279481 0 0.40481658955785338 -0.348533910842038 0 0.39547167416199641 -0.36079884785279481 0 0.40481658955785338 -0.348533910842038 0 0.39107534132565969 -0.35042797878688509 0 0.39107534132565969 -0.35042797878688509 0 0.39540928273300019 -0.34224291883589242 0 0.38821306732698629 -0.34307334039468068 0 0.40481658955785338 -0.348533910842038 0 0.39107534132565969 -0.35042797878688509 0 0.39540928273300019 -0.34224291883589242 0 0.39107534132565969 -0.35042797878688509 0 0.38000534908917538 -0.34954272566633282 0 0.38821306732698629 -0.34307334039468068 0 0.38000534908917538 -0.34954272566633282 0 0.38285026578436993 -0.36068490890052618 0 0.37005530814299631 -0.36417038326061879 0 0.39107534132565969 -0.35042797878688509 0 0.38000534908917538 -0.34954272566633282 0 0.38285026578436993 -0.36068490890052618 0 0.39547167416199641 -0.36079884785279481 0 0.39107534132565969 -0.35042797878688509 0 0.38285026578436993 -0.36068490890052618 0 0.38285026578436993 -0.36068490890052618 0 0.38674895788149122 -0.37518564800640719 0 0.37005530814299631 -0.36417038326061879 0 0.38674895788149122 -0.37518564800640719 0 0.37285212179166238 -0.38443779113720328 0 0.37005530814299631 -0.36417038326061879 0 0.39547167416199641 -0.36079884785279481 0 0.38285026578436993 -0.36068490890052618 0 0.38674895788149122 -0.37518564800640719 0 0.39530946322608601 -0.31942479176139538 0 0.3958477860622856 -0.32910115924248562 0 0.38527348385296362 -0.32603128264845083 0 0.40954899886351842 -0.31951762844878778 0 0.39530946322608601 -0.31942479176139538 0 0.40375358444772219 -0.30801582284887291 0 0.4065457078192391 -0.32768749146651621 0 0.39530946322608601 -0.31942479176139538 0 0.3958477860622856 -0.32910115924248562 0 0.4065457078192391 -0.32768749146651621 0 0.40954899886351842 -0.31951762844878778 0 0.39530946322608601 -0.31942479176139538 0 0.4065457078192391 -0.32768749146651621 0 0.40149207959402178 -0.33497231163460839 0 0.3958477860622856 -0.32910115924248562 0 0.40481658955785338 -0.348533910842038 0 0.40149207959402178 -0.33497231163460839 0 0.39540928273300019 -0.34224291883589242 0 0.40149207959402178 -0.33497231163460839 0 0.39540928273300019 -0.34224291883589242 0 0.39071010796473382 -0.33548493141189351 0 0.39540928273300019 -0.34224291883589242 0 0.39071010796473382 -0.33548493141189351 0 0.38821306732698629 -0.34307334039468068 0 0.40149207959402178 -0.33497231163460839 0 0.3958477860622856 -0.32910115924248562 0 0.39071010796473382 -0.33548493141189351 0 0.3958477860622856 -0.32910115924248562 0 0.39071010796473382 -0.33548493141189351 0 0.38527348385296362 -0.32603128264845083 0 0.38000534908917538 -0.34954272566633282 0 0.38386525552236261 -0.33766814727239958 0 0.36725849449433062 -0.34390297538403419 0 0.39071010796473382 -0.33548493141189351 0 0.38386525552236261 -0.33766814727239958 0 0.36526389829067368 -0.32944892163331402 0 0.39071010796473382 -0.33548493141189351 0 0.36526389829067368 -0.32944892163331402 0 0.39071010796473382 -0.33548493141189351 0 0.38527348385296362 -0.32603128264845083 0 0.36526389829067368 -0.32944892163331402 0 0.38386525552236261 -0.33766814727239958 0 0.36725849449433062 -0.34390297538403419 0 0.38000534908917538 -0.34954272566633282 0 0.38821306732698629 -0.34307334039468068 0 0.38386525552236261 -0.33766814727239958 0 0.39071010796473382 -0.33548493141189351 0 0.38821306732698629 -0.34307334039468068 0 0.38386525552236261 -0.33766814727239958 0 0.39530946322608601 -0.31942479176139538 0 0.37925531208470792 -0.31629973684117291 0 0.3881083916756165 -0.30474558438506238 0 0.38527348385296362 -0.32603128264845083 0 0.37925531208470792 -0.31629973684117291 0 0.36526389829067368 -0.32944892163331402 0 0.39530946322608601 -0.31942479176139538 0 0.38527348385296362 -0.32603128264845083 0 0.37925531208470792 -0.31629973684117291 0 0.37925531208470792 -0.31629973684117291 0 0.3881083916756165 -0.30474558438506238 0 0.37403881535058092 -0.30330990646884931 0 0.3881083916756165 -0.30474558438506238 0 0.37978459749747312 -0.29082563024965441 0 0.37403881535058092 -0.30330990646884931 0 0.3881083916756165 -0.30474558438506238 0 0.40375358444772219 -0.30801582284887291 0 0.39837954008361592 -0.29482535112995839 0 0.39530946322608601 -0.31942479176139538 0 0.3881083916756165 -0.30474558438506238 0 0.40375358444772219 -0.30801582284887291 0 0.40375358444772219 -0.30801582284887291 0 0.39837954008361592 -0.29482535112995839 0 0.41349675425914639 -0.2945098990673532 0 0.39837954008361592 -0.29482535112995839 0 0.39522647135626549 -0.28181410112624522 0 0.37978459749747312 -0.29082563024965441 0 0.39837954008361592 -0.29482535112995839 0 0.39522647135626549 -0.28181410112624522 0 0.40890484488504197 -0.28470758056745937 0 0.39522647135626549 -0.28181410112624522 0 0.37978459749747312 -0.29082563024965441 0 0.38333257379477231 -0.27722245181403221 0 0.3881083916756165 -0.30474558438506238 0 0.39837954008361592 -0.29482535112995839 0 0.37978459749747312 -0.29082563024965441 0 0.37978459749747312 -0.29082563024965441 0 0.38333257379477231 -0.27722245181403221 0 0.37418848355958279 -0.28113924716966288 0 0.37501411086202002 -0.27336796588619222 0 0.38333257379477231 -0.27722245181403221 0 0.37418848355958279 -0.28113924716966288 0 0.38159489376660388 -0.26654245110905678 0 0.37501411086202002 -0.27336796588619222 0 0.3694598570921252 -0.26633523500162948 0 0.38159489376660388 -0.26654245110905678 0 0.37501411086202002 -0.27336796588619222 0 0.38333257379477231 -0.27722245181403221 0 0.38159489376660388 -0.26654245110905678 0 0.38333257379477231 -0.27722245181403221 0 0.39418688572668881 -0.26964531534338149 0 0.3827992677728238 -0.24507343478588661 0 0.38206399925681728 -0.25663707192740459 0 0.3728020691175547 -0.25670668018174297 0 0.38159489376660388 -0.26654245110905678 0 0.38206399925681728 -0.25663707192740459 0 0.3728020691175547 -0.25670668018174297 0 0.38159489376660388 -0.26654245110905678 0 0.39105976637028689 -0.25822572163293211 0 0.39418688572668881 -0.26964531534338149 0 0.38159489376660388 -0.26654245110905678 0 0.38206399925681728 -0.25663707192740459 0 0.39105976637028689 -0.25822572163293211 0 0.3827992677728238 -0.24507343478588661 0 0.38206399925681728 -0.25663707192740459 0 0.39105976637028689 -0.25822572163293211 0 0.3827992677728238 -0.24507343478588661 0 0.39105976637028689 -0.25822572163293211 0 0.40922225311213067 -0.25670156275330058 0 0.3827992677728238 -0.24507343478588661 0 0.40922225311213067 -0.25670156275330058 0 0.39105976637028689 -0.25822572163293211 0 0.39418688572668881 -0.26964531534338149 0 0.40922225311213067 -0.25670156275330058 0 0.39522647135626549 -0.28181410112624522 0 0.38333257379477231 -0.27722245181403221 0 0.39418688572668881 -0.26964531534338149 0 0.39418688572668881 -0.26964531534338149 0 0.40655700460212829 -0.27195064204598263 0 0.40922225311213067 -0.25670156275330058 0 0.39522647135626549 -0.28181410112624522 0 0.40655700460212829 -0.27195064204598263 0 0.40890484488504197 -0.28470758056745937 0 0.39522647135626549 -0.28181410112624522 0 0.39418688572668881 -0.26964531534338149 0 0.40655700460212829 -0.27195064204598263 0 0.40655700460212829 -0.27195064204598263 0 0.41469982449585602 -0.27715814146275708 0 0.40890484488504197 -0.28470758056745937 0 0.40655700460212829 -0.27195064204598263 0 0.42184278863130942 -0.26950467076491719 0 0.40922225311213067 -0.25670156275330058 0 0.40655700460212829 -0.27195064204598263 0 0.42184278863130942 -0.26950467076491719 0 0.41469982449585602 -0.27715814146275708 0 0.42184278863130942 -0.26950467076491719 0 0.41469982449585602 -0.27715814146275708 0 0.42149465986494422 -0.2824696724726693 0 0.42184278863130942 -0.26950467076491719 0 0.40922225311213067 -0.25670156275330058 0 0.42184278863130942 -0.26950467076491719 0 0.40922225311213067 -0.25670156275330058 0 0.42338273398014692 -0.26293325389262251 0 0.40922225311213067 -0.25670156275330058 0 0.42338273398014692 -0.26293325389262251 0 0.40922225311213067 -0.25670156275330058 0 0.421193066834606 -0.25294072515218557 0 0.42338273398014692 -0.26293325389262251 0 0.43205941709077972 -0.24863391980172039 0 0.421193066834606 -0.25294072515218557 0 0.43345060574422928 -0.25926020454686488 0 0.421193066834606 -0.25294072515218557 0 0.42338273398014692 -0.26293325389262251 0 0.43345060574422928 -0.25926020454686488 0 0.437543214848163 -0.26916494503194482 0 0.42338273398014692 -0.26293325389262251 0 0.43345060574422928 -0.25926020454686488 0 0.437543214848163 -0.26916494503194482 0 0.42184278863130942 -0.26950467076491719 0 0.42338273398014692 -0.26293325389262251 0 0.437543214848163 -0.26916494503194482 0 0.42184278863130942 -0.26950467076491719 0 0.43446332415048849 -0.28230777877653351 0 0.42184278863130942 -0.26950467076491719 0 0.43446332415048849 -0.28230777877653351 0 0.42184278863130942 -0.26950467076491719 0 0.43446332415048849 -0.28230777877653351 0 0.42149465986494422 -0.2824696724726693 0 0.437543214848163 -0.26916494503194482 0 0.42338273398014692 -0.26293325389262251 0 0.43446332415048849 -0.28230777877653351 0 0.42706996536454062 -0.29189410469226867 0 0.42149465986494422 -0.2824696724726693 0 0.4409882164517574 -0.29447755996616198 0 0.43446332415048849 -0.28230777877653351 0 0.42706996536454062 -0.29189410469226867 0 0.43751025346246009 -0.3094983205094437 0 0.42590551339885302 -0.31606259663535829 0 0.42137793090901471 -0.30514686269289087 0 0.43751025346246009 -0.3094983205094437 0 0.4409882164517574 -0.29447755996616198 0 0.42137793090901471 -0.30514686269289087 0 0.4409882164517574 -0.29447755996616198 0 0.42706996536454062 -0.29189410469226867 0 0.42137793090901471 -0.30514686269289087 0 0.4409882164517574 -0.29447755996616198 0 0.42137793090901471 -0.30514686269289087 0 0.40375358444772219 -0.30801582284887291 0 0.42137793090901471 -0.30514686269289087 0 0.41349675425914639 -0.2945098990673532 0 0.42590551339885302 -0.31606259663535829 0 0.40375358444772219 -0.30801582284887291 0 0.42137793090901471 -0.30514686269289087 0 0.42590551339885302 -0.31606259663535829 0 0.40375358444772219 -0.30801582284887291 0 0.42706996536454062 -0.29189410469226867 0 0.42137793090901471 -0.30514686269289087 0 0.41349675425914639 -0.2945098990673532 0 0.39837954008361592 -0.29482535112995839 0 0.41349675425914639 -0.2945098990673532 0 0.40890484488504197 -0.28470758056745937 0 0.41349675425914639 -0.2945098990673532 0 0.40890484488504197 -0.28470758056745937 0 0.42149465986494422 -0.2824696724726693 0 0.41469982449585602 -0.27715814146275708 0 0.40890484488504197 -0.28470758056745937 0 0.42149465986494422 -0.2824696724726693 0 0.42706996536454062 -0.29189410469226867 0 0.41349675425914639 -0.2945098990673532 0 0.42149465986494422 -0.2824696724726693 0 0.5 -0.5 0 0.48642255711813082 -0.4571769788679601 0 0.5 -0.43460041661877669 0 0.5 -0.5 0 0.48027984574713728 -0.48054659861975207 0 0.43543866174551932 -0.49999999999999761 0 0.4561492395863187 -0.47928728267761039 0 0.48027984574713728 -0.48054659861975207 0 0.43543866174551932 -0.49999999999999761 0 0.43847816507877591 -0.48412935038475691 0 0.4561492395863187 -0.47928728267761039 0 0.43543866174551932 -0.49999999999999761 0 0.43847816507877591 -0.48412935038475691 0 0.44151766841203333 -0.46825870076951631 0 0.43847816507877591 -0.48412935038475691 0 0.4561492395863187 -0.47928728267761039 0 0.44151766841203333 -0.46825870076951631 0 0.4561492395863187 -0.47928728267761039 0 0.47012197310417098 -0.47240138409876459 0 0.46397011276508199 -0.46271783981873832 0 0.4561492395863187 -0.47928728267761039 0 0.46397011276508199 -0.46271783981873832 0 0.44151766841203333 -0.46825870076951631 0 0.5 -0.5 0 0.48027984574713728 -0.48054659861975207 0 0.48642255711813082 -0.4571769788679601 0 0.47012197310417098 -0.47240138409876459 0 0.48027984574713728 -0.48054659861975207 0 0.48642255711813082 -0.4571769788679601 0 0.4561492395863187 -0.47928728267761039 0 0.47012197310417098 -0.47240138409876459 0 0.48027984574713728 -0.48054659861975207 0 0.48642255711813082 -0.4571769788679601 0 0.46397011276508199 -0.46271783981873832 0 0.47012197310417098 -0.47240138409876459 0 0.48642255711813082 -0.4571769788679601 0 0.46397011276508199 -0.46271783981873832 0 0.47080509468511172 -0.4542768033045253 0 0.48642255711813082 -0.4571769788679601 0 0.46397011276508199 -0.46271783981873832 0 0.48642255711813082 -0.4571769788679601 0 0.47925324468703862 -0.44698441586135229 0 0.5 -0.43460041661877669 0 0.47925324468703862 -0.44698441586135229 0 0.47496416575042061 -0.43579707461880779 0 0.5 -0.43460041661877669 0 0.47080509468511172 -0.4542768033045253 0 0.48642255711813082 -0.4571769788679601 0 0.47925324468703862 -0.44698441586135229 0 0.47080509468511172 -0.4542768033045253 0 0.47925324468703862 -0.44698441586135229 0 0.46928494138825111 -0.4478852298066775 0 0.47925324468703862 -0.44698441586135229 0 0.46928494138825111 -0.4478852298066775 0 0.47496416575042061 -0.43579707461880779 0 0.46928494138825111 -0.4478852298066775 0 0.46401586713112902 -0.44835608028913021 0 0.47496416575042061 -0.43579707461880779 0 0.46401586713112902 -0.44835608028913021 0 0.45181180782016039 -0.45152631651019581 0 0.47496416575042061 -0.43579707461880779 0 0.45181180782016039 -0.45152631651019581 0 0.47496416575042061 -0.43579707461880779 0 0.46823754576733467 -0.43889147401882311 0 0.45181180782016039 -0.45152631651019581 0 0.47496416575042061 -0.43579707461880779 0 0.46823754576733467 -0.43889147401882311 0 0.45181180782016039 -0.45152631651019581 0 0.45035363231959818 -0.44934597672916432 0 0.46401586713112902 -0.44835608028913021 0 0.45957024095258753 -0.45434925229540363 0 0.45181180782016039 -0.45152631651019581 0 0.46444817974422531 -0.45222252821456599 0 0.46401586713112902 -0.44835608028913021 0 0.45957024095258753 -0.45434925229540363 0 0.47080509468511172 -0.4542768033045253 0 0.46928494138825111 -0.4478852298066775 0 0.46444817974422531 -0.45222252821456599 0 0.46928494138825111 -0.4478852298066775 0 0.46444817974422531 -0.45222252821456599 0 0.46401586713112902 -0.44835608028913021 0 0.46397011276508199 -0.46271783981873832 0 0.45868958969015322 -0.4618103333590835 0 0.44151766841203333 -0.46825870076951631 0 0.47080509468511172 -0.4542768033045253 0 0.46349664356743192 -0.45707535139846328 0 0.46397011276508199 -0.46271783981873832 0 0.47080509468511172 -0.4542768033045253 0 0.46444817974422531 -0.45222252821456599 0 0.46349664356743192 -0.45707535139846328 0 0.46349664356743192 -0.45707535139846328 0 0.46397011276508199 -0.46271783981873832 0 0.45868958969015322 -0.4618103333590835 0 0.46444817974422531 -0.45222252821456599 0 0.46349664356743192 -0.45707535139846328 0 0.45957024095258753 -0.45434925229540363 0 0.45868958969015322 -0.4618103333590835 0 0.45957024095258753 -0.45434925229540363 0 0.45181180782016039 -0.45152631651019581 0 0.45868958969015322 -0.4618103333590835 0 0.45181180782016039 -0.45152631651019581 0 0.45868958969015322 -0.4618103333590835 0 0.45214954832039739 -0.45685893909468822 0 0.45181180782016039 -0.45152631651019581 0 0.46349664356743192 -0.45707535139846328 0 0.45868958969015322 -0.4618103333590835 0 0.45957024095258753 -0.45434925229540363 0 0.46397011276508199 -0.46271783981873832 0 0.44151766841203333 -0.46825870076951631 0 0.45868958969015322 -0.4618103333590835 0 0.45214954832039739 -0.45685893909468822 0 0.44835032151863391 -0.46116964430812352 0 0.45214954832039739 -0.45685893909468822 0 0.44835032151863391 -0.46116964430812352 0 0.44974647425264308 -0.45292946220135138 0 0.45214954832039739 -0.45685893909468822 0 0.45181180782016039 -0.45152631651019581 0 0.44974647425264308 -0.45292946220135138 0 0.44835032151863391 -0.46116964430812352 0 0.44366178544718621 -0.45706327623200521 0 0.44974647425264308 -0.45292946220135138 0 0.45868958969015322 -0.4618103333590835 0 0.44835032151863391 -0.46116964430812352 0 0.44151766841203333 -0.46825870076951631 0 0.44835032151863391 -0.46116964430812352 0 0.44974647425264308 -0.45292946220135138 0 0.44366178544718621 -0.45706327623200521 0 0.44974647425264308 -0.45292946220135138 0 0.44151766841203333 -0.46825870076951631 0 0.44366178544718621 -0.45706327623200521 0 0.44835032151863391 -0.46116964430812352 0 0.44151766841203333 -0.46825870076951631 0 0.44366178544718621 -0.45706327623200521 0 0.44630047128551142 -0.44328547973263721 0 0.45035363231959818 -0.44934597672916432 0 0.44998542865067542 -0.42404461674370669 0 0.44366178544718621 -0.45706327623200521 0 0.43753800260341358 -0.4487488909282461 0 0.44630047128551142 -0.44328547973263721 0 0.44366178544718621 -0.45706327623200521 0 0.44630047128551142 -0.44328547973263721 0 0.43753800260341358 -0.4487488909282461 0 0.44630047128551142 -0.44328547973263721 0 0.43613480364884799 -0.43845655778339471 0 0.44366178544718621 -0.45706327623200521 0 0.44630047128551142 -0.44328547973263721 0 0.45035363231959818 -0.44934597672916432 0 0.45181180782016039 -0.45152631651019581 0 0.44974647425264308 -0.45292946220135138 0 0.45181180782016039 -0.45152631651019581 0 0.44974647425264308 -0.45292946220135138 0 0.45035363231959818 -0.44934597672916432 0 0.45181180782016039 -0.45152631651019581 0 0.45035363231959818 -0.44934597672916432 0 0.44974647425264308 -0.45292946220135138 0 0.45035363231959818 -0.44934597672916432 0 0.44366178544718621 -0.45706327623200521 0 0.44974647425264308 -0.45292946220135138 0 0.45035363231959818 -0.44934597672916432 0 0.44630047128551142 -0.44328547973263721 0 0.45035363231959818 -0.44934597672916432 0 0.44630047128551142 -0.44328547973263721 0 0.43272038124667961 -0.4229798234311376 0 0.43613480364884799 -0.43845655778339471 0 0.44630047128551142 -0.44328547973263721 0 0.44998542865067542 -0.42404461674370669 0 0.43272038124667961 -0.4229798234311376 0 0.45035363231959818 -0.44934597672916432 0 0.44998542865067542 -0.42404461674370669 0 0.45531756706497511 -0.42004851859895709 0 0.44630047128551142 -0.44328547973263721 0 0.43272038124667961 -0.4229798234311376 0 0.44630047128551142 -0.44328547973263721 0 0.44998542865067542 -0.42404461674370669 0 0.45035363231959818 -0.44934597672916432 0 0.45531756706497511 -0.42004851859895709 0 0.44180439475650529 -0.40914098524218312 0 0.45531756706497511 -0.42004851859895709 0 0.46028150181035349 -0.3907510604687503 0 0.44998542865067542 -0.42404461674370669 0 0.44180439475650529 -0.40914098524218312 0 0.43272038124667961 -0.4229798234311376 0 0.44998542865067542 -0.42404461674370669 0 0.44180439475650529 -0.40914098524218312 0 0.45531756706497511 -0.42004851859895709 0 0.45531756706497511 -0.42004851859895709 0 0.47617815932550139 -0.41753371810385193 0 0.47001034065513719 -0.40308558008370898 0 0.46823754576733467 -0.43889147401882311 0 0.45531756706497511 -0.42004851859895709 0 0.47617815932550139 -0.41753371810385193 0 0.46823754576733467 -0.43889147401882311 0 0.45035363231959818 -0.44934597672916432 0 0.45531756706497511 -0.42004851859895709 0 0.47496416575042061 -0.43579707461880779 0 0.49811652368068071 -0.42006783272741982 0 0.47617815932550139 -0.41753371810385193 0 0.46823754576733467 -0.43889147401882311 0 0.47617815932550139 -0.41753371810385193 0 0.46823754576733467 -0.43889147401882311 0 0.47496416575042061 -0.43579707461880779 0 0.47617815932550139 -0.41753371810385193 0 0.5 -0.43460041661877669 0 0.49811652368068071 -0.42006783272741982 0 0.5 -0.38745242098024663 0 0.47496416575042061 -0.43579707461880779 0 0.49811652368068071 -0.42006783272741982 0 0.47496416575042061 -0.43579707461880779 0 0.5 -0.43460041661877669 0 0.49811652368068071 -0.42006783272741982 0 0.49811652368068071 -0.42006783272741982 0 0.47617815932550139 -0.41753371810385193 0 0.48960336397246262 -0.40530748350009982 0 0.47617815932550139 -0.41753371810385193 0 0.48411877288366822 -0.39617596218888068 0 0.47617815932550139 -0.41753371810385193 0 0.48411877288366822 -0.39617596218888068 0 0.48960336397246262 -0.40530748350009982 0 0.49811652368068071 -0.42006783272741982 0 0.48960336397246262 -0.40530748350009982 0 0.5 -0.38745242098024663 0 0.48411877288366822 -0.39617596218888068 0 0.47001034065513719 -0.40308558008370898 0 0.47562389850291531 -0.38019256194084933 0 0.47617815932550139 -0.41753371810385193 0 0.48411877288366822 -0.39617596218888068 0 0.47001034065513719 -0.40308558008370898 0 0.48411877288366822 -0.39617596218888068 0 0.48960336397246262 -0.40530748350009982 0 0.5 -0.38745242098024663 0 0.492059386441835 -0.37481820627390949 0 0.48411877288366822 -0.39617596218888068 0 0.492059386441835 -0.37481820627390949 0 0.48411877288366822 -0.39617596218888068 0 0.5 -0.38745242098024663 0 0.492059386441835 -0.37481820627390949 0 0.48411877288366822 -0.39617596218888068 0 0.47562389850291531 -0.38019256194084933 0 0.46524543655573192 -0.36145360233854351 0 0.4355763579862707 -0.37439105247682569 0 0.46028150181035349 -0.3907510604687503 0 0.46524543655573192 -0.36145360233854351 0 0.46028150181035349 -0.3907510604687503 0 0.46524543655573192 -0.36145360233854351 0 0.47562389850291531 -0.38019256194084933 0 0.46028150181035349 -0.3907510604687503 0 0.45531756706497511 -0.42004851859895709 0 0.46028150181035349 -0.3907510604687503 0 0.45531756706497511 -0.42004851859895709 0 0.47001034065513719 -0.40308558008370898 0 0.46028150181035349 -0.3907510604687503 0 0.47001034065513719 -0.40308558008370898 0 0.47562389850291531 -0.38019256194084933 0 0.46028150181035349 -0.3907510604687503 0 0.44180439475650529 -0.40914098524218312 0 0.46028150181035349 -0.3907510604687503 0 0.43477110895245358 -0.39330997598642142 0 0.4355763579862707 -0.37439105247682569 0 0.46028150181035349 -0.3907510604687503 0 0.43477110895245358 -0.39330997598642142 0 0.4355763579862707 -0.37439105247682569 0 0.41401646051385849 -0.36744549853367431 0 0.42181288396589017 -0.38403784099093902 0 0.4355763579862707 -0.37439105247682569 0 0.43477110895245358 -0.39330997598642142 0 0.42181288396589017 -0.38403784099093902 0 0.44180439475650529 -0.40914098524218312 0 0.43477110895245358 -0.39330997598642142 0 0.41914029120784918 -0.40267416712963711 0 0.43477110895245358 -0.39330997598642142 0 0.41914029120784918 -0.40267416712963711 0 0.42181288396589017 -0.38403784099093902 0 0.41914029120784918 -0.40267416712963711 0 0.3943450336206229 -0.39842125567842163 0 0.40922309062033069 -0.41036395187320668 0 0.41914029120784918 -0.40267416712963711 0 0.40556020116901881 -0.3823685108281365 0 0.41914029120784918 -0.40267416712963711 0 0.40556020116901881 -0.3823685108281365 0 0.3943450336206229 -0.39842125567842163 0 0.41401646051385849 -0.36744549853367431 0 0.42181288396589017 -0.38403784099093902 0 0.40556020116901881 -0.3823685108281365 0 0.41914029120784918 -0.40267416712963711 0 0.42181288396589017 -0.38403784099093902 0 0.40556020116901881 -0.3823685108281365 0 0.40556020116901881 -0.3823685108281365 0 0.38674895788149122 -0.37518564800640719 0 0.3943450336206229 -0.39842125567842163 0 0.38674895788149122 -0.37518564800640719 0 0.3943450336206229 -0.39842125567842163 0 0.37285212179166238 -0.38443779113720328 0 0.37564893544032862 -0.40470519901378788 0 0.3943450336206229 -0.39842125567842163 0 0.37285212179166238 -0.38443779113720328 0 0.38920998611131519 -0.42772251403926598 0 0.41578547076865369 -0.42447316985622818 0 0.40922309062033069 -0.41036395187320668 0 0.3943450336206229 -0.39842125567842163 0 0.38920998611131519 -0.42772251403926598 0 0.40922309062033069 -0.41036395187320668 0 0.38920998611131519 -0.42772251403926598 0 0.40922309062033069 -0.41036395187320668 0 0.37564893544032862 -0.40470519901378788 0 0.3943450336206229 -0.39842125567842163 0 0.38920998611131519 -0.42772251403926598 0 0.37564893544032862 -0.40470519901378788 0 0.38920998611131519 -0.42772251403926598 0 0.37105555147963909 -0.42700790523778331 0 0.38920998611131519 -0.42772251403926598 0 0.36919688160229991 -0.44508107620532528 0 0.38920998611131519 -0.42772251403926598 0 0.36919688160229991 -0.44508107620532528 0 0.37105555147963909 -0.42700790523778331 0 0.38920998611131519 -0.42772251403926598 0 0.41578547076865369 -0.42447316985622818 0 0.41305937712329832 -0.43987719433550437 0 0.41578547076865369 -0.42447316985622818 0 0.4279803594597863 -0.43881203704155741 0 0.41305937712329832 -0.43987719433550437 0 0.41914029120784918 -0.40267416712963711 0 0.41578547076865369 -0.42447316985622818 0 0.40922309062033069 -0.41036395187320668 0 0.44180439475650529 -0.40914098524218312 0 0.41914029120784918 -0.40267416712963711 0 0.43272038124667961 -0.4229798234311376 0 0.41914029120784918 -0.40267416712963711 0 0.41578547076865369 -0.42447316985622818 0 0.43272038124667961 -0.4229798234311376 0 0.41914029120784918 -0.40267416712963711 0 0.43272038124667961 -0.4229798234311376 0 0.41578547076865369 -0.42447316985622818 0 0.43272038124667961 -0.4229798234311376 0 0.4279803594597863 -0.43881203704155741 0 0.43272038124667961 -0.4229798234311376 0 0.4279803594597863 -0.43881203704155741 0 0.43613480364884799 -0.43845655778339471 0 0.4279803594597863 -0.43881203704155741 0 0.4296168442533454 -0.45537346409866292 0 0.41305937712329832 -0.43987719433550437 0 0.43753800260341358 -0.4487488909282461 0 0.4279803594597863 -0.43881203704155741 0 0.4296168442533454 -0.45537346409866292 0 0.43753800260341358 -0.4487488909282461 0 0.4279803594597863 -0.43881203704155741 0 0.43613480364884799 -0.43845655778339471 0 0.44366178544718621 -0.45706327623200521 0 0.4190053968896284 -0.47381432599367612 0 0.44366178544718621 -0.45706327623200521 0 0.4296168442533454 -0.45537346409866292 0 0.4190053968896284 -0.47381432599367612 0 0.44151766841203333 -0.46825870076951631 0 0.44366178544718621 -0.45706327623200521 0 0.4190053968896284 -0.47381432599367612 0 0.44366178544718621 -0.45706327623200521 0 0.43753800260341358 -0.4487488909282461 0 0.4296168442533454 -0.45537346409866292 0 0.4296168442533454 -0.45537346409866292 0 0.40251666605231179 -0.46216918800209461 0 0.4296168442533454 -0.45537346409866292 0 0.40251666605231179 -0.46216918800209461 0 0.4190053968896284 -0.47381432599367612 0 0.4296168442533454 -0.45537346409866292 0 0.40333738540520581 -0.44854175142868208 0 0.40251666605231179 -0.46216918800209461 0 0.4296168442533454 -0.45537346409866292 0 0.41305937712329832 -0.43987719433550437 0 0.40333738540520581 -0.44854175142868208 0 0.38920998611131519 -0.42772251403926598 0 0.41305937712329832 -0.43987719433550437 0 0.40333738540520581 -0.44854175142868208 0 0.38920998611131519 -0.42772251403926598 0 0.40333738540520581 -0.44854175142868208 0 0.39033801495862419 -0.44833750357454633 0 0.40333738540520581 -0.44854175142868208 0 0.39033801495862419 -0.44833750357454633 0 0.40251666605231179 -0.46216918800209461 0 0.38920998611131519 -0.42772251403926598 0 0.39033801495862419 -0.44833750357454633 0 0.38133416139102028 -0.44461085756115842 0 0.38920998611131519 -0.42772251403926598 0 0.38133416139102028 -0.44461085756115842 0 0.36919688160229991 -0.44508107620532528 0 0.39033801495862419 -0.44833750357454633 0 0.38133416139102028 -0.44461085756115842 0 0.38128641793762491 -0.4542352731045543 0 0.3756242973335735 -0.44798104277951473 0 0.38128641793762491 -0.4542352731045543 0 0.37324259593506609 -0.45677927276741481 0 0.3756242973335735 -0.44798104277951473 0 0.38133416139102028 -0.44461085756115842 0 0.38128641793762491 -0.4542352731045543 0 0.3756242973335735 -0.44798104277951473 0 0.38133416139102028 -0.44461085756115842 0 0.36919688160229991 -0.44508107620532528 0 0.38128641793762491 -0.4542352731045543 0 0.40251666605231179 -0.46216918800209461 0 0.37541648785127818 -0.46896491190552619 0 0.40251666605231179 -0.46216918800209461 0 0.38942690148168818 -0.47328360938219372 0 0.37541648785127818 -0.46896491190552619 0 0.40251666605231179 -0.46216918800209461 0 0.37541648785127818 -0.46896491190552619 0 0.38128641793762491 -0.4542352731045543 0 0.37541648785127818 -0.46896491190552619 0 0.37324259593506609 -0.45677927276741481 0 0.39033801495862419 -0.44833750357454633 0 0.38128641793762491 -0.4542352731045543 0 0.40251666605231179 -0.46216918800209461 0 0.40251666605231179 -0.46216918800209461 0 0.39959328297093027 -0.4786048878716096 0 0.38942690148168818 -0.47328360938219372 0 0.39959328297093027 -0.4786048878716096 0 0.40549978018821858 -0.48886413733125239 0 0.41176435582902748 -0.47873374226785381 0 0.39959328297093027 -0.4786048878716096 0 0.38018116905223259 -0.48339544974954451 0 0.39161046600718052 -0.48798300964557528 0 0.39959328297093027 -0.4786048878716096 0 0.38018116905223259 -0.48339544974954451 0 0.39959328297093027 -0.4786048878716096 0 0.38942690148168818 -0.47328360938219372 0 0.38018116905223259 -0.48339544974954451 0 0.38942690148168818 -0.47328360938219372 0 0.38018116905223259 -0.48339544974954451 0 0.37541648785127818 -0.46896491190552619 0 0.39430610647017661 -0.5 0 0.39161046600718052 -0.48798300964557528 0 0.37373982883250528 -0.50000000000000244 0 0.38018116905223259 -0.48339544974954451 0 0.39161046600718052 -0.48798300964557528 0 0.37373982883250528 -0.50000000000000244 0 0.39430610647017661 -0.5 0 0.40549978018821858 -0.48886413733125239 0 0.41487238410784799 -0.5 0 0.39430610647017661 -0.5 0 0.39161046600718052 -0.48798300964557528 0 0.40549978018821858 -0.48886413733125239 0 0.39959328297093027 -0.4786048878716096 0 0.39161046600718052 -0.48798300964557528 0 0.40549978018821858 -0.48886413733125239 0 0.40549978018821858 -0.48886413733125239 0 0.41487238410784799 -0.5 0 0.42085208574414879 -0.48786318420247621 0 0.40549978018821858 -0.48886413733125239 0 0.42085208574414879 -0.48786318420247621 0 0.41176435582902748 -0.47873374226785381 0 0.39959328297093027 -0.4786048878716096 0 0.41176435582902748 -0.47873374226785381 0 0.4190053968896284 -0.47381432599367612 0 0.39959328297093027 -0.4786048878716096 0 0.4190053968896284 -0.47381432599367612 0 0.40251666605231179 -0.46216918800209461 0 0.39959328297093027 -0.4786048878716096 0 0.4190053968896284 -0.47381432599367612 0 0.41176435582902748 -0.47873374226785381 0 0.4190053968896284 -0.47381432599367612 0 0.42085208574414879 -0.48786318420247621 0 0.41176435582902748 -0.47873374226785381 0 0.4190053968896284 -0.47381432599367612 0 0.43847816507877591 -0.48412935038475691 0 0.44151766841203333 -0.46825870076951631 0 0.4190053968896284 -0.47381432599367612 0 0.43847816507877591 -0.48412935038475691 0 0.42085208574414879 -0.48786318420247621 0 0.4190053968896284 -0.47381432599367612 0 0.44151766841203333 -0.46825870076951631 0 0.4190053968896284 -0.47381432599367612 0 0.43847816507877591 -0.48412935038475691 0 0.43543866174551932 -0.49999999999999761 0 0.43847816507877591 -0.48412935038475691 0 0.42085208574414879 -0.48786318420247621 0 0.43543866174551932 -0.49999999999999761 0 0.41487238410784799 -0.5 0 0.42085208574414879 -0.48786318420247621 0 0.43543866174551932 -0.49999999999999761 0 0.32018316470231062 -0.5 0 0.32468948870037218 -0.48168536998229339 0 0.33867355802759469 -0.48737921708950133 0 0.32468948870037218 -0.48168536998229339 0 0.30106266775049978 -0.48761010415562911 0 0.32018316470231062 -0.5 0 0.32468948870037218 -0.48168536998229339 0 0.30106266775049978 -0.48761010415562911 0 0.32468948870037218 -0.48168536998229339 0 0.32234931676829998 -0.46868131118938711 0 0.31096968578772782 -0.47704537188798157 0 0.32234931676829998 -0.46868131118938711 0 0.31233070984334649 -0.4698136755964174 0 0.31096968578772782 -0.47704537188798157 0 0.32468948870037218 -0.48168536998229339 0 0.34831630965024363 -0.475760635808954 0 0.32234931676829998 -0.46868131118938711 0 0.32468948870037218 -0.48168536998229339 0 0.34831630965024363 -0.475760635808954 0 0.32468948870037218 -0.48168536998229339 0 0.33867355802759469 -0.48737921708950133 0 0.34831630965024363 -0.475760635808954 0 0.32018316470231062 -0.5 0 0.33867355802759469 -0.48737921708950133 0 0.34696149676740801 -0.5 0 0.33867355802759469 -0.48737921708950133 0 0.34696149676740801 -0.5 0 0.36102806924137459 -0.48788031790447811 0 0.34696149676740801 -0.5 0 0.36102806924137459 -0.48788031790447811 0 0.37373982883250528 -0.50000000000000244 0 0.38018116905223259 -0.48339544974954451 0 0.36102806924137459 -0.48788031790447811 0 0.37373982883250528 -0.50000000000000244 0 0.36102806924137459 -0.48788031790447811 0 0.37373982883250528 -0.50000000000000244 0 0.37541648785127818 -0.46896491190552619 0 0.34831630965024363 -0.475760635808954 0 0.37541648785127818 -0.46896491190552619 0 0.36623550894878271 -0.47900032884212529 0 0.34831630965024363 -0.475760635808954 0 0.37541648785127818 -0.46896491190552619 0 0.34831630965024363 -0.475760635808954 0 0.36025051911012679 -0.46529761769972172 0 0.38018116905223259 -0.48339544974954451 0 0.36102806924137459 -0.48788031790447811 0 0.36623550894878271 -0.47900032884212529 0 0.38018116905223259 -0.48339544974954451 0 0.37541648785127818 -0.46896491190552619 0 0.36623550894878271 -0.47900032884212529 0 0.36102806924137459 -0.48788031790447811 0 0.36623550894878271 -0.47900032884212529 0 0.34831630965024363 -0.475760635808954 0 0.33867355802759469 -0.48737921708950133 0 0.36102806924137459 -0.48788031790447811 0 0.34831630965024363 -0.475760635808954 0 0.36102806924137459 -0.48788031790447811 0 0.34831630965024363 -0.475760635808954 0 0.35090586668775331 -0.46094596709876151 0 0.36025051911012679 -0.46529761769972172 0 0.36228984258788688 -0.45928037983348152 0 0.34831630965024363 -0.475760635808954 0 0.35090586668775331 -0.46094596709876151 0 0.36025051911012679 -0.46529761769972172 0 0.35090586668775331 -0.46094596709876151 0 0.36534224432760959 -0.45341510388320749 0 0.36919688160229991 -0.44508107620532528 0 0.36025051911012679 -0.46529761769972172 0 0.36228984258788688 -0.45928037983348152 0 0.36742109431997122 -0.461157326280347 0 0.35090586668775331 -0.46094596709876151 0 0.36228984258788688 -0.45928037983348152 0 0.36534224432760959 -0.45341510388320749 0 0.36228984258788688 -0.45928037983348152 0 0.36534224432760959 -0.45341510388320749 0 0.36813465740162732 -0.45585981496103278 0 0.36228984258788688 -0.45928037983348152 0 0.36813465740162732 -0.45585981496103278 0 0.36742109431997122 -0.461157326280347 0 0.36813465740162732 -0.45585981496103278 0 0.37324259593506609 -0.45677927276741481 0 0.36742109431997122 -0.461157326280347 0 0.36813465740162732 -0.45585981496103278 0 0.37324259593506609 -0.45677927276741481 0 0.37094533152011189 -0.45145865066705437 0 0.36534224432760959 -0.45341510388320749 0 0.36813465740162732 -0.45585981496103278 0 0.37094533152011189 -0.45145865066705437 0 0.37541648785127818 -0.46896491190552619 0 0.36025051911012679 -0.46529761769972172 0 0.36742109431997122 -0.461157326280347 0 0.37541648785127818 -0.46896491190552619 0 0.37324259593506609 -0.45677927276741481 0 0.36742109431997122 -0.461157326280347 0 0.35090586668775331 -0.46094596709876151 0 0.36919688160229991 -0.44508107620532528 0 0.36919688160229991 -0.44508107620532528 0 0.3605666553891031 -0.44251626371178882 0 0.34899423490079728 -0.45111319819262208 0 0.36534224432760959 -0.45341510388320749 0 0.36919688160229991 -0.44508107620532528 0 0.37058088616597917 -0.4478647345335896 0 0.3756242973335735 -0.44798104277951473 0 0.37324259593506609 -0.45677927276741481 0 0.37094533152011189 -0.45145865066705437 0 0.3756242973335735 -0.44798104277951473 0 0.37094533152011189 -0.45145865066705437 0 0.37058088616597917 -0.4478647345335896 0 0.3756242973335735 -0.44798104277951473 0 0.36919688160229991 -0.44508107620532528 0 0.37058088616597917 -0.4478647345335896 0 0.36534224432760959 -0.45341510388320749 0 0.37094533152011189 -0.45145865066705437 0 0.37058088616597917 -0.4478647345335896 0 0.3605666553891031 -0.44251626371178882 0 0.35542414825469121 -0.43598176120163062 0 0.36336478059197569 -0.435567029772161 0 0.36919688160229991 -0.44508107620532528 0 0.3605666553891031 -0.44251626371178882 0 0.36336478059197569 -0.435567029772161 0 0.36919688160229991 -0.44508107620532528 0 0.34899423490079728 -0.45111319819262208 0 0.35090586668775331 -0.46094596709876151 0 0.36919688160229991 -0.44508107620532528 0 0.34899423490079728 -0.45111319819262208 0 0.3605666553891031 -0.44251626371178882 0 0.35236475289031988 -0.44246519378022903 0 0.35542414825469121 -0.43598176120163062 0 0.3605666553891031 -0.44251626371178882 0 0.35236475289031988 -0.44246519378022903 0 0.34899423490079728 -0.45111319819262208 0 0.35236475289031988 -0.44246519378022903 0 0.34447397301668792 -0.44024955201487431 0 0.35542414825469121 -0.43598176120163062 0 0.35236475289031988 -0.44246519378022903 0 0.34899423490079728 -0.45111319819262208 0 0.34447397301668792 -0.44024955201487431 0 0.34899423490079728 -0.45111319819262208 0 0.34447397301668792 -0.44024955201487431 0 0.32879158819929499 -0.45714532017991988 0 0.34447397301668792 -0.44024955201487431 0 0.32879158819929499 -0.45714532017991988 0 0.33033078098143209 -0.43185573025909091 0 0.34899423490079728 -0.45111319819262208 0 0.32879158819929499 -0.45714532017991988 0 0.34831630965024363 -0.475760635808954 0 0.32879158819929499 -0.45714532017991988 0 0.32234931676829998 -0.46868131118938711 0 0.34831630965024363 -0.475760635808954 0 0.32879158819929499 -0.45714532017991988 0 0.35090586668775331 -0.46094596709876151 0 0.34899423490079728 -0.45111319819262208 0 0.32879158819929499 -0.45714532017991988 0 0.34831630965024363 -0.475760635808954 0 0.35090586668775331 -0.46094596709876151 0 0.32879158819929499 -0.45714532017991988 0 0.32879158819929499 -0.45714532017991988 0 0.31717941512104669 -0.46061249186195341 0 0.32879158819929499 -0.45714532017991988 0 0.31717941512104669 -0.46061249186195341 0 0.31271618150969832 -0.44641820790585812 0 0.32879158819929499 -0.45714532017991988 0 0.32234931676829998 -0.46868131118938711 0 0.31717941512104669 -0.46061249186195341 0 0.32234931676829998 -0.46868131118938711 0 0.31063671101850199 -0.46256601754878279 0 0.31233070984334649 -0.4698136755964174 0 0.32234931676829998 -0.46868131118938711 0 0.31717941512104669 -0.46061249186195341 0 0.31063671101850199 -0.46256601754878279 0 0.31717941512104669 -0.46061249186195341 0 0.31063671101850199 -0.46256601754878279 0 0.32879158819929499 -0.45714532017991988 0 0.31271618150969832 -0.44641820790585812 0 0.31293001256622288 -0.44202253148738591 0 0.32879158819929499 -0.45714532017991988 0 0.31293001256622288 -0.44202253148738591 0 0.33033078098143209 -0.43185573025909091 0 0.32879158819929499 -0.45714532017991988 0 0.31293001256622288 -0.44202253148738591 0 0.31271618150969832 -0.44641820790585812 0 0.31293001256622288 -0.44202253148738591 0 0.31293001256622288 -0.44202253148738591 0 0.31421374863781287 -0.41563306089728619 0 0.33033078098143209 -0.43185573025909091 0 0.31293001256622288 -0.44202253148738591 0 0.31421374863781287 -0.41563306089728619 0 0.31421374863781287 -0.41563306089728619 0 0.33399409695423637 -0.41030103959787051 0 0.33033078098143209 -0.43185573025909091 0 0.33399409695423637 -0.41030103959787051 0 0.33033078098143209 -0.43185573025909091 0 0.34758126651433863 -0.4257828773772061 0 0.34447397301668792 -0.44024955201487431 0 0.33033078098143209 -0.43185573025909091 0 0.34758126651433863 -0.4257828773772061 0 0.34447397301668792 -0.44024955201487431 0 0.34758126651433863 -0.4257828773772061 0 0.35542414825469121 -0.43598176120163062 0 0.34758126651433863 -0.4257828773772061 0 0.35886803472789391 -0.42609927287405941 0 0.35542414825469121 -0.43598176120163062 0 0.35886803472789391 -0.42609927287405941 0 0.35542414825469121 -0.43598176120163062 0 0.36336478059197569 -0.435567029772161 0 0.36919688160229991 -0.44508107620532528 0 0.36336478059197569 -0.435567029772161 0 0.37105555147963909 -0.42700790523778331 0 0.35886803472789391 -0.42609927287405941 0 0.36336478059197569 -0.435567029772161 0 0.37105555147963909 -0.42700790523778331 0 0.35886803472789391 -0.42609927287405941 0 0.37105555147963909 -0.42700790523778331 0 0.35691442679882468 -0.40615679078151568 0 0.37564893544032862 -0.40470519901378788 0 0.37105555147963909 -0.42700790523778331 0 0.35691442679882468 -0.40615679078151568 0 0.33399409695423637 -0.41030103959787051 0 0.34758126651433863 -0.4257828773772061 0 0.35691442679882468 -0.40615679078151568 0 0.34758126651433863 -0.4257828773772061 0 0.35886803472789391 -0.42609927287405941 0 0.35691442679882468 -0.40615679078151568 0 0.33399409695423637 -0.41030103959787051 0 0.35691442679882468 -0.40615679078151568 0 0.34086460074890162 -0.39160396538004499 0 0.35691442679882468 -0.40615679078151568 0 0.3536000406606799 -0.37819115038319662 0 0.34086460074890162 -0.39160396538004499 0 0.37564893544032862 -0.40470519901378788 0 0.37285212179166238 -0.38443779113720328 0 0.37564893544032862 -0.40470519901378788 0 0.35691442679882468 -0.40615679078151568 0 0.37285212179166238 -0.38443779113720328 0 0.35691442679882468 -0.40615679078151568 0 0.37285212179166238 -0.38443779113720328 0 0.3536000406606799 -0.37819115038319662 0 0.37285212179166238 -0.38443779113720328 0 0.3536000406606799 -0.37819115038319662 0 0.37005530814299631 -0.36417038326061879 0 0.34086460074890162 -0.39160396538004499 0 0.31549748470940231 -0.38924359030718653 0 0.3342402226541592 -0.37456795895141559 0 0.3536000406606799 -0.37819115038319662 0 0.34086460074890162 -0.39160396538004499 0 0.3342402226541592 -0.37456795895141559 0 0.33399409695423637 -0.41030103959787051 0 0.34086460074890162 -0.39160396538004499 0 0.31549748470940231 -0.38924359030718653 0 0.31421374863781287 -0.41563306089728619 0 0.33399409695423637 -0.41030103959787051 0 0.31549748470940231 -0.38924359030718653 0 0.31421374863781287 -0.41563306089728619 0 0.31549748470940231 -0.38924359030718653 0 0.31549748470940231 -0.38924359030718653 0 0.3342402226541592 -0.37456795895141559 0 0.31678122078099208 -0.36285411971708692 0 0.31549748470940231 -0.38924359030718653 0 0.31678122078099208 -0.36285411971708692 0 0.31549748470940231 -0.38924359030718653 0 0.29784136624493202 -0.38551680560628521 0 0.30232918223981969 -0.36827998066702761 0 0.31421374863781287 -0.41563306089728619 0 0.31549748470940231 -0.38924359030718653 0 0.29884712883714648 -0.40350463297621819 0 0.31549748470940231 -0.38924359030718653 0 0.29784136624493202 -0.38551680560628521 0 0.29884712883714648 -0.40350463297621819 0 0.28465589173963363 -0.39284998246401259 0 0.28143463978060268 -0.41199412331104368 0 0.29884712883714648 -0.40350463297621819 0 0.28465589173963363 -0.39284998246401259 0 0.28143463978060268 -0.41199412331104368 0 0.29784136624493202 -0.38551680560628521 0 0.29884712883714648 -0.40350463297621819 0 0.28465589173963363 -0.39284998246401259 0 0.29784136624493202 -0.38551680560628521 0 0.28465589173963363 -0.39284998246401259 0 0.28787714369865153 -0.37370584161697928 0 0.29784136624493202 -0.38551680560628521 0 0.30232918223981969 -0.36827998066702761 0 0.28787714369865153 -0.37370584161697928 0 0.28465589173963363 -0.39284998246401259 0 0.28787714369865153 -0.37370584161697928 0 0.28465589173963363 -0.39284998246401259 0 0.27419843950030459 -0.37884136258476031 0 0.28787714369865153 -0.37370584161697928 0 0.28465589173963363 -0.39284998246401259 0 0.27419843950030459 -0.37884136258476031 0 0.26220711982801997 -0.39366216638250839 0 0.27419843950030459 -0.37884136258476031 0 0.28787714369865153 -0.37370584161697928 0 0.26220711982801997 -0.39366216638250839 0 0.24297959987544521 -0.375330209453965 0 0.25052278160736158 -0.39497889888104848 0 0.26220711982801997 -0.39366216638250839 0 0.24297959987544521 -0.375330209453965 0 0.27419843950030459 -0.37884136258476031 0 0.25954642525693078 -0.37727783671768689 0 0.26220711982801997 -0.39366216638250839 0 0.25954642525693078 -0.37727783671768689 0 0.26220711982801997 -0.39366216638250839 0 0.24297959987544521 -0.375330209453965 0 0.25052278160736158 -0.39497889888104848 0 0.26501837505042808 -0.40919385751121079 0 0.25052278160736158 -0.39497889888104848 0 0.26220711982801997 -0.39366216638250839 0 0.26501837505042808 -0.40919385751121079 0 0.28465589173963363 -0.39284998246401259 0 0.26220711982801997 -0.39366216638250839 0 0.28143463978060268 -0.41199412331104368 0 0.26220711982801997 -0.39366216638250839 0 0.26501837505042808 -0.40919385751121079 0 0.28143463978060268 -0.41199412331104368 0 0.26220711982801997 -0.39366216638250839 0 0.28143463978060268 -0.41199412331104368 0 0.26501837505042808 -0.40919385751121079 0 0.27951396849349469 -0.4234088161413731 0 0.28143463978060268 -0.41199412331104368 0 0.26501837505042808 -0.40919385751121079 0 0.26419098856034268 -0.42537955031905711 0 0.27951396849349469 -0.4234088161413731 0 0.27951396849349469 -0.4234088161413731 0 0.28143463978060268 -0.41199412331104368 0 0.26501837505042808 -0.40919385751121079 0 0.27951396849349469 -0.4234088161413731 0 0.26501837505042808 -0.40919385751121079 0 0.26419098856034268 -0.42537955031905711 0 0.24646219179599979 -0.41505245331781582 0 0.25052278160736158 -0.39497889888104848 0 0.26501837505042808 -0.40919385751121079 0 0.24646219179599979 -0.41505245331781582 0 0.26419098856034268 -0.42537955031905711 0 0.25072956183208273 -0.43608254974133992 0 0.24646219179599979 -0.41505245331781582 0 0.26419098856034268 -0.42537955031905711 0 0.25072956183208273 -0.43608254974133992 0 0.27521814585303428 -0.44893921076090898 0 0.26419098856034268 -0.42537955031905711 0 0.27951396849349469 -0.4234088161413731 0 0.27521814585303428 -0.44893921076090898 0 0.27951396849349469 -0.4234088161413731 0 0.27521814585303428 -0.44893921076090898 0 0.27951396849349469 -0.4234088161413731 0 0.2982902366169683 -0.44182157555355711 0 0.27951396849349469 -0.4234088161413731 0 0.29718232617340851 -0.42700832739921929 0 0.2982902366169683 -0.44182157555355711 0 0.27951396849349469 -0.4234088161413731 0 0.28143463978060268 -0.41199412331104368 0 0.29718232617340851 -0.42700832739921929 0 0.28143463978060268 -0.41199412331104368 0 0.29718232617340851 -0.42700832739921929 0 0.29884712883714648 -0.40350463297621819 0 0.28143463978060268 -0.41199412331104368 0 0.29718232617340851 -0.42700832739921929 0 0.31421374863781287 -0.41563306089728619 0 0.29884712883714648 -0.40350463297621819 0 0.29718232617340851 -0.42700832739921929 0 0.31293001256622288 -0.44202253148738591 0 0.29718232617340851 -0.42700832739921929 0 0.2982902366169683 -0.44182157555355711 0 0.31293001256622288 -0.44202253148738591 0 0.31421374863781287 -0.41563306089728619 0 0.29718232617340851 -0.42700832739921929 0 0.31293001256622288 -0.44202253148738591 0 0.29718232617340851 -0.42700832739921929 0 0.31717941512104669 -0.46061249186195341 0 0.2982902366169683 -0.44182157555355711 0 0.31717941512104669 -0.46061249186195341 0 0.31271618150969832 -0.44641820790585812 0 0.2982902366169683 -0.44182157555355711 0 0.31717941512104669 -0.46061249186195341 0 0.2982902366169683 -0.44182157555355711 0 0.30127097051635587 -0.45632739666270228 0 0.31271618150969832 -0.44641820790585812 0 0.31293001256622288 -0.44202253148738591 0 0.2982902366169683 -0.44182157555355711 0 0.31063671101850199 -0.46256601754878279 0 0.30127097051635587 -0.45632739666270228 0 0.29248183383770943 -0.46798671491764698 0 0.31063671101850199 -0.46256601754878279 0 0.29248183383770943 -0.46798671491764698 0 0.30536712579885639 -0.47096200175951819 0 0.31063671101850199 -0.46256601754878279 0 0.29248183383770943 -0.46798671491764698 0 0.31717941512104669 -0.46061249186195341 0 0.31063671101850199 -0.46256601754878279 0 0.30127097051635587 -0.45632739666270228 0 0.31063671101850199 -0.46256601754878279 0 0.30536712579885639 -0.47096200175951819 0 0.31233070984334649 -0.4698136755964174 0 0.29248183383770943 -0.46798671491764698 0 0.28787956636815781 -0.44902834032778349 0 0.27521814585303428 -0.44893921076090898 0 0.30127097051635587 -0.45632739666270228 0 0.29248183383770943 -0.46798671491764698 0 0.28787956636815781 -0.44902834032778349 0 0.27951396849349469 -0.4234088161413731 0 0.2982902366169683 -0.44182157555355711 0 0.28787956636815781 -0.44902834032778349 0 0.2982902366169683 -0.44182157555355711 0 0.30127097051635587 -0.45632739666270228 0 0.28787956636815781 -0.44902834032778349 0 0.27951396849349469 -0.4234088161413731 0 0.28787956636815781 -0.44902834032778349 0 0.27521814585303428 -0.44893921076090898 0 0.25072956183208273 -0.43608254974133992 0 0.27521814585303428 -0.44893921076090898 0 0.24978021400896391 -0.4612832553706081 0 0.27521814585303428 -0.44893921076090898 0 0.27092232321257342 -0.47446960538044508 0 0.24978021400896391 -0.4612832553706081 0 0.29248183383770943 -0.46798671491764698 0 0.27521814585303428 -0.44893921076090898 0 0.27092232321257342 -0.47446960538044508 0 0.27521814585303428 -0.44893921076090898 0 0.27092232321257342 -0.47446960538044508 0 0.27092232321257342 -0.47446960538044508 0 0.25283180644144021 -0.48382821546207538 0 0.24978021400896391 -0.4612832553706081 0 0.27092232321257342 -0.47446960538044508 0 0.25283180644144021 -0.48382821546207538 0 0.26662650057211568 -0.49999999999998163 0 0.25283180644144021 -0.48382821546207538 0 0.26662650057211568 -0.49999999999998163 0 0.24036322861570891 -0.5 0 0.27092232321257342 -0.47446960538044508 0 0.26662650057211568 -0.49999999999998163 0 0.27092232321257342 -0.47446960538044508 0 0.26662650057211568 -0.49999999999998163 0 0.28641282805632201 -0.48476692321631171 0 0.26662650057211568 -0.49999999999998163 0 0.29340483263721312 -0.5 0 0.28641282805632201 -0.48476692321631171 0 0.29340483263721312 -0.5 0 0.28641282805632201 -0.48476692321631171 0 0.30106266775049978 -0.48761010415562911 0 0.29248183383770943 -0.46798671491764698 0 0.28641282805632201 -0.48476692321631171 0 0.29932950685805781 -0.47746633856808463 0 0.29248183383770943 -0.46798671491764698 0 0.27092232321257342 -0.47446960538044508 0 0.28641282805632201 -0.48476692321631171 0 0.28641282805632201 -0.48476692321631171 0 0.29932950685805781 -0.47746633856808463 0 0.30106266775049978 -0.48761010415562911 0 0.32468948870037218 -0.48168536998229339 0 0.31096968578772782 -0.47704537188798157 0 0.30106266775049978 -0.48761010415562911 0 0.29932950685805781 -0.47746633856808463 0 0.31096968578772782 -0.47704537188798157 0 0.30106266775049978 -0.48761010415562911 0 0.29248183383770943 -0.46798671491764698 0 0.29932950685805781 -0.47746633856808463 0 0.30536712579885639 -0.47096200175951819 0 0.29932950685805781 -0.47746633856808463 0 0.30536712579885639 -0.47096200175951819 0 0.31096968578772782 -0.47704537188798157 0 0.30536712579885639 -0.47096200175951819 0 0.31233070984334649 -0.4698136755964174 0 0.31096968578772782 -0.47704537188798157 0 0.32018316470231062 -0.5 0 0.29340483263721312 -0.5 0 0.30106266775049978 -0.48761010415562911 0 0.34022418646271629 -0.29584880854305923 0 0.33258978239681158 -0.28007027607583762 0 0.3502655342581118 -0.28684524562596769 0 0.33258978239681158 -0.28007027607583762 0 0.34794599093047429 -0.27696816315434458 0 0.3502655342581118 -0.28684524562596769 0 0.34022418646271629 -0.29584880854305923 0 0.3201724886922529 -0.29839487038498519 0 0.33258978239681158 -0.28007027607583762 0 0.34022418646271629 -0.29584880854305923 0 0.33432486350877022 -0.30982424090789062 0 0.3201724886922529 -0.29839487038498519 0 0.34022418646271629 -0.29584880854305923 0 0.3201724886922529 -0.29839487038498519 0 0.34022418646271629 -0.29584880854305923 0 0.33432486350877022 -0.30982424090789062 0 0.34808804009734762 -0.3068965458957299 0 0.3201724886922529 -0.29839487038498519 0 0.32042685174961583 -0.31881327668536941 0 0.30968211496068709 -0.30791113337716269 0 0.33432486350877022 -0.30982424090789062 0 0.3201724886922529 -0.29839487038498519 0 0.32042685174961583 -0.31881327668536941 0 0.3201724886922529 -0.29839487038498519 0 0.33258978239681158 -0.28007027607583762 0 0.30476297827281562 -0.27335206627764291 0 0.32168223201021329 -0.26471874292905162 0 0.33258978239681158 -0.28007027607583762 0 0.30476297827281562 -0.27335206627764291 0 0.30940516562384129 -0.2457632003283742 0 0.32168223201021329 -0.26471874292905162 0 0.33429727022642308 -0.25249254103527918 0 0.34562046004826852 -0.24418007910069611 0 0.33429727022642308 -0.25249254103527918 0 0.35043358926258411 -0.25434000808505441 0 0.32168223201021329 -0.26471874292905162 0 0.33429727022642308 -0.25249254103527918 0 0.34474941895721128 -0.26406112611841293 0 0.33429727022642308 -0.25249254103527918 0 0.35043358926258411 -0.25434000808505441 0 0.34474941895721128 -0.26406112611841293 0 0.33258978239681158 -0.28007027607583762 0 0.34794599093047429 -0.27696816315434458 0 0.34474941895721128 -0.26406112611841293 0 0.32168223201021329 -0.26471874292905162 0 0.33258978239681158 -0.28007027607583762 0 0.34474941895721128 -0.26406112611841293 0 0.34794599093047429 -0.27696816315434458 0 0.3578334986589089 -0.27091254446142971 0 0.34474941895721128 -0.26406112611841293 0 0.34794599093047429 -0.27696816315434458 0 0.3578334986589089 -0.27091254446142971 0 0.35732307788971851 -0.28107245477923698 0 0.3578334986589089 -0.27091254446142971 0 0.34474941895721128 -0.26406112611841293 0 0.35971099707869258 -0.26073920947445262 0 0.35043358926258411 -0.25434000808505441 0 0.34474941895721128 -0.26406112611841293 0 0.35971099707869258 -0.26073920947445262 0 0.36150854347069927 -0.2491192527932449 0 0.35043358926258411 -0.25434000808505441 0 0.35971099707869258 -0.26073920947445262 0 0.36150854347069927 -0.2491192527932449 0 0.3827992677728238 -0.24507343478588661 0 0.3728020691175547 -0.25670668018174297 0 0.36150854347069927 -0.2491192527932449 0 0.35971099707869258 -0.26073920947445262 0 0.3728020691175547 -0.25670668018174297 0 0.35971099707869258 -0.26073920947445262 0 0.3728020691175547 -0.25670668018174297 0 0.3694598570921252 -0.26633523500162948 0 0.38159489376660388 -0.26654245110905678 0 0.3728020691175547 -0.25670668018174297 0 0.3694598570921252 -0.26633523500162948 0 0.3578334986589089 -0.27091254446142971 0 0.35732307788971851 -0.28107245477923698 0 0.36737587043628661 -0.27693238459667169 0 0.3578334986589089 -0.27091254446142971 0 0.35971099707869258 -0.26073920947445262 0 0.3694598570921252 -0.26633523500162948 0 0.3578334986589089 -0.27091254446142971 0 0.3694598570921252 -0.26633523500162948 0 0.36737587043628661 -0.27693238459667169 0 0.37501411086202002 -0.27336796588619222 0 0.3694598570921252 -0.26633523500162948 0 0.36737587043628661 -0.27693238459667169 0 0.37501411086202002 -0.27336796588619222 0 0.36737587043628661 -0.27693238459667169 0 0.37418848355958279 -0.28113924716966288 0 0.37978459749747312 -0.29082563024965441 0 0.36027588423317991 -0.2933027467011331 0 0.36544990571931091 -0.28627341266707312 0 0.36737587043628661 -0.27693238459667169 0 0.37418848355958279 -0.28113924716966288 0 0.36544990571931091 -0.28627341266707312 0 0.37978459749747312 -0.29082563024965441 0 0.36027588423317991 -0.2933027467011331 0 0.37403881535058092 -0.30330990646884931 0 0.37978459749747312 -0.29082563024965441 0 0.36027588423317991 -0.2933027467011331 0 0.37978459749747312 -0.29082563024965441 0 0.37418848355958279 -0.28113924716966288 0 0.36544990571931091 -0.28627341266707312 0 0.36007010027558722 -0.29181151134300848 0 0.36027588423317991 -0.2933027467011331 0 0.36544990571931091 -0.28627341266707312 0 0.36007010027558722 -0.29181151134300848 0 0.36027588423317991 -0.2933027467011331 0 0.35732307788971851 -0.28107245477923698 0 0.36544990571931091 -0.28627341266707312 0 0.35938317285556393 -0.28626635674024781 0 0.35732307788971851 -0.28107245477923698 0 0.36737587043628661 -0.27693238459667169 0 0.36544990571931091 -0.28627341266707312 0 0.36007010027558722 -0.29181151134300848 0 0.36544990571931091 -0.28627341266707312 0 0.35938317285556393 -0.28626635674024781 0 0.34022418646271629 -0.29584880854305923 0 0.36027588423317991 -0.2933027467011331 0 0.3502655342581118 -0.28684524562596769 0 0.34794599093047429 -0.27696816315434458 0 0.35732307788971851 -0.28107245477923698 0 0.3502655342581118 -0.28684524562596769 0 0.36007010027558722 -0.29181151134300848 0 0.35938317285556393 -0.28626635674024781 0 0.3502655342581118 -0.28684524562596769 0 0.34022418646271629 -0.29584880854305923 0 0.36027588423317991 -0.2933027467011331 0 0.35732307788971851 -0.28107245477923698 0 0.35938317285556393 -0.28626635674024781 0 0.3502655342581118 -0.28684524562596769 0 0.36007010027558722 -0.29181151134300848 0 0.36027588423317991 -0.2933027467011331 0 0.3502655342581118 -0.28684524562596769 0 0.36027588423317991 -0.2933027467011331 0 0.34808804009734762 -0.3068965458957299 0 0.36276989126192699 -0.31137583416722348 0 0.34022418646271629 -0.29584880854305923 0 0.36027588423317991 -0.2933027467011331 0 0.34808804009734762 -0.3068965458957299 0 0.37925531208470792 -0.31629973684117291 0 0.36276989126192699 -0.31137583416722348 0 0.37403881535058092 -0.30330990646884931 0 0.36027588423317991 -0.2933027467011331 0 0.36276989126192699 -0.31137583416722348 0 0.37403881535058092 -0.30330990646884931 0 0.36027588423317991 -0.2933027467011331 0 0.36276989126192699 -0.31137583416722348 0 0.37925531208470792 -0.31629973684117291 0 0.36276989126192699 -0.31137583416722348 0 0.36526389829067368 -0.32944892163331402 0 0.36276989126192699 -0.31137583416722348 0 0.36526389829067368 -0.32944892163331402 0 0.36526389829067368 -0.32944892163331402 0 0.34905509346381131 -0.33762708921281692 0 0.36725849449433062 -0.34390297538403419 0 0.38386525552236261 -0.33766814727239958 0 0.36526389829067368 -0.32944892163331402 0 0.36725849449433062 -0.34390297538403419 0 0.36526389829067368 -0.32944892163331402 0 0.36725849449433062 -0.34390297538403419 0 0.36526389829067368 -0.32944892163331402 0 0.34905509346381131 -0.33762708921281692 0 0.3428453750201445 -0.32413109915934302 0 0.36526389829067368 -0.32944892163331402 0 0.3428453750201445 -0.32413109915934302 0 0.34808804009734762 -0.3068965458957299 0 0.36276989126192699 -0.31137583416722348 0 0.3428453750201445 -0.32413109915934302 0 0.36276989126192699 -0.31137583416722348 0 0.36526389829067368 -0.32944892163331402 0 0.3428453750201445 -0.32413109915934302 0 0.37285212179166238 -0.38443779113720328 0 0.37005530814299631 -0.36417038326061879 0 0.37005530814299631 -0.36417038326061879 0 0.36725849449433062 -0.34390297538403419 0 0.34201985763766207 -0.35337854755056253 0 0.37005530814299631 -0.36417038326061879 0 0.36725849449433062 -0.34390297538403419 0 0.38000534908917538 -0.34954272566633282 0 0.37005530814299631 -0.36417038326061879 0 0.36725849449433062 -0.34390297538403419 0 0.34905509346381131 -0.33762708921281692 0 0.36725849449433062 -0.34390297538403419 0 0.34201985763766207 -0.35337854755056253 0 0.36725849449433062 -0.34390297538403419 0 0.34201985763766207 -0.35337854755056253 0 0.3536000406606799 -0.37819115038319662 0 0.37005530814299631 -0.36417038326061879 0 0.34201985763766207 -0.35337854755056253 0 0.3536000406606799 -0.37819115038319662 0 0.3342402226541592 -0.37456795895141559 0 0.34201985763766207 -0.35337854755056253 0 0.3342402226541592 -0.37456795895141559 0 0.34201985763766207 -0.35337854755056253 0 0.31678122078099208 -0.36285411971708692 0 0.34201985763766207 -0.35337854755056253 0 0.31678122078099208 -0.36285411971708692 0 0.34201985763766207 -0.35337854755056253 0 0.32610060325630252 -0.35024411689246188 0 0.31678122078099208 -0.36285411971708692 0 0.34201985763766207 -0.35337854755056253 0 0.32610060325630252 -0.35024411689246188 0 0.32788784187624459 -0.33727390233683069 0 0.32610060325630252 -0.35024411689246188 0 0.31978395218942379 -0.34391977313606842 0 0.31720810342216749 -0.35407879030627432 0 0.32610060325630252 -0.35024411689246188 0 0.31978395218942379 -0.34391977313606842 0 0.32788784187624459 -0.33727390233683069 0 0.31978395218942379 -0.34391977313606842 0 0.31720810342216749 -0.35407879030627432 0 0.30725176669360882 -0.34615789699189908 0 0.32610060325630252 -0.35024411689246188 0 0.31720810342216749 -0.35407879030627432 0 0.31678122078099208 -0.36285411971708692 0 0.31720810342216749 -0.35407879030627432 0 0.31678122078099208 -0.36285411971708692 0 0.31720810342216749 -0.35407879030627432 0 0.31678122078099208 -0.36285411971708692 0 0.30752051583498591 -0.35732873387966341 0 0.3428453750201445 -0.32413109915934302 0 0.32788784187624459 -0.33727390233683069 0 0.32042685174961583 -0.31881327668536941 0 0.3428453750201445 -0.32413109915934302 0 0.32042685174961583 -0.31881327668536941 0 0.33432486350877022 -0.30982424090789062 0 0.3428453750201445 -0.32413109915934302 0 0.32042685174961583 -0.31881327668536941 0 0.33432486350877022 -0.30982424090789062 0 0.34808804009734762 -0.3068965458957299 0 0.3428453750201445 -0.32413109915934302 0 0.34905509346381131 -0.33762708921281692 0 0.34201985763766207 -0.35337854755056253 0 0.32788784187624459 -0.33727390233683069 0 0.34905509346381131 -0.33762708921281692 0 0.3428453750201445 -0.32413109915934302 0 0.32788784187624459 -0.33727390233683069 0 0.32788784187624459 -0.33727390233683069 0 0.31311255653732728 -0.3344187888010231 0 0.32042685174961583 -0.31881327668536941 0 0.31978395218942379 -0.34391977313606842 0 0.32788784187624459 -0.33727390233683069 0 0.31311255653732728 -0.3344187888010231 0 0.31978395218942379 -0.34391977313606842 0 0.31311255653732728 -0.3344187888010231 0 0.30725176669360882 -0.34615789699189908 0 0.31311255653732728 -0.3344187888010231 0 0.32042685174961583 -0.31881327668536941 0 0.30654475091291161 -0.3250732757610903 0 0.29800832847908959 -0.31349545421138492 0 0.30654475091291161 -0.3250732757610903 0 0.29463126688561292 -0.33356558334658371 0 0.32042685174961583 -0.31881327668536941 0 0.29800832847908959 -0.31349545421138492 0 0.30654475091291161 -0.3250732757610903 0 0.32042685174961583 -0.31881327668536941 0 0.29800832847908959 -0.31349545421138492 0 0.30968211496068709 -0.30791113337716269 0 0.32042685174961583 -0.31881327668536941 0 0.29800832847908959 -0.31349545421138492 0 0.31311255653732728 -0.3344187888010231 0 0.30654475091291161 -0.3250732757610903 0 0.29463126688561292 -0.33356558334658371 0 0.31311255653732728 -0.3344187888010231 0 0.29463126688561292 -0.33356558334658371 0 0.30725176669360882 -0.34615789699189908 0 0.29463126688561292 -0.33356558334658371 0 0.29125420529213553 -0.35363571248178222 0 0.29463126688561292 -0.33356558334658371 0 0.2829977467300222 -0.34232034503194531 0 0.29125420529213553 -0.35363571248178222 0 0.29463126688561292 -0.33356558334658371 0 0.2829977467300222 -0.34232034503194531 0 0.28003996303799877 -0.32964283263223082 0 0.29800832847908959 -0.31349545421138492 0 0.29463126688561292 -0.33356558334658371 0 0.29800832847908959 -0.31349545421138492 0 0.29463126688561292 -0.33356558334658371 0 0.28003996303799877 -0.32964283263223082 0 0.29800832847908959 -0.31349545421138492 0 0.27119401827404738 -0.31570354457885641 0 0.28003996303799877 -0.32964283263223082 0 0.31549748470940231 -0.38924359030718653 0 0.31678122078099208 -0.36285411971708692 0 0.30232918223981969 -0.36827998066702761 0 0.30232918223981969 -0.36827998066702761 0 0.30752051583498591 -0.35732873387966341 0 0.29125420529213553 -0.35363571248178222 0 0.31678122078099208 -0.36285411971708692 0 0.30232918223981969 -0.36827998066702761 0 0.31678122078099208 -0.36285411971708692 0 0.30232918223981969 -0.36827998066702761 0 0.30752051583498591 -0.35732873387966341 0 0.29463126688561292 -0.33356558334658371 0 0.30725176669360882 -0.34615789699189908 0 0.29125420529213553 -0.35363571248178222 0 0.30752051583498591 -0.35732873387966341 0 0.30725176669360882 -0.34615789699189908 0 0.29125420529213553 -0.35363571248178222 0 0.31720810342216749 -0.35407879030627432 0 0.30752051583498591 -0.35732873387966341 0 0.30725176669360882 -0.34615789699189908 0 0.2829977467300222 -0.34232034503194531 0 0.29125420529213553 -0.35363571248178222 0 0.27772843120328738 -0.35910401557726029 0 0.29125420529213553 -0.35363571248178222 0 0.28787714369865153 -0.37370584161697928 0 0.27772843120328738 -0.35910401557726029 0 0.30232918223981969 -0.36827998066702761 0 0.29125420529213553 -0.35363571248178222 0 0.28787714369865153 -0.37370584161697928 0 0.29125420529213553 -0.35363571248178222 0 0.28787714369865153 -0.37370584161697928 0 0.30232918223981969 -0.36827998066702761 0 0.28787714369865153 -0.37370584161697928 0 0.27419843950030459 -0.37884136258476031 0 0.28787714369865153 -0.37370584161697928 0 0.27772843120328738 -0.35910401557726029 0 0.27419843950030459 -0.37884136258476031 0 0.27772843120328738 -0.35910401557726029 0 0.26033990568937221 -0.361518071583116 0 0.27772843120328738 -0.35910401557726029 0 0.26970314630923198 -0.34460276016497787 0 0.26033990568937221 -0.361518071583116 0 0.2829977467300222 -0.34232034503194531 0 0.27772843120328738 -0.35910401557726029 0 0.26970314630923198 -0.34460276016497787 0 0.26970314630923198 -0.34460276016497787 0 0.25506317294160841 -0.34394617595589072 0 0.26033990568937221 -0.361518071583116 0 0.25506317294160841 -0.34394617595589072 0 0.26033990568937221 -0.361518071583116 0 0.24257215414566771 -0.35219556822436437 0 0.27419843950030459 -0.37884136258476031 0 0.25954642525693078 -0.37727783671768689 0 0.26033990568937221 -0.361518071583116 0 0.25954642525693078 -0.37727783671768689 0 0.26033990568937221 -0.361518071583116 0 0.24297959987544521 -0.375330209453965 0 0.27119401827404738 -0.31570354457885641 0 0.28003996303799877 -0.32964283263223082 0 0.26370527154998818 -0.32816930845963682 0 0.26970314630923198 -0.34460276016497787 0 0.28003996303799877 -0.32964283263223082 0 0.26370527154998818 -0.32816930845963682 0 0.2829977467300222 -0.34232034503194531 0 0.26970314630923198 -0.34460276016497787 0 0.28003996303799877 -0.32964283263223082 0 0.25506317294160841 -0.34394617595589072 0 0.26370527154998818 -0.32816930845963682 0 0.2443960202802411 -0.33142510246718149 0 0.26970314630923198 -0.34460276016497787 0 0.25506317294160841 -0.34394617595589072 0 0.26370527154998818 -0.32816930845963682 0 0.26370527154998818 -0.32816930845963682 0 0.2520755547736595 -0.3187617554511748 0 0.2443960202802411 -0.33142510246718149 0 0.26370527154998818 -0.32816930845963682 0 0.25889532404710408 -0.31610290242639988 0 0.2520755547736595 -0.3187617554511748 0 0.27119401827404738 -0.31570354457885641 0 0.26370527154998818 -0.32816930845963682 0 0.25889532404710408 -0.31610290242639988 0 0.27257151064296081 -0.29273258600467811 0 0.27330739003490462 -0.30763622771366339 0 0.24860645159072189 -0.30177700121593148 0 0.27119401827404738 -0.31570354457885641 0 0.25889532404710408 -0.31610290242639988 0 0.24860645159072189 -0.30177700121593148 0 0.25889532404710408 -0.31610290242639988 0 0.2520755547736595 -0.3187617554511748 0 0.24860645159072189 -0.30177700121593148 0 0.27119401827404738 -0.31570354457885641 0 0.27330739003490462 -0.30763622771366339 0 0.24860645159072189 -0.30177700121593148 0 0.27330739003490462 -0.30763622771366339 0 0.24860645159072189 -0.30177700121593148 0 0.27119401827404738 -0.31570354457885641 0 0.24860645159072189 -0.30177700121593148 0 0.26190225845650589 -0.28297588555232123 0 0.24312189377252569 -0.28434635555044108 0 0.24860645159072189 -0.30177700121593148 0 0.26190225845650589 -0.28297588555232123 0 0.27257151064296081 -0.29273258600467811 0 0.24860645159072189 -0.30177700121593148 0 0.26190225845650589 -0.28297588555232123 0 0.27257151064296081 -0.29273258600467811 0 0.28019843918456439 -0.28399352000525901 0 0.27257151064296081 -0.29273258600467811 0 0.28019843918456439 -0.28399352000525901 0 0.28502917525864258 -0.29869090285804001 0 0.29800832847908959 -0.31349545421138492 0 0.27119401827404738 -0.31570354457885641 0 0.27330739003490462 -0.30763622771366339 0 0.27257151064296081 -0.29273258600467811 0 0.27330739003490462 -0.30763622771366339 0 0.28502917525864258 -0.29869090285804001 0 0.29800832847908959 -0.31349545421138492 0 0.27330739003490462 -0.30763622771366339 0 0.28502917525864258 -0.29869090285804001 0 0.29800832847908959 -0.31349545421138492 0 0.27330739003490462 -0.30763622771366339 0 0.29407745174821598 -0.30110703763853292 0 0.28502917525864258 -0.29869090285804001 0 0.29368121673734382 -0.29123360210667659 0 0.29407745174821598 -0.30110703763853292 0 0.29368121673734382 -0.29123360210667659 0 0.30012079092178939 -0.30094093222691132 0 0.29800832847908959 -0.31349545421138492 0 0.29407745174821598 -0.30110703763853292 0 0.28502917525864258 -0.29869090285804001 0 0.28019843918456439 -0.28399352000525901 0 0.28502917525864258 -0.29869090285804001 0 0.29368121673734382 -0.29123360210667659 0 0.28019843918456439 -0.28399352000525901 0 0.29368121673734382 -0.29123360210667659 0 0.28994945030712238 -0.27495485180702228 0 0.30012079092178939 -0.30094093222691132 0 0.30476297827281562 -0.27335206627764291 0 0.29368121673734382 -0.29123360210667659 0 0.30012079092178939 -0.30094093222691132 0 0.30476297827281562 -0.27335206627764291 0 0.3201724886922529 -0.29839487038498519 0 0.30012079092178939 -0.30094093222691132 0 0.30476297827281562 -0.27335206627764291 0 0.3201724886922529 -0.29839487038498519 0 0.30968211496068709 -0.30791113337716269 0 0.30012079092178939 -0.30094093222691132 0 0.3201724886922529 -0.29839487038498519 0 0.30012079092178939 -0.30094093222691132 0 0.29800832847908959 -0.31349545421138492 0 0.30968211496068709 -0.30791113337716269 0 0.30012079092178939 -0.30094093222691132 0 0.29800832847908959 -0.31349545421138492 0 0.30012079092178939 -0.30094093222691132 0 0.29800832847908959 -0.31349545421138492 0 0.29407745174821598 -0.30110703763853292 0 0.30012079092178939 -0.30094093222691132 0 0.30940516562384129 -0.2457632003283742 0 0.30348240823191069 -0.25415554999530948 0 0.30476297827281562 -0.27335206627764291 0 0.29755073166043411 -0.26171544001529912 0 0.30348240823191069 -0.25415554999530948 0 0.30476297827281562 -0.27335206627764291 0 0.30940516562384129 -0.2457632003283742 0 0.30476297827281562 -0.27335206627764291 0 0.30940516562384129 -0.2457632003283742 0 0.32168223201021329 -0.26471874292905162 0 0.30476297827281562 -0.27335206627764291 0 0.29755073166043411 -0.26171544001529912 0 0.30476297827281562 -0.27335206627764291 0 0.28994945030712238 -0.27495485180702228 0 0.29755073166043411 -0.26171544001529912 0 0.28994945030712238 -0.27495485180702228 0 0.27355388568045458 -0.26447963063023389 0 0.29368121673734382 -0.29123360210667659 0 0.30476297827281562 -0.27335206627764291 0 0.28994945030712238 -0.27495485180702228 0 0.29755073166043411 -0.26171544001529912 0 0.27355388568045458 -0.26447963063023389 0 0.28836872773541877 -0.24840399774211699 0 0.29755073166043411 -0.26171544001529912 0 0.27355388568045458 -0.26447963063023389 0 0.28836872773541877 -0.24840399774211699 0 0.29755073166043411 -0.26171544001529912 0 0.30348240823191069 -0.25415554999530948 0 0.28836872773541877 -0.24840399774211699 0 0.26747879955957909 -0.2434614922595176 0 0.27355388568045458 -0.26447963063023389 0 0.26190225845650589 -0.28297588555232123 0 0.28019843918456439 -0.28399352000525901 0 0.27355388568045458 -0.26447963063023389 0 0.28019843918456439 -0.28399352000525901 0 0.28994945030712238 -0.27495485180702228 0 0.27355388568045458 -0.26447963063023389 0 0.26190225845650589 -0.28297588555232123 0 0.27355388568045458 -0.26447963063023389 0 0.24955703970047499 -0.26724382124516871 0 0.27355388568045458 -0.26447963063023389 0 0.24955703970047499 -0.26724382124516871 0 0.26190225845650589 -0.28297588555232123 0 0.24955703970047499 -0.26724382124516871 0 0.24312189377252569 -0.28434635555044108 0 0.26747879955957909 -0.2434614922595176 0 0.27355388568045458 -0.26447963063023389 0 0.25131169626011179 -0.25128607895865762 0 0.27355388568045458 -0.26447963063023389 0 0.25131169626011179 -0.25128607895865762 0 0.24955703970047499 -0.26724382124516871 0 0.25131169626011179 -0.25128607895865762 0 0.236178503617929 -0.25664470182088411 0 0.24955703970047499 -0.26724382124516871 0 0.236178503617929 -0.25664470182088411 0 0.24955703970047499 -0.26724382124516871 0 0.22556019372049549 -0.27000801186010348 0 0.24955703970047499 -0.26724382124516871 0 0.22556019372049549 -0.27000801186010348 0 0.24955703970047499 -0.26724382124516871 0 0.22556019372049549 -0.27000801186010348 0 0.24312189377252569 -0.28434635555044108 0 0.22556019372049549 -0.27000801186010348 0 0.22508489966561901 -0.28727460184548392 0 0.24312189377252569 -0.28434635555044108 0 0.236178503617929 -0.25664470182088411 0 0.22393921163467681 -0.25917631791906709 0 0.22113009926732699 -0.24859038082014079 0 0.236178503617929 -0.25664470182088411 0 0.22556019372049549 -0.27000801186010348 0 0.22393921163467681 -0.25917631791906709 0 0.22556019372049549 -0.27000801186010348 0 0.22393921163467681 -0.25917631791906709 0 0.21484283438349111 -0.26060275604272748 0 0.22393921163467681 -0.25917631791906709 0 0.21484283438349111 -0.26060275604272748 0 0.22113009926732699 -0.24859038082014079 0 0.19820644826462899 -0.26021426991484897 0 0.22113009926732699 -0.24859038082014079 0 0.2077619138514282 -0.2477891600225153 0 0.19820644826462899 -0.26021426991484897 0 0.22113009926732699 -0.24859038082014079 0 0.21484283438349111 -0.26060275604272748 0 0.19820644826462899 -0.26021426991484897 0 0.22113009926732699 -0.24859038082014079 0 0.22556019372049549 -0.27000801186010348 0 0.20537821903032799 -0.26502479969947768 0 0.21484283438349111 -0.26060275604272748 0 0.20537821903032799 -0.26502479969947768 0 0.21484283438349111 -0.26060275604272748 0 0.19820644826462899 -0.26021426991484897 0 0.22556019372049549 -0.27000801186010348 0 0.20537821903032799 -0.26502479969947768 0 0.20156334774051579 -0.27277220247503681 0 0.20156334774051579 -0.27277220247503681 0 0.22508489966561901 -0.28727460184548392 0 0.22556019372049549 -0.27000801186010348 0 0.20156334774051579 -0.27277220247503681 0 0.22556019372049549 -0.27000801186010348 0 0.20156334774051579 -0.27277220247503681 0 0.22508489966561901 -0.28727460184548392 0 0.20156334774051579 -0.27277220247503681 0 0.20008003484694889 -0.28384729204745662 0 0.2102160928840415 -0.2855191938199691 0 0.20156334774051579 -0.27277220247503681 0 0.19023711178087929 -0.27407686872860693 0 0.19023711178087929 -0.27407686872860693 0 0.19273492615118651 -0.26732896913282972 0 0.1803004639372382 -0.28349767991483371 0 0.20537821903032799 -0.26502479969947768 0 0.20156334774051579 -0.27277220247503681 0 0.19273492615118651 -0.26732896913282972 0 0.20156334774051579 -0.27277220247503681 0 0.19273492615118651 -0.26732896913282972 0 0.20156334774051579 -0.27277220247503681 0 0.19023711178087929 -0.27407686872860693 0 0.20008003484694889 -0.28384729204745662 0 0.19023711178087929 -0.27407686872860693 0 0.19078602399969161 -0.28460660680975802 0 0.20008003484694889 -0.28384729204745662 0 0.20156334774051579 -0.27277220247503681 0 0.19023711178087929 -0.27407686872860693 0 0.19273492615118651 -0.26732896913282972 0 0.19273492615118651 -0.26732896913282972 0 0.1873300493154561 -0.26399654945791051 0 0.19296142985404149 -0.26287385988580192 0 0.18861148586302129 -0.25546560807613339 0 0.19820644826462899 -0.26021426991484897 0 0.19273492615118651 -0.26732896913282972 0 0.19296142985404149 -0.26287385988580192 0 0.1873300493154561 -0.26399654945791051 0 0.19820644826462899 -0.26021426991484897 0 0.2077619138514282 -0.2477891600225153 0 0.19109642933565141 -0.24296032107190771 0 0.18861148586302129 -0.25546560807613339 0 0.19820644826462899 -0.26021426991484897 0 0.19109642933565141 -0.24296032107190771 0 0.19296142985404149 -0.26287385988580192 0 0.18861148586302129 -0.25546560807613339 0 0.1873300493154561 -0.26399654945791051 0 0.19273492615118651 -0.26732896913282972 0 0.19296142985404149 -0.26287385988580192 0 0.19820644826462899 -0.26021426991484897 0 0.19820644826462899 -0.26021426991484897 0 0.2077619138514282 -0.2477891600225153 0 0.20537821903032799 -0.26502479969947768 0 0.19273492615118651 -0.26732896913282972 0 0.19820644826462899 -0.26021426991484897 0 0.19273492615118651 -0.26732896913282972 0 0.19820644826462899 -0.26021426991484897 0 0.19296142985404149 -0.26287385988580192 0 0.19820644826462899 -0.26021426991484897 0 0.19584114140394951 -0.30376401160902838 0 0.19780965158188449 -0.31724557276321907 0 0.1812047654654628 -0.30551569874898521 0 0.19584114140394951 -0.30376401160902838 0 0.19812335593365479 -0.2935984828511583 0 0.20707563056655351 -0.30051234694611939 0 0.19584114140394951 -0.30376401160902838 0 0.20635155101503669 -0.31141747320548863 0 0.19780965158188449 -0.31724557276321907 0 0.19584114140394951 -0.30376401160902838 0 0.20707563056655351 -0.30051234694611939 0 0.20635155101503669 -0.31141747320548863 0 0.19584114140394951 -0.30376401160902838 0 0.19812335593365479 -0.2935984828511583 0 0.18724019499035771 -0.29458839711743662 0 0.19584114140394951 -0.30376401160902838 0 0.18724019499035771 -0.29458839711743662 0 0.1812047654654628 -0.30551569874898521 0 0.19078602399969161 -0.28460660680975802 0 0.19812335593365479 -0.2935984828511583 0 0.18724019499035771 -0.29458839711743662 0 0.19078602399969161 -0.28460660680975802 0 0.20008003484694889 -0.28384729204745662 0 0.19812335593365479 -0.2935984828511583 0 0.20008003484694889 -0.28384729204745662 0 0.19812335593365479 -0.2935984828511583 0 0.2080673548556741 -0.29203816958965761 0 0.19812335593365479 -0.2935984828511583 0 0.2080673548556741 -0.29203816958965761 0 0.20707563056655351 -0.30051234694611939 0 0.20156334774051579 -0.27277220247503681 0 0.2102160928840415 -0.2855191938199691 0 0.22508489966561901 -0.28727460184548392 0 0.20008003484694889 -0.28384729204745662 0 0.2080673548556741 -0.29203816958965761 0 0.2102160928840415 -0.2855191938199691 0 0.2080673548556741 -0.29203816958965761 0 0.21770443498843911 -0.29444683783292369 0 0.20707563056655351 -0.30051234694611939 0 0.2080673548556741 -0.29203816958965761 0 0.2102160928840415 -0.2855191938199691 0 0.21770443498843911 -0.29444683783292369 0 0.2102160928840415 -0.2855191938199691 0 0.21770443498843911 -0.29444683783292369 0 0.22508489966561901 -0.28727460184548392 0 0.21770443498843911 -0.29444683783292369 0 0.20707563056655351 -0.30051234694611939 0 0.22101684370210761 -0.30963424358280239 0 0.20707563056655351 -0.30051234694611939 0 0.20635155101503669 -0.31141747320548863 0 0.22101684370210761 -0.30963424358280239 0 0.22101684370210761 -0.30963424358280239 0 0.23315544328958049 -0.29811191952442728 0 0.23967778720895799 -0.31368750019739777 0 0.21770443498843911 -0.29444683783292369 0 0.22101684370210761 -0.30963424358280239 0 0.23315544328958049 -0.29811191952442728 0 0.21770443498843911 -0.29444683783292369 0 0.23315544328958049 -0.29811191952442728 0 0.22508489966561901 -0.28727460184548392 0 0.21770443498843911 -0.29444683783292369 0 0.23315544328958049 -0.29811191952442728 0 0.22508489966561901 -0.28727460184548392 0 0.24312189377252569 -0.28434635555044108 0 0.24860645159072189 -0.30177700121593148 0 0.23315544328958049 -0.29811191952442728 0 0.22508489966561901 -0.28727460184548392 0 0.24860645159072189 -0.30177700121593148 0 0.22508489966561901 -0.28727460184548392 0 0.24860645159072189 -0.30177700121593148 0 0.2520755547736595 -0.3187617554511748 0 0.24860645159072189 -0.30177700121593148 0 0.23967778720895799 -0.31368750019739777 0 0.23315544328958049 -0.29811191952442728 0 0.24860645159072189 -0.30177700121593148 0 0.23315544328958049 -0.29811191952442728 0 0.24860645159072189 -0.30177700121593148 0 0.23967778720895799 -0.31368750019739777 0 0.23967778720895799 -0.31368750019739777 0 0.2443960202802411 -0.33142510246718149 0 0.22947786422722119 -0.32327466029569463 0 0.2520755547736595 -0.3187617554511748 0 0.23967778720895799 -0.31368750019739777 0 0.2443960202802411 -0.33142510246718149 0 0.25506317294160841 -0.34394617595589072 0 0.2443960202802411 -0.33142510246718149 0 0.24257215414566771 -0.35219556822436437 0 0.2443960202802411 -0.33142510246718149 0 0.2263549820650162 -0.3381896751836958 0 0.24257215414566771 -0.35219556822436437 0 0.2263549820650162 -0.3381896751836958 0 0.22947786422722119 -0.32327466029569463 0 0.21363885161884119 -0.32377561875059913 0 0.2443960202802411 -0.33142510246718149 0 0.2263549820650162 -0.3381896751836958 0 0.22947786422722119 -0.32327466029569463 0 0.22101684370210761 -0.30963424358280239 0 0.23967778720895799 -0.31368750019739777 0 0.22947786422722119 -0.32327466029569463 0 0.22101684370210761 -0.30963424358280239 0 0.22947786422722119 -0.32327466029569463 0 0.21363885161884119 -0.32377561875059913 0 0.26033990568937221 -0.361518071583116 0 0.24257215414566771 -0.35219556822436437 0 0.24297959987544521 -0.375330209453965 0 0.24257215414566771 -0.35219556822436437 0 0.22375207992287041 -0.35699825252542161 0 0.24297959987544521 -0.375330209453965 0 0.2263549820650162 -0.3381896751836958 0 0.24257215414566771 -0.35219556822436437 0 0.22375207992287041 -0.35699825252542161 0 0.22375207992287041 -0.35699825252542161 0 0.24297959987544521 -0.375330209453965 0 0.22375207992287041 -0.35699825252542161 0 0.24297959987544521 -0.375330209453965 0 0.22249028388685371 -0.37757108575359077 0 0.20207681076290479 -0.36084529594857112 0 0.22249028388685371 -0.37757108575359077 0 0.19674945866127741 -0.38446231256205687 0 0.22375207992287041 -0.35699825252542161 0 0.20207681076290479 -0.36084529594857112 0 0.22249028388685371 -0.37757108575359077 0 0.22375207992287041 -0.35699825252542161 0 0.20452455997029559 -0.33866629559687811 0 0.22375207992287041 -0.35699825252542161 0 0.20207681076290479 -0.36084529594857112 0 0.20452455997029559 -0.33866629559687811 0 0.2263549820650162 -0.3381896751836958 0 0.22375207992287041 -0.35699825252542161 0 0.20452455997029559 -0.33866629559687811 0 0.20207681076290479 -0.36084529594857112 0 0.20452455997029559 -0.33866629559687811 0 0.18118805346262809 -0.34313147885817552 0 0.20207681076290479 -0.36084529594857112 0 0.18118805346262809 -0.34313147885817552 0 0.1824384692489395 -0.36486271940880982 0 0.20207681076290479 -0.36084529594857112 0 0.1824384692489395 -0.36486271940880982 0 0.19674945866127741 -0.38446231256205687 0 0.20635155101503669 -0.31141747320548863 0 0.21363885161884119 -0.32377561875059913 0 0.19780965158188449 -0.31724557276321907 0 0.21363885161884119 -0.32377561875059913 0 0.20452455997029559 -0.33866629559687811 0 0.19780965158188449 -0.31724557276321907 0 0.20635155101503669 -0.31141747320548863 0 0.22101684370210761 -0.30963424358280239 0 0.21363885161884119 -0.32377561875059913 0 0.2263549820650162 -0.3381896751836958 0 0.21363885161884119 -0.32377561875059913 0 0.20452455997029559 -0.33866629559687811 0 0.20452455997029559 -0.33866629559687811 0 0.1852970400177209 -0.32033433866833477 0 0.18118805346262809 -0.34313147885817552 0 0.20452455997029559 -0.33866629559687811 0 0.1852970400177209 -0.32033433866833477 0 0.20452455997029559 -0.33866629559687811 0 0.19780965158188449 -0.31724557276321907 0 0.1852970400177209 -0.32033433866833477 0 0.19780965158188449 -0.31724557276321907 0 0.1852970400177209 -0.32033433866833477 0 0.1812047654654628 -0.30551569874898521 0 0.1852970400177209 -0.32033433866833477 0 0.1699994488202391 -0.32279106526139612 0 0.16606952006514389 -0.30200238173979382 0 0.1852970400177209 -0.32033433866833477 0 0.18118805346262809 -0.34313147885817552 0 0.1699994488202391 -0.32279106526139612 0 0.18118805346262809 -0.34313147885817552 0 0.15753271159002941 -0.33847532704086702 0 0.1699994488202391 -0.32279106526139612 0 0.15753271159002941 -0.33847532704086702 0 0.15793819492864869 -0.31257566123868119 0 0.1599099189656728 -0.31001179999980971 0 0.15753271159002941 -0.33847532704086702 0 0.1599099189656728 -0.31001179999980971 0 0.15753271159002941 -0.33847532704086702 0 0.1699994488202391 -0.32279106526139612 0 0.1599099189656728 -0.31001179999980971 0 0.1824384692489395 -0.36486271940880982 0 0.18009437975833831 -0.38118823181047218 0 0.16673184556132489 -0.37558188364352929 0 0.18118805346262809 -0.34313147885817552 0 0.1824384692489395 -0.36486271940880982 0 0.16873226669386071 -0.35344275078782339 0 0.15753271159002941 -0.33847532704086702 0 0.16873226669386071 -0.35344275078782339 0 0.1551555042143869 -0.36693885408192439 0 0.15753271159002941 -0.33847532704086702 0 0.1551555042143869 -0.36693885408192439 0 0.18118805346262809 -0.34313147885817552 0 0.15753271159002941 -0.33847532704086702 0 0.16873226669386071 -0.35344275078782339 0 0.1824384692489395 -0.36486271940880982 0 0.16873226669386071 -0.35344275078782339 0 0.1551555042143869 -0.36693885408192439 0 0.1824384692489395 -0.36486271940880982 0 0.1551555042143869 -0.36693885408192439 0 0.16673184556132489 -0.37558188364352929 0 0.1824384692489395 -0.36486271940880982 0 0.1551555042143869 -0.36693885408192439 0 0.15465581836741249 -0.37292184982855942 0 0.1551555042143869 -0.36693885408192439 0 0.16673184556132489 -0.37558188364352929 0 0.1551555042143869 -0.36693885408192439 0 0.14038655439900469 -0.36806271759010178 0 0.15465581836741249 -0.37292184982855942 0 0.1551555042143869 -0.36693885408192439 0 0.14038655439900469 -0.36806271759010178 0 0.15465581836741249 -0.37292184982855942 0 0.1551555042143869 -0.36693885408192439 0 0.1551555042143869 -0.36693885408192439 0 0.14663176474062209 -0.35252944716334089 0 0.14038655439900469 -0.36806271759010178 0 0.15753271159002941 -0.33847532704086702 0 0.1551555042143869 -0.36693885408192439 0 0.14663176474062209 -0.35252944716334089 0 0.15753271159002941 -0.33847532704086702 0 0.14663176474062209 -0.35252944716334089 0 0.13205394375459961 -0.344297055186436 0 0.13205394375459961 -0.344297055186436 0 0.14038655439900469 -0.36806271759010178 0 0.14663176474062209 -0.35252944716334089 0 0.13205394375459961 -0.344297055186436 0 0.14038655439900469 -0.36806271759010178 0 0.14038655439900469 -0.36806271759010178 0 0.13418217020465559 -0.3821991055942352 0 0.1221089743757624 -0.36945357512991922 0 0.14038655439900469 -0.36806271759010178 0 0.1221089743757624 -0.36945357512991922 0 0.13205394375459961 -0.344297055186436 0 0.14038655439900469 -0.36806271759010178 0 0.1221089743757624 -0.36945357512991922 0 0.15753271159002941 -0.33847532704086702 0 0.1407456864413579 -0.32395447559205182 0 0.1488245981053134 -0.31426464004698162 0 0.15753271159002941 -0.33847532704086702 0 0.15793819492864869 -0.31257566123868119 0 0.1488245981053134 -0.31426464004698162 0 0.1407456864413579 -0.32395447559205182 0 0.1488245981053134 -0.31426464004698162 0 0.14159584564665259 -0.30220396290320378 0 0.15753271159002941 -0.33847532704086702 0 0.13205394375459961 -0.344297055186436 0 0.1407456864413579 -0.32395447559205182 0 0.13205394375459961 -0.344297055186436 0 0.12372133311019461 -0.32053139278277021 0 0.13205394375459961 -0.344297055186436 0 0.1407456864413579 -0.32395447559205182 0 0.12372133311019461 -0.32053139278277021 0 0.1407456864413579 -0.32395447559205182 0 0.14159584564665259 -0.30220396290320378 0 0.12372133311019461 -0.32053139278277021 0 0.14159584564665259 -0.30220396290320378 0 0.1153887224657895 -0.29676573037910442 0 0.12372133311019461 -0.32053139278277021 0 0.14159584564665259 -0.30220396290320378 0 0.15487585843153431 -0.30540463827556391 0 0.1609838100434729 -0.29715354958160062 0 0.1488245981053134 -0.31426464004698162 0 0.14159584564665259 -0.30220396290320378 0 0.15487585843153431 -0.30540463827556391 0 0.15793819492864869 -0.31257566123868119 0 0.1488245981053134 -0.31426464004698162 0 0.15487585843153431 -0.30540463827556391 0 0.1335294473604158 -0.28460914192927261 0 0.14225890545744271 -0.27930079762976612 0 0.1609838100434729 -0.29715354958160062 0 0.15186680081177409 -0.28373354567995618 0 0.14225890545744271 -0.27930079762976612 0 0.1609838100434729 -0.29715354958160062 0 0.14159584564665259 -0.30220396290320378 0 0.1335294473604158 -0.28460914192927261 0 0.1609838100434729 -0.29715354958160062 0 0.14225890545744271 -0.27930079762976612 0 0.1609838100434729 -0.29715354958160062 0 0.1335294473604158 -0.28460914192927261 0 0.1609838100434729 -0.29715354958160062 0 0.14159584564665259 -0.30220396290320378 0 0.1335294473604158 -0.28460914192927261 0 0.1153887224657895 -0.29676573037910442 0 0.14225890545744271 -0.27930079762976612 0 0.12451502801543859 -0.26238337937642481 0 0.14225890545744271 -0.27930079762976612 0 0.12451502801543859 -0.26238337937642481 0 0.1244099469670262 -0.27339531847561521 0 0.1335294473604158 -0.28460914192927261 0 0.14225890545744271 -0.27930079762976612 0 0.1244099469670262 -0.27339531847561521 0 0.12932196763662959 -0.26535059574238762 0 0.14225890545744271 -0.27930079762976612 0 0.12451502801543859 -0.26238337937642481 0 0.13143680613111089 -0.26024385429134239 0 0.12932196763662959 -0.26535059574238762 0 0.14165180347144221 -0.27198869998564967 0 0.13143680613111089 -0.26024385429134239 0 0.14165180347144221 -0.27198869998564967 0 0.12932196763662959 -0.26535059574238762 0 0.14225890545744271 -0.27930079762976612 0 0.14165180347144221 -0.27198869998564967 0 0.13143680613111089 -0.26024385429134239 0 0.14905829475894741 -0.25513886757308918 0 0.13143680613111089 -0.26024385429134239 0 0.14905829475894741 -0.25513886757308918 0 0.13895199017385279 -0.2468597283822844 0 0.12779274076017111 -0.25605403572793911 0 0.13143680613111089 -0.26024385429134239 0 0.13895199017385279 -0.2468597283822844 0 0.12779274076017111 -0.25605403572793911 0 0.12932196763662959 -0.26535059574238762 0 0.12779274076017111 -0.25605403572793911 0 0.12935889924213101 -0.26084582880632429 0 0.12932196763662959 -0.26535059574238762 0 0.12779274076017111 -0.25605403572793911 0 0.12932196763662959 -0.26535059574238762 0 0.12451502801543859 -0.26238337937642481 0 0.12779274076017111 -0.25605403572793911 0 0.13143680613111089 -0.26024385429134239 0 0.12779274076017111 -0.25605403572793911 0 0.13143680613111089 -0.26024385429134239 0 0.12935889924213101 -0.26084582880632429 0 0.13143680613111089 -0.26024385429134239 0 0.12935889924213101 -0.26084582880632429 0 0.13143680613111089 -0.26024385429134239 0 0.12935889924213101 -0.26084582880632429 0 0.12932196763662959 -0.26535059574238762 0 0.13143680613111089 -0.26024385429134239 0 0.1446487156647063 -0.26300837213728728 0 0.14165180347144221 -0.27198869998564967 0 0.15343015059854739 -0.26411789587028622 0 0.14905829475894741 -0.25513886757308918 0 0.16487547923307519 -0.25055659201363428 0 0.13143680613111089 -0.26024385429134239 0 0.1446487156647063 -0.26300837213728728 0 0.14905829475894741 -0.25513886757308918 0 0.1446487156647063 -0.26300837213728728 0 0.14905829475894741 -0.25513886757308918 0 0.1446487156647063 -0.26300837213728728 0 0.15343015059854739 -0.26411789587028622 0 0.14787250254256121 -0.26815683562879722 0 0.1446487156647063 -0.26300837213728728 0 0.15343015059854739 -0.26411789587028622 0 0.14905829475894741 -0.25513886757308918 0 0.15186680081177409 -0.28373354567995618 0 0.14165180347144221 -0.27198869998564967 0 0.15175934043554881 -0.27351237452196542 0 0.15186680081177409 -0.28373354567995618 0 0.14225890545744271 -0.27930079762976612 0 0.14165180347144221 -0.27198869998564967 0 0.15186680081177409 -0.28373354567995618 0 0.14165180347144221 -0.27198869998564967 0 0.1446487156647063 -0.26300837213728728 0 0.14165180347144221 -0.27198869998564967 0 0.14787250254256121 -0.26815683562879722 0 0.14165180347144221 -0.27198869998564967 0 0.14787250254256121 -0.26815683562879722 0 0.15175934043554881 -0.27351237452196542 0 0.15343015059854739 -0.26411789587028622 0 0.14787250254256121 -0.26815683562879722 0 0.15175934043554881 -0.27351237452196542 0 0.15343015059854739 -0.26411789587028622 0 0.15175934043554881 -0.27351237452196542 0 0.16294999320327541 -0.2736114269590002 0 0.15186680081177409 -0.28373354567995618 0 0.15175934043554881 -0.27351237452196542 0 0.16294999320327541 -0.2736114269590002 0 0.16294999320327541 -0.2736114269590002 0 0.17819022890487399 -0.27242701991507351 0 0.16941084741150819 -0.28677920226593578 0 0.16294999320327541 -0.2736114269590002 0 0.16487547923307519 -0.25055659201363428 0 0.15343015059854739 -0.26411789587028622 0 0.16294999320327541 -0.2736114269590002 0 0.16487547923307519 -0.25055659201363428 0 0.14905829475894741 -0.25513886757308918 0 0.16487547923307519 -0.25055659201363428 0 0.16294999320327541 -0.2736114269590002 0 0.16487547923307519 -0.25055659201363428 0 0.1767908913331275 -0.25842773763842147 0 0.16487547923307519 -0.25055659201363428 0 0.1767908913331275 -0.25842773763842147 0 0.19109642933565141 -0.24296032107190771 0 0.18861148586302129 -0.25546560807613339 0 0.1767908913331275 -0.25842773763842147 0 0.1873300493154561 -0.26399654945791051 0 0.1767908913331275 -0.25842773763842147 0 0.1873300493154561 -0.26399654945791051 0 0.17819022890487399 -0.27242701991507351 0 0.18861148586302129 -0.25546560807613339 0 0.1767908913331275 -0.25842773763842147 0 0.19109642933565141 -0.24296032107190771 0 0.19273492615118651 -0.26732896913282972 0 0.17819022890487399 -0.27242701991507351 0 0.1803004639372382 -0.28349767991483371 0 0.19273492615118651 -0.26732896913282972 0 0.1803004639372382 -0.28349767991483371 0 0.17819022890487399 -0.27242701991507351 0 0.1803004639372382 -0.28349767991483371 0 0.16941084741150819 -0.28677920226593578 0 0.16294999320327541 -0.2736114269590002 0 0.1767908913331275 -0.25842773763842147 0 0.17819022890487399 -0.27242701991507351 0 0.19273492615118651 -0.26732896913282972 0 0.1873300493154561 -0.26399654945791051 0 0.17819022890487399 -0.27242701991507351 0 0.19023711178087929 -0.27407686872860693 0 0.19078602399969161 -0.28460660680975802 0 0.1803004639372382 -0.28349767991483371 0 0.1803004639372382 -0.28349767991483371 0 0.16786600172329061 -0.2996663906968382 0 0.1803004639372382 -0.28349767991483371 0 0.16786600172329061 -0.2996663906968382 0 0.16941084741150819 -0.28677920226593578 0 0.19078602399969161 -0.28460660680975802 0 0.1803004639372382 -0.28349767991483371 0 0.18724019499035771 -0.29458839711743662 0 0.1803004639372382 -0.28349767991483371 0 0.17915285652908719 -0.29581704161952332 0 0.16786600172329061 -0.2996663906968382 0 0.1803004639372382 -0.28349767991483371 0 0.17915285652908719 -0.29581704161952332 0 0.18724019499035771 -0.29458839711743662 0 0.1852970400177209 -0.32033433866833477 0 0.16606952006514389 -0.30200238173979382 0 0.1852970400177209 -0.32033433866833477 0 0.1812047654654628 -0.30551569874898521 0 0.16606952006514389 -0.30200238173979382 0 0.17915285652908719 -0.29581704161952332 0 0.18724019499035771 -0.29458839711743662 0 0.1812047654654628 -0.30551569874898521 0 0.1812047654654628 -0.30551569874898521 0 0.16786600172329061 -0.2996663906968382 0 0.17915285652908719 -0.29581704161952332 0 0.1812047654654628 -0.30551569874898521 0 0.16786600172329061 -0.2996663906968382 0 0.1699994488202391 -0.32279106526139612 0 0.16606952006514389 -0.30200238173979382 0 0.1599099189656728 -0.31001179999980971 0 0.1812047654654628 -0.30551569874898521 0 0.16606952006514389 -0.30200238173979382 0 0.16786600172329061 -0.2996663906968382 0 0.16606952006514389 -0.30200238173979382 0 0.16786600172329061 -0.2996663906968382 0 0.16786600172329061 -0.2996663906968382 0 0.1609838100434729 -0.29715354958160062 0 0.16606952006514389 -0.30200238173979382 0 0.16786600172329061 -0.2996663906968382 0 0.1609838100434729 -0.29715354958160062 0 0.16606952006514389 -0.30200238173979382 0 0.1599099189656728 -0.31001179999980971 0 0.15793819492864869 -0.31257566123868119 0 0.15487585843153431 -0.30540463827556391 0 0.1599099189656728 -0.31001179999980971 0 0.15793819492864869 -0.31257566123868119 0 0.1599099189656728 -0.31001179999980971 0 0.1599099189656728 -0.31001179999980971 0 0.1609838100434729 -0.29715354958160062 0 0.15487585843153431 -0.30540463827556391 0 0.1599099189656728 -0.31001179999980971 0 0.1609838100434729 -0.29715354958160062 0 0.16606952006514389 -0.30200238173979382 0 0.1599099189656728 -0.31001179999980971 0 0.1609838100434729 -0.29715354958160062 0 0.16606952006514389 -0.30200238173979382 0 0.1609838100434729 -0.29715354958160062 0 0.15186680081177409 -0.28373354567995618 0 0.16294999320327541 -0.2736114269590002 0 0.1609838100434729 -0.29715354958160062 0 0.16294999320327541 -0.2736114269590002 0 0.1609838100434729 -0.29715354958160062 0 0.16941084741150819 -0.28677920226593578 0 0.16294999320327541 -0.2736114269590002 0 0.1609838100434729 -0.29715354958160062 0 0.16786600172329061 -0.2996663906968382 0 0.1609838100434729 -0.29715354958160062 0 0.16941084741150819 -0.28677920226593578 0 0.1878366847028953 -0.5 0 0.20608649966516451 -0.47923849283549802 0 0.21409995665930201 -0.5 0 0.1878366847028953 -0.5 0 0.20608649966516451 -0.47923849283549802 0 0.18544751642241861 -0.47595315311445813 0 0.20608649966516451 -0.47923849283549802 0 0.19714156675854869 -0.45886095991233261 0 0.18544751642241861 -0.47595315311445813 0 0.20608649966516451 -0.47923849283549802 0 0.21409995665930201 -0.5 0 0.2314505462407043 -0.48109610114131818 0 0.21409995665930201 -0.5 0 0.24036322861570891 -0.5 0 0.2314505462407043 -0.48109610114131818 0 0.25283180644144021 -0.48382821546207538 0 0.24036322861570891 -0.5 0 0.2314505462407043 -0.48109610114131818 0 0.25283180644144021 -0.48382821546207538 0 0.2314505462407043 -0.48109610114131818 0 0.24978021400896391 -0.4612832553706081 0 0.20608649966516451 -0.47923849283549802 0 0.2314505462407043 -0.48109610114131818 0 0.22303346227507709 -0.46108058547071579 0 0.22303346227507709 -0.46108058547071579 0 0.24978021400896391 -0.4612832553706081 0 0.23472564955363209 -0.44544657026608148 0 0.2314505462407043 -0.48109610114131818 0 0.22303346227507709 -0.46108058547071579 0 0.24978021400896391 -0.4612832553706081 0 0.25072956183208273 -0.43608254974133992 0 0.24978021400896391 -0.4612832553706081 0 0.23472564955363209 -0.44544657026608148 0 0.22303346227507709 -0.46108058547071579 0 0.23472564955363209 -0.44544657026608148 0 0.21628182436214 -0.44102748233420253 0 0.23472564955363209 -0.44544657026608148 0 0.21628182436214 -0.44102748233420253 0 0.23268897686042109 -0.42755150272000031 0 0.21628182436214 -0.44102748233420253 0 0.19714156675854869 -0.45886095991233261 0 0.19691514149528319 -0.43426770959536187 0 0.22303346227507709 -0.46108058547071579 0 0.21628182436214 -0.44102748233420253 0 0.19714156675854869 -0.45886095991233261 0 0.20608649966516451 -0.47923849283549802 0 0.22303346227507709 -0.46108058547071579 0 0.19714156675854869 -0.45886095991233261 0 0.19714156675854869 -0.45886095991233261 0 0.19691514149528319 -0.43426770959536187 0 0.18079281710727321 -0.44527856936189042 0 0.19691514149528319 -0.43426770959536187 0 0.192739643446907 -0.41585751408255139 0 0.21262904501513971 -0.41885382819395278 0 0.19691514149528319 -0.43426770959536187 0 0.192739643446907 -0.41585751408255139 0 0.17499696461833039 -0.42593597545548623 0 0.192739643446907 -0.41585751408255139 0 0.21262904501513971 -0.41885382819395278 0 0.1999354578431187 -0.40198586255319207 0 0.21262904501513971 -0.41885382819395278 0 0.21841770838679719 -0.39791571400583942 0 0.1999354578431187 -0.40198586255319207 0 0.21628182436214 -0.44102748233420253 0 0.19691514149528319 -0.43426770959536187 0 0.21262904501513971 -0.41885382819395278 0 0.21628182436214 -0.44102748233420253 0 0.21262904501513971 -0.41885382819395278 0 0.23268897686042109 -0.42755150272000031 0 0.25072956183208273 -0.43608254974133992 0 0.23268897686042109 -0.42755150272000031 0 0.24646219179599979 -0.41505245331781582 0 0.25072956183208273 -0.43608254974133992 0 0.23472564955363209 -0.44544657026608148 0 0.23268897686042109 -0.42755150272000031 0 0.24646219179599979 -0.41505245331781582 0 0.22797791683997229 -0.41315105981020461 0 0.23611884156761159 -0.40206009854456382 0 0.23268897686042109 -0.42755150272000031 0 0.24646219179599979 -0.41505245331781582 0 0.22797791683997229 -0.41315105981020461 0 0.21262904501513971 -0.41885382819395278 0 0.23268897686042109 -0.42755150272000031 0 0.22797791683997229 -0.41315105981020461 0 0.21262904501513971 -0.41885382819395278 0 0.22797791683997229 -0.41315105981020461 0 0.21841770838679719 -0.39791571400583942 0 0.23611884156761159 -0.40206009854456382 0 0.23410584306481391 -0.38957120132780149 0 0.21841770838679719 -0.39791571400583942 0 0.22797791683997229 -0.41315105981020461 0 0.23611884156761159 -0.40206009854456382 0 0.21841770838679719 -0.39791571400583942 0 0.25052278160736158 -0.39497889888104848 0 0.24646219179599979 -0.41505245331781582 0 0.23611884156761159 -0.40206009854456382 0 0.25052278160736158 -0.39497889888104848 0 0.23611884156761159 -0.40206009854456382 0 0.23410584306481391 -0.38957120132780149 0 0.25052278160736158 -0.39497889888104848 0 0.24297959987544521 -0.375330209453965 0 0.23410584306481391 -0.38957120132780149 0 0.24297959987544521 -0.375330209453965 0 0.22249028388685371 -0.37757108575359077 0 0.23410584306481391 -0.38957120132780149 0 0.22249028388685371 -0.37757108575359077 0 0.23410584306481391 -0.38957120132780149 0 0.21841770838679719 -0.39791571400583942 0 0.22249028388685371 -0.37757108575359077 0 0.21841770838679719 -0.39791571400583942 0 0.19674945866127741 -0.38446231256205687 0 0.21841770838679719 -0.39791571400583942 0 0.1999354578431187 -0.40198586255319207 0 0.19674945866127741 -0.38446231256205687 0 0.1999354578431187 -0.40198586255319207 0 0.19674945866127741 -0.38446231256205687 0 0.17924270683034491 -0.39966636584981768 0 0.192739643446907 -0.41585751408255139 0 0.1999354578431187 -0.40198586255319207 0 0.17924270683034491 -0.39966636584981768 0 0.19674945866127741 -0.38446231256205687 0 0.18009437975833831 -0.38118823181047218 0 0.17924270683034491 -0.39966636584981768 0 0.1824384692489395 -0.36486271940880982 0 0.19674945866127741 -0.38446231256205687 0 0.18009437975833831 -0.38118823181047218 0 0.18009437975833831 -0.38118823181047218 0 0.17924270683034491 -0.39966636584981768 0 0.16861505674804411 -0.3869858759961835 0 0.17924270683034491 -0.39966636584981768 0 0.1587957716359632 -0.39539309413798879 0 0.15784083493324341 -0.41075843550256141 0 0.17924270683034491 -0.39966636584981768 0 0.1587957716359632 -0.39539309413798879 0 0.16861505674804411 -0.3869858759961835 0 0.1587957716359632 -0.39539309413798879 0 0.15935071891445091 -0.38410637592647101 0 0.16861505674804411 -0.3869858759961835 0 0.15935071891445091 -0.38410637592647101 0 0.16861505674804411 -0.3869858759961835 0 0.16673184556132489 -0.37558188364352929 0 0.18009437975833831 -0.38118823181047218 0 0.16861505674804411 -0.3869858759961835 0 0.16673184556132489 -0.37558188364352929 0 0.15465581836741249 -0.37292184982855942 0 0.15935071891445091 -0.38410637592647101 0 0.16673184556132489 -0.37558188364352929 0 0.14038655439900469 -0.36806271759010178 0 0.14795510225950981 -0.38964917602609372 0 0.14038655439900469 -0.36806271759010178 0 0.14795510225950981 -0.38964917602609372 0 0.13418217020465559 -0.3821991055942352 0 0.15465581836741249 -0.37292184982855942 0 0.14038655439900469 -0.36806271759010178 0 0.14795510225950981 -0.38964917602609372 0 0.14795510225950981 -0.38964917602609372 0 0.13418217020465559 -0.3821991055942352 0 0.1410198460170588 -0.39847094710449621 0 0.15465581836741249 -0.37292184982855942 0 0.15935071891445091 -0.38410637592647101 0 0.14795510225950981 -0.38964917602609372 0 0.1587957716359632 -0.39539309413798879 0 0.15935071891445091 -0.38410637592647101 0 0.14795510225950981 -0.38964917602609372 0 0.13418217020465559 -0.3821991055942352 0 0.12448866486497839 -0.39013547717369412 0 0.118058974659473 -0.37987557862114207 0 0.13418217020465559 -0.3821991055942352 0 0.1410198460170588 -0.39847094710449621 0 0.12448866486497839 -0.39013547717369412 0 0.1410198460170588 -0.39847094710449621 0 0.1244606192441696 -0.40485066552320531 0 0.12448866486497839 -0.39013547717369412 0 0.1587957716359632 -0.39539309413798879 0 0.1410198460170588 -0.39847094710449621 0 0.15784083493324341 -0.41075843550256141 0 0.1587957716359632 -0.39539309413798879 0 0.14795510225950981 -0.38964917602609372 0 0.1410198460170588 -0.39847094710449621 0 0.13948032188126891 -0.41592986554662642 0 0.15435746964360389 -0.42978769113913601 0 0.15784083493324341 -0.41075843550256141 0 0.1410198460170588 -0.39847094710449621 0 0.13948032188126891 -0.41592986554662642 0 0.15784083493324341 -0.41075843550256141 0 0.13948032188126891 -0.41592986554662642 0 0.12561045491725201 -0.42197842591875051 0 0.1244606192441696 -0.40485066552320531 0 0.1410198460170588 -0.39847094710449621 0 0.13948032188126891 -0.41592986554662642 0 0.1244606192441696 -0.40485066552320531 0 0.12561045491725201 -0.42197842591875051 0 0.13540400322158999 -0.43598911959310621 0 0.1172626199879742 -0.44053209769075141 0 0.13948032188126891 -0.41592986554662642 0 0.12561045491725201 -0.42197842591875051 0 0.13540400322158999 -0.43598911959310621 0 0.13948032188126891 -0.41592986554662642 0 0.13540400322158999 -0.43598911959310621 0 0.15435746964360389 -0.42978769113913601 0 0.15435746964360389 -0.42978769113913601 0 0.17499696461833039 -0.42593597545548623 0 0.16324616303308201 -0.44559821714625142 0 0.15435746964360389 -0.42978769113913601 0 0.15784083493324341 -0.41075843550256141 0 0.17499696461833039 -0.42593597545548623 0 0.17924270683034491 -0.39966636584981768 0 0.15784083493324341 -0.41075843550256141 0 0.17499696461833039 -0.42593597545548623 0 0.192739643446907 -0.41585751408255139 0 0.17924270683034491 -0.39966636584981768 0 0.17499696461833039 -0.42593597545548623 0 0.19691514149528319 -0.43426770959536187 0 0.17499696461833039 -0.42593597545548623 0 0.18079281710727321 -0.44527856936189042 0 0.18079281710727321 -0.44527856936189042 0 0.17261035929710569 -0.46097407593515233 0 0.16324616303308201 -0.44559821714625142 0 0.17499696461833039 -0.42593597545548623 0 0.18079281710727321 -0.44527856936189042 0 0.16324616303308201 -0.44559821714625142 0 0.19714156675854869 -0.45886095991233261 0 0.17261035929710569 -0.46097407593515233 0 0.18544751642241861 -0.47595315311445813 0 0.19714156675854869 -0.45886095991233261 0 0.18079281710727321 -0.44527856936189042 0 0.17261035929710569 -0.46097407593515233 0 0.17261035929710569 -0.46097407593515233 0 0.1469155306333961 -0.45527482210835257 0 0.16489977474997911 -0.47977368488991617 0 0.17261035929710569 -0.46097407593515233 0 0.16324616303308201 -0.44559821714625142 0 0.1469155306333961 -0.45527482210835257 0 0.13540400322158999 -0.43598911959310621 0 0.15435746964360389 -0.42978769113913601 0 0.1469155306333961 -0.45527482210835257 0 0.15435746964360389 -0.42978769113913601 0 0.16324616303308201 -0.44559821714625142 0 0.1469155306333961 -0.45527482210835257 0 0.13540400322158999 -0.43598911959310621 0 0.1296765062099913 -0.45275600234302149 0 0.1172626199879742 -0.44053209769075141 0 0.13540400322158999 -0.43598911959310621 0 0.1296765062099913 -0.45275600234302149 0 0.1469155306333961 -0.45527482210835257 0 0.1469155306333961 -0.45527482210835257 0 0.1427180103323869 -0.4811491986650388 0 0.123015966820314 -0.468854624368509 0 0.1296765062099913 -0.45275600234302149 0 0.1469155306333961 -0.45527482210835257 0 0.123015966820314 -0.468854624368509 0 0.1469155306333961 -0.45527482210835257 0 0.1427180103323869 -0.4811491986650388 0 0.16489977474997911 -0.47977368488991617 0 0.1427180103323869 -0.4811491986650388 0 0.1232570735086103 -0.48631305049501578 0 0.123015966820314 -0.468854624368509 0 0.1427180103323869 -0.4811491986650388 0 0.13531014079008161 -0.5 0 0.1232570735086103 -0.48631305049501578 0 0.1427180103323869 -0.4811491986650388 0 0.13531014079008161 -0.5 0 0.16157341274648851 -0.5 0 0.1427180103323869 -0.4811491986650388 0 0.16157341274648851 -0.5 0 0.16489977474997911 -0.47977368488991617 0 0.1878366847028953 -0.5 0 0.16157341274648851 -0.5 0 0.16489977474997911 -0.47977368488991617 0 0.17261035929710569 -0.46097407593515233 0 0.16489977474997911 -0.47977368488991617 0 0.18544751642241861 -0.47595315311445813 0 0.1878366847028953 -0.5 0 0.16489977474997911 -0.47977368488991617 0 0.18544751642241861 -0.47595315311445813 0 0.082783596877268009 -0.50000000000000133 0 0.06150509294948818 -0.48484360365078483 0 0.053665060906769133 -0.49999999999999628 0 0.076183998533222275 -0.4761423288252789 0 0.082783596877268009 -0.50000000000000133 0 0.06150509294948818 -0.48484360365078483 0 0.076183998533222275 -0.4761423288252789 0 0.057208765475933891 -0.46832924556561711 0 0.06150509294948818 -0.48484360365078483 0 0.076183998533222275 -0.4761423288252789 0 0.090953601287047728 -0.47080317652609932 0 0.092334509947607196 -0.48573806313499712 0 0.076183998533222275 -0.4761423288252789 0 0.082783596877268009 -0.50000000000000133 0 0.076183998533222275 -0.4761423288252789 0 0.092334509947607196 -0.48573806313499712 0 0.082783596877268009 -0.50000000000000133 0 0.092334509947607196 -0.48573806313499712 0 0.082783596877268009 -0.50000000000000133 0 0.1090468688336749 -0.5 0 0.092334509947607196 -0.48573806313499712 0 0.1090468688336749 -0.5 0 0.10619438076659379 -0.48156142944153141 0 0.1090468688336749 -0.5 0 0.1232570735086103 -0.48631305049501578 0 0.10619438076659379 -0.48156142944153141 0 0.13531014079008161 -0.5 0 0.1090468688336749 -0.5 0 0.1232570735086103 -0.48631305049501578 0 0.1232570735086103 -0.48631305049501578 0 0.123015966820314 -0.468854624368509 0 0.10619438076659379 -0.48156142944153141 0 0.090953601287047728 -0.47080317652609932 0 0.092334509947607196 -0.48573806313499712 0 0.10619438076659379 -0.48156142944153141 0 0.090953601287047728 -0.47080317652609932 0 0.10619438076659379 -0.48156142944153141 0 0.09806645733988123 -0.45279231694156719 0 0.123015966820314 -0.468854624368509 0 0.10619438076659379 -0.48156142944153141 0 0.09806645733988123 -0.45279231694156719 0 0.10619438076659379 -0.48156142944153141 0 0.09806645733988123 -0.45279231694156719 0 0.123015966820314 -0.468854624368509 0 0.1172626199879742 -0.44053209769075141 0 0.123015966820314 -0.468854624368509 0 0.1172626199879742 -0.44053209769075141 0 0.09806645733988123 -0.45279231694156719 0 0.1296765062099913 -0.45275600234302149 0 0.123015966820314 -0.468854624368509 0 0.1172626199879742 -0.44053209769075141 0 0.1172626199879742 -0.44053209769075141 0 0.09806645733988123 -0.45279231694156719 0 0.089938533913168667 -0.42402320444160307 0 0.09806645733988123 -0.45279231694156719 0 0.089938533913168667 -0.42402320444160307 0 0.09806645733988123 -0.45279231694156719 0 0.079908414043447298 -0.43889489197753129 0 0.089938533913168667 -0.42402320444160307 0 0.09806645733988123 -0.45279231694156719 0 0.079908414043447298 -0.43889489197753129 0 0.083733608127819478 -0.45769005384608369 0 0.090953601287047728 -0.47080317652609932 0 0.09806645733988123 -0.45279231694156719 0 0.083733608127819478 -0.45769005384608369 0 0.076183998533222275 -0.4761423288252789 0 0.090953601287047728 -0.47080317652609932 0 0.083733608127819478 -0.45769005384608369 0 0.076183998533222275 -0.4761423288252789 0 0.083733608127819478 -0.45769005384608369 0 0.069584400189176887 -0.45228465765055648 0 0.076183998533222275 -0.4761423288252789 0 0.069584400189176887 -0.45228465765055648 0 0.057208765475933891 -0.46832924556561711 0 0.076183998533222275 -0.4761423288252789 0 0.069584400189176887 -0.45228465765055648 0 0.079908414043447298 -0.43889489197753129 0 0.083733608127819478 -0.45769005384608369 0 0.069584400189176887 -0.45228465765055648 0 0.079908414043447298 -0.43889489197753129 0 0.069584400189176887 -0.45228465765055648 0 0.062984801845131486 -0.42842698647583399 0 0.069584400189176887 -0.45228465765055648 0 0.062984801845131486 -0.42842698647583399 0 0.079908414043447298 -0.43889489197753129 0 0.062984801845131486 -0.42842698647583399 0 0.075142682845506042 -0.41815213250954342 0 0.075142682845506042 -0.41815213250954342 0 0.064393620496667137 -0.40641141902744898 0 0.081810610486456103 -0.39525409194163902 0 0.062984801845131486 -0.42842698647583399 0 0.075142682845506042 -0.41815213250954342 0 0.064393620496667137 -0.40641141902744898 0 0.089938533913168667 -0.42402320444160307 0 0.098759769098077987 -0.40005384268669031 0 0.081810610486456103 -0.39525409194163902 0 0.075142682845506042 -0.41815213250954342 0 0.089938533913168667 -0.42402320444160307 0 0.081810610486456103 -0.39525409194163902 0 0.089938533913168667 -0.42402320444160307 0 0.081810610486456103 -0.39525409194163902 0 0.079908414043447298 -0.43889489197753129 0 0.075142682845506042 -0.41815213250954342 0 0.089938533913168667 -0.42402320444160307 0 0.1172626199879742 -0.44053209769075141 0 0.089938533913168667 -0.42402320444160307 0 0.1115092731556343 -0.41220957101299371 0 0.1172626199879742 -0.44053209769075141 0 0.1115092731556343 -0.41220957101299371 0 0.12561045491725201 -0.42197842591875051 0 0.1172626199879742 -0.44053209769075141 0 0.1115092731556343 -0.41220957101299371 0 0.12561045491725201 -0.42197842591875051 0 0.1115092731556343 -0.41220957101299371 0 0.1244606192441696 -0.40485066552320531 0 0.089938533913168667 -0.42402320444160307 0 0.1115092731556343 -0.41220957101299371 0 0.098759769098077987 -0.40005384268669031 0 0.1115092731556343 -0.41220957101299371 0 0.10575592632329441 -0.38388704433523618 0 0.1115092731556343 -0.41220957101299371 0 0.098759769098077987 -0.40005384268669031 0 0.10575592632329441 -0.38388704433523618 0 0.1244606192441696 -0.40485066552320531 0 0.12448866486497839 -0.39013547717369412 0 0.10575592632329441 -0.38388704433523618 0 0.1115092731556343 -0.41220957101299371 0 0.1244606192441696 -0.40485066552320531 0 0.10575592632329441 -0.38388704433523618 0 0.13418217020465559 -0.3821991055942352 0 0.118058974659473 -0.37987557862114207 0 0.1221089743757624 -0.36945357512991922 0 0.12448866486497839 -0.39013547717369412 0 0.118058974659473 -0.37987557862114207 0 0.10575592632329441 -0.38388704433523618 0 0.10575592632329441 -0.38388704433523618 0 0.089567117540809899 -0.37953581152565891 0 0.1038313943525201 -0.37084443266973671 0 0.118058974659473 -0.37987557862114207 0 0.10575592632329441 -0.38388704433523618 0 0.1038313943525201 -0.37084443266973671 0 0.098759769098077987 -0.40005384268669031 0 0.10575592632329441 -0.38388704433523618 0 0.089567117540809899 -0.37953581152565891 0 0.089567117540809899 -0.37953581152565891 0 0.081810610486456103 -0.39525409194163902 0 0.074810233418417693 -0.383236022791486 0 0.089567117540809899 -0.37953581152565891 0 0.074810233418417693 -0.383236022791486 0 0.077945494446433464 -0.36450388176918441 0 0.098759769098077987 -0.40005384268669031 0 0.089567117540809899 -0.37953581152565891 0 0.081810610486456103 -0.39525409194163902 0 0.064393620496667137 -0.40641141902744898 0 0.081810610486456103 -0.39525409194163902 0 0.074810233418417693 -0.383236022791486 0 0.074810233418417693 -0.383236022791486 0 0.06033322253088956 -0.38100585903806827 0 0.077945494446433464 -0.36450388176918441 0 0.064393620496667137 -0.40641141902744898 0 0.074810233418417693 -0.383236022791486 0 0.06033322253088956 -0.38100585903806827 0 0.06033322253088956 -0.38100585903806827 0 0.049349247517221792 -0.39289492529667291 0 0.038919306484348222 -0.38271847246334711 0 0.06033322253088956 -0.38100585903806827 0 0.038919306484348222 -0.38271847246334711 0 0.049804145854996942 -0.36832733007119439 0 0.064393620496667137 -0.40641141902744898 0 0.06033322253088956 -0.38100585903806827 0 0.049349247517221792 -0.39289492529667291 0 0.064393620496667137 -0.40641141902744898 0 0.049349247517221792 -0.39289492529667291 0 0.041656688911013963 -0.40508044000958238 0 0.064393620496667137 -0.40641141902744898 0 0.06033322253088956 -0.38100585903806827 0 0.041656688911013963 -0.40508044000958238 0 0.036228430524920877 -0.39363541828447501 0 0.024658578111998609 -0.40200117807195052 0 0.049349247517221792 -0.39289492529667291 0 0.041656688911013963 -0.40508044000958238 0 0.036228430524920877 -0.39363541828447501 0 0.036228430524920877 -0.39363541828447501 0 0.038919306484348222 -0.38271847246334711 0 0.025797920913248309 -0.38943720572062362 0 0.038919306484348222 -0.38271847246334711 0 0.027682369409442981 -0.37573539811935469 0 0.033456484919227591 -0.36707865575497478 0 0.049349247517221792 -0.39289492529667291 0 0.036228430524920877 -0.39363541828447501 0 0.038919306484348222 -0.38271847246334711 0 0.038919306484348222 -0.38271847246334711 0 0.027682369409442981 -0.37573539811935469 0 0.025797920913248309 -0.38943720572062362 0 0.027682369409442981 -0.37573539811935469 0 0.025797920913248309 -0.38943720572062362 0 0.019206958092160571 -0.37707116110452799 0 0.025797920913248309 -0.38943720572062362 0 0.019206958092160571 -0.37707116110452799 0 0.012819231515718741 -0.37828305941689261 0 0.025797920913248309 -0.38943720572062362 0 0.012819231515718741 -0.37828305941689261 0 0.0029470940580190899 -0.38061179671897127 0 0.025797920913248309 -0.38943720572062362 0 0.0090083231245311184 -0.38831324779624748 0 0.0029470940580190899 -0.38061179671897127 0 0.019206958092160571 -0.37707116110452799 0 0.012819231515718741 -0.37828305941689261 0 0.012706244897709379 -0.36973040141732272 0 0.025797920913248309 -0.38943720572062362 0 0.0029470940580190899 -0.38061179671897127 0 0.0090083231245311184 -0.38831324779624748 0 0.0036499055617486868 -0.38557976700838131 0 0.0029470940580190899 -0.38061179671897127 0 0.0090083231245311184 -0.38831324779624748 0 0.0026894904359242612 -0.38964163941940477 0 0.0036499055617486868 -0.38557976700838131 0 -4.5285371479721059e-05 -0.38375238409890139 0 -0.0022217879405028109 -0.38971718384678822 0 0.0026894904359242612 -0.38964163941940477 0 -4.5285371479721059e-05 -0.38375238409890139 0 0.0026894904359242612 -0.38964163941940477 0 0.0036499055617486868 -0.38557976700838131 0 -4.5285371479721059e-05 -0.38375238409890139 0 0.0036499055617486868 -0.38557976700838131 0 0.0029470940580190899 -0.38061179671897127 0 0.012819231515718741 -0.37828305941689261 0 0.0029470940580190899 -0.38061179671897127 0 0.0034379396174563431 -0.37456473212301739 0 0.025797920913248309 -0.38943720572062362 0 0.0090083231245311184 -0.38831324779624748 0 0.0103712440610819 -0.3966247617771243 0 -0.00200338653409237 -0.40200802629359977 0 -0.00031398565266066398 -0.4075760124889195 0 0.0043497849677328771 -0.40187069239818413 0 -0.00200338653409237 -0.40200802629359977 0 -0.0022316517378109611 -0.39578432846124689 0 0.0043497849677328771 -0.40187069239818413 0 -0.0022316517378109611 -0.39578432846124689 0 0.0026894904359242612 -0.38964163941940477 0 0.0103712440610819 -0.3966247617771243 0 0.0090083231245311184 -0.38831324779624748 0 0.0026894904359242612 -0.38964163941940477 0 0.0103712440610819 -0.3966247617771243 0 -0.0022316517378109611 -0.39578432846124689 0 0.0043497849677328771 -0.40187069239818413 0 0.0103712440610819 -0.3966247617771243 0 0.0043497849677328771 -0.40187069239818413 0 0.0103712440610819 -0.3966247617771243 0 0.011668574058360619 -0.40997147056917388 0 0.0103712440610819 -0.3966247617771243 0 0.024658578111998609 -0.40200117807195052 0 0.011668574058360619 -0.40997147056917388 0 0.025797920913248309 -0.38943720572062362 0 0.0103712440610819 -0.3966247617771243 0 0.024658578111998609 -0.40200117807195052 0 0.036228430524920877 -0.39363541828447501 0 0.025797920913248309 -0.38943720572062362 0 0.024658578111998609 -0.40200117807195052 0 0.024658578111998609 -0.40200117807195052 0 0.027680643375595729 -0.41765394574645048 0 0.011668574058360619 -0.40997147056917388 0 0.027680643375595729 -0.41765394574645048 0 0.011668574058360619 -0.40997147056917388 0 0.016660102599314192 -0.42224471401388908 0 0.011668574058360619 -0.40997147056917388 0 0.0074904362087556747 -0.42131874513528961 0 0.016660102599314192 -0.42224471401388908 0 0.011668574058360619 -0.40997147056917388 0 0.00017534408918685581 -0.41611203081565978 0 0.0074904362087556747 -0.42131874513528961 0 0.00017534408918685581 -0.41611203081565978 0 0.0074904362087556747 -0.42131874513528961 0 0.00063694402566210717 -0.42438670491271929 0 -0.00031398565266066398 -0.4075760124889195 0 0.0043497849677328771 -0.40187069239818413 0 0.011668574058360619 -0.40997147056917388 0 -0.00031398565266066398 -0.4075760124889195 0 0.011668574058360619 -0.40997147056917388 0 0.00017534408918685581 -0.41611203081565978 0 -0.00221554126391115 -0.43280229380844998 0 0.01057684244100413 -0.42987675022218291 0 0.017592560982703911 -0.44464461106083902 0 0.0074904362087556747 -0.42131874513528961 0 0.00063694402566210717 -0.42438670491271929 0 0.01057684244100413 -0.42987675022218291 0 -0.00221554126391115 -0.43280229380844998 0 0.00063694402566210717 -0.42438670491271929 0 0.01057684244100413 -0.42987675022218291 0 0.0074904362087556747 -0.42131874513528961 0 0.01057684244100413 -0.42987675022218291 0 0.016660102599314192 -0.42224471401388908 0 0.01057684244100413 -0.42987675022218291 0 0.025884016912854801 -0.43240265839634812 0 0.017592560982703911 -0.44464461106083902 0 0.01057684244100413 -0.42987675022218291 0 0.016660102599314192 -0.42224471401388908 0 0.025884016912854801 -0.43240265839634812 0 0.027680643375595729 -0.41765394574645048 0 0.016660102599314192 -0.42224471401388908 0 0.025884016912854801 -0.43240265839634812 0 0.027680643375595729 -0.41765394574645048 0 0.042559979567083329 -0.43357407241133777 0 0.048814842128469357 -0.41896269731612468 0 0.027680643375595729 -0.41765394574645048 0 0.025884016912854801 -0.43240265839634812 0 0.042559979567083329 -0.43357407241133777 0 0.041656688911013963 -0.40508044000958238 0 0.027680643375595729 -0.41765394574645048 0 0.048814842128469357 -0.41896269731612468 0 0.041656688911013963 -0.40508044000958238 0 0.024658578111998609 -0.40200117807195052 0 0.027680643375595729 -0.41765394574645048 0 0.062984801845131486 -0.42842698647583399 0 0.064393620496667137 -0.40641141902744898 0 0.048814842128469357 -0.41896269731612468 0 0.064393620496667137 -0.40641141902744898 0 0.041656688911013963 -0.40508044000958238 0 0.048814842128469357 -0.41896269731612468 0 0.062984801845131486 -0.42842698647583399 0 0.042559979567083329 -0.43357407241133777 0 0.052594909911129729 -0.44751121822004181 0 0.062984801845131486 -0.42842698647583399 0 0.042559979567083329 -0.43357407241133777 0 0.048814842128469357 -0.41896269731612468 0 0.069584400189176887 -0.45228465765055648 0 0.062984801845131486 -0.42842698647583399 0 0.052594909911129729 -0.44751121822004181 0 0.069584400189176887 -0.45228465765055648 0 0.052594909911129729 -0.44751121822004181 0 0.057208765475933891 -0.46832924556561711 0 0.057208765475933891 -0.46832924556561711 0 0.037400663229318898 -0.45648692831322801 0 0.052594909911129729 -0.44751121822004181 0 0.057208765475933891 -0.46832924556561711 0 0.037400663229318898 -0.45648692831322801 0 0.042559979567083329 -0.43357407241133777 0 0.052594909911129729 -0.44751121822004181 0 0.037400663229318898 -0.45648692831322801 0 0.025884016912854801 -0.43240265839634812 0 0.042559979567083329 -0.43357407241133777 0 0.037400663229318898 -0.45648692831322801 0 0.025884016912854801 -0.43240265839634812 0 0.037400663229318898 -0.45648692831322801 0 0.017592560982703911 -0.44464461106083902 0 0.037400663229318898 -0.45648692831322801 0 0.017592560982703911 -0.44464461106083902 0 -0.00048210730025116671 -0.44442473075288202 0 0.017592560982703911 -0.44464461106083902 0 0.017566948768756221 -0.46294982050191952 0 -0.00221554126391115 -0.43280229380844998 0 -0.00048210730025116671 -0.44442473075288202 0 0.017592560982703911 -0.44464461106083902 0 -0.00221554126391115 -0.43280229380844998 0 0.017592560982703911 -0.44464461106083902 0 -0.00048210730025116671 -0.44442473075288202 0 0.017566948768756221 -0.46294982050191952 0 -0.00048210730025116671 -0.44442473075288202 0 -0.012238425120645879 -0.47307840444724808 0 0.017566948768756221 -0.46294982050191952 0 0.037400663229318898 -0.45648692831322801 0 0.017566948768756221 -0.46294982050191952 0 0.035616004837763601 -0.48147491025095701 0 0.037400663229318898 -0.45648692831322801 0 0.017592560982703911 -0.44464461106083902 0 0.017566948768756221 -0.46294982050191952 0 0.017566948768756221 -0.46294982050191952 0 0.035616004837763601 -0.48147491025095701 0 0.017566948768756221 -0.46294982050191952 0 0.01281202470056105 -0.48350062704002489 0 0.035616004837763601 -0.48147491025095701 0 -0.012238425120645879 -0.47307840444724808 0 0.017566948768756221 -0.46294982050191952 0 0.01281202470056105 -0.48350062704002489 0 -0.0024779569576354739 -0.5 0 0.01281202470056105 -0.48350062704002489 0 0.025593551974566808 -0.5 0 0.01281202470056105 -0.48350062704002489 0 0.025593551974566808 -0.5 0 0.035616004837763601 -0.48147491025095701 0 0.025593551974566808 -0.5 0 0.035616004837763601 -0.48147491025095701 0 0.053665060906769133 -0.49999999999999628 0 0.035616004837763601 -0.48147491025095701 0 0.053665060906769133 -0.49999999999999628 0 0.057208765475933891 -0.46832924556561711 0 0.037400663229318898 -0.45648692831322801 0 0.035616004837763601 -0.48147491025095701 0 0.057208765475933891 -0.46832924556561711 0 0.035616004837763601 -0.48147491025095701 0 0.06150509294948818 -0.48484360365078483 0 0.035616004837763601 -0.48147491025095701 0 0.06150509294948818 -0.48484360365078483 0 0.053665060906769133 -0.49999999999999628 0 0.092301901145764975 -0.28586344544846259 0 0.085853791472298754 -0.29816963172825922 0 0.074596329386494617 -0.29002777159062548 0 0.085853791472298754 -0.29816963172825922 0 0.096262795593726053 -0.30737142352737168 0 0.075712717739808075 -0.314853141650145 0 0.085853791472298754 -0.29816963172825922 0 0.074596329386494617 -0.29002777159062548 0 0.075712717739808075 -0.314853141650145 0 0.092301901145764975 -0.28586344544846259 0 0.085853791472298754 -0.29816963172825922 0 0.096262795593726053 -0.30737142352737168 0 0.074596329386494617 -0.29002777159062548 0 0.075712717739808075 -0.314853141650145 0 0.074596329386494617 -0.29002777159062548 0 0.075712717739808075 -0.314853141650145 0 0.060629411909669591 -0.30937181474168879 0 0.062966089531582711 -0.29475125905746857 0 0.074596329386494617 -0.29002777159062548 0 0.060629411909669591 -0.30937181474168879 0 0.074596329386494617 -0.29002777159062548 0 0.060629411909669591 -0.30937181474168879 0 0.062966089531582711 -0.29475125905746857 0 0.074596329386494617 -0.29002777159062548 0 0.063403540279949003 -0.28308832562023029 0 0.074596329386494617 -0.29002777159062548 0 0.063403540279949003 -0.28308832562023029 0 0.074000611972424177 -0.27678067418824359 0 0.074596329386494617 -0.29002777159062548 0 0.074000611972424177 -0.27678067418824359 0 0.063403540279949003 -0.28308832562023029 0 0.067013585213659299 -0.27162256522328931 0 0.074000611972424177 -0.27678067418824359 0 0.063403540279949003 -0.28308832562023029 0 0.067013585213659299 -0.27162256522328931 0 0.058006999905507443 -0.26778334154865729 0 0.074596329386494617 -0.29002777159062548 0 0.074000611972424177 -0.27678067418824359 0 0.080126761780433084 -0.27114971895389339 0 0.067013585213659299 -0.27162256522328931 0 0.066365146238043446 -0.26387152806099179 0 0.058006999905507443 -0.26778334154865729 0 0.067013585213659299 -0.27162256522328931 0 0.073291627672372434 -0.266588956698323 0 0.066365146238043446 -0.26387152806099179 0 0.073291627672372434 -0.266588956698323 0 0.074000611972424177 -0.27678067418824359 0 0.080126761780433084 -0.27114971895389339 0 0.067013585213659299 -0.27162256522328931 0 0.073291627672372434 -0.266588956698323 0 0.074000611972424177 -0.27678067418824359 0 0.064337829456463616 -0.25407158867812629 0 0.073439655369145651 -0.25711476848508391 0 0.073070599010250384 -0.24903232070930861 0 0.064337829456463616 -0.25407158867812629 0 0.067993141413549632 -0.24731101731799179 0 0.073070599010250384 -0.24903232070930861 0 0.064337829456463616 -0.25407158867812629 0 0.066365146238043446 -0.26387152806099179 0 0.058006999905507443 -0.26778334154865729 0 0.064337829456463616 -0.25407158867812629 0 0.066365146238043446 -0.26387152806099179 0 0.073439655369145651 -0.25711476848508391 0 0.073291627672372434 -0.266588956698323 0 0.073439655369145651 -0.25711476848508391 0 0.081549361518961166 -0.26110218701354732 0 0.073291627672372434 -0.266588956698323 0 0.066365146238043446 -0.26387152806099179 0 0.073439655369145651 -0.25711476848508391 0 0.073439655369145651 -0.25711476848508391 0 0.081209180124089092 -0.25075173997960992 0 0.073070599010250384 -0.24903232070930861 0 0.073439655369145651 -0.25711476848508391 0 0.081209180124089092 -0.25075173997960992 0 0.081549361518961166 -0.26110218701354732 0 0.081209180124089092 -0.25075173997960992 0 0.081549361518961166 -0.26110218701354732 0 0.090545204187761089 -0.25326107160751837 0 0.081549361518961166 -0.26110218701354732 0 0.090545204187761089 -0.25326107160751837 0 0.090683739979965761 -0.26774686635685518 0 0.074596329386494617 -0.29002777159062548 0 0.090683739979965761 -0.26774686635685518 0 0.074596329386494617 -0.29002777159062548 0 0.080126761780433084 -0.27114971895389339 0 0.090683739979965761 -0.26774686635685518 0 0.092301901145764975 -0.28586344544846259 0 0.090683739979965761 -0.26774686635685518 0 0.097139662202393492 -0.27444413532280099 0 0.092301901145764975 -0.28586344544846259 0 0.074596329386494617 -0.29002777159062548 0 0.090683739979965761 -0.26774686635685518 0 0.081549361518961166 -0.26110218701354732 0 0.080126761780433084 -0.27114971895389339 0 0.090683739979965761 -0.26774686635685518 0 0.073291627672372434 -0.266588956698323 0 0.081549361518961166 -0.26110218701354732 0 0.080126761780433084 -0.27114971895389339 0 0.092301901145764975 -0.28586344544846259 0 0.097139662202393492 -0.27444413532280099 0 0.10705611182138459 -0.27300006797543841 0 0.090683739979965761 -0.26774686635685518 0 0.097139662202393492 -0.27444413532280099 0 0.097965836282353044 -0.26957754611839829 0 0.090683739979965761 -0.26774686635685518 0 0.097965836282353044 -0.26957754611839829 0 0.1027313741286275 -0.26381997691428172 0 0.097965836282353044 -0.26957754611839829 0 0.103225491086823 -0.27132026607321652 0 0.1027313741286275 -0.26381997691428172 0 0.097139662202393492 -0.27444413532280099 0 0.097965836282353044 -0.26957754611839829 0 0.103225491086823 -0.27132026607321652 0 0.097139662202393492 -0.27444413532280099 0 0.103225491086823 -0.27132026607321652 0 0.10705611182138459 -0.27300006797543841 0 0.10705611182138459 -0.27300006797543841 0 0.10621390642452 -0.2705979913645668 0 0.1146902421804492 -0.26768320546717422 0 0.103225491086823 -0.27132026607321652 0 0.10705611182138459 -0.27300006797543841 0 0.103225491086823 -0.27132026607321652 0 0.10621390642452 -0.2705979913645668 0 0.1027313741286275 -0.26381997691428172 0 0.10705611182138459 -0.27300006797543841 0 0.10621390642452 -0.2705979913645668 0 0.103225491086823 -0.27132026607321652 0 0.10705611182138459 -0.27300006797543841 0 0.10621390642452 -0.2705979913645668 0 0.1027313741286275 -0.26381997691428172 0 0.11101700824232449 -0.26190775645415948 0 0.10677115057343491 -0.24546596112308319 0 0.090545204187761089 -0.25326107160751837 0 0.090683739979965761 -0.26774686635685518 0 0.10677115057343491 -0.24546596112308319 0 0.090683739979965761 -0.26774686635685518 0 0.10677115057343491 -0.24546596112308319 0 0.090683739979965761 -0.26774686635685518 0 0.1027313741286275 -0.26381997691428172 0 0.10677115057343491 -0.24546596112308319 0 0.10621390642452 -0.2705979913645668 0 0.1027313741286275 -0.26381997691428172 0 0.11101700824232449 -0.26190775645415948 0 0.12451502801543859 -0.26238337937642481 0 0.10677115057343491 -0.24546596112308319 0 0.12779274076017111 -0.25605403572793911 0 0.12451502801543859 -0.26238337937642481 0 0.10677115057343491 -0.24546596112308319 0 0.11101700824232449 -0.26190775645415948 0 0.12451502801543859 -0.26238337937642481 0 0.10677115057343491 -0.24546596112308319 0 0.11101700824232449 -0.26190775645415948 0 0.12451502801543859 -0.26238337937642481 0 0.1146902421804492 -0.26768320546717422 0 0.1335294473604158 -0.28460914192927261 0 0.10705611182138459 -0.27300006797543841 0 0.1244099469670262 -0.27339531847561521 0 0.10705611182138459 -0.27300006797543841 0 0.1146902421804492 -0.26768320546717422 0 0.1244099469670262 -0.27339531847561521 0 0.1335294473604158 -0.28460914192927261 0 0.10705611182138459 -0.27300006797543841 0 0.10621390642452 -0.2705979913645668 0 0.11101700824232449 -0.26190775645415948 0 0.1146902421804492 -0.26768320546717422 0 0.12451502801543859 -0.26238337937642481 0 0.1146902421804492 -0.26768320546717422 0 0.1244099469670262 -0.27339531847561521 0 0.10705611182138459 -0.27300006797543841 0 0.1153887224657895 -0.29676573037910442 0 0.1335294473604158 -0.28460914192927261 0 0.10705611182138459 -0.27300006797543841 0 0.1153887224657895 -0.29676573037910442 0 0.092301901145764975 -0.28586344544846259 0 0.1153887224657895 -0.29676573037910442 0 0.096262795593726053 -0.30737142352737168 0 0.092301901145764975 -0.28586344544846259 0 0.10705611182138459 -0.27300006797543841 0 0.1153887224657895 -0.29676573037910442 0 0.1153887224657895 -0.29676573037910442 0 0.096262795593726053 -0.30737142352737168 0 0.10676134228502671 -0.31887678203382891 0 0.1153887224657895 -0.29676573037910442 0 0.12372133311019461 -0.32053139278277021 0 0.1153887224657895 -0.29676573037910442 0 0.12372133311019461 -0.32053139278277021 0 0.10676134228502671 -0.31887678203382891 0 0.12372133311019461 -0.32053139278277021 0 0.1049954363073433 -0.33937371539994032 0 0.10676134228502671 -0.31887678203382891 0 0.13205394375459961 -0.344297055186436 0 0.12372133311019461 -0.32053139278277021 0 0.1049954363073433 -0.33937371539994032 0 0.096262795593726053 -0.30737142352737168 0 0.10676134228502671 -0.31887678203382891 0 0.092165325377575991 -0.32428315219282089 0 0.1049954363073433 -0.33937371539994032 0 0.10676134228502671 -0.31887678203382891 0 0.092165325377575991 -0.32428315219282089 0 0.1221089743757624 -0.36945357512991922 0 0.1113090848482202 -0.35615074241625128 0 0.1038313943525201 -0.37084443266973671 0 0.118058974659473 -0.37987557862114207 0 0.1221089743757624 -0.36945357512991922 0 0.1038313943525201 -0.37084443266973671 0 0.1221089743757624 -0.36945357512991922 0 0.1038313943525201 -0.37084443266973671 0 0.13205394375459961 -0.344297055186436 0 0.1221089743757624 -0.36945357512991922 0 0.1113090848482202 -0.35615074241625128 0 0.13205394375459961 -0.344297055186436 0 0.1049954363073433 -0.33937371539994032 0 0.1113090848482202 -0.35615074241625128 0 0.1049954363073433 -0.33937371539994032 0 0.1113090848482202 -0.35615074241625128 0 0.093555675450875356 -0.35678493369522413 0 0.089567117540809899 -0.37953581152565891 0 0.1038313943525201 -0.37084443266973671 0 0.093555675450875356 -0.35678493369522413 0 0.1113090848482202 -0.35615074241625128 0 0.1038313943525201 -0.37084443266973671 0 0.093555675450875356 -0.35678493369522413 0 0.089567117540809899 -0.37953581152565891 0 0.093555675450875356 -0.35678493369522413 0 0.077945494446433464 -0.36450388176918441 0 0.093555675450875356 -0.35678493369522413 0 0.077945494446433464 -0.36450388176918441 0 0.076829106093120769 -0.33967851170966468 0 0.1049954363073433 -0.33937371539994032 0 0.093555675450875356 -0.35678493369522413 0 0.076829106093120769 -0.33967851170966468 0 0.077945494446433464 -0.36450388176918441 0 0.076829106093120769 -0.33967851170966468 0 0.06278611761745416 -0.34232770740567903 0 0.077945494446433464 -0.36450388176918441 0 0.076829106093120769 -0.33967851170966468 0 0.077945494446433464 -0.36450388176918441 0 0.06278611761745416 -0.34232770740567903 0 0.056272824565111977 -0.35560029904868767 0 0.06033322253088956 -0.38100585903806827 0 0.077945494446433464 -0.36450388176918441 0 0.056272824565111977 -0.35560029904868767 0 0.096262795593726053 -0.30737142352737168 0 0.092165325377575991 -0.32428315219282089 0 0.075712717739808075 -0.314853141650145 0 0.092165325377575991 -0.32428315219282089 0 0.076829106093120769 -0.33967851170966468 0 0.075712717739808075 -0.314853141650145 0 0.1049954363073433 -0.33937371539994032 0 0.092165325377575991 -0.32428315219282089 0 0.076829106093120769 -0.33967851170966468 0 0.076829106093120769 -0.33967851170966468 0 0.062878295834275066 -0.33101445917005717 0 0.075712717739808075 -0.314853141650145 0 0.076829106093120769 -0.33967851170966468 0 0.06278611761745416 -0.34232770740567903 0 0.062878295834275066 -0.33101445917005717 0 0.075712717739808075 -0.314853141650145 0 0.059281993161874352 -0.32093977234190679 0 0.060629411909669591 -0.30937181474168879 0 0.062878295834275066 -0.33101445917005717 0 0.075712717739808075 -0.314853141650145 0 0.059281993161874352 -0.32093977234190679 0 0.076829106093120769 -0.33967851170966468 0 0.075712717739808075 -0.314853141650145 0 0.048463153194927833 -0.32525090700600218 0 0.059281993161874352 -0.32093977234190679 0 0.060629411909669591 -0.30937181474168879 0 0.048463153194927833 -0.32525090700600218 0 0.059281993161874352 -0.32093977234190679 0 0.055354493399839201 -0.32620436243837742 0 0.048463153194927833 -0.32525090700600218 0 0.055354493399839201 -0.32620436243837742 0 0.052212426599334387 -0.33019473905930702 0 0.062878295834275066 -0.33101445917005717 0 0.059281993161874352 -0.32093977234190679 0 0.055354493399839201 -0.32620436243837742 0 0.06278611761745416 -0.34232770740567903 0 0.062878295834275066 -0.33101445917005717 0 0.052212426599334387 -0.33019473905930702 0 0.052212426599334387 -0.33019473905930702 0 0.056272824565111977 -0.35560029904868767 0 0.048463153194927833 -0.32525090700600218 0 0.052212426599334387 -0.33019473905930702 0 0.043691229839638017 -0.35398468973467467 0 0.06278611761745416 -0.34232770740567903 0 0.052212426599334387 -0.33019473905930702 0 0.056272824565111977 -0.35560029904868767 0 0.062878295834275066 -0.33101445917005717 0 0.055354493399839201 -0.32620436243837742 0 0.052212426599334387 -0.33019473905930702 0 0.048463153194927833 -0.32525090700600218 0 0.043691229839638017 -0.35398468973467467 0 0.048463153194927833 -0.32525090700600218 0 0.038593214326674952 -0.33588329380963511 0 0.043691229839638017 -0.35398468973467467 0 0.048463153194927833 -0.32525090700600218 0 0.038593214326674952 -0.33588329380963511 0 0.040235231588973693 -0.32660204951071548 0 0.038593214326674952 -0.33588329380963511 0 0.032467735638616747 -0.3464282125900805 0 0.027079504605416992 -0.3365522955071667 0 0.038593214326674952 -0.33588329380963511 0 0.033529231706034189 -0.32589561790214139 0 0.040235231588973693 -0.32660204951071548 0 0.038593214326674952 -0.33588329380963511 0 0.033529231706034189 -0.32589561790214139 0 0.027079504605416992 -0.3365522955071667 0 0.033529231706034189 -0.32589561790214139 0 0.040355327128257797 -0.31937837932508339 0 0.040235231588973693 -0.32660204951071548 0 0.033529231706034189 -0.32589561790214139 0 0.040355327128257797 -0.31937837932508339 0 0.02873123184150728 -0.31059898513272921 0 0.040355327128257797 -0.31937837932508339 0 0.02873123184150728 -0.31059898513272921 0 0.043167182499958108 -0.31016949013990408 0 0.048463153194927833 -0.32525090700600218 0 0.040355327128257797 -0.31937837932508339 0 0.043167182499958108 -0.31016949013990408 0 0.048463153194927833 -0.32525090700600218 0 0.040355327128257797 -0.31937837932508339 0 0.040235231588973693 -0.32660204951071548 0 0.06033322253088956 -0.38100585903806827 0 0.049804145854996942 -0.36832733007119439 0 0.056272824565111977 -0.35560029904868767 0 0.06033322253088956 -0.38100585903806827 0 0.056272824565111977 -0.35560029904868767 0 0.052212426599334387 -0.33019473905930702 0 0.056272824565111977 -0.35560029904868767 0 0.043691229839638017 -0.35398468973467467 0 0.049804145854996942 -0.36832733007119439 0 0.056272824565111977 -0.35560029904868767 0 0.043691229839638017 -0.35398468973467467 0 0.038593214326674952 -0.33588329380963511 0 0.032467735638616747 -0.3464282125900805 0 0.043691229839638017 -0.35398468973467467 0 0.032467735638616747 -0.3464282125900805 0 0.043691229839638017 -0.35398468973467467 0 0.030168405153369559 -0.35677350264136298 0 0.043691229839638017 -0.35398468973467467 0 0.033456484919227591 -0.36707865575497478 0 0.030168405153369559 -0.35677350264136298 0 0.038919306484348222 -0.38271847246334711 0 0.043691229839638017 -0.35398468973467467 0 0.033456484919227591 -0.36707865575497478 0 0.038919306484348222 -0.38271847246334711 0 0.043691229839638017 -0.35398468973467467 0 0.038919306484348222 -0.38271847246334711 0 0.049804145854996942 -0.36832733007119439 0 0.043691229839638017 -0.35398468973467467 0 0.019206958092160571 -0.37707116110452799 0 0.020721114834842871 -0.37039032238961472 0 0.012706244897709379 -0.36973040141732272 0 0.027682369409442981 -0.37573539811935469 0 0.019206958092160571 -0.37707116110452799 0 0.020721114834842871 -0.37039032238961472 0 0.027682369409442981 -0.37573539811935469 0 0.020721114834842871 -0.37039032238961472 0 0.026821113709339171 -0.36618121581613461 0 0.027682369409442981 -0.37573539811935469 0 0.033456484919227591 -0.36707865575497478 0 0.026821113709339171 -0.36618121581613461 0 0.026821113709339171 -0.36618121581613461 0 0.019341593496919201 -0.36077461020599377 0 0.030168405153369559 -0.35677350264136298 0 0.033456484919227591 -0.36707865575497478 0 0.026821113709339171 -0.36618121581613461 0 0.030168405153369559 -0.35677350264136298 0 0.020721114834842871 -0.37039032238961472 0 0.026821113709339171 -0.36618121581613461 0 0.019341593496919201 -0.36077461020599377 0 0.020721114834842871 -0.37039032238961472 0 0.019341593496919201 -0.36077461020599377 0 0.012706244897709379 -0.36973040141732272 0 0.019341593496919201 -0.36077461020599377 0 0.02280632426798419 -0.34894728125756302 0 0.01445987150987714 -0.35101924448962118 0 0.019341593496919201 -0.36077461020599377 0 0.030168405153369559 -0.35677350264136298 0 0.02280632426798419 -0.34894728125756302 0 0.032467735638616747 -0.3464282125900805 0 0.030168405153369559 -0.35677350264136298 0 0.02280632426798419 -0.34894728125756302 0 0.032467735638616747 -0.3464282125900805 0 0.02280632426798419 -0.34894728125756302 0 0.027079504605416992 -0.3365522955071667 0 0.02280632426798419 -0.34894728125756302 0 0.01445987150987714 -0.35101924448962118 0 0.016114667197498551 -0.34050489861555489 0 0.01445987150987714 -0.35101924448962118 0 0.003859043914133943 -0.34486000791856958 0 0.016114667197498551 -0.34050489861555489 0 0.01445987150987714 -0.35101924448962118 0 0.003859043914133943 -0.34486000791856958 0 0.010177728672849809 -0.36000942445042478 0 0.019341593496919201 -0.36077461020599377 0 0.01445987150987714 -0.35101924448962118 0 0.010177728672849809 -0.36000942445042478 0 0.003859043914133943 -0.34486000791856958 0 0.010177728672849809 -0.36000942445042478 0 0.0034379396174563431 -0.37456473212301739 0 0.003859043914133943 -0.34486000791856958 0 0.0034379396174563431 -0.37456473212301739 0 -0.0066130663066438378 -0.35956689867538821 0 0.003859043914133943 -0.34486000791856958 0 0.0034379396174563431 -0.37456473212301739 0 0.019341593496919201 -0.36077461020599377 0 0.010177728672849809 -0.36000942445042478 0 0.012706244897709379 -0.36973040141732272 0 0.010177728672849809 -0.36000942445042478 0 0.0034379396174563431 -0.37456473212301739 0 0.012706244897709379 -0.36973040141732272 0 0.012819231515718741 -0.37828305941689261 0 0.0034379396174563431 -0.37456473212301739 0 0.012706244897709379 -0.36973040141732272 0 0.022315126689359789 -0.32540811916661327 0 0.016376427550275768 -0.31458011945005432 0 0.01142390041558154 -0.33011190294194132 0 0.022315126689359789 -0.32540811916661327 0 0.016376427550275768 -0.31458011945005432 0 0.02873123184150728 -0.31059898513272921 0 0.033529231706034189 -0.32589561790214139 0 0.022315126689359789 -0.32540811916661327 0 0.02873123184150728 -0.31059898513272921 0 0.033529231706034189 -0.32589561790214139 0 0.022315126689359789 -0.32540811916661327 0 0.027079504605416992 -0.3365522955071667 0 0.02280632426798419 -0.34894728125756302 0 0.027079504605416992 -0.3365522955071667 0 0.016114667197498551 -0.34050489861555489 0 0.022315126689359789 -0.32540811916661327 0 0.016114667197498551 -0.34050489861555489 0 0.01142390041558154 -0.33011190294194132 0 0.022315126689359789 -0.32540811916661327 0 0.027079504605416992 -0.3365522955071667 0 0.016114667197498551 -0.34050489861555489 0 0.003859043914133943 -0.34486000791856958 0 0.01142390041558154 -0.33011190294194132 0 0.0042801482108115454 -0.31515528371412183 0 -0.0038602890567098658 -0.32943289053322983 0 0.003859043914133943 -0.34486000791856958 0 0.0042801482108115454 -0.31515528371412183 0 0.003859043914133943 -0.34486000791856958 0 0.0042801482108115454 -0.31515528371412183 0 0.003859043914133943 -0.34486000791856958 0 0.016114667197498551 -0.34050489861555489 0 0.01142390041558154 -0.33011190294194132 0 0.016376427550275768 -0.31458011945005432 0 0.01142390041558154 -0.33011190294194132 0 0.0042801482108115454 -0.31515528371412183 0 0.0042801482108115454 -0.31515528371412183 0 0.014698570812431229 -0.30080576839047479 0 0.0047012525074890173 -0.28545055950967402 0 0.0042801482108115454 -0.31515528371412183 0 0.0047012525074890173 -0.28545055950967402 0 0.016376427550275768 -0.31458011945005432 0 0.0042801482108115454 -0.31515528371412183 0 0.014698570812431229 -0.30080576839047479 0 -0.0036766155545770941 -0.28592988278291398 0 0.0042801482108115454 -0.31515528371412183 0 0.0047012525074890173 -0.28545055950967402 0 0.0047012525074890173 -0.28545055950967402 0 0.017162834769313729 -0.29157359274110223 0 0.02479847056265666 -0.28430073663470029 0 0.0047012525074890173 -0.28545055950967402 0 0.02479847056265666 -0.28430073663470029 0 0.0047012525074890173 -0.28545055950967402 0 0.02479847056265666 -0.28430073663470029 0 0.01424051881430771 -0.27597308408008858 0 -0.0036766155545770941 -0.28592988278291398 0 0.0047012525074890173 -0.28545055950967402 0 0.014698570812431229 -0.30080576839047479 0 0.0047012525074890173 -0.28545055950967402 0 0.017162834769313729 -0.29157359274110223 0 0.02479847056265666 -0.28430073663470029 0 0.036880673147651893 -0.29214686163658188 0 0.031569732348134587 -0.27605270642615198 0 0.014698570812431229 -0.30080576839047479 0 0.017162834769313729 -0.29157359274110223 0 0.024453045194677989 -0.29573730642955992 0 0.017162834769313729 -0.29157359274110223 0 0.024453045194677989 -0.29573730642955992 0 0.02479847056265666 -0.28430073663470029 0 0.024453045194677989 -0.29573730642955992 0 0.02479847056265666 -0.28430073663470029 0 0.036880673147651893 -0.29214686163658188 0 0.024453045194677989 -0.29573730642955992 0 0.02873123184150728 -0.31059898513272921 0 0.036880673147651893 -0.29214686163658188 0 0.016376427550275768 -0.31458011945005432 0 0.014698570812431229 -0.30080576839047479 0 0.02873123184150728 -0.31059898513272921 0 0.014698570812431229 -0.30080576839047479 0 0.024453045194677989 -0.29573730642955992 0 0.02873123184150728 -0.31059898513272921 0 0.02873123184150728 -0.31059898513272921 0 0.043611752349905233 -0.29974367473967972 0 0.036880673147651893 -0.29214686163658188 0 0.02873123184150728 -0.31059898513272921 0 0.043167182499958108 -0.31016949013990408 0 0.043611752349905233 -0.29974367473967972 0 0.02873123184150728 -0.31059898513272921 0 0.036880673147651893 -0.29214686163658188 0 0.043167182499958108 -0.31016949013990408 0 0.043611752349905233 -0.29974367473967972 0 0.053235076550217642 -0.29651712427732979 0 0.036880673147651893 -0.29214686163658188 0 0.049234066204602502 -0.28999097431098009 0 0.045030114453797149 -0.27369473814043482 0 0.036880673147651893 -0.29214686163658188 0 0.045030114453797149 -0.27369473814043482 0 0.043611752349905233 -0.29974367473967972 0 0.036880673147651893 -0.29214686163658188 0 0.049234066204602502 -0.28999097431098009 0 0.063403540279949003 -0.28308832562023029 0 0.053235076550217642 -0.29651712427732979 0 0.058006999905507443 -0.26778334154865729 0 0.053235076550217642 -0.29651712427732979 0 0.058006999905507443 -0.26778334154865729 0 0.043611752349905233 -0.29974367473967972 0 0.053235076550217642 -0.29651712427732979 0 0.049234066204602502 -0.28999097431098009 0 0.053235076550217642 -0.29651712427732979 0 0.049234066204602502 -0.28999097431098009 0 0.058006999905507443 -0.26778334154865729 0 0.049234066204602502 -0.28999097431098009 0 0.045030114453797149 -0.27369473814043482 0 0.062966089531582711 -0.29475125905746857 0 0.063403540279949003 -0.28308832562023029 0 0.053235076550217642 -0.29651712427732979 0 0.048463153194927833 -0.32525090700600218 0 0.043167182499958108 -0.31016949013990408 0 0.053235076550217642 -0.29651712427732979 0 0.048463153194927833 -0.32525090700600218 0 0.053235076550217642 -0.29651712427732979 0 0.062966089531582711 -0.29475125905746857 0 0.053235076550217642 -0.29651712427732979 0 0.060629411909669591 -0.30937181474168879 0 0.048463153194927833 -0.32525090700600218 0 0.053235076550217642 -0.29651712427732979 0 0.060629411909669591 -0.30937181474168879 0 0.053161110625048358 -0.25528437847743352 0 0.045030114453797149 -0.27369473814043482 0 0.058006999905507443 -0.26778334154865729 0 0.062778923260797204 -0.23904955881998519 0 0.064337829456463616 -0.25407158867812629 0 0.058006999905507443 -0.26778334154865729 0 0.062778923260797204 -0.23904955881998519 0 0.053161110625048358 -0.25528437847743352 0 0.058006999905507443 -0.26778334154865729 0 0.062778923260797204 -0.23904955881998519 0 0.053161110625048358 -0.25528437847743352 0 0.058006999905507443 -0.26778334154865729 0 0.045030114453797149 -0.27369473814043482 0 0.049234066204602502 -0.28999097431098009 0 0.058006999905507443 -0.26778334154865729 0 0.045030114453797149 -0.27369473814043482 0 0.036880673147651893 -0.29214686163658188 0 0.045030114453797149 -0.27369473814043482 0 0.031569732348134587 -0.27605270642615198 0 0.045030114453797149 -0.27369473814043482 0 0.031569732348134587 -0.27605270642615198 0 0.027227082060045239 -0.26270565292166109 0 0.045030114453797149 -0.27369473814043482 0 0.027227082060045239 -0.26270565292166109 0 0.037549282835062883 -0.24469597553863731 0 0.045030114453797149 -0.27369473814043482 0 0.037549282835062883 -0.24469597553863731 0 0.053161110625048358 -0.25528437847743352 0 0.045030114453797149 -0.27369473814043482 0 0.037549282835062883 -0.24469597553863731 0 0.024778408564633429 -0.25153070039305148 0 0.027227082060045239 -0.26270565292166109 0 0.037549282835062883 -0.24469597553863731 0 0.027227082060045239 -0.26270565292166109 0 0.015636977222891729 -0.26649556112230133 0 0.014340314550105759 -0.25674908417707598 0 0.024778408564633429 -0.25153070039305148 0 0.014340314550105759 -0.25674908417707598 0 0.019996954813319871 -0.24197208893483191 0 0.024778408564633429 -0.25153070039305148 0 0.027227082060045239 -0.26270565292166109 0 0.014340314550105759 -0.25674908417707598 0 0.02479847056265666 -0.28430073663470029 0 0.031569732348134587 -0.27605270642615198 0 0.02243063804467087 -0.27145901122136901 0 0.031569732348134587 -0.27605270642615198 0 0.027227082060045239 -0.26270565292166109 0 0.02243063804467087 -0.27145901122136901 0 0.02243063804467087 -0.27145901122136901 0 0.015636977222891729 -0.26649556112230133 0 0.01424051881430771 -0.27597308408008858 0 0.027227082060045239 -0.26270565292166109 0 0.02243063804467087 -0.27145901122136901 0 0.015636977222891729 -0.26649556112230133 0 0.02479847056265666 -0.28430073663470029 0 0.02243063804467087 -0.27145901122136901 0 0.01424051881430771 -0.27597308408008858 0 -0.0036766155545770941 -0.28592988278291398 0 0.0049737437771986224 -0.26622900779742248 0 0.001493640475220439 -0.25857443167614802 0 0.0047012525074890173 -0.28545055950967402 0 0.01424051881430771 -0.27597308408008858 0 0.0049737437771986224 -0.26622900779742248 0 -0.0036766155545770941 -0.28592988278291398 0 0.0047012525074890173 -0.28545055950967402 0 0.0049737437771986224 -0.26622900779742248 0 0.0047012525074890173 -0.28545055950967402 0 0.0049737437771986224 -0.26622900779742248 0 0.015636977222891729 -0.26649556112230133 0 0.01424051881430771 -0.27597308408008858 0 0.0049737437771986224 -0.26622900779742248 0 0.0049737437771986224 -0.26622900779742248 0 0.014340314550105759 -0.25674908417707598 0 0.0052462350469080982 -0.247007456085171 0 0.0049737437771986224 -0.26622900779742248 0 0.001493640475220439 -0.25857443167614802 0 0.0052462350469080982 -0.247007456085171 0 0.0049737437771986224 -0.26622900779742248 0 0.0052462350469080982 -0.247007456085171 0 0.015636977222891729 -0.26649556112230133 0 0.0049737437771986224 -0.26622900779742248 0 0.014340314550105759 -0.25674908417707598 0 0.001493640475220439 -0.25857443167614802 0 0.00666389650501882 -0.2312189805693822 0 0.0052462350469080982 -0.247007456085171 0 0.00666389650501882 -0.2312189805693822 0 0.019996954813319871 -0.24197208893483191 0 -0.0058852010461819503 -0.24072601223504581 0 0.001493640475220439 -0.25857443167614802 0 0.00666389650501882 -0.2312189805693822 0 0.001493640475220439 -0.25857443167614802 0 0.0052462350469080982 -0.247007456085171 0 0.00666389650501882 -0.2312189805693822 0 0.014340314550105759 -0.25674908417707598 0 0.0052462350469080982 -0.247007456085171 0 0.019996954813319871 -0.24197208893483191 0 0.00666389650501882 -0.2312189805693822 0 0.021222547580909319 -0.2274895574884615 0 0.011834152534817221 -0.20386352946261629 0 -0.0041063050267637893 -0.2280355466079268 0 0.00666389650501882 -0.2312189805693822 0 0.0048010455329387204 -0.2187537637929122 0 0.021222547580909319 -0.2274895574884615 0 0.030068451216327809 -0.21569721293683999 0 0.037549282835062883 -0.24469597553863731 0 0.00666389650501882 -0.2312189805693822 0 0.021222547580909319 -0.2274895574884615 0 0.019996954813319871 -0.24197208893483191 0 0.024778408564633429 -0.25153070039305148 0 0.019996954813319871 -0.24197208893483191 0 0.037549282835062883 -0.24469597553863731 0 0.021222547580909319 -0.2274895574884615 0 0.019996954813319871 -0.24197208893483191 0 0.037549282835062883 -0.24469597553863731 0 0.011834152534817221 -0.20386352946261629 0 0.01700440856461588 -0.1765080783558505 0 0.0065845041228385758 -0.19706157735397919 0 0.011834152534817221 -0.20386352946261629 0 0.01700440856461588 -0.1765080783558505 0 -0.00020742762622789299 -0.1865663821935809 0 -0.0043448395101620511 -0.19751575348011011 0 0.0065845041228385758 -0.19706157735397919 0 -0.0017236962069214019 -0.2074738819297561 0 -0.0043448395101620511 -0.19751575348011011 0 0.0065845041228385758 -0.19706157735397919 0 0.00666389650501882 -0.2312189805693822 0 0.011834152534817221 -0.20386352946261629 0 0.0048010455329387204 -0.2187537637929122 0 0.0065845041228385758 -0.19706157735397919 0 0.0048010455329387204 -0.2187537637929122 0 0.0065845041228385758 -0.19706157735397919 0 0.011834152534817221 -0.20386352946261629 0 -0.0017236962069214019 -0.2074738819297561 0 0.0048010455329387204 -0.2187537637929122 0 0.0065845041228385758 -0.19706157735397919 0 0.00666389650501882 -0.2312189805693822 0 0.0048010455329387204 -0.2187537637929122 0 0.011834152534817221 -0.20386352946261629 0 0.021222547580909319 -0.2274895574884615 0 0.011834152534817221 -0.20386352946261629 0 0.030068451216327809 -0.21569721293683999 0 0.011834152534817221 -0.20386352946261629 0 0.030068451216327809 -0.21569721293683999 0 0.028291344486126579 -0.19634971365306281 0 0.011834152534817221 -0.20386352946261629 0 0.028291344486126579 -0.19634971365306281 0 0.01700440856461588 -0.1765080783558505 0 0.028291344486126579 -0.19634971365306281 0 0.04290356498751436 -0.20596470330062661 0 0.037243289332609328 -0.1791765092985923 0 0.04290356498751436 -0.20596470330062661 0 0.056804288910001638 -0.19782641332243869 0 0.037243289332609328 -0.1791765092985923 0 0.030068451216327809 -0.21569721293683999 0 0.028291344486126579 -0.19634971365306281 0 0.04290356498751436 -0.20596470330062661 0 0.030068451216327809 -0.21569721293683999 0 0.04290356498751436 -0.20596470330062661 0 0.04809894352443829 -0.2190962582925359 0 0.054518259856626533 -0.21172592011087341 0 0.056804288910001638 -0.19782641332243869 0 0.069423102967551942 -0.2184636591514314 0 0.054518259856626533 -0.21172592011087341 0 0.04809894352443829 -0.2190962582925359 0 0.057797816528528723 -0.22047138987893311 0 0.04290356498751436 -0.20596470330062661 0 0.054518259856626533 -0.21172592011087341 0 0.04809894352443829 -0.2190962582925359 0 0.054518259856626533 -0.21172592011087341 0 0.057797816528528723 -0.22047138987893311 0 0.069423102967551942 -0.2184636591514314 0 0.04290356498751436 -0.20596470330062661 0 0.054518259856626533 -0.21172592011087341 0 0.056804288910001638 -0.19782641332243869 0 0.063828732587502185 -0.1930305677590809 0 0.066070912472710366 -0.1990481876553587 0 0.055776536458024863 -0.18162005796443451 0 0.056804288910001638 -0.19782641332243869 0 0.037243289332609328 -0.1791765092985923 0 0.056804288910001638 -0.19782641332243869 0 0.066070912472710366 -0.1990481876553587 0 0.055776536458024863 -0.18162005796443451 0 0.066070912472710366 -0.1990481876553587 0 0.055776536458024863 -0.18162005796443451 0 0.037549282835062883 -0.24469597553863731 0 0.046418311810341818 -0.2313390259355701 0 0.051239857524340009 -0.24174735849295709 0 0.030068451216327809 -0.21569721293683999 0 0.046418311810341818 -0.2313390259355701 0 0.04809894352443829 -0.2190962582925359 0 0.030068451216327809 -0.21569721293683999 0 0.037549282835062883 -0.24469597553863731 0 0.030068451216327809 -0.21569721293683999 0 0.037549282835062883 -0.24469597553863731 0 0.046418311810341818 -0.2313390259355701 0 0.046418311810341818 -0.2313390259355701 0 0.05528848927364504 -0.22824673791477471 0 0.054444991396445291 -0.2349079887891681 0 0.04809894352443829 -0.2190962582925359 0 0.057797816528528723 -0.22047138987893311 0 0.05528848927364504 -0.22824673791477471 0 0.046418311810341818 -0.2313390259355701 0 0.04809894352443829 -0.2190962582925359 0 0.05528848927364504 -0.22824673791477471 0 0.057797816528528723 -0.22047138987893311 0 0.05528848927364504 -0.22824673791477471 0 0.060455507278416337 -0.2271336377088756 0 0.058476020826055852 -0.23161238278480609 0 0.060455507278416337 -0.2271336377088756 0 0.061292106796300157 -0.2368740188144324 0 0.058476020826055852 -0.23161238278480609 0 0.05528848927364504 -0.22824673791477471 0 0.054444991396445291 -0.2349079887891681 0 0.058476020826055852 -0.23161238278480609 0 0.05528848927364504 -0.22824673791477471 0 0.060455507278416337 -0.2271336377088756 0 0.053161110625048358 -0.25528437847743352 0 0.061292106796300157 -0.2368740188144324 0 0.051239857524340009 -0.24174735849295709 0 0.061292106796300157 -0.2368740188144324 0 0.051239857524340009 -0.24174735849295709 0 0.054444991396445291 -0.2349079887891681 0 0.053161110625048358 -0.25528437847743352 0 0.061292106796300157 -0.2368740188144324 0 0.053161110625048358 -0.25528437847743352 0 0.061292106796300157 -0.2368740188144324 0 0.062778923260797204 -0.23904955881998519 0 0.058476020826055852 -0.23161238278480609 0 0.061292106796300157 -0.2368740188144324 0 0.054444991396445291 -0.2349079887891681 0 0.046418311810341818 -0.2313390259355701 0 0.051239857524340009 -0.24174735849295709 0 0.054444991396445291 -0.2349079887891681 0 0.053161110625048358 -0.25528437847743352 0 0.037549282835062883 -0.24469597553863731 0 0.051239857524340009 -0.24174735849295709 0 0.064337829456463616 -0.25407158867812629 0 0.066500069068977402 -0.2437297274200026 0 0.062778923260797204 -0.23904955881998519 0 0.064337829456463616 -0.25407158867812629 0 0.066500069068977402 -0.2437297274200026 0 0.067993141413549632 -0.24731101731799179 0 0.066500069068977402 -0.2437297274200026 0 0.069569099392972122 -0.24368213831979629 0 0.067993141413549632 -0.24731101731799179 0 0.066500069068977402 -0.2437297274200026 0 0.069569099392972122 -0.24368213831979629 0 0.068772712217964924 -0.23938951965704419 0 0.069569099392972122 -0.24368213831979629 0 0.067993141413549632 -0.24731101731799179 0 0.073070599010250384 -0.24903232070930861 0 0.064243061165474208 -0.23723027231571511 0 0.06592945432917928 -0.23870440962282369 0 0.067352505932682577 -0.2341229699013711 0 0.061292106796300157 -0.2368740188144324 0 0.064243061165474208 -0.23723027231571511 0 0.067352505932682577 -0.2341229699013711 0 0.061292106796300157 -0.2368740188144324 0 0.064243061165474208 -0.23723027231571511 0 0.062778923260797204 -0.23904955881998519 0 0.066500069068977402 -0.2437297274200026 0 0.06592945432917928 -0.23870440962282369 0 0.062778923260797204 -0.23904955881998519 0 0.064243061165474208 -0.23723027231571511 0 0.06592945432917928 -0.23870440962282369 0 0.062778923260797204 -0.23904955881998519 0 0.066500069068977402 -0.2437297274200026 0 0.06592945432917928 -0.23870440962282369 0 0.068772712217964924 -0.23938951965704419 0 0.06592945432917928 -0.23870440962282369 0 0.068772712217964924 -0.23938951965704419 0 0.067352505932682577 -0.2341229699013711 0 0.068772712217964924 -0.23938951965704419 0 0.071928377292644216 -0.2359664368641633 0 0.067352505932682577 -0.2341229699013711 0 0.071928377292644216 -0.2359664368641633 0 0.073302101913589046 -0.24090855327160271 0 0.077157524872214861 -0.23615469876349551 0 0.071928377292644216 -0.2359664368641633 0 0.077157524872214861 -0.23615469876349551 0 0.073520452049771132 -0.2315412337754123 0 0.069569099392972122 -0.24368213831979629 0 0.068772712217964924 -0.23938951965704419 0 0.073302101913589046 -0.24090855327160271 0 0.068772712217964924 -0.23938951965704419 0 0.071928377292644216 -0.2359664368641633 0 0.073302101913589046 -0.24090855327160271 0 0.073302101913589046 -0.24090855327160271 0 0.077157524872214861 -0.23615469876349551 0 0.080473465358498655 -0.2426987184243011 0 0.073302101913589046 -0.24090855327160271 0 0.073070599010250384 -0.24903232070930861 0 0.080473465358498655 -0.2426987184243011 0 0.069569099392972122 -0.24368213831979629 0 0.073302101913589046 -0.24090855327160271 0 0.073070599010250384 -0.24903232070930861 0 0.081209180124089092 -0.25075173997960992 0 0.073070599010250384 -0.24903232070930861 0 0.080473465358498655 -0.2426987184243011 0 0.081209180124089092 -0.25075173997960992 0 0.080473465358498655 -0.2426987184243011 0 0.091698400547660958 -0.24396831379389891 0 0.080473465358498655 -0.2426987184243011 0 0.083892243438801251 -0.2360316571070718 0 0.091698400547660958 -0.24396831379389891 0 0.077157524872214861 -0.23615469876349551 0 0.080473465358498655 -0.2426987184243011 0 0.083892243438801251 -0.2360316571070718 0 0.083892243438801251 -0.2360316571070718 0 0.091698400547660958 -0.24396831379389891 0 0.091568219530415565 -0.23097113923468299 0 0.081209180124089092 -0.25075173997960992 0 0.090545204187761089 -0.25326107160751837 0 0.091698400547660958 -0.24396831379389891 0 0.089549491620035782 -0.22031967458832449 0 0.091568219530415565 -0.23097113923468299 0 0.099795064202049727 -0.22386328912089609 0 0.091568219530415565 -0.23097113923468299 0 0.079828509179984936 -0.22978159313842161 0 0.07915539820351862 -0.2211999056351816 0 0.083892243438801251 -0.2360316571070718 0 0.091568219530415565 -0.23097113923468299 0 0.079828509179984936 -0.22978159313842161 0 0.077157524872214861 -0.23615469876349551 0 0.083892243438801251 -0.2360316571070718 0 0.079828509179984936 -0.22978159313842161 0 0.091568219530415565 -0.23097113923468299 0 0.076365288487396321 -0.21647631734628259 0 0.089549491620035782 -0.22031967458832449 0 0.091568219530415565 -0.23097113923468299 0 0.076365288487396321 -0.21647631734628259 0 0.091568219530415565 -0.23097113923468299 0 0.07915539820351862 -0.2211999056351816 0 0.076365288487396321 -0.21647631734628259 0 0.074140627508189741 -0.22507571536279469 0 0.069423102967551942 -0.2184636591514314 0 0.076365288487396321 -0.21647631734628259 0 0.079828509179984936 -0.22978159313842161 0 0.07915539820351862 -0.2211999056351816 0 0.074140627508189741 -0.22507571536279469 0 0.061292106796300157 -0.2368740188144324 0 0.069423102967551942 -0.2184636591514314 0 0.061292106796300157 -0.2368740188144324 0 0.067352505932682577 -0.2341229699013711 0 0.069423102967551942 -0.2184636591514314 0 0.060455507278416337 -0.2271336377088756 0 0.061292106796300157 -0.2368740188144324 0 0.069423102967551942 -0.2184636591514314 0 0.074140627508189741 -0.22507571536279469 0 0.067352505932682577 -0.2341229699013711 0 0.069423102967551942 -0.2184636591514314 0 0.07915539820351862 -0.2211999056351816 0 0.076365288487396321 -0.21647631734628259 0 0.07915539820351862 -0.2211999056351816 0 0.074140627508189741 -0.22507571536279469 0 0.076365288487396321 -0.21647631734628259 0 0.074140627508189741 -0.22507571536279469 0 0.073520452049771132 -0.2315412337754123 0 0.067352505932682577 -0.2341229699013711 0 0.077157524872214861 -0.23615469876349551 0 0.079828509179984936 -0.22978159313842161 0 0.073520452049771132 -0.2315412337754123 0 0.079828509179984936 -0.22978159313842161 0 0.074140627508189741 -0.22507571536279469 0 0.073520452049771132 -0.2315412337754123 0 0.071928377292644216 -0.2359664368641633 0 0.073520452049771132 -0.2315412337754123 0 0.067352505932682577 -0.2341229699013711 0 0.057797816528528723 -0.22047138987893311 0 0.060455507278416337 -0.2271336377088756 0 0.069423102967551942 -0.2184636591514314 0 0.076365288487396321 -0.21647631734628259 0 0.066070912472710366 -0.1990481876553587 0 0.076365288487396321 -0.21647631734628259 0 0.066070912472710366 -0.1990481876553587 0 0.077892132244609419 -0.20292303548497101 0 0.056804288910001638 -0.19782641332243869 0 0.069423102967551942 -0.2184636591514314 0 0.076365288487396321 -0.21647631734628259 0 0.056804288910001638 -0.19782641332243869 0 0.076365288487396321 -0.21647631734628259 0 0.066070912472710366 -0.1990481876553587 0 0.056804288910001638 -0.19782641332243869 0 0.076365288487396321 -0.21647631734628259 0 0.063828732587502185 -0.1930305677590809 0 0.066070912472710366 -0.1990481876553587 0 0.073357095796439051 -0.19333562072119939 0 0.063828732587502185 -0.1930305677590809 0 0.064505379178104491 -0.18277092763334149 0 0.063828732587502185 -0.1930305677590809 0 0.073357095796439051 -0.19333562072119939 0 0.064505379178104491 -0.18277092763334149 0 0.066070912472710366 -0.1990481876553587 0 0.077892132244609419 -0.20292303548497101 0 0.073357095796439051 -0.19333562072119939 0 0.085418108676587154 -0.19693522460969701 0 0.1015829894956627 -0.18765949058246451 0 0.083044184336883403 -0.18521520910790421 0 0.073357095796439051 -0.19333562072119939 0 0.085418108676587154 -0.19693522460969701 0 0.083044184336883403 -0.18521520910790421 0 0.077892132244609419 -0.20292303548497101 0 0.073357095796439051 -0.19333562072119939 0 0.085418108676587154 -0.19693522460969701 0 0.085418108676587154 -0.19693522460969701 0 0.087460743162343008 -0.2096817193633177 0 0.095626484070253884 -0.2018485261862393 0 0.089549491620035782 -0.22031967458832449 0 0.076365288487396321 -0.21647631734628259 0 0.087460743162343008 -0.2096817193633177 0 0.077892132244609419 -0.20292303548497101 0 0.085418108676587154 -0.19693522460969701 0 0.087460743162343008 -0.2096817193633177 0 0.076365288487396321 -0.21647631734628259 0 0.077892132244609419 -0.20292303548497101 0 0.087460743162343008 -0.2096817193633177 0 0.089549491620035782 -0.22031967458832449 0 0.087460743162343008 -0.2096817193633177 0 0.099795064202049727 -0.22386328912089609 0 0.087460743162343008 -0.2096817193633177 0 0.099795064202049727 -0.22386328912089609 0 0.087460743162343008 -0.2096817193633177 0 0.098657148657604193 -0.21330225893808991 0 0.099795064202049727 -0.22386328912089609 0 0.098657148657604193 -0.21330225893808991 0 0.1065363258702221 -0.20667655245792821 0 0.1114896622447811 -0.225693614333392 0 0.1065363258702221 -0.20667655245792821 0 0.1114896622447811 -0.225693614333392 0 0.087460743162343008 -0.2096817193633177 0 0.098657148657604193 -0.21330225893808991 0 0.095626484070253884 -0.2018485261862393 0 0.098657148657604193 -0.21330225893808991 0 0.1065363258702221 -0.20667655245792821 0 0.095626484070253884 -0.2018485261862393 0 0.1065363258702221 -0.20667655245792821 0 0.1015829894956627 -0.18765949058246451 0 0.085418108676587154 -0.19693522460969701 0 0.095626484070253884 -0.2018485261862393 0 0.1015829894956627 -0.18765949058246451 0 0.1065363258702221 -0.20667655245792821 0 0.1015829894956627 -0.18765949058246451 0 0.1117124115525541 -0.19744866224167471 0 0.1065363258702221 -0.20667655245792821 0 0.095626484070253884 -0.2018485261862393 0 0.1015829894956627 -0.18765949058246451 0 0.1015829894956627 -0.18765949058246451 0 0.1095080773363355 -0.18870438777121751 0 0.1015829894956627 -0.18765949058246451 0 0.1095080773363355 -0.18870438777121751 0 0.1117124115525541 -0.19744866224167471 0 0.11683733057317409 -0.1894533044341174 0 0.1196555054935612 -0.20658570818787739 0 0.11683733057317409 -0.1894533044341174 0 0.1196555054935612 -0.20658570818787739 0 0.12823990529544579 -0.19493920790853589 0 0.11683733057317409 -0.1894533044341174 0 0.1117124115525541 -0.19744866224167471 0 0.1196555054935612 -0.20658570818787739 0 0.11683733057317409 -0.1894533044341174 0 0.1095080773363355 -0.18870438777121751 0 0.1117124115525541 -0.19744866224167471 0 0.11683733057317409 -0.1894533044341174 0 0.1240403039469216 -0.18233145472322959 0 0.12823990529544579 -0.19493920790853589 0 0.1065363258702221 -0.20667655245792821 0 0.11543006498076511 -0.21607875522028419 0 0.1114896622447811 -0.225693614333392 0 0.11543006498076511 -0.21607875522028419 0 0.1196555054935612 -0.20658570818787739 0 0.1224736804139482 -0.22371811194163749 0 0.1196555054935612 -0.20658570818787739 0 0.1224736804139482 -0.22371811194163749 0 0.13156122257118369 -0.21113195555327419 0 0.1196555054935612 -0.20658570818787739 0 0.1224736804139482 -0.22371811194163749 0 0.1065363258702221 -0.20667655245792821 0 0.1117124115525541 -0.19744866224167471 0 0.1196555054935612 -0.20658570818787739 0 0.1065363258702221 -0.20667655245792821 0 0.11543006498076511 -0.21607875522028419 0 0.1196555054935612 -0.20658570818787739 0 0.1224736804139482 -0.22371811194163749 0 0.1121293852417569 -0.23804485887847401 0 0.12513321058705959 -0.2398860738347883 0 0.1224736804139482 -0.22371811194163749 0 0.12513321058705959 -0.2398860738347883 0 0.11543006498076511 -0.21607875522028419 0 0.1224736804139482 -0.22371811194163749 0 0.1114896622447811 -0.225693614333392 0 0.1224736804139482 -0.22371811194163749 0 0.1114896622447811 -0.225693614333392 0 0.1121293852417569 -0.23804485887847401 0 0.1224736804139482 -0.22371811194163749 0 0.1121293852417569 -0.23804485887847401 0 0.12779274076017111 -0.25605403572793911 0 0.1121293852417569 -0.23804485887847401 0 0.12513321058705959 -0.2398860738347883 0 0.12779274076017111 -0.25605403572793911 0 0.1121293852417569 -0.23804485887847401 0 0.10677115057343491 -0.24546596112308319 0 0.12779274076017111 -0.25605403572793911 0 0.1121293852417569 -0.23804485887847401 0 0.1121293852417569 -0.23804485887847401 0 0.10677115057343491 -0.24546596112308319 0 0.1121293852417569 -0.23804485887847401 0 0.10256595488691481 -0.2345863120892846 0 0.10677115057343491 -0.24546596112308319 0 0.090545204187761089 -0.25326107160751837 0 0.091698400547660958 -0.24396831379389891 0 0.10677115057343491 -0.24546596112308319 0 0.091698400547660958 -0.24396831379389891 0 0.091568219530415565 -0.23097113923468299 0 0.10677115057343491 -0.24546596112308319 0 0.091568219530415565 -0.23097113923468299 0 0.10677115057343491 -0.24546596112308319 0 0.091568219530415565 -0.23097113923468299 0 0.10256595488691481 -0.2345863120892846 0 0.10677115057343491 -0.24546596112308319 0 0.091568219530415565 -0.23097113923468299 0 0.10256595488691481 -0.2345863120892846 0 0.099795064202049727 -0.22386328912089609 0 0.098657148657604193 -0.21330225893808991 0 0.1114896622447811 -0.225693614333392 0 0.099795064202049727 -0.22386328912089609 0 0.1114896622447811 -0.225693614333392 0 0.1121293852417569 -0.23804485887847401 0 0.099795064202049727 -0.22386328912089609 0 0.1121293852417569 -0.23804485887847401 0 0.099795064202049727 -0.22386328912089609 0 0.1121293852417569 -0.23804485887847401 0 0.10256595488691481 -0.2345863120892846 0 0.099795064202049727 -0.22386328912089609 0 0.1050647636060167 -0.14166345347507331 0 0.094748366505864684 -0.16141971228676269 0 0.087913743516066289 -0.13517993399106101 0 0.1050647636060167 -0.14166345347507331 0 0.087913743516066289 -0.13517993399106101 0 0.1028035269693323 -0.1232826956443001 0 0.1050647636060167 -0.14166345347507331 0 0.1205446709487009 -0.129680761075603 0 0.1215075551365926 -0.14632308607295841 0 0.1050647636060167 -0.14166345347507331 0 0.1205446709487009 -0.129680761075603 0 0.1028035269693323 -0.1232826956443001 0 0.1050647636060167 -0.14166345347507331 0 0.1215075551365926 -0.14632308607295841 0 0.1138523201595127 -0.166357281778657 0 0.1215075551365926 -0.14632308607295841 0 0.1138523201595127 -0.166357281778657 0 0.12871091448319821 -0.16733684230381859 0 0.1138523201595127 -0.166357281778657 0 0.1240403039469216 -0.18233145472322959 0 0.1139386725422082 -0.1815827146543835 0 0.1138523201595127 -0.166357281778657 0 0.1240403039469216 -0.18233145472322959 0 0.12871091448319821 -0.16733684230381859 0 0.11683733057317409 -0.1894533044341174 0 0.1240403039469216 -0.18233145472322959 0 0.1139386725422082 -0.1815827146543835 0 0.1138523201595127 -0.166357281778657 0 0.1139386725422082 -0.1815827146543835 0 0.1070456593589532 -0.17680414048243531 0 0.1095080773363355 -0.18870438777121751 0 0.1139386725422082 -0.1815827146543835 0 0.1070456593589532 -0.17680414048243531 0 0.11683733057317409 -0.1894533044341174 0 0.1095080773363355 -0.18870438777121751 0 0.1139386725422082 -0.1815827146543835 0 0.1015829894956627 -0.18765949058246451 0 0.1070456593589532 -0.17680414048243531 0 0.094748366505864684 -0.16141971228676269 0 0.1015829894956627 -0.18765949058246451 0 0.094748366505864684 -0.16141971228676269 0 0.1015829894956627 -0.18765949058246451 0 0.1095080773363355 -0.18870438777121751 0 0.1070456593589532 -0.17680414048243531 0 0.1050647636060167 -0.14166345347507331 0 0.1138523201595127 -0.166357281778657 0 0.094748366505864684 -0.16141971228676269 0 0.1138523201595127 -0.166357281778657 0 0.1070456593589532 -0.17680414048243531 0 0.094748366505864684 -0.16141971228676269 0 0.094748366505864684 -0.16141971228676269 0 0.07573303535264507 -0.16914057194998081 0 0.079563219244084965 -0.15096038192744879 0 0.094748366505864684 -0.16141971228676269 0 0.083044184336883403 -0.18521520910790421 0 0.07573303535264507 -0.16914057194998081 0 0.1015829894956627 -0.18765949058246451 0 0.094748366505864684 -0.16141971228676269 0 0.083044184336883403 -0.18521520910790421 0 0.1015829894956627 -0.18765949058246451 0 0.083044184336883403 -0.18521520910790421 0 0.083044184336883403 -0.18521520910790421 0 0.064505379178104491 -0.18277092763334149 0 0.083044184336883403 -0.18521520910790421 0 0.064505379178104491 -0.18277092763334149 0 0.07573303535264507 -0.16914057194998081 0 0.073357095796439051 -0.19333562072119939 0 0.083044184336883403 -0.18521520910790421 0 0.064505379178104491 -0.18277092763334149 0 0.064505379178104491 -0.18277092763334149 0 0.066392749493510247 -0.15415371373025161 0 0.07573303535264507 -0.16914057194998081 0 0.066392749493510247 -0.15415371373025161 0 0.079563219244084965 -0.15096038192744879 0 0.064505379178104491 -0.18277092763334149 0 0.07573303535264507 -0.16914057194998081 0 0.066392749493510247 -0.15415371373025161 0 0.066392749493510247 -0.15415371373025161 0 0.079563219244084965 -0.15096038192744879 0 0.07302820135233852 -0.1349079776791878 0 0.094748366505864684 -0.16141971228676269 0 0.087913743516066289 -0.13517993399106101 0 0.094748366505864684 -0.16141971228676269 0 0.079563219244084965 -0.15096038192744879 0 0.087913743516066289 -0.13517993399106101 0 0.079563219244084965 -0.15096038192744879 0 0.087913743516066289 -0.13517993399106101 0 0.07302820135233852 -0.1349079776791878 0 0.087913743516066289 -0.13517993399106101 0 0.080324667448364251 -0.12532265344771409 0 0.089627820947755232 -0.1217226115136569 0 0.087913743516066289 -0.13517993399106101 0 0.089627820947755232 -0.1217226115136569 0 0.1028035269693323 -0.1232826956443001 0 0.087913743516066289 -0.13517993399106101 0 0.080324667448364251 -0.12532265344771409 0 0.07302820135233852 -0.1349079776791878 0 0.066392749493510247 -0.15415371373025161 0 0.068280119808916462 -0.12553649982716181 0 0.054201729683670812 -0.13897884312560241 0 0.080324667448364251 -0.12532265344771409 0 0.07302820135233852 -0.1349079776791878 0 0.068280119808916462 -0.12553649982716181 0 0.066392749493510247 -0.15415371373025161 0 0.07302820135233852 -0.1349079776791878 0 0.068280119808916462 -0.12553649982716181 0 0.066392749493510247 -0.15415371373025161 0 0.068280119808916462 -0.12553649982716181 0 0.07302820135233852 -0.1349079776791878 0 0.068280119808916462 -0.12553649982716181 0 0.068280119808916462 -0.12553649982716181 0 0.055985619858150953 -0.12717286701514779 0 0.054201729683670812 -0.13897884312560241 0 0.055985619858150953 -0.12717286701514779 0 0.054201729683670812 -0.13897884312560241 0 0.045171209961928228 -0.1247510050464096 0 0.054201729683670812 -0.13897884312560241 0 0.051105629069864197 -0.15235871437502049 0 0.037293179248842297 -0.15032818110800711 0 0.066392749493510247 -0.15415371373025161 0 0.054201729683670812 -0.13897884312560241 0 0.051105629069864197 -0.15235871437502049 0 0.051105629069864197 -0.15235871437502049 0 0.037293179248842297 -0.15032818110800711 0 0.046534857853433448 -0.16597411953622079 0 0.054201729683670812 -0.13897884312560241 0 0.037293179248842297 -0.15032818110800711 0 0.037578105279363977 -0.1357182057902836 0 0.037293179248842297 -0.15032818110800711 0 0.031649265744483443 -0.16191920050520681 0 0.028831953919537721 -0.15467848661222461 0 0.037293179248842297 -0.15032818110800711 0 0.037578105279363977 -0.1357182057902836 0 0.022695616118004691 -0.142586169551467 0 0.037578105279363977 -0.1357182057902836 0 0.028528791384373892 -0.12194683011993181 0 0.045171209961928228 -0.1247510050464096 0 0.054201729683670812 -0.13897884312560241 0 0.037578105279363977 -0.1357182057902836 0 0.045171209961928228 -0.1247510050464096 0 0.064505379178104491 -0.18277092763334149 0 0.066392749493510247 -0.15415371373025161 0 0.055776536458024863 -0.18162005796443451 0 0.056804288910001638 -0.19782641332243869 0 0.055776536458024863 -0.18162005796443451 0 0.037243289332609328 -0.1791765092985923 0 0.055776536458024863 -0.18162005796443451 0 0.046534857853433448 -0.16597411953622079 0 0.063828732587502185 -0.1930305677590809 0 0.064505379178104491 -0.18277092763334149 0 0.055776536458024863 -0.18162005796443451 0 0.064505379178104491 -0.18277092763334149 0 0.055776536458024863 -0.18162005796443451 0 0.066392749493510247 -0.15415371373025161 0 0.051105629069864197 -0.15235871437502049 0 0.046534857853433448 -0.16597411953622079 0 0.066392749493510247 -0.15415371373025161 0 0.055776536458024863 -0.18162005796443451 0 0.046534857853433448 -0.16597411953622079 0 0.037293179248842297 -0.15032818110800711 0 0.046534857853433448 -0.16597411953622079 0 0.046534857853433448 -0.16597411953622079 0 0.031649265744483443 -0.16191920050520681 0 0.037243289332609328 -0.1791765092985923 0 0.037293179248842297 -0.15032818110800711 0 0.046534857853433448 -0.16597411953622079 0 0.031649265744483443 -0.16191920050520681 0 0.055776536458024863 -0.18162005796443451 0 0.037243289332609328 -0.1791765092985923 0 0.055776536458024863 -0.18162005796443451 0 0.046534857853433448 -0.16597411953622079 0 0.037243289332609328 -0.1791765092985923 0 0.037243289332609328 -0.1791765092985923 0 0.01700440856461588 -0.1765080783558505 0 0.037243289332609328 -0.1791765092985923 0 0.01700440856461588 -0.1765080783558505 0 0.01966726040541044 -0.16241912165510189 0 0.028291344486126579 -0.19634971365306281 0 0.037243289332609328 -0.1791765092985923 0 0.01700440856461588 -0.1765080783558505 0 0.037243289332609328 -0.1791765092985923 0 0.01966726040541044 -0.16241912165510189 0 0.031649265744483443 -0.16191920050520681 0 0.037243289332609328 -0.1791765092985923 0 0.01966726040541044 -0.16241912165510189 0 0.01700440856461588 -0.1765080783558505 0 0.01966726040541044 -0.16241912165510189 0 0.031649265744483443 -0.16191920050520681 0 0.020325053707072539 -0.1589387848210887 0 0.028831953919537721 -0.15467848661222461 0 0.031649265744483443 -0.16191920050520681 0 0.020325053707072539 -0.1589387848210887 0 0.01966726040541044 -0.16241912165510189 0 0.020325053707072539 -0.1589387848210887 0 0.01966726040541044 -0.16241912165510189 0 0.01017663408958859 -0.153370541636692 0 0.020325053707072539 -0.1589387848210887 0 0.01966726040541044 -0.16241912165510189 0 0.01966726040541044 -0.16241912165510189 0 0.0083679627127383645 -0.17536939091504619 0 0.01017663408958859 -0.153370541636692 0 0.0083679627127383645 -0.17536939091504619 0 0.01017663408958859 -0.153370541636692 0 0.0055258432095207383 -0.15756571128346131 0 0.0083679627127383645 -0.17536939091504619 0 0.01017663408958859 -0.153370541636692 0 0.0055258432095207383 -0.15756571128346131 0 0.00063827455712116483 -0.1668973949739043 0 0.0083679627127383645 -0.17536939091504619 0 0.01966726040541044 -0.16241912165510189 0 0.01017663408958859 -0.153370541636692 0 -0.00072690233441538891 -0.16097335060465459 0 0.0055258432095207383 -0.15756571128346131 0 0.00063827455712116483 -0.1668973949739043 0 -0.00072690233441538891 -0.16097335060465459 0 0.0055258432095207383 -0.15756571128346131 0 0.00081836894937297908 -0.15343424783023521 0 0.01700440856461588 -0.1765080783558505 0 0.01966726040541044 -0.16241912165510189 0 0.0083679627127383645 -0.17536939091504619 0 -0.00020742762622789299 -0.1865663821935809 0 0.0065845041228385758 -0.19706157735397919 0 0.0083679627127383645 -0.17536939091504619 0 0.0065845041228385758 -0.19706157735397919 0 0.01700440856461588 -0.1765080783558505 0 0.0083679627127383645 -0.17536939091504619 0 0.0065845041228385758 -0.19706157735397919 0 0.0083679627127383645 -0.17536939091504619 0 0.01700440856461588 -0.1765080783558505 0 0.0083679627127383645 -0.17536939091504619 0 -0.0034684930453481662 -0.17380879252231579 0 0.00063827455712116483 -0.1668973949739043 0 0.0083679627127383645 -0.17536939091504619 0 -0.00020742762622789299 -0.1865663821935809 0 -0.0034684930453481662 -0.17380879252231579 0 0.0083679627127383645 -0.17536939091504619 0 -0.0034684930453481662 -0.17380879252231579 0 0.0083679627127383645 -0.17536939091504619 0 0.037578105279363977 -0.1357182057902836 0 0.022695616118004691 -0.142586169551467 0 0.028528791384373892 -0.12194683011993181 0 0.022695616118004691 -0.142586169551467 0 0.01210776974080594 -0.12988216078932299 0 0.028528791384373892 -0.12194683011993181 0 0.037293179248842297 -0.15032818110800711 0 0.028831953919537721 -0.15467848661222461 0 0.022695616118004691 -0.142586169551467 0 0.028831953919537721 -0.15467848661222461 0 0.020507314458550859 -0.15239349565536811 0 0.022695616118004691 -0.142586169551467 0 0.020325053707072539 -0.1589387848210887 0 0.028831953919537721 -0.15467848661222461 0 0.020507314458550859 -0.15239349565536811 0 0.020507314458550859 -0.15239349565536811 0 0.022695616118004691 -0.142586169551467 0 0.01017663408958859 -0.153370541636692 0 0.020325053707072539 -0.1589387848210887 0 0.020507314458550859 -0.15239349565536811 0 0.01017663408958859 -0.153370541636692 0 0.01017663408958859 -0.153370541636692 0 0.01210776974080594 -0.12988216078932299 0 0.01017663408958859 -0.153370541636692 0 0.001884657043067488 -0.143349624844469 0 0.01210776974080594 -0.12988216078932299 0 0.022695616118004691 -0.142586169551467 0 0.01017663408958859 -0.153370541636692 0 0.01210776974080594 -0.12988216078932299 0 0.01017663408958859 -0.153370541636692 0 0.00081836894937297908 -0.15343424783023521 0 0.001884657043067488 -0.143349624844469 0 0.0055258432095207383 -0.15756571128346131 0 0.01017663408958859 -0.153370541636692 0 0.00081836894937297908 -0.15343424783023521 0 -0.0049868459187064782 -0.12089393076142101 0 -0.004994569159410607 -0.1348214239729186 0 0.01210776974080594 -0.12988216078932299 0 -0.004994569159410607 -0.1348214239729186 0 0.001884657043067488 -0.143349624844469 0 0.01210776974080594 -0.12988216078932299 0 -0.0049868459187064782 -0.12089393076142101 0 0.01210776974080594 -0.12988216078932299 0 0.01293198562353713 -0.11112932532410071 0 -0.0049868459187064782 -0.12089393076142101 0 0.01293198562353713 -0.11112932532410071 0 0.00065304885141945798 -0.1023903550299885 0 0.01210776974080594 -0.12988216078932299 0 0.01293198562353713 -0.11112932532410071 0 0.028528791384373892 -0.12194683011993181 0 0.01293198562353713 -0.11112932532410071 0 0.028528791384373892 -0.12194683011993181 0 0.02756723083929449 -0.1010452906251158 0 0.01293198562353713 -0.11112932532410071 0 0.02756723083929449 -0.1010452906251158 0 0.013721918844035501 -0.090617384618824001 0 0.01293198562353713 -0.11112932532410071 0 0.00065304885141945798 -0.1023903550299885 0 0.013721918844035501 -0.090617384618824001 0 -0.0038160673774811919 -0.078706034850113737 0 0.00065304885141945798 -0.1023903550299885 0 0.013721918844035501 -0.090617384618824001 0 -0.0038160673774811919 -0.078706034850113737 0 0.013721918844035501 -0.090617384618824001 0 0.016737723004627721 -0.07383524372296893 0 -0.0038160673774811919 -0.078706034850113737 0 0.001638539968095381 -0.067471197349701681 0 0.016737723004627721 -0.07383524372296893 0 -0.0038160673774811919 -0.078706034850113737 0 0.016737723004627721 -0.07383524372296893 0 0.001638539968095381 -0.067471197349701681 0 0.016737723004627721 -0.07383524372296893 0 0.011154491506200209 -0.061985895537932802 0 0.016737723004627721 -0.07383524372296893 0 0.037291513386736613 -0.068964452595824122 0 0.023536052877492619 -0.061978088706981627 0 0.016737723004627721 -0.07383524372296893 0 0.029535585736087919 -0.082037840434785639 0 0.037291513386736613 -0.068964452595824122 0 0.016737723004627721 -0.07383524372296893 0 0.037291513386736613 -0.068964452595824122 0 0.016737723004627721 -0.07383524372296893 0 0.011154491506200209 -0.061985895537932802 0 0.023536052877492619 -0.061978088706981627 0 0.02756723083929449 -0.1010452906251158 0 0.013721918844035501 -0.090617384618824001 0 0.029535585736087919 -0.082037840434785639 0 0.013721918844035501 -0.090617384618824001 0 0.016737723004627721 -0.07383524372296893 0 0.029535585736087919 -0.082037840434785639 0 0.029535585736087919 -0.082037840434785639 0 0.044184123655506259 -0.077977271492707848 0 0.040194844358872002 -0.094318432100089875 0 0.02756723083929449 -0.1010452906251158 0 0.029535585736087919 -0.082037840434785639 0 0.040194844358872002 -0.094318432100089875 0 0.044184123655506259 -0.077977271492707848 0 0.056232121732211558 -0.1017568856599347 0 0.040194844358872002 -0.094318432100089875 0 0.037291513386736613 -0.068964452595824122 0 0.044184123655506259 -0.077977271492707848 0 0.032136125578801092 -0.054197657325480757 0 0.044184123655506259 -0.077977271492707848 0 0.032136125578801092 -0.054197657325480757 0 0.059636368055136377 -0.06188199175139876 0 0.044184123655506259 -0.077977271492707848 0 0.032136125578801092 -0.054197657325480757 0 0.029535585736087919 -0.082037840434785639 0 0.037291513386736613 -0.068964452595824122 0 0.044184123655506259 -0.077977271492707848 0 0.044184123655506259 -0.077977271492707848 0 0.059636368055136377 -0.06188199175139876 0 0.063772749019698149 -0.081625738424092847 0 0.044184123655506259 -0.077977271492707848 0 0.062291383112886282 -0.091841398553835496 0 0.056232121732211558 -0.1017568856599347 0 0.044184123655506259 -0.077977271492707848 0 0.062291383112886282 -0.091841398553835496 0 0.063772749019698149 -0.081625738424092847 0 0.044184123655506259 -0.077977271492707848 0 0.056232121732211558 -0.1017568856599347 0 0.068280119808916462 -0.12553649982716181 0 0.056232121732211558 -0.1017568856599347 0 0.068280119808916462 -0.12553649982716181 0 0.056232121732211558 -0.1017568856599347 0 0.05409868776511504 -0.117801391977768 0 0.056232121732211558 -0.1017568856599347 0 0.05409868776511504 -0.117801391977768 0 0.042422614320922022 -0.109283598738284 0 0.068280119808916462 -0.12553649982716181 0 0.055985619858150953 -0.12717286701514779 0 0.05409868776511504 -0.117801391977768 0 0.055985619858150953 -0.12717286701514779 0 0.05409868776511504 -0.117801391977768 0 0.045171209961928228 -0.1247510050464096 0 0.05409868776511504 -0.117801391977768 0 0.045171209961928228 -0.1247510050464096 0 0.042422614320922022 -0.109283598738284 0 0.028528791384373892 -0.12194683011993181 0 0.045171209961928228 -0.1247510050464096 0 0.042422614320922022 -0.109283598738284 0 0.028528791384373892 -0.12194683011993181 0 0.02756723083929449 -0.1010452906251158 0 0.042422614320922022 -0.109283598738284 0 0.056232121732211558 -0.1017568856599347 0 0.040194844358872002 -0.094318432100089875 0 0.042422614320922022 -0.109283598738284 0 0.02756723083929449 -0.1010452906251158 0 0.040194844358872002 -0.094318432100089875 0 0.042422614320922022 -0.109283598738284 0 0.0222198486616021 -0.013454635331005851 0 0.0072753335151073822 -0.0051289208098825451 0 0.018454255249419359 -0.027193204349365029 0 0.026265846738701731 0.0061259928697827686 0 0.0181877264363123 -0.001151817779521591 0 0.033094314708757198 -0.0052023388711797246 0 0.0222198486616021 -0.013454635331005851 0 0.0181877264363123 -0.001151817779521591 0 0.033094314708757198 -0.0052023388711797246 0 0.0222198486616021 -0.013454635331005851 0 0.0181877264363123 -0.001151817779521591 0 0.0072753335151073822 -0.0051289208098825451 0 0.0072753335151073822 -0.0051289208098825451 0 0.0044324222003585823 -0.012327944391671871 0 0.018454255249419359 -0.027193204349365029 0 -0.0012366189011378649 -0.0020531284498746041 0 0.0072753335151073822 -0.0051289208098825451 0 0.0044324222003585823 -0.012327944391671871 0 -0.0012366189011378649 -0.0020531284498746041 0 0.0037496653143511238 0.0041068543098623398 0 0.0072753335151073822 -0.0051289208098825451 0 0.0044324222003585823 -0.012327944391671871 0 0.0051040728730160929 -0.025740162193506479 0 0.018454255249419359 -0.027193204349365029 0 0.0072753335151073822 -0.0051289208098825451 0 0.018454255249419359 -0.027193204349365029 0 -0.0044881976089260842 -0.017107483418868499 0 0.0044324222003585823 -0.012327944391671871 0 0.0051040728730160929 -0.025740162193506479 0 0.0051040728730160929 -0.025740162193506479 0 0.018454255249419359 -0.027193204349365029 0 0.014453354597509479 -0.039301303511212617 0 0.0222198486616021 -0.013454635331005851 0 0.018454255249419359 -0.027193204349365029 0 0.040414599996046609 -0.027176196020058371 0 0.018454255249419359 -0.027193204349365029 0 0.029696868758421431 -0.0381920830832971 0 0.040414599996046609 -0.027176196020058371 0 0.018454255249419359 -0.027193204349365029 0 0.014453354597509479 -0.039301303511212617 0 0.02996400185122728 -0.049838494198622171 0 0.018454255249419359 -0.027193204349365029 0 0.029696868758421431 -0.0381920830832971 0 0.02996400185122728 -0.049838494198622171 0 0.018454255249419359 -0.027193204349365029 0 0.02996400185122728 -0.049838494198622171 0 0.014453354597509479 -0.039301303511212617 0 0.020360410911097349 -0.050907194352701898 0 0.02996400185122728 -0.049838494198622171 0 -0.001213146997671962 -0.034964638412731022 0 0.0046217232020452203 -0.046509366228621743 0 0.014453354597509479 -0.039301303511212617 0 -0.001213146997671962 -0.034964638412731022 0 0.0051040728730160929 -0.025740162193506479 0 0.014453354597509479 -0.039301303511212617 0 0.0046217232020452203 -0.046509366228621743 0 0.014453354597509479 -0.039301303511212617 0 0.020360410911097349 -0.050907194352701898 0 -0.0032476973680337019 -0.05510728400475115 0 0.020360410911097349 -0.050907194352701898 0 -0.0032476973680337019 -0.05510728400475115 0 0.011154491506200209 -0.061985895537932802 0 0.020360410911097349 -0.050907194352701898 0 0.0046217232020452203 -0.046509366228621743 0 0.020360410911097349 -0.050907194352701898 0 -0.0032476973680337019 -0.05510728400475115 0 0.0046217232020452203 -0.046509366228621743 0 0.020360410911097349 -0.050907194352701898 0 -0.0032476973680337019 -0.05510728400475115 0 0.001638539968095381 -0.067471197349701681 0 0.011154491506200209 -0.061985895537932802 0 0.011154491506200209 -0.061985895537932802 0 0.020360410911097349 -0.050907194352701898 0 0.023536052877492619 -0.061978088706981627 0 0.020360410911097349 -0.050907194352701898 0 0.032136125578801092 -0.054197657325480757 0 0.020360410911097349 -0.050907194352701898 0 0.02996400185122728 -0.049838494198622171 0 0.020360410911097349 -0.050907194352701898 0 0.02996400185122728 -0.049838494198622171 0 0.032136125578801092 -0.054197657325480757 0 0.02996400185122728 -0.049838494198622171 0 0.032136125578801092 -0.054197657325480757 0 0.020360410911097349 -0.050907194352701898 0 0.023536052877492619 -0.061978088706981627 0 0.032136125578801092 -0.054197657325480757 0 0.037291513386736613 -0.068964452595824122 0 0.023536052877492619 -0.061978088706981627 0 0.032136125578801092 -0.054197657325480757 0 0.032136125578801092 -0.054197657325480757 0 0.059636368055136377 -0.06188199175139876 0 0.02996400185122728 -0.049838494198622171 0 0.046234901633633731 -0.052790328616778889 0 0.059127062524634171 -0.044010266807239511 0 0.046234901633633731 -0.052790328616778889 0 0.032136125578801092 -0.054197657325480757 0 0.059636368055136377 -0.06188199175139876 0 0.02996400185122728 -0.049838494198622171 0 0.059127062524634171 -0.044010266807239511 0 0.02996400185122728 -0.049838494198622171 0 0.046234901633633731 -0.052790328616778889 0 0.032136125578801092 -0.054197657325480757 0 0.046234901633633731 -0.052790328616778889 0 0.059636368055136377 -0.06188199175139876 0 0.059127062524634171 -0.044010266807239511 0 0.059127062524634171 -0.044010266807239511 0 0.040414599996046609 -0.027176196020058371 0 0.057223905114863777 -0.023468861599370061 0 0.02996400185122728 -0.049838494198622171 0 0.040414599996046609 -0.027176196020058371 0 0.02996400185122728 -0.049838494198622171 0 0.059127062524634171 -0.044010266807239511 0 0.040414599996046609 -0.027176196020058371 0 0.029696868758421431 -0.0381920830832971 0 0.02996400185122728 -0.049838494198622171 0 0.040414599996046609 -0.027176196020058371 0 0.040414599996046609 -0.027176196020058371 0 0.050543757187605079 -0.0052109479651959306 0 0.040414599996046609 -0.027176196020058371 0 0.057223905114863777 -0.023468861599370061 0 0.050543757187605079 -0.0052109479651959306 0 0.057223905114863777 -0.023468861599370061 0 0.050543757187605079 -0.0052109479651959306 0 0.066967796991071069 -0.013841169322444819 0 0.040414599996046609 -0.027176196020058371 0 0.050543757187605079 -0.0052109479651959306 0 0.033094314708757198 -0.0052023388711797246 0 0.0222198486616021 -0.013454635331005851 0 0.040414599996046609 -0.027176196020058371 0 0.033094314708757198 -0.0052023388711797246 0 0.073588710794993045 0.00081592457682122532 0 0.089666100224178202 0.0042401197129867847 0 0.086504507210824408 -0.015122450936023331 0 0.089666100224178202 0.0042401197129867847 0 0.086504507210824408 -0.015122450936023331 0 0.1026792940972714 -0.01195941007547352 0 0.073588710794993045 0.00081592457682122532 0 0.086504507210824408 -0.015122450936023331 0 0.073588710794993045 0.00081592457682122532 0 0.086504507210824408 -0.015122450936023331 0 0.066967796991071069 -0.013841169322444819 0 0.073588710794993045 0.00081592457682122532 0 0.050543757187605079 -0.0052109479651959306 0 0.066967796991071069 -0.013841169322444819 0 0.086504507210824408 -0.015122450936023331 0 0.066967796991071069 -0.013841169322444819 0 0.071154513102854852 -0.027991945075367321 0 0.057223905114863777 -0.023468861599370061 0 0.066967796991071069 -0.013841169322444819 0 0.071154513102854852 -0.027991945075367321 0 0.086504507210824408 -0.015122450936023331 0 0.071154513102854852 -0.027991945075367321 0 0.087968682244778426 -0.038879089539555087 0 0.086504507210824408 -0.015122450936023331 0 0.099420303626655743 -0.03106082644886787 0 0.086504507210824408 -0.015122450936023331 0 0.087968682244778426 -0.038879089539555087 0 0.099420303626655743 -0.03106082644886787 0 0.087968682244778426 -0.038879089539555087 0 0.090737145264943406 -0.052711767273226927 0 0.097695816463341023 -0.042165583973161648 0 0.059127062524634171 -0.044010266807239511 0 0.071154513102854852 -0.027991945075367321 0 0.087968682244778426 -0.038879089539555087 0 0.059127062524634171 -0.044010266807239511 0 0.057223905114863777 -0.023468861599370061 0 0.071154513102854852 -0.027991945075367321 0 0.059127062524634171 -0.044010266807239511 0 0.087968682244778426 -0.038879089539555087 0 0.076682672511991873 -0.05392797301823269 0 0.059127062524634171 -0.044010266807239511 0 0.087968682244778426 -0.038879089539555087 0 0.059636368055136377 -0.06188199175139876 0 0.059127062524634171 -0.044010266807239511 0 0.076682672511991873 -0.05392797301823269 0 0.059636368055136377 -0.06188199175139876 0 0.076682672511991873 -0.05392797301823269 0 0.087136610531471786 -0.069566326177316923 0 0.090737145264943406 -0.052711767273226927 0 0.096293349399536168 -0.06031733318539019 0 0.087136610531471786 -0.069566326177316923 0 0.076682672511991873 -0.05392797301823269 0 0.090737145264943406 -0.052711767273226927 0 0.087136610531471786 -0.069566326177316923 0 0.087968682244778426 -0.038879089539555087 0 0.076682672511991873 -0.05392797301823269 0 0.090737145264943406 -0.052711767273226927 0 0.096293349399536168 -0.06031733318539019 0 0.1045436802885768 -0.049815743892998941 0 0.1027559615131526 -0.069175495398017942 0 0.1045436802885768 -0.049815743892998941 0 0.1148757004942957 -0.047395164943873143 0 0.1027559615131526 -0.069175495398017942 0 0.090737145264943406 -0.052711767273226927 0 0.1045436802885768 -0.049815743892998941 0 0.097695816463341023 -0.042165583973161648 0 0.090737145264943406 -0.052711767273226927 0 0.096293349399536168 -0.06031733318539019 0 0.1045436802885768 -0.049815743892998941 0 0.1246957723277991 -0.053219478738366167 0 0.1027559615131526 -0.069175495398017942 0 0.1246957723277991 -0.053219478738366167 0 0.1148757004942957 -0.047395164943873143 0 0.1027559615131526 -0.069175495398017942 0 0.1246957723277991 -0.053219478738366167 0 0.1148757004942957 -0.047395164943873143 0 0.12280978941808759 -0.045247728003169653 0 0.1148757004942957 -0.047395164943873143 0 0.1173745619990226 -0.035088157406462997 0 0.1067820125743784 -0.041105095333072918 0 0.12280978941808759 -0.045247728003169653 0 0.1173745619990226 -0.035088157406462997 0 0.12818892195138229 -0.039225939515095953 0 0.1148757004942957 -0.047395164943873143 0 0.12280978941808759 -0.045247728003169653 0 0.1173745619990226 -0.035088157406462997 0 0.1173745619990226 -0.035088157406462997 0 0.1067820125743784 -0.041105095333072918 0 0.099420303626655743 -0.03106082644886787 0 0.1045436802885768 -0.049815743892998941 0 0.1067820125743784 -0.041105095333072918 0 0.097695816463341023 -0.042165583973161648 0 0.1045436802885768 -0.049815743892998941 0 0.1148757004942957 -0.047395164943873143 0 0.1067820125743784 -0.041105095333072918 0 0.087968682244778426 -0.038879089539555087 0 0.097695816463341023 -0.042165583973161648 0 0.099420303626655743 -0.03106082644886787 0 0.1067820125743784 -0.041105095333072918 0 0.097695816463341023 -0.042165583973161648 0 0.099420303626655743 -0.03106082644886787 0 0.099420303626655743 -0.03106082644886787 0 0.1135849911475728 -0.023222442355295431 0 0.1026792940972714 -0.01195941007547352 0 0.086504507210824408 -0.015122450936023331 0 0.099420303626655743 -0.03106082644886787 0 0.1026792940972714 -0.01195941007547352 0 0.1135849911475728 -0.023222442355295431 0 0.1201306484446668 -0.0108747088923068 0 0.1299042163554204 -0.024965193349847849 0 0.1173745619990226 -0.035088157406462997 0 0.099420303626655743 -0.03106082644886787 0 0.1135849911475728 -0.023222442355295431 0 0.1173745619990226 -0.035088157406462997 0 0.1135849911475728 -0.023222442355295431 0 0.1299042163554204 -0.024965193349847849 0 0.1135849911475728 -0.023222442355295431 0 0.1201306484446668 -0.0108747088923068 0 0.1026792940972714 -0.01195941007547352 0 0.1060501077561609 0.0072992621572245328 0 0.1201306484446668 -0.0108747088923068 0 0.1026792940972714 -0.01195941007547352 0 0.1060501077561609 0.0072992621572245328 0 0.132752380620965 0.0024926945051150741 0 0.1201306484446668 -0.0108747088923068 0 0.089666100224178202 0.0042401197129867847 0 0.1060501077561609 0.0072992621572245328 0 0.1026792940972714 -0.01195941007547352 0 0.081986951294670055 -0.1034466193307553 0 0.092662088475551255 -0.11017405931215429 0 0.090139853244215695 -0.092379733716941623 0 0.081986951294670055 -0.1034466193307553 0 0.076208660649981622 -0.092318758722271743 0 0.090139853244215695 -0.092379733716941623 0 0.081986951294670055 -0.1034466193307553 0 0.092662088475551255 -0.11017405931215429 0 0.08443507832946201 -0.1146537151730552 0 0.092662088475551255 -0.11017405931215429 0 0.089627820947755232 -0.1217226115136569 0 0.08443507832946201 -0.1146537151730552 0 0.080324667448364251 -0.12532265344771409 0 0.08443507832946201 -0.1146537151730552 0 0.077103458522414278 -0.11384786762468189 0 0.080324667448364251 -0.12532265344771409 0 0.089627820947755232 -0.1217226115136569 0 0.08443507832946201 -0.1146537151730552 0 0.081986951294670055 -0.1034466193307553 0 0.08443507832946201 -0.1146537151730552 0 0.077103458522414278 -0.11384786762468189 0 0.068280119808916462 -0.12553649982716181 0 0.077103458522414278 -0.11384786762468189 0 0.069867291158182826 -0.10147104662379069 0 0.068280119808916462 -0.12553649982716181 0 0.069867291158182826 -0.10147104662379069 0 0.068280119808916462 -0.12553649982716181 0 0.056232121732211558 -0.1017568856599347 0 0.069867291158182826 -0.10147104662379069 0 0.080324667448364251 -0.12532265344771409 0 0.068280119808916462 -0.12553649982716181 0 0.077103458522414278 -0.11384786762468189 0 0.081986951294670055 -0.1034466193307553 0 0.077103458522414278 -0.11384786762468189 0 0.069867291158182826 -0.10147104662379069 0 0.081986951294670055 -0.1034466193307553 0 0.069867291158182826 -0.10147104662379069 0 0.076208660649981622 -0.092318758722271743 0 0.062291383112886282 -0.091841398553835496 0 0.056232121732211558 -0.1017568856599347 0 0.069867291158182826 -0.10147104662379069 0 0.062291383112886282 -0.091841398553835496 0 0.069867291158182826 -0.10147104662379069 0 0.076208660649981622 -0.092318758722271743 0 0.062291383112886282 -0.091841398553835496 0 0.063772749019698149 -0.081625738424092847 0 0.076208660649981622 -0.092318758722271743 0 0.063772749019698149 -0.081625738424092847 0 0.078078903865284766 -0.080953071507545687 0 0.076208660649981622 -0.092318758722271743 0 0.063772749019698149 -0.081625738424092847 0 0.078078903865284766 -0.080953071507545687 0 0.07099472307063863 -0.073003656466255312 0 0.059636368055136377 -0.06188199175139876 0 0.063772749019698149 -0.081625738424092847 0 0.07099472307063863 -0.073003656466255312 0 0.059636368055136377 -0.06188199175139876 0 0.087136610531471786 -0.069566326177316923 0 0.059636368055136377 -0.06188199175139876 0 0.07099472307063863 -0.073003656466255312 0 0.087136610531471786 -0.069566326177316923 0 0.078078903865284766 -0.080953071507545687 0 0.07099472307063863 -0.073003656466255312 0 0.087136610531471786 -0.069566326177316923 0 0.078078903865284766 -0.080953071507545687 0 0.087136610531471786 -0.069566326177316923 0 0.095822390104853217 -0.079611589628148141 0 0.078078903865284766 -0.080953071507545687 0 0.090139853244215695 -0.092379733716941623 0 0.095822390104853217 -0.079611589628148141 0 0.078078903865284766 -0.080953071507545687 0 0.076208660649981622 -0.092318758722271743 0 0.090139853244215695 -0.092379733716941623 0 0.095822390104853217 -0.079611589628148141 0 0.10466801468833831 -0.088983654730827644 0 0.11331925258145691 -0.079620123214650007 0 0.090139853244215695 -0.092379733716941623 0 0.095822390104853217 -0.079611589628148141 0 0.10466801468833831 -0.088983654730827644 0 0.095822390104853217 -0.079611589628148141 0 0.1027559615131526 -0.069175495398017942 0 0.11331925258145691 -0.079620123214650007 0 0.096293349399536168 -0.06031733318539019 0 0.087136610531471786 -0.069566326177316923 0 0.1027559615131526 -0.069175495398017942 0 0.087136610531471786 -0.069566326177316923 0 0.095822390104853217 -0.079611589628148141 0 0.1027559615131526 -0.069175495398017942 0 0.11331925258145691 -0.079620123214650007 0 0.13014611778303131 -0.078971194829347252 0 0.12532571106336249 -0.067807335741234348 0 0.1027559615131526 -0.069175495398017942 0 0.11331925258145691 -0.079620123214650007 0 0.12532571106336249 -0.067807335741234348 0 0.1246957723277991 -0.053219478738366167 0 0.1027559615131526 -0.069175495398017942 0 0.12532571106336249 -0.067807335741234348 0 0.11331925258145691 -0.079620123214650007 0 0.12119732033600369 -0.093171468960324702 0 0.13014611778303131 -0.078971194829347252 0 0.10466801468833831 -0.088983654730827644 0 0.11331925258145691 -0.079620123214650007 0 0.12119732033600369 -0.093171468960324702 0 0.12119732033600369 -0.093171468960324702 0 0.1050405942661999 -0.1029521456819342 0 0.11790510298762349 -0.1135221220198151 0 0.10466801468833831 -0.088983654730827644 0 0.12119732033600369 -0.093171468960324702 0 0.1050405942661999 -0.1029521456819342 0 0.092662088475551255 -0.11017405931215429 0 0.090139853244215695 -0.092379733716941623 0 0.1050405942661999 -0.1029521456819342 0 0.090139853244215695 -0.092379733716941623 0 0.10466801468833831 -0.088983654730827644 0 0.1050405942661999 -0.1029521456819342 0 0.092662088475551255 -0.11017405931215429 0 0.1050405942661999 -0.1029521456819342 0 0.1028035269693323 -0.1232826956443001 0 0.1050405942661999 -0.1029521456819342 0 0.1028035269693323 -0.1232826956443001 0 0.11790510298762349 -0.1135221220198151 0 0.092662088475551255 -0.11017405931215429 0 0.089627820947755232 -0.1217226115136569 0 0.1028035269693323 -0.1232826956443001 0 0.1205446709487009 -0.129680761075603 0 0.1028035269693323 -0.1232826956443001 0 0.11790510298762349 -0.1135221220198151 0 0.1205446709487009 -0.129680761075603 0 0.11790510298762349 -0.1135221220198151 0 0.13250323861563459 -0.1177628277064097 0 0.11790510298762349 -0.1135221220198151 0 0.13250323861563459 -0.1177628277064097 0 0.13688215110130719 -0.10465246911832091 0 0.13250323861563459 -0.1177628277064097 0 0.14813438842766299 -0.1176401492726703 0 0.13688215110130719 -0.10465246911832091 0 0.13250323861563459 -0.1177628277064097 0 0.14813438842766299 -0.1176401492726703 0 0.1434838383770056 -0.13553038153506161 0 0.14813438842766299 -0.1176401492726703 0 0.13688215110130719 -0.10465246911832091 0 0.15957978315689211 -0.1049201215544603 0 0.13688215110130719 -0.10465246911832091 0 0.142151011129444 -0.088719516967840722 0 0.15957978315689211 -0.1049201215544603 0 0.12119732033600369 -0.093171468960324702 0 0.13688215110130719 -0.10465246911832091 0 0.142151011129444 -0.088719516967840722 0 0.12119732033600369 -0.093171468960324702 0 0.11790510298762349 -0.1135221220198151 0 0.13688215110130719 -0.10465246911832091 0 0.12119732033600369 -0.093171468960324702 0 0.13014611778303131 -0.078971194829347252 0 0.142151011129444 -0.088719516967840722 0 0.13014611778303131 -0.078971194829347252 0 0.14550253741923441 -0.069506470191082456 0 0.142151011129444 -0.088719516967840722 0 0.13014611778303131 -0.078971194829347252 0 0.12532571106336249 -0.067807335741234348 0 0.14550253741923441 -0.069506470191082456 0 0.12532571106336249 -0.067807335741234348 0 0.14550253741923441 -0.069506470191082456 0 0.13669888055030099 -0.059360119052352563 0 0.14550253741923441 -0.069506470191082456 0 0.142151011129444 -0.088719516967840722 0 0.1654299858106115 -0.082881460509720006 0 0.14550253741923441 -0.069506470191082456 0 0.142151011129444 -0.088719516967840722 0 0.142151011129444 -0.088719516967840722 0 0.1654299858106115 -0.082881460509720006 0 0.15957978315689211 -0.1049201215544603 0 0.1654299858106115 -0.082881460509720006 0 0.16036749393258939 -0.063645935654464331 0 0.1784215833616484 -0.062701966995596992 0 0.14550253741923441 -0.069506470191082456 0 0.1654299858106115 -0.082881460509720006 0 0.16036749393258939 -0.063645935654464331 0 0.1784215833616484 -0.062701966995596992 0 0.19620934609442461 -0.076537276232903781 0 0.1784215833616484 -0.062701966995596992 0 0.18234048253031071 -0.084762893497627931 0 0.19620934609442461 -0.076537276232903781 0 0.1654299858106115 -0.082881460509720006 0 0.1784215833616484 -0.062701966995596992 0 0.18234048253031071 -0.084762893497627931 0 0.1654299858106115 -0.082881460509720006 0 0.18234048253031071 -0.084762893497627931 0 0.18055375646708949 -0.1000447515406139 0 0.18234048253031071 -0.084762893497627931 0 0.18055375646708949 -0.1000447515406139 0 0.19659248187473491 -0.095324294217332878 0 0.18055375646708949 -0.1000447515406139 0 0.1797171726082453 -0.1150676389868158 0 0.15957978315689211 -0.1049201215544603 0 0.18055375646708949 -0.1000447515406139 0 0.1797171726082453 -0.1150676389868158 0 0.19543348258106871 -0.1124116315376468 0 0.1797171726082453 -0.1150676389868158 0 0.19098503643689879 -0.12896955454438719 0 0.1682229308874755 -0.12533494644909909 0 0.14813438842766299 -0.1176401492726703 0 0.15957978315689211 -0.1049201215544603 0 0.1682229308874755 -0.12533494644909909 0 0.1797171726082453 -0.1150676389868158 0 0.15957978315689211 -0.1049201215544603 0 0.1682229308874755 -0.12533494644909909 0 0.1654299858106115 -0.082881460509720006 0 0.18055375646708949 -0.1000447515406139 0 0.15957978315689211 -0.1049201215544603 0 0.15547624119929779 -0.01233095650120755 0 0.138788147732091 -0.0092240815221668535 0 0.1457400866001525 -0.02119254876043122 0 0.14733413491573599 0.0080210567557985803 0 0.15547624119929779 -0.01233095650120755 0 0.138788147732091 -0.0092240815221668535 0 0.1201306484446668 -0.0108747088923068 0 0.138788147732091 -0.0092240815221668535 0 0.1299042163554204 -0.024965193349847849 0 0.132752380620965 0.0024926945051150741 0 0.1201306484446668 -0.0108747088923068 0 0.138788147732091 -0.0092240815221668535 0 0.138788147732091 -0.0092240815221668535 0 0.1299042163554204 -0.024965193349847849 0 0.1457400866001525 -0.02119254876043122 0 0.15547624119929779 -0.01233095650120755 0 0.1457400866001525 -0.02119254876043122 0 0.15233855195555379 -0.03031815546622987 0 0.15547624119929779 -0.01233095650120755 0 0.15233855195555379 -0.03031815546622987 0 0.1572913209755967 -0.02951393625905304 0 0.1457400866001525 -0.02119254876043122 0 0.15233855195555379 -0.03031815546622987 0 0.14627865351797389 -0.031302147794013739 0 0.1299042163554204 -0.024965193349847849 0 0.1457400866001525 -0.02119254876043122 0 0.14627865351797389 -0.031302147794013739 0 0.15547624119929779 -0.01233095650120755 0 0.15233855195555379 -0.03031815546622987 0 0.15233855195555379 -0.03031815546622987 0 0.1517796019941563 -0.033522406552353827 0 0.1572913209755967 -0.02951393625905304 0 0.15233855195555379 -0.03031815546622987 0 0.1572913209755967 -0.02951393625905304 0 0.15233855195555379 -0.03031815546622987 0 0.14627865351797389 -0.031302147794013739 0 0.1299042163554204 -0.024965193349847849 0 0.1461602696565816 -0.037609140077632559 0 0.14627865351797389 -0.031302147794013739 0 0.1517796019941563 -0.033522406552353827 0 0.1504805399754359 -0.040969443267421281 0 0.15980108410990179 -0.038758497527108603 0 0.1517796019941563 -0.033522406552353827 0 0.1504805399754359 -0.040969443267421281 0 0.1461602696565816 -0.037609140077632559 0 0.1517796019941563 -0.033522406552353827 0 0.1461602696565816 -0.037609140077632559 0 0.1517796019941563 -0.033522406552353827 0 0.1504805399754359 -0.040969443267421281 0 0.15233855195555379 -0.03031815546622987 0 0.1517796019941563 -0.033522406552353827 0 0.14627865351797389 -0.031302147794013739 0 0.15233855195555379 -0.03031815546622987 0 0.1517796019941563 -0.033522406552353827 0 0.1517796019941563 -0.033522406552353827 0 0.1572913209755967 -0.02951393625905304 0 0.1504805399754359 -0.040969443267421281 0 0.14885406370902499 -0.050293423414324162 0 0.1504805399754359 -0.040969443267421281 0 0.1461602696565816 -0.037609140077632559 0 0.14885406370902499 -0.050293423414324162 0 0.1504805399754359 -0.040969443267421281 0 0.14885406370902499 -0.050293423414324162 0 0.16063382062887241 -0.048866657758289703 0 0.1504805399754359 -0.040969443267421281 0 0.16063382062887241 -0.048866657758289703 0 0.1504805399754359 -0.040969443267421281 0 0.1461602696565816 -0.037609140077632559 0 0.1517796019941563 -0.033522406552353827 0 0.1461602696565816 -0.037609140077632559 0 0.14627865351797389 -0.031302147794013739 0 0.1299042163554204 -0.024965193349847849 0 0.1461602696565816 -0.037609140077632559 0 0.1246957723277991 -0.053219478738366167 0 0.1461602696565816 -0.037609140077632559 0 0.1246957723277991 -0.053219478738366167 0 0.1461602696565816 -0.037609140077632559 0 0.12818892195138229 -0.039225939515095953 0 0.1299042163554204 -0.024965193349847849 0 0.1461602696565816 -0.037609140077632559 0 0.12818892195138229 -0.039225939515095953 0 0.1173745619990226 -0.035088157406462997 0 0.1299042163554204 -0.024965193349847849 0 0.12818892195138229 -0.039225939515095953 0 0.1246957723277991 -0.053219478738366167 0 0.12280978941808759 -0.045247728003169653 0 0.12818892195138229 -0.039225939515095953 0 0.1246957723277991 -0.053219478738366167 0 0.13669888055030099 -0.059360119052352563 0 0.14885406370902499 -0.050293423414324162 0 0.1246957723277991 -0.053219478738366167 0 0.1461602696565816 -0.037609140077632559 0 0.14885406370902499 -0.050293423414324162 0 0.1246957723277991 -0.053219478738366167 0 0.14885406370902499 -0.050293423414324162 0 0.1246957723277991 -0.053219478738366167 0 0.12532571106336249 -0.067807335741234348 0 0.13669888055030099 -0.059360119052352563 0 0.14550253741923441 -0.069506470191082456 0 0.13669888055030099 -0.059360119052352563 0 0.14885406370902499 -0.050293423414324162 0 0.14550253741923441 -0.069506470191082456 0 0.14885406370902499 -0.050293423414324162 0 0.14550253741923441 -0.069506470191082456 0 0.16036749393258939 -0.063645935654464331 0 0.14885406370902499 -0.050293423414324162 0 0.14885406370902499 -0.050293423414324162 0 0.16063382062887241 -0.048866657758289703 0 0.16036749393258939 -0.063645935654464331 0 0.1784215833616484 -0.062701966995596992 0 0.16063382062887241 -0.048866657758289703 0 0.16063382062887241 -0.048866657758289703 0 0.1817971610683167 -0.046303351273152452 0 0.1784215833616484 -0.062701966995596992 0 0.16063382062887241 -0.048866657758289703 0 0.16036749393258939 -0.063645935654464331 0 0.14885406370902499 -0.050293423414324162 0 0.16063382062887241 -0.048866657758289703 0 0.1784215833616484 -0.062701966995596992 0 0.1817971610683167 -0.046303351273152452 0 0.1954065938707063 -0.059141504328631071 0 0.1784215833616484 -0.062701966995596992 0 0.16063382062887241 -0.048866657758289703 0 0.1817971610683167 -0.046303351273152452 0 0.1817971610683167 -0.046303351273152452 0 0.1717565745954627 -0.037396985689454168 0 0.19169263789466881 -0.034702982523372457 0 0.1717565745954627 -0.037396985689454168 0 0.1798405187536444 -0.025852449546048969 0 0.19169263789466881 -0.034702982523372457 0 0.16063382062887241 -0.048866657758289703 0 0.1817971610683167 -0.046303351273152452 0 0.1717565745954627 -0.037396985689454168 0 0.16063382062887241 -0.048866657758289703 0 0.1717565745954627 -0.037396985689454168 0 0.15980108410990179 -0.038758497527108603 0 0.1504805399754359 -0.040969443267421281 0 0.16063382062887241 -0.048866657758289703 0 0.15980108410990179 -0.038758497527108603 0 0.1517796019941563 -0.033522406552353827 0 0.15980108410990179 -0.038758497527108603 0 0.1572913209755967 -0.02951393625905304 0 0.1717565745954627 -0.037396985689454168 0 0.15980108410990179 -0.038758497527108603 0 0.1572913209755967 -0.02951393625905304 0 0.1717565745954627 -0.037396985689454168 0 0.1572913209755967 -0.02951393625905304 0 0.1798405187536444 -0.025852449546048969 0 0.1572913209755967 -0.02951393625905304 0 0.1798405187536444 -0.025852449546048969 0 0.1572913209755967 -0.02951393625905304 0 0.16659933847874051 -0.022744557817132569 0 0.1798405187536444 -0.025852449546048969 0 0.15547624119929779 -0.01233095650120755 0 0.1572913209755967 -0.02951393625905304 0 0.16659933847874051 -0.022744557817132569 0 0.1572913209755967 -0.02951393625905304 0 0.16659933847874051 -0.022744557817132569 0 0.16659933847874051 -0.022744557817132569 0 0.17633628832853479 -0.01560077247452678 0 0.1680705060129016 -0.010607080386881389 0 0.1798405187536444 -0.025852449546048969 0 0.17633628832853479 -0.01560077247452678 0 0.1872549685367316 -0.014273284254324531 0 0.16659933847874051 -0.022744557817132569 0 0.1798405187536444 -0.025852449546048969 0 0.17633628832853479 -0.01560077247452678 0 0.17633628832853479 -0.01560077247452678 0 0.1799161098606557 -0.0045264903682464587 0 0.1680705060129016 -0.010607080386881389 0 0.17633628832853479 -0.01560077247452678 0 0.1872549685367316 -0.014273284254324531 0 0.1799161098606557 -0.0045264903682464587 0 0.16594093215475819 0.0036654259575761281 0 0.1799161098606557 -0.0045264903682464587 0 0.1680705060129016 -0.010607080386881389 0 0.16594093215475819 0.0036654259575761281 0 0.15547624119929779 -0.01233095650120755 0 0.1680705060129016 -0.010607080386881389 0 0.16594093215475819 0.0036654259575761281 0 0.14733413491573599 0.0080210567557985803 0 0.15547624119929779 -0.01233095650120755 0 0.15547624119929779 -0.01233095650120755 0 0.16659933847874051 -0.022744557817132569 0 0.1680705060129016 -0.010607080386881389 0 0.2126918603144036 -0.0068343736337121647 0 0.19671810108610471 -0.0042983027108834046 0 0.20238971653169219 -0.022190962833044989 0 0.21172882731474521 0.0069707969026004783 0 0.2126918603144036 -0.0068343736337121647 0 0.19671810108610471 -0.0042983027108834046 0 0.1872549685367316 -0.014273284254324531 0 0.1799161098606557 -0.0045264903682464587 0 0.19671810108610471 -0.0042983027108834046 0 0.1872549685367316 -0.014273284254324531 0 0.19671810108610471 -0.0042983027108834046 0 0.20238971653169219 -0.022190962833044989 0 0.20238971653169219 -0.022190962833044989 0 0.2106937706495646 -0.032628423191310207 0 0.19169263789466881 -0.034702982523372457 0 0.1798405187536444 -0.025852449546048969 0 0.20238971653169219 -0.022190962833044989 0 0.19169263789466881 -0.034702982523372457 0 0.1798405187536444 -0.025852449546048969 0 0.1872549685367316 -0.014273284254324531 0 0.20238971653169219 -0.022190962833044989 0 0.1798405187536444 -0.025852449546048969 0 0.20238971653169219 -0.022190962833044989 0 0.20238971653169219 -0.022190962833044989 0 0.2249389143097397 -0.018529476120040331 0 0.2126918603144036 -0.0068343736337121647 0 0.20238971653169219 -0.022190962833044989 0 0.2249389143097397 -0.018529476120040331 0 0.20238971653169219 -0.022190962833044989 0 0.2106937706495646 -0.032628423191310207 0 0.2249389143097397 -0.018529476120040331 0 0.2106937706495646 -0.032628423191310207 0 0.20296050150776099 -0.043740044788015589 0 0.22129164581555899 -0.042477179236763189 0 0.1817971610683167 -0.046303351273152452 0 0.20296050150776099 -0.043740044788015589 0 0.19169263789466881 -0.034702982523372457 0 0.2106937706495646 -0.032628423191310207 0 0.20296050150776099 -0.043740044788015589 0 0.19169263789466881 -0.034702982523372457 0 0.1817971610683167 -0.046303351273152452 0 0.20296050150776099 -0.043740044788015589 0 0.1817971610683167 -0.046303351273152452 0 0.20296050150776099 -0.043740044788015589 0 0.1954065938707063 -0.059141504328631071 0 0.20296050150776099 -0.043740044788015589 0 0.22129164581555899 -0.042477179236763189 0 0.21764437732138059 -0.066424882353486508 0 0.20296050150776099 -0.043740044788015589 0 0.1954065938707063 -0.059141504328631071 0 0.21764437732138059 -0.066424882353486508 0 0.23126674365307839 -0.057785779249696481 0 0.22129164581555899 -0.042477179236763189 0 0.21764437732138059 -0.066424882353486508 0 0.22129164581555899 -0.042477179236763189 0 0.21764437732138059 -0.066424882353486508 0 0.25871427183938289 -0.04997838850100992 0 0.23126674365307839 -0.057785779249696481 0 0.25871427183938289 -0.04997838850100992 0 0.23126674365307839 -0.057785779249696481 0 0.24252254146925081 -0.03690772785534524 0 0.25871427183938289 -0.04997838850100992 0 0.23126674365307839 -0.057785779249696481 0 0.24103125380641571 -0.068007180236755518 0 0.23126674365307839 -0.057785779249696481 0 0.24252254146925081 -0.03690772785534524 0 0.22129164581555899 -0.042477179236763189 0 0.24252254146925081 -0.03690772785534524 0 0.22129164581555899 -0.042477179236763189 0 0.2249389143097397 -0.018529476120040331 0 0.2106937706495646 -0.032628423191310207 0 0.22129164581555899 -0.042477179236763189 0 0.2249389143097397 -0.018529476120040331 0 0.22129164581555899 -0.042477179236763189 0 0.2249389143097397 -0.018529476120040331 0 0.2541923969834905 -0.01377936309281369 0 0.24252254146925081 -0.03690772785534524 0 0.2249389143097397 -0.018529476120040331 0 0.2541923969834905 -0.01377936309281369 0 0.2249389143097397 -0.018529476120040331 0 0.25335017483290689 0.01048395969910469 0 0.2541923969834905 -0.01377936309281369 0 0.24233211405590921 -0.00067216537667232859 0 0.2541923969834905 -0.01377936309281369 0 0.2249389143097397 -0.018529476120040331 0 0.24233211405590921 -0.00067216537667232859 0 0.22902614119787959 0.0083069622294108941 0 0.2249389143097397 -0.018529476120040331 0 0.22902614119787959 0.0083069622294108941 0 0.2126918603144036 -0.0068343736337121647 0 0.2249389143097397 -0.018529476120040331 0 0.22902614119787959 0.0083069622294108941 0 0.2249389143097397 -0.018529476120040331 0 0.24233211405590921 -0.00067216537667232859 0 0.21140815428638909 -0.10737147513929809 0 0.21399710882720149 -0.090372585470209682 0 0.21140815428638909 -0.10737147513929809 0 0.21399710882720149 -0.090372585470209682 0 0.22723555242038401 -0.100669437507416 0 0.21140815428638909 -0.10737147513929809 0 0.19659248187473491 -0.095324294217332878 0 0.21399710882720149 -0.090372585470209682 0 0.2088191997455762 -0.1243703648083864 0 0.22049134720335259 -0.1166368000735452 0 0.21374714198632219 -0.13260416263967501 0 0.21140815428638909 -0.10737147513929809 0 0.2088191997455762 -0.1243703648083864 0 0.19543348258106871 -0.1124116315376468 0 0.21140815428638909 -0.10737147513929809 0 0.2088191997455762 -0.1243703648083864 0 0.21140815428638909 -0.10737147513929809 0 0.2088191997455762 -0.1243703648083864 0 0.22049134720335259 -0.1166368000735452 0 0.22049134720335259 -0.1166368000735452 0 0.21374714198632219 -0.13260416263967501 0 0.2088191997455762 -0.1243703648083864 0 0.19543348258106871 -0.1124116315376468 0 0.19098503643689879 -0.12896955454438719 0 0.1797171726082453 -0.1150676389868158 0 0.19543348258106871 -0.1124116315376468 0 0.19098503643689879 -0.12896955454438719 0 0.18055375646708949 -0.1000447515406139 0 0.19543348258106871 -0.1124116315376468 0 0.19659248187473491 -0.095324294217332878 0 0.21140815428638909 -0.10737147513929809 0 0.19543348258106871 -0.1124116315376468 0 0.19659248187473491 -0.095324294217332878 0 0.19659248187473491 -0.095324294217332878 0 0.19620934609442461 -0.076537276232903781 0 0.21399710882720149 -0.090372585470209682 0 0.18234048253031071 -0.084762893497627931 0 0.19659248187473491 -0.095324294217332878 0 0.19620934609442461 -0.076537276232903781 0 0.1784215833616484 -0.062701966995596992 0 0.1954065938707063 -0.059141504328631071 0 0.19620934609442461 -0.076537276232903781 0 0.1954065938707063 -0.059141504328631071 0 0.19620934609442461 -0.076537276232903781 0 0.21764437732138059 -0.066424882353486508 0 0.19620934609442461 -0.076537276232903781 0 0.21764437732138059 -0.066424882353486508 0 0.21399710882720149 -0.090372585470209682 0 0.21764437732138059 -0.066424882353486508 0 0.21399710882720149 -0.090372585470209682 0 0.22456001716938059 -0.083025249607114354 0 0.19620934609442461 -0.076537276232903781 0 0.21399710882720149 -0.090372585470209682 0 0.21764437732138059 -0.066424882353486508 0 0.21399710882720149 -0.090372585470209682 0 0.21399710882720149 -0.090372585470209682 0 0.22456001716938059 -0.083025249607114354 0 0.22723555242038401 -0.100669437507416 0 0.22456001716938059 -0.083025249607114354 0 0.23413340311339989 -0.084338308872085779 0 0.22723555242038401 -0.100669437507416 0 0.23413340311339989 -0.084338308872085779 0 0.22723555242038401 -0.100669437507416 0 0.22456001716938059 -0.083025249607114354 0 0.23413340311339989 -0.084338308872085779 0 0.22978964416453651 -0.073321033832373636 0 0.21764437732138059 -0.066424882353486508 0 0.22456001716938059 -0.083025249607114354 0 0.22978964416453651 -0.073321033832373636 0 0.23126674365307839 -0.057785779249696481 0 0.21764437732138059 -0.066424882353486508 0 0.22978964416453651 -0.073321033832373636 0 0.23126674365307839 -0.057785779249696481 0 0.22978964416453651 -0.073321033832373636 0 0.24103125380641571 -0.068007180236755518 0 0.23413340311339989 -0.084338308872085779 0 0.22978964416453651 -0.073321033832373636 0 0.24103125380641571 -0.068007180236755518 0 0.23413340311339989 -0.084338308872085779 0 0.24103125380641571 -0.068007180236755518 0 0.23413340311339989 -0.084338308872085779 0 0.24103125380641571 -0.068007180236755518 0 0.24873867953415979 -0.082772856728632341 0 0.23413340311339989 -0.084338308872085779 0 0.24873867953415979 -0.082772856728632341 0 0.24219862047115401 -0.095528701225509202 0 0.24219862047115401 -0.095528701225509202 0 0.22930796175700979 -0.1022813560195561 0 0.23696200452560251 -0.1129716246350688 0 0.23413340311339989 -0.084338308872085779 0 0.24219862047115401 -0.095528701225509202 0 0.22930796175700979 -0.1022813560195561 0 0.2605612864782238 -0.096622550388526171 0 0.24219862047115401 -0.095528701225509202 0 0.23696200452560251 -0.1129716246350688 0 0.2605612864782238 -0.096622550388526171 0 0.23696200452560251 -0.1129716246350688 0 0.23413340311339989 -0.084338308872085779 0 0.22723555242038401 -0.100669437507416 0 0.22930796175700979 -0.1022813560195561 0 0.22723555242038401 -0.100669437507416 0 0.22930796175700979 -0.1022813560195561 0 0.22049134720335259 -0.1166368000735452 0 0.21140815428638909 -0.10737147513929809 0 0.22723555242038401 -0.100669437507416 0 0.22049134720335259 -0.1166368000735452 0 0.22723555242038401 -0.100669437507416 0 0.22049134720335259 -0.1166368000735452 0 0.22723555242038401 -0.100669437507416 0 0.22930796175700979 -0.1022813560195561 0 0.21399710882720149 -0.090372585470209682 0 0.22723555242038401 -0.100669437507416 0 0.22930796175700979 -0.1022813560195561 0 0.22049134720335259 -0.1166368000735452 0 0.23696200452560251 -0.1129716246350688 0 0.22049134720335259 -0.1166368000735452 0 0.23068517122139851 -0.1246236596549922 0 0.23696200452560251 -0.1129716246350688 0 0.22049134720335259 -0.1166368000735452 0 0.23068517122139851 -0.1246236596549922 0 0.21374714198632219 -0.13260416263967501 0 0.23068517122139851 -0.1246236596549922 0 0.23696200452560251 -0.1129716246350688 0 0.24413202316997359 -0.1244139955573418 0 0.25813857930427109 -0.1193587499666816 0 0.23696200452560251 -0.1129716246350688 0 0.24413202316997359 -0.1244139955573418 0 0.26243953645716123 -0.14037926809898371 0 0.24413202316997359 -0.1244139955573418 0 0.23809333922174181 -0.13649171536932961 0 0.23068517122139851 -0.1246236596549922 0 0.24413202316997359 -0.1244139955573418 0 0.23809333922174181 -0.13649171536932961 0 0.23809333922174181 -0.13649171536932961 0 0.24992023239541011 -0.15479510654896081 0 0.23331080013162961 -0.15559474374709009 0 0.23809333922174181 -0.13649171536932961 0 0.23331080013162961 -0.15559474374709009 0 0.2212202749744667 -0.14546819119689 0 0.23331080013162961 -0.15559474374709009 0 0.2212202749744667 -0.14546819119689 0 0.21799317099579441 -0.15811964396132139 0 0.23809333922174181 -0.13649171536932961 0 0.2212202749744667 -0.14546819119689 0 0.21374714198632219 -0.13260416263967501 0 0.23809333922174181 -0.13649171536932961 0 0.21374714198632219 -0.13260416263967501 0 0.23068517122139851 -0.1246236596549922 0 0.23809333922174181 -0.13649171536932961 0 0.21374714198632219 -0.13260416263967501 0 0.2088191997455762 -0.1243703648083864 0 0.21374714198632219 -0.13260416263967501 0 0.19098503643689879 -0.12896955454438719 0 0.21374714198632219 -0.13260416263967501 0 0.21004069133899891 -0.14137943554652471 0 0.1983832300133993 -0.1394784966802681 0 0.21374714198632219 -0.13260416263967501 0 0.21004069133899891 -0.14137943554652471 0 0.2212202749744667 -0.14546819119689 0 0.21374714198632219 -0.13260416263967501 0 0.21004069133899891 -0.14137943554652471 0 0.2212202749744667 -0.14546819119689 0 0.21403349405763719 -0.14908957198703121 0 0.21004069133899891 -0.14137943554652471 0 0.21403349405763719 -0.14908957198703121 0 0.2067150195378068 -0.15214321895480051 0 0.21799317099579441 -0.15811964396132139 0 0.2212202749744667 -0.14546819119689 0 0.21403349405763719 -0.14908957198703121 0 0.21799317099579441 -0.15811964396132139 0 0.2067150195378068 -0.15214321895480051 0 0.21004069133899891 -0.14137943554652471 0 0.1983832300133993 -0.1394784966802681 0 0.21403349405763719 -0.14908957198703121 0 0.2067150195378068 -0.15214321895480051 0 0.21004069133899891 -0.14137943554652471 0 0.2067150195378068 -0.15214321895480051 0 0.1913386348615381 -0.14965462597249299 0 0.1983832300133993 -0.1394784966802681 0 0.1913386348615381 -0.14965462597249299 0 0.1983832300133993 -0.1394784966802681 0 0.17985466993626489 -0.13928138570530599 0 0.2067150195378068 -0.15214321895480051 0 0.1913386348615381 -0.14965462597249299 0 0.20429766510045211 -0.16440173536121661 0 0.19098503643689879 -0.12896955454438719 0 0.1983832300133993 -0.1394784966802681 0 0.17985466993626489 -0.13928138570530599 0 0.21374714198632219 -0.13260416263967501 0 0.19098503643689879 -0.12896955454438719 0 0.21374714198632219 -0.13260416263967501 0 0.19098503643689879 -0.12896955454438719 0 0.1983832300133993 -0.1394784966802681 0 0.19522533633113781 -0.1726816546099699 0 0.19935915586746289 -0.18760991852340919 0 0.1734086222905061 -0.17384764103992559 0 0.19522533633113781 -0.1726816546099699 0 0.21170189427889841 -0.1733807121543155 0 0.19935915586746289 -0.18760991852340919 0 0.19522533633113781 -0.1726816546099699 0 0.20429766510045211 -0.16440173536121661 0 0.18735934411836919 -0.16416826597098261 0 0.1913386348615381 -0.14965462597249299 0 0.20429766510045211 -0.16440173536121661 0 0.18735934411836919 -0.16416826597098261 0 0.19522533633113781 -0.1726816546099699 0 0.20429766510045211 -0.16440173536121661 0 0.21170189427889841 -0.1733807121543155 0 0.2067150195378068 -0.15214321895480051 0 0.20429766510045211 -0.16440173536121661 0 0.21799317099579441 -0.15811964396132139 0 0.20429766510045211 -0.16440173536121661 0 0.21799317099579441 -0.15811964396132139 0 0.21170189427889841 -0.1733807121543155 0 0.21170189427889841 -0.1733807121543155 0 0.21809496299306891 -0.18606864999959741 0 0.19935915586746289 -0.18760991852340919 0 0.21170189427889841 -0.1733807121543155 0 0.21809496299306891 -0.18606864999959741 0 0.22741640643669411 -0.16974331173548479 0 0.21809496299306891 -0.18606864999959741 0 0.22741640643669411 -0.16974331173548479 0 0.23545241630469441 -0.18434791691407099 0 0.21799317099579441 -0.15811964396132139 0 0.21170189427889841 -0.1733807121543155 0 0.22741640643669411 -0.16974331173548479 0 0.23331080013162961 -0.15559474374709009 0 0.21799317099579441 -0.15811964396132139 0 0.22741640643669411 -0.16974331173548479 0 0.23331080013162961 -0.15559474374709009 0 0.22741640643669411 -0.16974331173548479 0 0.24434401197359071 -0.1686018817333991 0 0.24992023239541011 -0.15479510654896081 0 0.23331080013162961 -0.15559474374709009 0 0.24434401197359071 -0.1686018817333991 0 0.25977223972246088 -0.1801593822148963 0 0.24434401197359071 -0.1686018817333991 0 0.23545241630469441 -0.18434791691407099 0 0.22741640643669411 -0.16974331173548479 0 0.24434401197359071 -0.1686018817333991 0 0.23545241630469441 -0.18434791691407099 0 0.25977223972246088 -0.1801593822148963 0 0.23545241630469441 -0.18434791691407099 0 0.24724257372051081 -0.19645188785726869 0 0.23545241630469441 -0.18434791691407099 0 0.24724257372051081 -0.19645188785726869 0 0.22704293048842841 -0.19278930560639659 0 0.24376734159222299 -0.2009707823792691 0 0.24724257372051081 -0.19645188785726869 0 0.22459363879706001 -0.20370875175965061 0 0.24724257372051081 -0.19645188785726869 0 0.22459363879706001 -0.20370875175965061 0 0.24376734159222299 -0.2009707823792691 0 0.24724257372051081 -0.19645188785726869 0 0.24376734159222299 -0.2009707823792691 0 0.23054236051522589 -0.21816741625472591 0 0.24376734159222299 -0.2009707823792691 0 0.24989026777409651 -0.21826645038833409 0 0.23054236051522589 -0.21816741625472591 0 0.24376734159222299 -0.2009707823792691 0 0.23054236051522589 -0.21816741625472591 0 0.22459363879706001 -0.20370875175965061 0 0.23054236051522589 -0.21816741625472591 0 0.22126816744683661 -0.21159778882839531 0 0.21673136091599349 -0.2202186639131975 0 0.23054236051522589 -0.21816741625472591 0 0.22126816744683661 -0.21159778882839531 0 0.22459363879706001 -0.20370875175965061 0 0.22126816744683661 -0.21159778882839531 0 0.22459363879706001 -0.20370875175965061 0 0.22056338691923821 -0.2050000702904565 0 0.22459363879706001 -0.20370875175965061 0 0.22056338691923821 -0.2050000702904565 0 0.22459363879706001 -0.20370875175965061 0 0.22704293048842841 -0.19278930560639659 0 0.21385775738259641 -0.19547380315021029 0 0.24724257372051081 -0.19645188785726869 0 0.22459363879706001 -0.20370875175965061 0 0.22704293048842841 -0.19278930560639659 0 0.21809496299306891 -0.18606864999959741 0 0.23545241630469441 -0.18434791691407099 0 0.22704293048842841 -0.19278930560639659 0 0.24376734159222299 -0.2009707823792691 0 0.22459363879706001 -0.20370875175965061 0 0.21809496299306891 -0.18606864999959741 0 0.22704293048842841 -0.19278930560639659 0 0.21385775738259641 -0.19547380315021029 0 0.25131169626011179 -0.25128607895865762 0 0.236178503617929 -0.25664470182088411 0 0.24405375027002471 -0.2369664917254318 0 0.24989026777409651 -0.21826645038833409 0 0.23054236051522589 -0.21816741625472591 0 0.2309608200110215 -0.23304811483001731 0 0.24989026777409651 -0.21826645038833409 0 0.24405375027002471 -0.2369664917254318 0 0.2309608200110215 -0.23304811483001731 0 0.23054236051522589 -0.21816741625472591 0 0.21971611614103401 -0.23466913046323171 0 0.21731737943822771 -0.23536405013018169 0 0.23054236051522589 -0.21816741625472591 0 0.21731737943822771 -0.23536405013018169 0 0.23054236051522589 -0.21816741625472591 0 0.21731737943822771 -0.23536405013018169 0 0.21673136091599349 -0.2202186639131975 0 0.23054236051522589 -0.21816741625472591 0 0.2309608200110215 -0.23304811483001731 0 0.21971611614103401 -0.23466913046323171 0 0.24405375027002471 -0.2369664917254318 0 0.22113009926732699 -0.24859038082014079 0 0.24405375027002471 -0.2369664917254318 0 0.2309608200110215 -0.23304811483001731 0 0.22113009926732699 -0.24859038082014079 0 0.236178503617929 -0.25664470182088411 0 0.24405375027002471 -0.2369664917254318 0 0.22113009926732699 -0.24859038082014079 0 0.2309608200110215 -0.23304811483001731 0 0.21971611614103401 -0.23466913046323171 0 0.219894029998108 -0.24074277235118741 0 0.2309608200110215 -0.23304811483001731 0 0.219894029998108 -0.24074277235118741 0 0.22113009926732699 -0.24859038082014079 0 0.21971611614103401 -0.23466913046323171 0 0.219894029998108 -0.24074277235118741 0 0.21731737943822771 -0.23536405013018169 0 0.2077619138514282 -0.2477891600225153 0 0.21731737943822771 -0.23536405013018169 0 0.19109642933565141 -0.24296032107190771 0 0.21731737943822771 -0.23536405013018169 0 0.19109642933565141 -0.24296032107190771 0 0.219894029998108 -0.24074277235118741 0 0.22113009926732699 -0.24859038082014079 0 0.2077619138514282 -0.2477891600225153 0 0.219894029998108 -0.24074277235118741 0 0.2077619138514282 -0.2477891600225153 0 0.21731737943822771 -0.23536405013018169 0 0.2077619138514282 -0.2477891600225153 0 0.21731737943822771 -0.23536405013018169 0 0.21971611614103401 -0.23466913046323171 0 0.21731737943822771 -0.23536405013018169 0 0.21731737943822771 -0.23536405013018169 0 0.20400750945533691 -0.22380196766885979 0 0.19109642933565141 -0.24296032107190771 0 0.21673136091599349 -0.2202186639131975 0 0.20400750945533691 -0.22380196766885979 0 0.2125537047008734 -0.21356217611258149 0 0.21731737943822771 -0.23536405013018169 0 0.21673136091599349 -0.2202186639131975 0 0.20400750945533691 -0.22380196766885979 0 0.20400750945533691 -0.22380196766885979 0 0.19109642933565141 -0.24296032107190771 0 0.18479169818852181 -0.226182339111928 0 0.20400750945533691 -0.22380196766885979 0 0.20019809876696171 -0.20719238986199839 0 0.18479169818852181 -0.226182339111928 0 0.21809496299306891 -0.18606864999959741 0 0.21385775738259641 -0.19547380315021029 0 0.19935915586746289 -0.18760991852340919 0 0.21385775738259641 -0.19547380315021029 0 0.20019809876696171 -0.20719238986199839 0 0.19935915586746289 -0.18760991852340919 0 0.22459363879706001 -0.20370875175965061 0 0.21385775738259641 -0.19547380315021029 0 0.20019809876696171 -0.20719238986199839 0 0.22459363879706001 -0.20370875175965061 0 0.20019809876696171 -0.20719238986199839 0 0.22056338691923821 -0.2050000702904565 0 0.2125537047008734 -0.21356217611258149 0 0.20019809876696171 -0.20719238986199839 0 0.22459363879706001 -0.20370875175965061 0 0.22056338691923821 -0.2050000702904565 0 0.20019809876696171 -0.20719238986199839 0 0.20400750945533691 -0.22380196766885979 0 0.2125537047008734 -0.21356217611258149 0 0.20019809876696171 -0.20719238986199839 0 0.22126816744683661 -0.21159778882839531 0 0.22056338691923821 -0.2050000702904565 0 0.2125537047008734 -0.21356217611258149 0 0.22126816744683661 -0.21159778882839531 0 0.21673136091599349 -0.2202186639131975 0 0.2125537047008734 -0.21356217611258149 0 0.20019809876696171 -0.20719238986199839 0 0.17580255873686321 -0.21067602796434581 0 0.20019809876696171 -0.20719238986199839 0 0.19935915586746289 -0.18760991852340919 0 0.181926813245673 -0.1964804444624528 0 0.19935915586746289 -0.18760991852340919 0 0.177793783093668 -0.18756487454810841 0 0.181926813245673 -0.1964804444624528 0 0.177793783093668 -0.18756487454810841 0 0.181926813245673 -0.1964804444624528 0 0.1694825616317881 -0.1953936239950686 0 0.181926813245673 -0.1964804444624528 0 0.17580255873686321 -0.21067602796434581 0 0.1671962141724074 -0.22276923850900371 0 0.181926813245673 -0.1964804444624528 0 0.1694825616317881 -0.1953936239950686 0 0.1671962141724074 -0.22276923850900371 0 0.20019809876696171 -0.20719238986199839 0 0.17580255873686321 -0.21067602796434581 0 0.18479169818852181 -0.226182339111928 0 0.20019809876696171 -0.20719238986199839 0 0.181926813245673 -0.1964804444624528 0 0.17580255873686321 -0.21067602796434581 0 0.181926813245673 -0.1964804444624528 0 0.1671962141724074 -0.22276923850900371 0 0.1694825616317881 -0.1953936239950686 0 0.1671962141724074 -0.22276923850900371 0 0.1694825616317881 -0.1953936239950686 0 0.1671962141724074 -0.22276923850900371 0 0.1553361712007712 -0.20831681513653391 0 0.1671962141724074 -0.22276923850900371 0 0.15329848936505791 -0.2232422220719483 0 0.1553361712007712 -0.20831681513653391 0 0.1694825616317881 -0.1953936239950686 0 0.15600049635621729 -0.19456990815286351 0 0.1553361712007712 -0.20831681513653391 0 0.1694825616317881 -0.1953936239950686 0 0.15600049635621729 -0.19456990815286351 0 0.16600814602844399 -0.18654006035940399 0 0.177793783093668 -0.18756487454810841 0 0.1694825616317881 -0.1953936239950686 0 0.16600814602844399 -0.18654006035940399 0 0.16487547923307519 -0.25055659201363428 0 0.19109642933565141 -0.24296032107190771 0 0.16487547923307519 -0.25055659201363428 0 0.19109642933565141 -0.24296032107190771 0 0.18479169818852181 -0.226182339111928 0 0.17580255873686321 -0.21067602796434581 0 0.18479169818852181 -0.226182339111928 0 0.1671962141724074 -0.22276923850900371 0 0.16487547923307519 -0.25055659201363428 0 0.18479169818852181 -0.226182339111928 0 0.1671962141724074 -0.22276923850900371 0 0.1671962141724074 -0.22276923850900371 0 0.15812725446567649 -0.23895405304104589 0 0.1671962141724074 -0.22276923850900371 0 0.15812725446567649 -0.23895405304104589 0 0.15329848936505791 -0.2232422220719483 0 0.14905829475894741 -0.25513886757308918 0 0.16487547923307519 -0.25055659201363428 0 0.15812725446567649 -0.23895405304104589 0 0.16487547923307519 -0.25055659201363428 0 0.1671962141724074 -0.22276923850900371 0 0.15812725446567649 -0.23895405304104589 0 0.16487547923307519 -0.25055659201363428 0 0.1671962141724074 -0.22276923850900371 0 0.15812725446567649 -0.23895405304104589 0 0.14216363434015139 -0.2308814858255013 0 0.13895199017385279 -0.2468597283822844 0 0.14905829475894741 -0.25513886757308918 0 0.15812725446567649 -0.23895405304104589 0 0.13895199017385279 -0.2468597283822844 0 0.14905829475894741 -0.25513886757308918 0 0.15812725446567649 -0.23895405304104589 0 0.15812725446567649 -0.23895405304104589 0 0.14216363434015139 -0.2308814858255013 0 0.15329848936505791 -0.2232422220719483 0 0.14216363434015139 -0.2308814858255013 0 0.15329848936505791 -0.2232422220719483 0 0.1436691726462819 -0.21528951784765649 0 0.1224736804139482 -0.22371811194163749 0 0.1330001841117249 -0.22418142900057161 0 0.12513321058705959 -0.2398860738347883 0 0.14216363434015139 -0.2308814858255013 0 0.1330001841117249 -0.22418142900057161 0 0.12513321058705959 -0.2398860738347883 0 0.14216363434015139 -0.2308814858255013 0 0.1330001841117249 -0.22418142900057161 0 0.1436691726462819 -0.21528951784765649 0 0.1224736804139482 -0.22371811194163749 0 0.1330001841117249 -0.22418142900057161 0 0.13156122257118369 -0.21113195555327419 0 0.12779274076017111 -0.25605403572793911 0 0.12513321058705959 -0.2398860738347883 0 0.13895199017385279 -0.2468597283822844 0 0.14216363434015139 -0.2308814858255013 0 0.12513321058705959 -0.2398860738347883 0 0.13895199017385279 -0.2468597283822844 0 0.12779274076017111 -0.25605403572793911 0 0.12513321058705959 -0.2398860738347883 0 0.14064876472841911 -0.19854579916491091 0 0.15600049635621729 -0.19456990815286351 0 0.1533552667700403 -0.18132425406105421 0 0.14064876472841911 -0.19854579916491091 0 0.15600049635621729 -0.19456990815286351 0 0.1553361712007712 -0.20831681513653391 0 0.14064876472841911 -0.19854579916491091 0 0.1553361712007712 -0.20831681513653391 0 0.1436691726462819 -0.21528951784765649 0 0.15329848936505791 -0.2232422220719483 0 0.1553361712007712 -0.20831681513653391 0 0.1436691726462819 -0.21528951784765649 0 0.14064876472841911 -0.19854579916491091 0 0.1436691726462819 -0.21528951784765649 0 0.13156122257118369 -0.21113195555327419 0 0.1196555054935612 -0.20658570818787739 0 0.13156122257118369 -0.21113195555327419 0 0.12823990529544579 -0.19493920790853589 0 0.14064876472841911 -0.19854579916491091 0 0.13156122257118369 -0.21113195555327419 0 0.1330001841117249 -0.22418142900057161 0 0.1436691726462819 -0.21528951784765649 0 0.13156122257118369 -0.21113195555327419 0 0.1224736804139482 -0.22371811194163749 0 0.13156122257118369 -0.21113195555327419 0 0.14064876472841911 -0.19854579916491091 0 0.13156122257118369 -0.21113195555327419 0 0.12823990529544579 -0.19493920790853589 0 0.14064876472841911 -0.19854579916491091 0 0.12823990529544579 -0.19493920790853589 0 0.13669630445941519 -0.18158702538780611 0 0.1240403039469216 -0.18233145472322959 0 0.12823990529544579 -0.19493920790853589 0 0.13669630445941519 -0.18158702538780611 0 0.1240403039469216 -0.18233145472322959 0 0.13669630445941519 -0.18158702538780611 0 0.12871091448319821 -0.16733684230381859 0 0.14064876472841911 -0.19854579916491091 0 0.13669630445941519 -0.18158702538780611 0 0.1533552667700403 -0.18132425406105421 0 0.13669630445941519 -0.18158702538780611 0 0.1533552667700403 -0.18132425406105421 0 0.14745808871354921 -0.1600853635564419 0 0.1215075551365926 -0.14632308607295841 0 0.14745808871354921 -0.1600853635564419 0 0.12871091448319821 -0.16733684230381859 0 0.13669630445941519 -0.18158702538780611 0 0.14745808871354921 -0.1600853635564419 0 0.12871091448319821 -0.16733684230381859 0 0.1215075551365926 -0.14632308607295841 0 0.14745808871354921 -0.1600853635564419 0 0.1434838383770056 -0.13553038153506161 0 0.1215075551365926 -0.14632308607295841 0 0.14745808871354921 -0.1600853635564419 0 0.1205446709487009 -0.129680761075603 0 0.13250323861563459 -0.1177628277064097 0 0.1434838383770056 -0.13553038153506161 0 0.1205446709487009 -0.129680761075603 0 0.1215075551365926 -0.14632308607295841 0 0.1434838383770056 -0.13553038153506161 0 0.14813438842766299 -0.1176401492726703 0 0.1434838383770056 -0.13553038153506161 0 0.1682229308874755 -0.12533494644909909 0 0.14745808871354921 -0.1600853635564419 0 0.1434838383770056 -0.13553038153506161 0 0.16874575838011219 -0.14910945059205741 0 0.1434838383770056 -0.13553038153506161 0 0.16874575838011219 -0.14910945059205741 0 0.1682229308874755 -0.12533494644909909 0 0.19098503643689879 -0.12896955454438719 0 0.1682229308874755 -0.12533494644909909 0 0.19098503643689879 -0.12896955454438719 0 0.1682229308874755 -0.12533494644909909 0 0.17985466993626489 -0.13928138570530599 0 0.16874575838011219 -0.14910945059205741 0 0.1682229308874755 -0.12533494644909909 0 0.17985466993626489 -0.13928138570530599 0 0.1913386348615381 -0.14965462597249299 0 0.16874575838011219 -0.14910945059205741 0 0.17985466993626489 -0.13928138570530599 0 0.1913386348615381 -0.14965462597249299 0 0.16874575838011219 -0.14910945059205741 0 0.18735934411836919 -0.16416826597098261 0 0.16874575838011219 -0.14910945059205741 0 0.18735934411836919 -0.16416826597098261 0 0.1734086222905061 -0.17384764103992559 0 0.19522533633113781 -0.1726816546099699 0 0.18735934411836919 -0.16416826597098261 0 0.1734086222905061 -0.17384764103992559 0 0.19935915586746289 -0.18760991852340919 0 0.177793783093668 -0.18756487454810841 0 0.1734086222905061 -0.17384764103992559 0 0.19935915586746289 -0.18760991852340919 0 0.1734086222905061 -0.17384764103992559 0 0.177793783093668 -0.18756487454810841 0 0.1734086222905061 -0.17384764103992559 0 0.16600814602844399 -0.18654006035940399 0 0.1533552667700403 -0.18132425406105421 0 0.1734086222905061 -0.17384764103992559 0 0.16600814602844399 -0.18654006035940399 0 0.15600049635621729 -0.19456990815286351 0 0.1533552667700403 -0.18132425406105421 0 0.16600814602844399 -0.18654006035940399 0 0.14745808871354921 -0.1600853635564419 0 0.16874575838011219 -0.14910945059205741 0 0.1734086222905061 -0.17384764103992559 0 0.1533552667700403 -0.18132425406105421 0 0.14745808871354921 -0.1600853635564419 0 0.1734086222905061 -0.17384764103992559 0 0.14745808871354921 -0.1600853635564419 0 0.1734086222905061 -0.17384764103992559 0 
</DataArray>
</Points>
<Cells>
<DataArray type="UInt32" Name="connectivity" format="ascii">
0 1 2 3 4 5 6 7 8 9 10 11 12 13 14 15 16 17 18 19 20 21 22 23 24 25 26 27 28 29 30 31 32 33 34 35 36 37 38 39 40 41 42 43 44 45 46 47 48 49 50 51 52 53 54 55 56 57 58 59 60 61 62 63 64 65 66 67 68 69 70 71 72 73 74 75 76 77 78 79 80 81 82 83 84 85 86 87 88 89 90 91 92 93 94 95 96 97 98 99 100 101 102 103 104 105 106 107 108 109 110 111 112 113 114 115 116 117 118 119 120 121 122 123 124 125 126 127 128 129 130 131 132 133 134 135 136 137 138 139 140 141 142 143 144 145 146 147 148 149 150 151 152 153 154 155 156 157 158 159 160 161 162 163 164 165 166 167 168 169 170 171 172 173 174 175 176 177 178 179 180 181 182 183 184 185 186 187 188 189 190 191 192 193 194 195 196 197 198 199 200 201 202 203 204 205 206 207 208 209 210 211 212 213 214 215 216 217 218 219 220 221 222 223 224 225 226 227 228 229 230 231 232 233 234 235 236 237 238 239 240 241 242 243 244 245 246 247 248 249 250 251 252 253 254 255 256 257 258 259 260 261 262 263 264 265 266 267 268 269 270 271 272 273 274 275 276 277 278 279 280 281 282 283 284 285 286 287 288 289 290 291 292 293 294 295 296 297 298 299 300 301 302 303 304 305 306 307 308 309 310 311 312 313 314 315 316 317 318 319 320 321 322 323 324 325 326 327 328 329 330 331 332 333 334 335 336 337 338 339 340 341 342 343 344 345 346 347 348 349 350 351 352 353 354 355 356 357 358 359 360 361 362 363 364 365 366 367 368 369 370 371 372 373 374 375 376 377 378 379 380 381 382 383 384 385 386 387 388 389 390 391 392 393 394 395 396 397 398 399 400 401 402 403 404 405 406 407 408 409 410 411 412 413 414 415 416 417 418 419 420 421 422 423 424 425 426 427 428 429 430 431 432 433 434 435 436 437 438 439 440 441 442 443 444 445 446 447 448 449 450 451 452 453 454 455 456 457 458 459 460 461 462 463 464 465 466 467 468 469 470 471 472 473 474 475 476 477 478 479 480 481 482 483 484 485 486 487 488 489 490 491 492 493 494 495 496 497 498 499 500 501 502 503 504 505 506 507 508 509 510 511 512 513 514 515 516 517 518 519 520 521 522 523 524 525 526 527 528 529 530 531 532 533 534 535 536 537 538 539 540 541 542 543 544 545 546 547 548 549 550 551 552 553 554 555 556 557 558 559 560 561 562 563 564 565 566 567 568 569 570 571 572 573 574 575 576 577 578 579 580 581 582 583 584 585 586 587 588 589 590 591 592 593 594 595 596 597 598 599 600 601 602 603 604 605 606 607 608 609 610 611 612 613 614 615 616 617 618 619 620 621 622 623 624 625 626 627 628 629 630 631 632 633 634 635 636 637 638 639 640 641 642 643 644 645 646 647 648 649 650 651 652 653 654 655 656 657 658 659 660 661 662 663 664 665 666 667 668 669 670 671 672 673 674 675 676 677 678 679 680 681 682 683 684 685 686 687 688 689 690 691 692 693 694 695 696 697 698 699 700 701 702 703 704 705 706 707 708 709 710 711 712 713 714 715 716 717 718 719 720 721 722 723 724 725 726 727 728 729 730 731 732 733 734 735 736 737 738 739 740 741 742 743 744 745 746 747 748 749 750 751 752 753 754 755 756 757 758 759 760 761 762 763 764 765 766 767 768 769 770 771 772 773 774 775 776 777 778 779 780 781 782 783 784 785 786 787 788 789 790 791 792 793 794 795 796 797 798 799 800 801 802 803 804 805 806 807 808 809 810 811 812 813 814 815 816 817 818 819 820 821 822 823 824 825 826 827 828 829 830 831 832 833 834 835 836 837 838 839 840 841 842 843 844 845 846 847 848 849 850 851 852 853 854 855 856 857 858 859 860 861 862 863 864 865 866 867 868 869 870 871 872 873 874 875 876 877 878 879 880 881 882 883 884 885 886 887 888 889 890 891 892 893 894 895 896 897 898 899 900 901 902 903 904 905 906 907 908 909 910 911 912 913 914 915 916 917 918 919 920 921 922 923 924 925 926 927 928 929 930 931 932 933 934 935 936 937 938 939 940 941 942 943 944 945 946 947 948 949 950 951 952 953 954 955 956 957 958 959 960 961 962 963 964 965 966 967 968 969 970 971 972 973 974 975 976 977 978 979 980 981 982 983 984 985 986 987 988 989 990 991 992 993 994 995 996 997 998 999 1000 1001 1002 1003 1004 1005 1006 1007 1008 1009 1010 1011 1012 1013 1014 1015 1016 1017 1018 1019 1020 1021 1022 1023 1024 1025 1026 1027 1028 1029 1030 1031 1032 1033 1034 1035 1036 1037 1038 1039 1040 1041 1042 1043 1044 1045 1046 1047 1048 1049 1050 1051 1052 1053 1054 1055 1056 1057 1058 1059 1060 1061 1062 1063 1064 1065 1066 1067 1068 1069 1070 1071 1072 1073 1074 1075 1076 1077 1078 1079 1080 1081 1082 1083 1084 1085 1086 1087 1088 1089 1090 1091 1092 1093 1094 1095 1096 1097 1098 1099 1100 1101 1102 1103 1104 1105 1106 1107 1108 1109 1110 1111 1112 1113 1114 1115 1116 1117 1118 1119 1120 1121 1122 1123 1124 1125 1126 1127 1128 1129 1130 1131 1132 1133 1134 1135 1136 1137 1138 1139 1140 1141 1142 1143 1144 1145 1146 1147 1148 1149 1150 1151 1152 1153 1154 1155 1156 1157 1158 1159 1160 1161 1162 1163 1164 1165 1166 1167 1168 1169 1170 1171 1172 1173 1174 1175 1176 1177 1178 1179 1180 1181 1182 1183 1184 1185 1186 1187 1188 1189 1190 1191 1192 1193 1194 1195 1196 1197 1198 1199 1200 1201 1202 1203 1204 1205 1206 1207 1208 1209 1210 1211 1212 1213 1214 1215 1216 1217 1218 1219 1220 1221 1222 1223 1224 1225 1226 1227 1228 1229 1230 1231 1232 1233 1234 1235 1236 1237 1238 1239 1240 1241 1242 1243 1244 1245 1246 1247 1248 1249 1250 1251 1252 1253 1254 1255 1256 1257 1258 1259 1260 1261 1262 1263 1264 1265 1266 1267 1268 1269 1270 1271 1272 1273 1274 1275 1276 1277 1278 1279 1280 1281 1282 1283 1284 1285 1286 1287 1288 1289 1290 1291 1292 1293 1294 1295 1296 1297 1298 1299 1300 1301 1302 1303 1304 1305 1306 1307 1308 1309 1310 1311 1312 1313 1314 1315 1316 1317 1318 1319 1320 1321 1322 1323 1324 1325 1326 1327 1328 1329 1330 1331 1332 1333 1334 1335 1336 1337 1338 1339 1340 1341 1342 1343 1344 1345 1346 1347 1348 1349 1350 1351 1352 1353 1354 1355 1356 1357 1358 1359 1360 1361 1362 1363 1364 1365 1366 1367 1368 1369 1370 1371 1372 1373 1374 1375 1376 1377 1378 1379 1380 1381 1382 1383 1384 1385 1386 1387 1388 1389 1390 1391 1392 1393 1394 1395 1396 1397 1398 1399 1400 1401 1402 1403 1404 1405 1406 1407 1408 1409 1410 1411 1412 1413 1414 1415 1416 1417 1418 1419 1420 1421 1422 1423 1424 1425 1426 1427 1428 1429 1430 1431 1432 1433 1434 1435 1436 1437 1438 1439 1440 1441 1442 1443 1444 1445 1446 1447 1448 1449 1450 1451 1452 1453 1454 1455 1456 1457 1458 1459 1460 1461 1462 1463 1464 1465 1466 1467 1468 1469 1470 1471 1472 1473 1474 1475 1476 1477 1478 1479 1480 1481 1482 1483 1484 1485 1486 1487 1488 1489 1490 1491 1492 1493 1494 1495 1496 1497 1498 1499 1500 1501 1502 1503 1504 1505 1506 1507 1508 1509 1510 1511 1512 1513 1514 1515 1516 1517 1518 1519 1520 1521 1522 1523 1524 1525 1526 1527 1528 1529 1530 1531 1532 1533 1534 1535 1536 1537 1538 1539 1540 1541 1542 1543 1544 1545 1546 1547 1548 1549 1550 1551 1552 1553 1554 1555 1556 1557 1558 1559 1560 1561 1562 1563 1564 1565 1566 1567 1568 1569 1570 1571 1572 1573 1574 1575 1576 1577 1578 1579 1580 1581 1582 1583 1584 1585 1586 1587 1588 1589 1590 1591 1592 1593 1594 1595 1596 1597 1598 1599 1600 1601 1602 1603 1604 1605 1606 1607 1608 1609 1610 1611 1612 1613 1614 1615 1616 1617 1618 1619 1620 1621 1622 1623 1624 1625 1626 1627 1628 1629 1630 1631 1632 1633 1634 1635 1636 1637 1638 1639 1640 1641 1642 1643 1644 1645 1646 1647 1648 1649 1650 1651 1652 1653 1654 1655 1656 1657 1658 1659 1660 1661 1662 1663 1664 1665 1666 1667 1668 1669 1670 1671 1672 1673 1674 1675 1676 1677 1678 1679 1680 1681 1682 1683 1684 1685 1686 1687 1688 1689 1690 1691 1692 1693 1694 1695 1696 1697 1698 1699 1700 1701 1702 1703 1704 1705 1706 1707 1708 1709 1710 1711 1712 1713 1714 1715 1716 1717 1718 1719 1720 1721 1722 1723 1724 1725 1726 1727 1728 1729 1730 1731 1732 1733 1734 1735 1736 1737 1738 1739 1740 1741 1742 1743 1744 1745 1746 1747 1748 1749 1750 1751 1752 1753 1754 1755 1756 1757 1758 1759 1760 1761 1762 1763 1764 1765 1766 1767 1768 1769 1770 1771 1772 1773 1774 1775 1776 1777 1778 1779 1780 1781 1782 1783 1784 1785 1786 1787 1788 1789 1790 1791 1792 1793 1794 1795 1796 1797 1798 1799 1800 1801 1802 1803 1804 1805 1806 1807 1808 1809 1810 1811 1812 1813 1814 1815 1816 1817 1818 1819 1820 1821 1822 1823 1824 1825 1826 1827 1828 1829 1830 1831 1832 1833 1834 1835 1836 1837 1838 1839 1840 1841 1842 1843 1844 1845 1846 1847 1848 1849 1850 1851 1852 1853 1854 1855 1856 1857 1858 1859 1860 1861 1862 1863 1864 1865 1866 1867 1868 1869 1870 1871 1872 1873 1874 1875 1876 1877 1878 1879 1880 1881 1882 1883 1884 1885 1886 1887 1888 1889 1890 1891 1892 1893 1894 1895 1896 1897 1898 1899 1900 1901 1902 1903 1904 1905 1906 1907 1908 1909 1910 1911 1912 1913 1914 1915 1916 1917 1918 1919 1920 1921 1922 1923 1924 1925 1926 1927 1928 1929 1930 1931 1932 1933 1934 1935 1936 1937 1938 1939 1940 1941 1942 1943 1944 1945 1946 1947 1948 1949 1950 1951 1952 1953 1954 1955 1956 1957 1958 1959 1960 1961 1962 1963 1964 1965 1966 1967 1968 1969 1970 1971 1972 1973 1974 1975 1976 1977 1978 1979 1980 1981 1982 1983 1984 1985 1986 1987 1988 1989 1990 1991 1992 1993 1994 1995 1996 1997 1998 1999 2000 2001 2002 2003 2004 2005 2006 2007 2008 2009 2010 2011 2012 2013 2014 2015 2016 2017 2018 2019 2020 2021 2022 2023 2024 2025 2026 2027 2028 2029 2030 2031 2032 2033 2034 2035 2036 2037 2038 2039 2040 2041 2042 2043 2044 2045 2046 2047 2048 2049 2050 2051 2052 2053 2054 2055 2056 2057 2058 2059 2060 2061 2062 2063 2064 2065 2066 2067 2068 2069 2070 2071 2072 2073 2074 2075 2076 2077 2078 2079 2080 2081 2082 2083 2084 2085 2086 2087 2088 2089 2090 2091 2092 2093 2094 2095 2096 2097 2098 2099 2100 2101 2102 2103 2104 2105 2106 2107 2108 2109 2110 2111 2112 2113 2114 2115 2116 2117 2118 2119 2120 2121 2122 2123 2124 2125 2126 2127 2128 2129 2130 2131 2132 2133 2134 2135 2136 2137 2138 2139 2140 2141 2142 2143 2144 2145 2146 2147 2148 2149 2150 2151 2152 2153 2154 2155 2156 2157 2158 2159 2160 2161 2162 2163 2164 2165 2166 2167 2168 2169 2170 2171 2172 2173 2174 2175 2176 2177 2178 2179 2180 2181 2182 2183 2184 2185 2186 2187 2188 2189 2190 2191 2192 2193 2194 2195 2196 2197 2198 2199 2200 2201 2202 2203 2204 2205 2206 2207 2208 2209 2210 2211 2212 2213 2214 2215 2216 2217 2218 2219 2220 2221 2222 2223 2224 2225 2226 2227 2228 2229 2230 2231 2232 2233 2234 2235 2236 2237 2238 2239 2240 2241 2242 2243 2244 2245 2246 2247 2248 2249 2250 2251 2252 2253 2254 2255 2256 2257 2258 2259 2260 2261 2262 2263 2264 2265 2266 2267 2268 2269 2270 2271 2272 2273 2274 2275 2276 2277 2278 2279 2280 2281 2282 2283 2284 2285 2286 2287 2288 2289 2290 2291 2292 2293 2294 2295 2296 2297 2298 2299 2300 2301 2302 2303 2304 2305 2306 2307 2308 2309 2310 2311 2312 2313 2314 2315 2316 2317 2318 2319 2320 2321 2322 2323 2324 2325 2326 2327 2328 2329 2330 2331 2332 2333 2334 2335 2336 2337 2338 2339 2340 2341 2342 2343 2344 2345 2346 2347 2348 2349 2350 2351 2352 2353 2354 2355 2356 2357 2358 2359 2360 2361 2362 2363 2364 2365 2366 2367 2368 2369 2370 2371 2372 2373 2374 2375 2376 2377 2378 2379 2380 2381 2382 2383 2384 2385 2386 2387 2388 2389 2390 2391 2392 2393 2394 2395 2396 2397 2398 2399 2400 2401 2402 2403 2404 2405 2406 2407 2408 2409 2410 2411 2412 2413 2414 2415 2416 2417 2418 2419 2420 2421 2422 2423 2424 2425 2426 2427 2428 2429 2430 2431 2432 2433 2434 2435 2436 2437 2438 2439 2440 2441 2442 2443 2444 2445 2446 2447 2448 2449 2450 2451 2452 2453 2454 2455 2456 2457 2458 2459 2460 2461 2462 2463 2464 2465 2466 2467 2468 2469 2470 2471 2472 2473 2474 2475 2476 2477 2478 2479 2480 2481 2482 2483 2484 2485 2486 2487 2488 2489 2490 2491 2492 2493 2494 2495 2496 2497 2498 2499 2500 2501 2502 2503 2504 2505 2506 2507 2508 2509 2510 2511 2512 2513 2514 2515 2516 2517 2518 2519 2520 2521 2522 2523 2524 2525 2526 2527 2528 2529 2530 2531 2532 2533 2534 2535 2536 2537 2538 2539 2540 2541 2542 2543 2544 2545 2546 2547 2548 2549 2550 2551 2552 2553 2554 2555 2556 2557 2558 2559 2560 2561 2562 2563 2564 2565 2566 2567 2568 2569 2570 2571 2572 2573 2574 2575 2576 2577 2578 2579 2580 2581 2582 2583 2584 2585 2586 2587 2588 2589 2590 2591 2592 2593 2594 2595 2596 2597 2598 2599 2600 2601 2602 2603 2604 2605 2606 2607 2608 2609 2610 2611 2612 2613 2614 2615 2616 2617 2618 2619 2620 2621 2622 2623 2624 2625 2626 2627 2628 2629 2630 2631 2632 2633 2634 2635 2636 2637 2638 2639 2640 2641 2642 2643 2644 2645 2646 2647 2648 2649 2650 2651 2652 2653 2654 2655 2656 2657 2658 2659 2660 2661 2662 2663 2664 2665 2666 2667 2668 2669 2670 2671 2672 2673 2674 2675 2676 2677 2678 2679 2680 2681 2682 2683 2684 2685 2686 2687 2688 2689 2690 2691 2692 2693 2694 2695 2696 2697 2698 2699 2700 2701 2702 2703 2704 2705 2706 2707 2708 2709 2710 2711 2712 2713 2714 2715 2716 2717 2718 2719 2720 2721 2722 2723 2724 2725 2726 2727 2728 2729 2730 2731 2732 2733 2734 2735 2736 2737 2738 2739 2740 2741 2742 2743 2744 2745 2746 2747 2748 2749 2750 2751 2752 2753 2754 2755 2756 2757 2758 2759 2760 2761 2762 2763 2764 2765 2766 2767 2768 2769 2770 2771 2772 2773 2774 2775 2776 2777 2778 2779 2780 2781 2782 2783 2784 2785 2786 2787 2788 2789 2790 2791 2792 2793 2794 2795 2796 2797 2798 2799 2800 2801 2802 2803 2804 2805 2806 2807 2808 2809 2810 2811 2812 2813 2814 2815 2816 2817 2818 2819 2820 2821 2822 2823 2824 2825 2826 2827 2828 2829 2830 2831 2832 2833 2834 2835 2836 2837 2838 2839 2840 2841 2842 2843 2844 2845 2846 2847 2848 2849 2850 2851 2852 2853 2854 2855 2856 2857 2858 2859 2860 2861 2862 2863 2864 2865 2866 2867 2868 2869 2870 2871 2872 2873 2874 2875 2876 2877 2878 2879 2880 2881 2882 2883 2884 2885 2886 2887 2888 2889 2890 2891 2892 2893 2894 2895 2896 2897 2898 2899 2900 2901 2902 2903 2904 2905 2906 2907 2908 2909 2910 2911 2912 2913 2914 2915 2916 2917 2918 2919 2920 2921 2922 2923 2924 2925 2926 2927 2928 2929 2930 2931 2932 2933 2934 2935 2936 2937 2938 2939 2940 2941 2942 2943 2944 2945 2946 2947 2948 2949 2950 2951 2952 2953 2954 2955 2956 2957 2958 2959 2960 2961 2962 2963 2964 2965 2966 2967 2968 2969 2970 2971 2972 2973 2974 2975 2976 2977 2978 2979 2980 2981 2982 2983 2984 2985 2986 2987 2988 2989 2990 2991 2992 2993 2994 2995 2996 2997 2998 2999 3000 3001 3002 3003 3004 3005 3006 3007 3008 3009 3010 3011 3012 3013 3014 3015 3016 3017 3018 3019 3020 3021 3022 3023 3024 3025 3026 3027 3028 3029 3030 3031 3032 3033 3034 3035 3036 3037 3038 3039 3040 3041 3042 3043 3044 3045 3046 3047 3048 3049 3050 3051 3052 3053 3054 3055 3056 3057 3058 3059 3060 3061 3062 3063 3064 3065 3066 3067 3068 3069 3070 3071 3072 3073 3074 3075 3076 3077 3078 3079 3080 3081 3082 3083 3084 3085 3086 3087 3088 3089 3090 3091 3092 3093 3094 3095 3096 3097 3098 3099 3100 3101 3102 3103 3104 3105 3106 3107 3108 3109 3110 3111 3112 3113 3114 3115 3116 3117 3118 3119 3120 3121 3122 3123 3124 3125 3126 3127 3128 3129 3130 3131 3132 3133 3134 3135 3136 3137 3138 3139 3140 3141 3142 3143 3144 3145 3146 3147 3148 3149 3150 3151 3152 3153 3154 3155 3156 3157 3158 3159 3160 3161 3162 3163 3164 3165 3166 3167 3168 3169 3170 3171 3172 3173 3174 3175 3176 3177 3178 3179 3180 3181 3182 3183 3184 3185 3186 3187 3188 3189 3190 3191 3192 3193 3194 3195 3196 3197 3198 3199 3200 3201 3202 3203 3204 3205 3206 3207 3208 3209 3210 3211 3212 3213 3214 3215 3216 3217 3218 3219 3220 3221 3222 3223 3224 3225 3226 3227 3228 3229 3230 3231 3232 3233 3234 3235 3236 3237 3238 3239 3240 3241 3242 3243 3244 3245 3246 3247 3248 3249 3250 3251 3252 3253 3254 3255 3256 3257 3258 3259 3260 3261 3262 3263 3264 3265 3266 3267 3268 3269 3270 3271 3272 3273 3274 3275 3276 3277 3278 3279 3280 3281 3282 3283 3284 3285 3286 3287 3288 3289 3290 3291 3292 3293 3294 3295 3296 3297 3298 3299 3300 3301 3302 3303 3304 3305 3306 3307 3308 3309 3310 3311 3312 3313 3314 3315 3316 3317 3318 3319 3320 3321 3322 3323 3324 3325 3326 3327 3328 3329 3330 3331 3332 3333 3334 3335 3336 3337 3338 3339 3340 3341 3342 3343 3344 3345 3346 3347 3348 3349 3350 3351 3352 3353 3354 3355 3356 3357 3358 3359 3360 3361 3362 3363 3364 3365 3366 3367 3368 3369 3370 3371 3372 3373 3374 3375 3376 3377 3378 3379 3380 3381 3382 3383 3384 3385 3386 3387 3388 3389 3390 3391 3392 3393 3394 3395 3396 3397 3398 3399 3400 3401 3402 3403 3404 3405 3406 3407 3408 3409 3410 3411 3412 3413 3414 3415 3416 3417 3418 3419 3420 3421 3422 3423 3424 3425 3426 3427 3428 3429 3430 3431 3432 3433 3434 3435 3436 3437 3438 3439 3440 3441 3442 3443 3444 3445 3446 3447 3448 3449 3450 3451 3452 3453 3454 3455 3456 3457 3458 3459 3460 3461 3462 3463 3464 3465 3466 3467 3468 3469 3470 3471 3472 3473 3474 3475 3476 3477 3478 3479 3480 3481 3482 3483 3484 3485 3486 3487 3488 3489 3490 3491 3492 3493 3494 3495 3496 3497 3498 3499 3500 3501 3502 3503 3504 3505 3506 3507 3508 3509 3510 3511 3512 3513 3514 3515 3516 3517 3518 3519 3520 3521 3522 3523 3524 3525 3526 3527 3528 3529 3530 3531 3532 3533 3534 3535 3536 3537 3538 3539 3540 3541 3542 3543 3544 3545 3546 3547 3548 3549 3550 3551 3552 3553 3554 3555 3556 3557 3558 3559 3560 3561 3562 3563 3564 3565 3566 3567 3568 3569 3570 3571 3572 3573 3574 3575 3576 3577 3578 3579 3580 3581 3582 3583 3584 3585 3586 3587 3588 3589 3590 3591 3592 3593 3594 3595 3596 3597 3598 3599 3600 3601 3602 3603 3604 3605 3606 3607 3608 3609 3610 3611 3612 3613 3614 3615 3616 3617 3618 3619 3620 3621 3622 3623 3624 3625 3626 3627 3628 3629 3630 3631 3632 3633 3634 3635 3636 3637 3638 3639 3640 3641 3642 3643 3644 3645 3646 3647 3648 3649 3650 3651 3652 3653 3654 3655 3656 3657 3658 3659 3660 3661 3662 3663 3664 3665 3666 3667 3668 3669 3670 3671 3672 3673 3674 3675 3676 3677 3678 3679 3680 3681 3682 3683 3684 3685 3686 3687 3688 3689 3690 3691 3692 3693 3694 3695 3696 3697 3698 3699 3700 3701 3702 3703 3704 3705 3706 3707 3708 3709 3710 3711 3712 3713 3714 3715 3716 3717 3718 3719 3720 3721 3722 3723 3724 3725 3726 3727 3728 3729 3730 3731 3732 3733 3734 3735 3736 3737 3738 3739 3740 3741 3742 3743 3744 3745 3746 3747 3748 3749 3750 3751 3752 3753 3754 3755 3756 3757 3758 3759 3760 3761 3762 3763 3764 3765 3766 3767 3768 3769 3770 3771 3772 3773 3774 3775 3776 3777 3778 3779 3780 3781 3782 3783 3784 3785 3786 3787 3788 3789 3790 3791 3792 3793 3794 3795 3796 3797 3798 3799 3800 3801 3802 3803 3804 3805 3806 3807 3808 3809 3810 3811 3812 3813 3814 3815 3816 3817 3818 3819 3820 3821 3822 3823 3824 3825 3826 3827 3828 3829 3830 3831 3832 3833 3834 3835 3836 3837 3838 3839 3840 3841 3842 3843 3844 3845 3846 3847 3848 3849 3850 3851 3852 3853 3854 3855 3856 3857 3858 3859 3860 3861 3862 3863 3864 3865 3866 3867 3868 3869 3870 3871 3872 3873 3874 3875 3876 3877 3878 3879 3880 3881 3882 3883 3884 3885 3886 3887 3888 3889 3890 3891 3892 3893 3894 3895 3896 3897 3898 3899 3900 3901 3902 3903 3904 3905 3906 3907 3908 3909 3910 3911 3912 3913 3914 3915 3916 3917 3918 3919 3920 3921 3922 3923 3924 3925 3926 3927 3928 3929 3930 3931 3932 3933 3934 3935 3936 3937 3938 3939 3940 3941 3942 3943 3944 3945 3946 3947 3948 3949 3950 3951 3952 3953 3954 3955 3956 3957 3958 3959 3960 3961 3962 3963 3964 3965 3966 3967 3968 3969 3970 3971 3972 3973 3974 3975 3976 3977 3978 3979 3980 3981 3982 3983 3984 3985 3986 3987 3988 3989 3990 3991 3992 3993 3994 3995 3996 3997 3998 3999 4000 4001 4002 4003 4004 4005 4006 4007 4008 4009 4010 4011 4012 4013 4014 4015 4016 4017 4018 4019 4020 4021 4022 4023 4024 4025 4026 4027 4028 4029 4030 4031 4032 4033 4034 4035 4036 4037 4038 4039 4040 4041 4042 4043 4044 4045 4046 4047 4048 4049 4050 4051 4052 4053 4054 4055 4056 4057 4058 4059 4060 4061 4062 4063 4064 4065 4066 4067 4068 4069 4070 4071 4072 4073 4074 4075 4076 4077 4078 4079 4080 4081 4082 4083 4084 4085 4086 4087 4088 4089 4090 4091 4092 4093 4094 4095 4096 4097 4098 4099 4100 4101 4102 4103 4104 4105 4106 4107 4108 4109 4110 4111 4112 4113 4114 4115 4116 4117 4118 4119 4120 4121 4122 4123 4124 4125 4126 4127 4128 4129 4130 4131 4132 4133 4134 4135 4136 4137 4138 4139 4140 4141 4142 4143 4144 4145 4146 4147 4148 4149 4150 4151 4152 4153 4154 4155 4156 4157 4158 4159 4160 4161 4162 4163 4164 4165 4166 4167 4168 4169 4170 4171 4172 4173 4174 4175 4176 4177 4178 4179 4180 4181 4182 4183 4184 4185 4186 4187 4188 4189 4190 4191 4192 4193 4194 4195 4196 4197 4198 4199 4200 4201 4202 4203 4204 4205 4206 4207 4208 4209 4210 4211 4212 4213 4214 4215 4216 4217 4218 4219 4220 4221 4222 4223 4224 4225 4226 4227 4228 4229 4230 4231 4232 4233 4234 4235 4236 4237 4238 4239 4240 4241 4242 4243 4244 4245 4246 4247 4248 4249 4250 4251 4252 4253 4254 4255 4256 4257 4258 4259 4260 4261 4262 4263 4264 4265 4266 4267 4268 4269 4270 4271 4272 4273 4274 4275 4276 4277 4278 4279 4280 4281 4282 4283 4284 4285 4286 4287 4288 4289 4290 4291 4292 4293 4294 4295 4296 4297 4298 4299 4300 4301 4302 4303 4304 4305 4306 4307 4308 4309 4310 4311 4312 4313 4314 4315 4316 4317 4318 4319 4320 4321 4322 4323 4324 4325 4326 4327 4328 4329 4330 4331 4332 4333 4334 4335 4336 4337 4338 4339 4340 4341 4342 4343 4344 4345 4346 4347 4348 4349 4350 4351 4352 4353 4354 4355 4356 4357 4358 4359 4360 4361 4362 4363 4364 4365 4366 4367 4368 4369 4370 4371 4372 4373 4374 4375 4376 4377 4378 4379 4380 4381 4382 4383 4384 4385 4386 4387 4388 4389 4390 4391 4392 4393 4394 4395 4396 4397 4398 4399 4400 4401 4402 4403 4404 4405 4406 4407 4408 4409 4410 4411 4412 4413 4414 4415 4416 4417 4418 4419 4420 4421 4422 4423 4424 4425 4426 4427 4428 4429 4430 4431 4432 4433 4434 4435 4436 4437 4438 4439 4440 4441 4442 4443 4444 4445 4446 4447 4448 4449 4450 4451 4452 4453 4454 4455 4456 4457 4458 4459 4460 4461 4462 4463 4464 4465 4466 4467 4468 4469 4470 4471 4472 4473 4474 4475 4476 4477 4478 4479 4480 4481 4482 4483 4484 4485 4486 4487 4488 4489 4490 4491 4492 4493 4494 4495 4496 4497 4498 4499 4500 4501 4502 4503 4504 4505 4506 4507 4508 4509 4510 4511 4512 4513 4514 4515 4516 4517 4518 4519 4520 4521 4522 4523 4524 4525 4526 4527 4528 4529 4530 4531 4532 4533 4534 4535 4536 4537 4538 4539 4540 4541 4542 4543 4544 4545 4546 4547 4548 4549 4550 4551 4552 4553 4554 4555 4556 4557 4558 4559 4560 4561 4562 4563 4564 4565 4566 4567 4568 4569 4570 4571 4572 4573 4574 4575 4576 4577 4578 4579 4580 4581 4582 4583 4584 4585 4586 4587 4588 4589 4590 4591 4592 4593 4594 4595 4596 4597 4598 4599 4600 4601 4602 4603 4604 4605 4606 4607 4608 4609 4610 4611 4612 4613 4614 4615 4616 4617 4618 4619 4620 4621 4622 4623 4624 4625 4626 4627 4628 4629 4630 4631 4632 4633 4634 4635 4636 4637 4638 4639 4640 4641 4642 4643 4644 4645 4646 4647 4648 4649 4650 4651 4652 4653 4654 4655 4656 4657 4658 4659 4660 4661 4662 4663 4664 4665 4666 4667 4668 4669 4670 4671 4672 4673 4674 4675 4676 4677 4678 4679 4680 4681 4682 4683 4684 4685 4686 4687 4688 4689 4690 4691 4692 4693 4694 4695 4696 4697 4698 4699 4700 4701 4702 4703 4704 4705 4706 4707 4708 4709 4710 4711 4712 4713 4714 4715 4716 4717 4718 4719 4720 4721 4722 4723 4724 4725 4726 4727 4728 4729 4730 4731 4732 4733 4734 4735 4736 4737 4738 4739 4740 4741 4742 4743 4744 4745 4746 4747 4748 4749 4750 4751 4752 4753 4754 4755 4756 4757 4758 4759 4760 4761 4762 4763 4764 4765 4766 4767 4768 4769 4770 4771 4772 4773 4774 4775 4776 4777 4778 4779 4780 4781 4782 4783 4784 4785 4786 4787 4788 4789 4790 4791 4792 4793 4794 4795 4796 4797 4798 4799 4800 4801 4802 4803 4804 4805 4806 4807 4808 4809 4810 4811 4812 4813 4814 4815 4816 4817 4818 4819 4820 4821 4822 4823 4824 4825 4826 4827 4828 4829 4830 4831 4832 4833 4834 4835 4836 4837 4838 4839 4840 4841 4842 4843 4844 4845 4846 4847 4848 4849 4850 4851 4852 4853 4854 4855 4856 4857 4858 4859 4860 4861 4862 4863 4864 4865 4866 4867 4868 4869 4870 4871 4872 4873 4874 4875 4876 4877 4878 4879 4880 4881 4882 4883 4884 4885 4886 4887 4888 4889 4890 4891 4892 4893 4894 4895 4896 4897 4898 4899 4900 4901 4902 4903 4904 4905 4906 4907 4908 4909 4910 4911 4912 4913 4914 4915 4916 4917 4918 4919 4920 4921 4922 4923 4924 4925 4926 4927 4928 4929 4930 4931 4932 4933 4934 4935 4936 4937 4938 4939 4940 4941 4942 4943 4944 4945 4946 4947 4948 4949 4950 4951 4952 4953 4954 4955 4956 4957 4958 4959 4960 4961 4962 4963 4964 4965 4966 4967 4968 4969 4970 4971 4972 4973 4974 4975 4976 4977 4978 4979 4980 4981 4982 4983 4984 4985 4986 4987 4988 4989 4990 4991 4992 4993 4994 4995 4996 4997 4998 4999 5000 5001 5002 5003 5004 5005 5006 5007 5008 5009 5010 5011 5012 5013 5014 5015 5016 5017 5018 5019 5020 5021 5022 5023 5024 5025 5026 5027 5028 5029 5030 5031 5032 5033 5034 5035 5036 5037 5038 5039 5040 5041 5042 5043 5044 5045 5046 5047 5048 5049 5050 5051 5052 5053 5054 5055 5056 5057 5058 5059 5060 5061 5062 5063 5064 5065 5066 5067 5068 5069 5070 5071 5072 5073 5074 5075 5076 5077 5078 5079 5080 5081 5082 5083 5084 5085 5086 5087 5088 5089 5090 5091 5092 5093 5094 5095 5096 5097 5098 5099 5100 5101 5102 5103 5104 5105 5106 5107 5108 5109 5110 5111 5112 5113 5114 5115 5116 5117 5118 5119 5120 5121 5122 5123 5124 5125 5126 5127 5128 5129 5130 5131 5132 5133 5134 5135 5136 5137 5138 5139 5140 5141 5142 5143 5144 5145 5146 5147 5148 5149 5150 5151 5152 5153 5154 5155 5156 5157 5158 5159 5160 5161 5162 5163 5164 5165 5166 5167 5168 5169 5170 5171 5172 5173 5174 5175 5176 5177 5178 5179 5180 5181 5182 5183 5184 5185 5186 5187 5188 5189 5190 5191 5192 5193 5194 5195 5196 5197 5198 5199 5200 5201 5202 5203 5204 5205 5206 5207 5208 5209 5210 5211 5212 5213 5214 5215 5216 5217 5218 5219 5220 5221 5222 5223 5224 5225 5226 5227 5228 5229 5230 5231 5232 5233 5234 5235 5236 5237 5238 5239 5240 5241 5242 5243 5244 5245 5246 5247 5248 5249 5250 5251 5252 5253 5254 5255 5256 5257 5258 5259 5260 5261 5262 5263 5264 5265 5266 5267 5268 5269 5270 5271 5272 5273 5274 5275 5276 5277 5278 5279 5280 5281 5282 5283 5284 5285 5286 5287 5288 5289 5290 5291 5292 5293 5294 5295 5296 5297 5298 5299 5300 5301 5302 5303 5304 5305 5306 5307 5308 5309 5310 5311 5312 5313 5314 5315 5316 5317 5318 5319 5320 5321 5322 5323 5324 5325 5326 5327 5328 5329 5330 5331 5332 5333 5334 5335 5336 5337 5338 5339 5340 5341 5342 5343 5344 5345 5346 5347 5348 5349 5350 5351 5352 5353 5354 5355 5356 5357 5358 5359 5360 5361 5362 5363 5364 5365 5366 5367 5368 5369 5370 5371 5372 5373 5374 5375 5376 5377 5378 5379 5380 5381 5382 5383 5384 5385 5386 5387 5388 5389 5390 5391 5392 5393 5394 5395 5396 5397 5398 5399 5400 5401 5402 5403 5404 5405 5406 5407 5408 5409 5410 5411 5412 5413 5414 5415 5416 5417 5418 5419 5420 5421 5422 5423 5424 5425 5426 5427 5428 5429 5430 5431 5432 5433 5434 5435 5436 5437 5438 5439 5440 5441 5442 5443 5444 5445 5446 5447 5448 5449 5450 5451 5452 5453 5454 5455 5456 5457 5458 5459 5460 5461 5462 5463 5464 5465 5466 5467 5468 5469 5470 5471 5472 5473 5474 5475 5476 5477 5478 5479 5480 5481 5482 5483 5484 5485 5486 5487 5488 5489 5490 5491 5492 5493 5494 5495 5496 5497 5498 5499 5500 5501 5502 5503 5504 5505 5506 5507 5508 5509 5510 5511 5512 5513 5514 5515 5516 5517 5518 5519 5520 5521 5522 5523 5524 5525 5526 5527 5528 5529 5530 5531 5532 5533 5534 5535 5536 5537 5538 5539 5540 5541 5542 5543 5544 5545 5546 5547 5548 5549 5550 5551 5552 5553 5554 5555 5556 5557 5558 5559 5560 5561 5562 5563 5564 5565 5566 5567 5568 5569 5570 5571 5572 5573 5574 5575 5576 5577 5578 5579 5580 5581 5582 5583 5584 5585 5586 5587 5588 5589 5590 5591 5592 5593 5594 5595 5596 5597 5598 5599 5600 5601 5602 5603 5604 5605 5606 5607 5608 5609 5610 5611 5612 5613 5614 5615 5616 5617 5618 5619 5620 5621 5622 5623 5624 5625 5626 5627 5628 5629 5630 5631 5632 5633 5634 5635 5636 5637 5638 5639 5640 5641 5642 5643 5644 5645 5646 5647 5648 5649 5650 5651 5652 5653 5654 5655 5656 5657 5658 5659 5660 5661 5662 5663 5664 5665 5666 5667 5668 5669 5670 5671 5672 5673 5674 5675 5676 5677 5678 5679 5680 5681 5682 5683 5684 5685 5686 5687 5688 5689 5690 5691 5692 5693 5694 5695 5696 5697 5698 5699 5700 5701 5702 5703 5704 5705 5706 5707 5708 5709 5710 5711 5712 5713 5714 5715 5716 5717 5718 5719 5720 5721 5722 5723 5724 5725 5726 5727 5728 5729 5730 5731 5732 5733 5734 5735 5736 5737 5738 5739 5740 5741 5742 5743 5744 5745 5746 5747 5748 5749 5750 5751 5752 5753 5754 5755 5756 5757 5758 5759 5760 5761 5762 5763 5764 5765 5766 5767 5768 5769 5770 5771 5772 5773 5774 5775 5776 5777 5778 5779 5780 5781 5782 5783 5784 5785 5786 5787 5788 5789 5790 5791 5792 5793 5794 5795 5796 5797 5798 5799 5800 5801 5802 5803 5804 5805 5806 5807 5808 5809 5810 5811 5812 5813 5814 5815 5816 5817 5818 5819 5820 5821 5822 5823 5824 5825 5826 5827 5828 5829 5830 5831 5832 5833 5834 5835 5836 5837 5838 5839 5840 5841 5842 5843 5844 5845 5846 5847 5848 5849 5850 5851 5852 5853 5854 5855 5856 5857 5858 5859 5860 5861 5862 5863 5864 5865 5866 5867 5868 5869 5870 5871 5872 5873 5874 5875 5876 5877 5878 5879 5880 5881 5882 5883 5884 5885 5886 5887 5888 5889 5890 5891 5892 5893 5894 5895 5896 5897 5898 5899 5900 5901 5902 5903 5904 5905 5906 5907 5908 5909 5910 5911 5912 5913 5914 5915 5916 5917 5918 5919 5920 5921 5922 5923 5924 5925 5926 5927 5928 5929 5930 5931 5932 5933 5934 5935 5936 5937 5938 5939 5940 5941 5942 5943 5944 5945 5946 5947 5948 5949 5950 5951 5952 5953 5954 5955 5956 5957 5958 5959 5960 5961 5962 5963 5964 5965 5966 5967 5968 5969 5970 5971 5972 5973 5974 5975 5976 5977 5978 5979 5980 5981 5982 5983 5984 5985 5986 5987 5988 5989 5990 5991 5992 5993 5994 5995 5996 5997 5998 5999 6000 6001 6002 6003 6004 6005 6006 6007 6008 6009 6010 6011 6012 6013 6014 6015 6016 6017 6018 6019 6020 6021 6022 6023 6024 6025 6026 6027 6028 6029 6030 6031 6032 6033 6034 6035 6036 6037 6038 6039 6040 6041 6042 6043 6044 6045 6046 6047 6048 6049 6050 6051 6052 6053 6054 6055 6056 6057 6058 6059 6060 6061 6062 6063 6064 6065 6066 6067 6068 6069 6070 6071 6072 6073 6074 6075 6076 6077 6078 6079 6080 6081 6082 6083 6084 6085 6086 6087 6088 6089 6090 6091 6092 6093 6094 6095 6096 6097 6098 6099 6100 6101 6102 6103 6104 6105 6106 6107 6108 6109 6110 6111 6112 6113 6114 6115 6116 6117 6118 6119 6120 6121 6122 6123 6124 6125 6126 6127 6128 6129 6130 6131 6132 6133 6134 6135 6136 6137 6138 6139 6140 6141 6142 6143 6144 6145 6146 6147 6148 6149 6150 6151 6152 6153 6154 6155 6156 6157 6158 6159 6160 6161 6162 6163 6164 6165 6166 6167 6168 6169 6170 6171 6172 6173 6174 6175 6176 6177 6178 6179 6180 6181 6182 6183 6184 6185 6186 6187 6188 6189 6190 6191 6192 6193 6194 6195 6196 6197 6198 6199 6200 6201 6202 6203 6204 6205 6206 6207 6208 6209 6210 6211 6212 6213 6214 6215 6216 6217 6218 6219 6220 6221 6222 6223 6224 6225 6226 6227 6228 6229 6230 6231 6232 6233 6234 6235 6236 6237 6238 6239 6240 6241 6242 6243 6244 6245 6246 6247 6248 6249 6250 6251 6252 6253 6254 6255 6256 6257 6258 6259 6260 6261 6262 6263 6264 6265 6266 6267 6268 6269 6270 6271 6272 6273 6274 6275 6276 6277 6278 6279 6280 6281 6282 6283 6284 6285 6286 6287 6288 6289 6290 6291 6292 6293 6294 6295 6296 6297 6298 6299 6300 6301 6302 6303 6304 6305 6306 6307 6308 6309 6310 6311 6312 6313 6314 6315 6316 6317 6318 6319 6320 6321 6322 6323 6324 6325 6326 6327 6328 6329 6330 6331 6332 6333 6334 6335 6336 6337 6338 6339 6340 6341 6342 6343 6344 6345 6346 6347 6348 6349 6350 6351 6352 6353 6354 6355 6356 6357 6358 6359 6360 6361 6362 6363 6364 6365 6366 6367 6368 6369 6370 6371 6372 6373 6374 6375 6376 6377 6378 6379 6380 6381 6382 6383 6384 6385 6386 6387 6388 6389 6390 6391 6392 6393 6394 6395 6396 6397 6398 6399 6400 6401 6402 6403 6404 6405 6406 6407 6408 6409 6410 6411 6412 6413 6414 6415 6416 6417 6418 6419 6420 6421 6422 6423 6424 6425 6426 6427 6428 6429 6430 6431 6432 6433 6434 6435 6436 6437 6438 6439 6440 6441 6442 6443 6444 6445 6446 6447 6448 6449 6450 6451 6452 6453 6454 6455 6456 6457 6458 6459 6460 6461 6462 6463 6464 6465 6466 6467 6468 6469 6470 6471 6472 6473 6474 6475 6476 6477 6478 6479 6480 6481 6482 6483 6484 6485 6486 6487 6488 6489 6490 6491 6492 6493 6494 6495 6496 6497 6498 6499 6500 6501 6502 6503 6504 6505 6506 6507 6508 6509 6510 6511 6512 6513 6514 6515 6516 6517 6518 6519 6520 6521 6522 6523 6524 6525 6526 6527 6528 6529 6530 6531 6532 6533 6534 6535 6536 6537 6538 6539 6540 6541 6542 6543 6544 6545 6546 6547 6548 6549 6550 6551 6552 6553 6554 6555 6556 6557 6558 6559 6560 6561 6562 6563 6564 6565 6566 6567 6568 6569 6570 6571 6572 6573 6574 6575 6576 6577 6578 6579 6580 6581 6582 6583 6584 6585 6586 6587 6588 6589 6590 6591 6592 6593 6594 6595 6596 6597 6598 6599 6600 6601 6602 6603 6604 6605 6606 6607 6608 6609 6610 6611 6612 6613 6614 6615 6616 6617 6618 6619 6620 6621 6622 6623 6624 6625 6626 6627 6628 6629 6630 6631 6632 6633 6634 6635 6636 6637 6638 6639 6640 6641 6642 6643 6644 6645 6646 6647 6648 6649 6650 6651 6652 6653 6654 6655 6656 6657 6658 6659 6660 6661 6662 6663 6664 6665 6666 6667 6668 6669 6670 6671 6672 6673 6674 6675 6676 6677 6678 6679 6680 6681 6682 6683 6684 6685 6686 6687 6688 6689 6690 6691 6692 6693 6694 6695 6696 6697 6698 6699 6700 6701 6702 6703 6704 6705 6706 6707 6708 6709 6710 6711 6712 6713 6714 6715 6716 6717 6718 6719 6720 6721 6722 6723 6724 6725 6726 6727 6728 6729 6730 6731 6732 6733 6734 6735 6736 6737 6738 6739 6740 6741 6742 6743 6744 6745 6746 6747 6748 6749 6750 6751 6752 6753 6754 6755 6756 6757 6758 6759 6760 6761 6762 6763 6764 6765 6766 6767 6768 6769 6770 6771 6772 6773 6774 6775 6776 6777 6778 6779 6780 6781 6782 6783 6784 6785 6786 6787 6788 6789 6790 6791 6792 6793 6794 6795 6796 6797 6798 6799 6800 6801 6802 6803 6804 6805 6806 6807 6808 6809 6810 6811 6812 6813 6814 6815 6816 6817 6818 6819 6820 6821 6822 6823 6824 6825 6826 6827 6828 6829 6830 6831 6832 6833 6834 6835 6836 6837 6838 6839 6840 6841 6842 6843 6844 6845 6846 6847 6848 6849 6850 6851 6852 6853 6854 6855 6856 6857 6858 6859 6860 6861 6862 6863 6864 6865 6866 6867 6868 6869 6870 6871 6872 6873 6874 6875 6876 6877 6878 6879 6880 6881 6882 6883 6884 6885 6886 6887 6888 6889 6890 6891 6892 6893 6894 6895 6896 6897 6898 6899 6900 6901 6902 6903 6904 6905 6906 6907 6908 6909 6910 6911 6912 6913 6914 6915 6916 6917 6918 6919 6920 6921 6922 6923 6924 6925 6926 6927 6928 6929 6930 6931 6932 6933 6934 6935 6936 6937 6938 6939 6940 6941 6942 6943 6944 6945 6946 6947 6948 6949 6950 6951 6952 6953 6954 6955 6956 6957 6958 6959 6960 6961 6962 6963 6964 6965 6966 6967 6968 6969 6970 6971 6972 6973 6974 6975 6976 6977 6978 6979 6980 6981 6982 6983 6984 6985 6986 6987 6988 6989 6990 6991 6992 6993 6994 6995 6996 6997 6998 6999 7000 7001 7002 7003 7004 7005 7006 7007 7008 7009 7010 7011 7012 7013 7014 7015 7016 7017 7018 7019 7020 7021 7022 7023 7024 7025 7026 7027 7028 7029 7030 7031 7032 7033 7034 7035 7036 7037 7038 7039 7040 7041 7042 7043 7044 7045 7046 7047 7048 7049 7050 7051 7052 7053 7054 7055 7056 7057 7058 7059 7060 7061 7062 7063 7064 7065 7066 7067 7068 7069 7070 7071 7072 7073 7074 7075 7076 7077 7078 7079 7080 7081 7082 7083 7084 7085 7086 7087 7088 7089 7090 7091 7092 7093 7094 7095 7096 7097 7098 7099 7100 7101 7102 7103 7104 7105 7106 7107 7108 7109 7110 7111 7112 7113 7114 7115 7116 7117 7118 7119 7120 7121 7122 7123 7124 7125 7126 7127 7128 7129 7130 7131 7132 7133 7134 7135 7136 7137 7138 7139 7140 7141 7142 7143 7144 7145 7146 7147 7148 7149 7150 7151 7152 7153 7154 7155 7156 7157 7158 7159 7160 7161 7162 7163 7164 7165 7166 7167 7168 7169 7170 7171 7172 7173 7174 7175 7176 7177 7178 7179 7180 7181 7182 7183 7184 7185 7186 7187 7188 7189 7190 7191 7192 7193 7194 7195 7196 7197 7198 7199 7200 7201 7202 7203 7204 7205 7206 7207 7208 7209 7210 7211 7212 7213 7214 7215 7216 7217 7218 7219 7220 7221 7222 7223 7224 7225 7226 7227 7228 7229 7230 7231 7232 7233 7234 7235 7236 7237 7238 7239 7240 7241 7242 7243 7244 7245 7246 7247 7248 7249 7250 7251 7252 7253 7254 7255 7256 7257 7258 7259 7260 7261 7262 7263 7264 7265 7266 7267 7268 7269 7270 7271 7272 7273 7274 7275 7276 7277 7278 7279 7280 7281 7282 7283 7284 7285 7286 7287 7288 7289 7290 7291 7292 7293 7294 7295 7296 7297 7298 7299 7300 7301 7302 7303 7304 7305 7306 7307 7308 7309 7310 7311 7312 7313 7314 7315 7316 7317 7318 7319 7320 7321 7322 7323 7324 7325 7326 7327 7328 7329 7330 7331 7332 7333 7334 7335 7336 7337 7338 7339 7340 7341 7342 7343 7344 7345 7346 7347 7348 7349 7350 7351 7352 7353 7354 7355 7356 7357 7358 7359 7360 7361 7362 7363 7364 7365 7366 7367 7368 7369 7370 7371 7372 7373 7374 7375 7376 7377 7378 7379 7380 7381 7382 7383 7384 7385 7386 7387 7388 7389 7390 7391 7392 7393 7394 7395 7396 7397 7398 7399 7400 7401 7402 7403 7404 7405 7406 7407 7408 7409 7410 7411 7412 7413 7414 7415 7416 7417 7418 7419 7420 7421 7422 7423 7424 7425 7426 7427 7428 7429 7430 7431 7432 7433 7434 7435 7436 7437 7438 7439 7440 7441 7442 7443 7444 7445 7446 7447 7448 7449 7450 7451 7452 7453 7454 7455 7456 7457 7458 7459 7460 7461 7462 7463 7464 7465 7466 7467 7468 7469 7470 7471 7472 7473 7474 7475 7476 7477 7478 7479 7480 7481 7482 7483 7484 7485 7486 7487 7488 7489 7490 7491 7492 7493 7494 7495 7496 7497 7498 7499 7500 7501 7502 7503 7504 7505 7506 7507 7508 7509 7510 7511 7512 7513 7514 7515 7516 7517 7518 7519 7520 7521 7522 7523 7524 7525 7526 7527 7528 7529 7530 7531 7532 7533 7534 7535 7536 7537 7538 7539 7540 7541 7542 7543 7544 7545 7546 7547 7548 7549 7550 7551 7552 7553 7554 7555 7556 7557 7558 7559 7560 7561 7562 7563 7564 7565 7566 7567 7568 7569 7570 7571 7572 7573 7574 7575 7576 7577 7578 7579 7580 7581 7582 7583 7584 7585 7586 7587 7588 7589 7590 7591 7592 7593 7594 7595 7596 7597 7598 7599 7600 7601 7602 7603 7604 7605 7606 7607 7608 7609 7610 7611 7612 7613 7614 7615 7616 7617 7618 7619 7620 7621 7622 7623 7624 7625 7626 7627 7628 7629 7630 7631 7632 7633 7634 7635 7636 7637 7638 7639 7640 7641 7642 7643 7644 7645 7646 7647 7648 7649 7650 7651 7652 7653 7654 7655 7656 7657 7658 7659 7660 7661 7662 7663 7664 7665 7666 7667 7668 7669 7670 7671 7672 7673 7674 7675 7676 7677 7678 7679 7680 7681 7682 7683 7684 7685 7686 7687 7688 7689 7690 7691 7692 7693 7694 7695 7696 7697 7698 7699 7700 7701 7702 7703 7704 7705 7706 7707 7708 7709 7710 7711 7712 7713 7714 7715 7716 7717 7718 7719 7720 7721 7722 7723 7724 7725 7726 7727 7728 7729 7730 7731 7732 7733 7734 7735 7736 7737 7738 7739 7740 7741 7742 7743 7744 7745 7746 7747 7748 7749 7750 7751 7752 7753 7754 7755 7756 7757 7758 7759 7760 7761 7762 7763 7764 7765 7766 7767 7768 7769 7770 7771 7772 7773 7774 7775 7776 7777 7778 7779 7780 7781 7782 7783 7784 7785 7786 7787 7788 7789 7790 7791 7792 7793 7794 7795 7796 7797 7798 7799 7800 7801 7802 7803 7804 7805 7806 7807 7808 7809 7810 7811 7812 7813 7814 7815 7816 7817 7818 7819 7820 7821 7822 7823 7824 7825 7826 7827 7828 7829 7830 7831 7832 7833 7834 7835 7836 7837 7838 7839 7840 7841 7842 7843 7844 7845 7846 7847 7848 7849 7850 7851 7852 7853 7854 7855 7856 7857 7858 7859 7860 7861 7862 7863 7864 7865 7866 7867 7868 7869 7870 7871 7872 7873 7874 7875 7876 7877 7878 7879 7880 7881 7882 7883 7884 7885 7886 7887 7888 7889 7890 7891 7892 7893 7894 7895 7896 7897 7898 7899 7900 7901 7902 7903 7904 7905 7906 7907 7908 7909 7910 7911 7912 7913 7914 7915 7916 7917 7918 7919 7920 7921 7922 7923 7924 7925 7926 7927 7928 7929 7930 7931 7932 7933 7934 7935 7936 7937 7938 7939 7940 7941 7942 7943 7944 7945 7946 7947 7948 7949 7950 7951 7952 7953 7954 7955 7956 7957 7958 7959 7960 7961 7962 7963 7964 7965 7966 7967 7968 7969 7970 7971 7972 7973 7974 7975 7976 7977 7978 7979 7980 7981 7982 7983 7984 7985 7986 7987 7988 7989 7990 7991 7992 7993 7994 7995 7996 7997 7998 7999 8000 8001 8002 8003 8004 8005 8006 8007 8008 8009 8010 8011 8012 8013 8014 8015 8016 8017 8018 8019 8020 8021 8022 8023 8024 8025 8026 8027 8028 8029 8030 8031 8032 8033 8034 8035 8036 8037 8038 8039 8040 8041 8042 8043 8044 8045 8046 8047 8048 8049 8050 8051 8052 8053 8054 8055 8056 8057 8058 8059 8060 8061 8062 8063 8064 8065 8066 8067 8068 8069 8070 8071 8072 8073 8074 8075 8076 8077 8078 8079 8080 8081 8082 8083 8084 8085 8086 8087 8088 8089 8090 8091 8092 8093 8094 8095 8096 8097 8098 8099 8100 8101 8102 8103 8104 8105 8106 8107 8108 8109 8110 8111 8112 8113 8114 8115 8116 8117 8118 8119 8120 8121 8122 8123 8124 8125 8126 8127 8128 8129 8130 8131 8132 8133 8134 8135 8136 8137 8138 8139 8140 8141 8142 8143 8144 8145 8146 8147 8148 8149 8150 8151 8152 8153 8154 8155 8156 8157 8158 8159 8160 8161 8162 8163 8164 8165 8166 8167 8168 8169 8170 8171 8172 8173 8174 8175 8176 8177 8178 8179 8180 8181 8182 8183 8184 8185 8186 8187 8188 8189 8190 8191 8192 8193 8194 8195 8196 8197 8198 8199 8200 8201 8202 8203 8204 8205 8206 8207 8208 8209 8210 8211 8212 8213 8214 8215 8216 8217 8218 8219 8220 8221 8222 8223 8224 8225 8226 8227 8228 8229 8230 8231 8232 8233 8234 8235 8236 8237 8238 8239 8240 8241 8242 8243 8244 8245 8246 8247 8248 8249 8250 8251 8252 8253 8254 8255 8256 8257 8258 8259 8260 8261 8262 8263 8264 8265 8266 8267 8268 8269 8270 8271 8272 8273 8274 8275 8276 8277 8278 8279 8280 8281 8282 8283 8284 8285 8286 8287 8288 8289 8290 8291 8292 8293 8294 8295 8296 8297 8298 8299 8300 8301 8302 8303 8304 8305 8306 8307 8308 8309 8310 8311 8312 8313 8314 8315 8316 8317 8318 8319 8320 8321 8322 8323 8324 8325 8326 8327 8328 8329 8330 8331 8332 8333 8334 8335 8336 8337 8338 8339 8340 8341 8342 8343 8344 8345 8346 8347 8348 8349 8350 8351 8352 8353 8354 8355 8356 8357 8358 8359 8360 8361 8362 8363 8364 8365 8366 8367 8368 8369 8370 8371 8372 8373 8374 8375 8376 8377 8378 8379 8380 8381 8382 8383 8384 8385 8386 8387 8388 8389 8390 8391 8392 8393 8394 8395 8396 8397 8398 8399 8400 8401 8402 8403 8404 8405 8406 8407 8408 8409 8410 8411 8412 8413 8414 8415 8416 8417 8418 8419 8420 8421 8422 8423 8424 8425 8426 8427 8428 8429 8430 8431 8432 8433 8434 8435 8436 8437 8438 8439 8440 8441 8442 8443 8444 8445 8446 8447 8448 8449 8450 8451 8452 8453 8454 8455 8456 8457 8458 8459 8460 8461 8462 8463 8464 8465 8466 8467 8468 8469 8470 8471 8472 8473 8474 8475 8476 8477 8478 8479 8480 8481 8482 8483 8484 8485 8486 8487 8488 8489 8490 8491 8492 8493 8494 8495 8496 8497 8498 8499 8500 8501 8502 8503 8504 8505 8506 8507 8508 8509 8510 8511 8512 8513 8514 8515 8516 8517 8518 8519 8520 8521 8522 8523 8524 8525 8526 8527 8528 8529 8530 8531 8532 8533 8534 8535 8536 8537 8538 8539 8540 8541 8542 8543 8544 8545 8546 8547 8548 8549 8550 8551 8552 8553 8554 8555 8556 8557 8558 8559 8560 8561 8562 8563 8564 8565 8566 8567 8568 8569 8570 8571 8572 8573 8574 8575 8576 8577 8578 8579 8580 8581 8582 8583 8584 8585 8586 8587 8588 8589 8590 8591 8592 8593 8594 8595 8596 8597 8598 8599 8600 8601 8602 8603 8604 8605 8606 8607 8608 8609 8610 8611 8612 8613 8614 8615 8616 8617 8618 8619 8620 8621 8622 8623 8624 8625 8626 8627 8628 8629 8630 8631 8632 8633 8634 8635 8636 8637 8638 8639 8640 8641 8642 8643 8644 8645 8646 8647 8648 8649 8650 8651 8652 8653 8654 8655 8656 8657 8658 8659 8660 8661 8662 8663 8664 8665 8666 8667 8668 8669 8670 8671 8672 8673 8674 8675 8676 8677 8678 8679 8680 8681 8682 8683 8684 8685 8686 8687 8688 8689 8690 8691 8692 8693 8694 8695 8696 8697 8698 8699 8700 8701 8702 8703 8704 8705 8706 8707 8708 8709 8710 8711 8712 8713 8714 8715 8716 8717 8718 8719 8720 8721 8722 8723 8724 8725 8726 8727 8728 8729 8730 8731 8732 8733 8734 8735 8736 8737 8738 8739 8740 8741 8742 8743 8744 8745 8746 8747 8748 8749 8750 8751 8752 8753 8754 8755 8756 8757 8758 8759 8760 8761 8762 8763 8764 8765 8766 8767 8768 8769 8770 8771 8772 8773 8774 8775 8776 8777 8778 8779 8780 8781 8782 8783 8784 8785 8786 8787 8788 8789 8790 8791 8792 8793 8794 8795 8796 8797 8798 8799 8800 8801 8802 8803 8804 8805 8806 8807 8808 8809 8810 8811 8812 8813 8814 8815 8816 8817 8818 8819 8820 8821 8822 8823 8824 8825 8826 8827 8828 8829 8830 8831 8832 8833 8834 8835 8836 8837 8838 8839 8840 8841 8842 8843 8844 8845 8846 8847 8848 8849 8850 8851 8852 8853 8854 8855 8856 8857 8858 8859 8860 8861 8862 8863 8864 8865 8866 8867 8868 8869 8870 8871 8872 8873 8874 8875 8876 8877 8878 8879 8880 8881 8882 8883 8884 8885 8886 8887 8888 8889 8890 8891 8892 8893 8894 8895 8896 8897 8898 8899 8900 8901 8902 8903 8904 8905 8906 8907 8908 8909 8910 8911 8912 8913 8914 8915 8916 8917 8918 8919 8920 8921 8922 8923 8924 8925 8926 8927 8928 8929 8930 8931 8932 8933 8934 8935 8936 8937 8938 8939 8940 8941 8942 8943 8944 8945 8946 8947 8948 8949 8950 8951 8952 8953 8954 8955 8956 8957 8958 8959 8960 8961 8962 8963 8964 8965 8966 8967 8968 8969 8970 8971 8972 8973 8974 8975 8976 8977 8978 8979 8980 8981 8982 8983 8984 8985 8986 8987 8988 8989 8990 8991 8992 8993 8994 8995 8996 8997 8998 8999 9000 9001 9002 9003 9004 9005 9006 9007 9008 9009 9010 9011 9012 9013 9014 9015 9016 9017 9018 9019 9020 9021 9022 9023 9024 9025 9026 9027 9028 9029 9030 9031 9032 9033 9034 9035 9036 9037 9038 9039 9040 9041 9042 9043 9044 9045 9046 9047 9048 9049 9050 9051 9052 9053 9054 9055 9056 9057 9058 9059 9060 9061 9062 9063 9064 9065 9066 9067 9068 9069 9070 9071 9072 9073 9074 9075 9076 9077 9078 9079 9080 9081 9082 9083 9084 9085 9086 9087 9088 9089 9090 9091 9092 9093 9094 9095 9096 9097 9098 9099 9100 9101 9102 9103 9104 9105 9106 9107 9108 9109 9110 9111 9112 9113 9114 9115 9116 9117 9118 9119 9120 9121 9122 9123 9124 9125 9126 9127 9128 9129 9130 9131 9132 9133 9134 9135 9136 9137 9138 9139 9140 9141 9142 9143 9144 9145 9146 9147 9148 9149 9150 9151 9152 9153 9154 9155 9156 9157 9158 9159 9160 9161 9162 9163 9164 9165 9166 9167 9168 9169 9170 9171 9172 9173 9174 9175 9176 9177 9178 9179 9180 9181 9182 9183 9184 9185 9186 9187 9188 9189 9190 9191 9192 9193 9194 9195 9196 9197 9198 9199 9200 9201 9202 9203 9204 9205 9206 9207 9208 9209 9210 9211 9212 9213 9214 9215 9216 9217 9218 9219 9220 9221 9222 9223 9224 9225 9226 9227 9228 9229 9230 9231 9232 9233 9234 9235 9236 9237 9238 9239 9240 9241 9242 9243 9244 9245 9246 9247 9248 9249 9250 9251 9252 9253 9254 9255 9256 9257 9258 9259 9260 9261 9262 9263 9264 9265 9266 9267 9268 9269 9270 9271 9272 9273 9274 9275 9276 9277 9278 9279 9280 9281 9282 9283 9284 9285 9286 9287 9288 9289 9290 9291 9292 9293 9294 9295 9296 9297 9298 9299 9300 9301 9302 9303 9304 9305 9306 9307 9308 9309 9310 9311 9312 9313 9314 9315 9316 9317 9318 9319 9320 9321 9322 9323 9324 9325 9326 9327 9328 9329 9330 9331 9332 9333 9334 9335 9336 9337 9338 9339 9340 9341 9342 9343 9344 9345 9346 9347 9348 9349 9350 9351 9352 9353 9354 9355 9356 9357 9358 9359 9360 9361 9362 9363 9364 9365 9366 9367 9368 9369 9370 9371 9372 9373 9374 9375 9376 9377 9378 9379 9380 9381 9382 9383 9384 9385 9386 9387 9388 9389 9390 9391 9392 9393 9394 9395 9396 9397 9398 9399 9400 9401 9402 9403 9404 9405 9406 9407 9408 9409 9410 9411 9412 9413 9414 9415 9416 9417 9418 9419 9420 9421 9422 9423 9424 9425 9426 9427 9428 9429 9430 9431 9432 9433 9434 9435 9436 9437 9438 9439 9440 9441 9442 9443 9444 9445 9446 9447 9448 9449 9450 9451 9452 9453 9454 9455 9456 9457 9458 9459 9460 9461 9462 9463 9464 9465 9466 9467 9468 9469 9470 9471 9472 9473 9474 9475 9476 9477 9478 9479 9480 9481 9482 9483 9484 9485 9486 9487 9488 9489 9490 9491 9492 9493 9494 9495 9496 9497 9498 9499 9500 9501 9502 9503 9504 9505 9506 9507 9508 9509 9510 9511 9512 9513 9514 9515 9516 9517 9518 9519 9520 9521 9522 9523 9524 9525 9526 9527 9528 9529 9530 9531 9532 9533 9534 9535 9536 9537 9538 9539 9540 9541 9542 9543 9544 9545 9546 9547 9548 9549 9550 9551 9552 9553 9554 9555 9556 9557 9558 9559 9560 9561 9562 9563 9564 9565 9566 9567 9568 9569 9570 9571 9572 9573 9574 9575 9576 9577 9578 9579 9580 9581 9582 9583 9584 9585 9586 9587 9588 9589 9590 9591 9592 9593 9594 9595 9596 9597 9598 9599 9600 9601 9602 9603 9604 9605 9606 9607 9608 9609 9610 9611 9612 9613 9614 9615 9616 9617 9618 9619 9620 9621 9622 9623 9624 9625 9626 9627 9628 9629 9630 9631 9632 9633 9634 9635 9636 9637 9638 9639 9640 9641 9642 9643 9644 9645 9646 9647 9648 9649 9650 9651 9652 9653 9654 9655 9656 9657 9658 9659 9660 9661 9662 9663 9664 9665 9666 9667 9668 9669 9670 9671 9672 9673 9674 9675 9676 9677 9678 9679 9680 9681 9682 9683 9684 9685 9686 9687 9688 9689 9690 9691 9692 9693 9694 9695 9696 9697 9698 9699 9700 9701 9702 9703 9704 9705 9706 9707 9708 9709 9710 9711 9712 9713 9714 9715 9716 9717 9718 9719 9720 9721 9722 9723 9724 9725 9726 9727 9728 9729 9730 9731 9732 9733 9734 9735 9736 9737 9738 9739 9740 9741 9742 9743 9744 9745 9746 9747 9748 9749 9750 9751 9752 9753 9754 9755 9756 9757 9758 9759 9760 9761 9762 9763 9764 9765 9766 9767 9768 9769 9770 9771 9772 9773 9774 9775 9776 9777 9778 9779 9780 9781 9782 9783 9784 9785 9786 9787 9788 9789 9790 9791 9792 9793 9794 9795 9796 9797 9798 9799 9800 9801 9802 9803 9804 9805 9806 9807 9808 9809 9810 9811 9812 9813 9814 9815 9816 9817 9818 9819 9820 9821 9822 9823 9824 9825 9826 9827 9828 9829 9830 9831 9832 9833 9834 9835 9836 9837 9838 9839 9840 9841 9842 9843 9844 9845 9846 9847 9848 9849 9850 9851 9852 9853 9854 9855 9856 9857 9858 9859 9860 9861 9862 9863 9864 9865 9866 9867 9868 9869 9870 9871 9872 9873 9874 9875 9876 9877 9878 9879 9880 9881 9882 9883 9884 9885 9886 9887 9888 9889 9890 9891 9892 9893 9894 9895 9896 9897 9898 9899 9900 9901 9902 9903 9904 9905 9906 9907 9908 9909 9910 9911 9912 9913 9914 9915 9916 9917 9918 9919 9920 9921 9922 9923 9924 9925 9926 9927 9928 9929 9930 9931 9932 9933 9934 9935 9936 9937 9938 9939 9940 9941 9942 9943 9944 9945 9946 9947 9948 9949 9950 9951 9952 9953 9954 9955 9956 9957 9958 9959 9960 9961 9962 9963 9964 9965 9966 9967 9968 9969 9970 9971 9972 9973 9974 9975 9976 9977 9978 9979 9980 9981 9982 9983 9984 9985 9986 9987 9988 9989 9990 9991 9992 9993 9994 9995 9996 9997 9998 9999 10000 10001 10002 10003 10004 10005 10006 10007 10008 10009 10010 10011 10012 10013 10014 10015 10016 10017 10018 10019 10020 10021 10022 10023 10024 10025 10026 10027 10028 10029 10030 10031 10032 10033 10034 10035 10036 10037 10038 10039 10040 10041 10042 10043 10044 10045 10046 10047 10048 10049 10050 10051 10052 10053 10054 10055 10056 10057 10058 10059 10060 10061 10062 10063 10064 10065 10066 10067 10068 10069 10070 10071 10072 10073 10074 10075 10076 10077 10078 10079 10080 10081 10082 10083 10084 10085 10086 10087 10088 10089 10090 10091 10092 10093 10094 10095 10096 10097 10098 10099 10100 10101 10102 10103 10104 10105 10106 10107 10108 10109 10110 10111 10112 10113 10114 10115 10116 10117 10118 10119 10120 10121 10122 10123 10124 10125 10126 10127 10128 10129 10130 10131 10132 10133 10134 10135 10136 10137 10138 10139 10140 10141 10142 10143 10144 10145 10146 10147 10148 10149 10150 10151 10152 10153 10154 10155 10156 10157 10158 10159 10160 10161 10162 10163 10164 10165 10166 10167 10168 10169 10170 10171 10172 10173 10174 10175 10176 10177 10178 10179 10180 10181 10182 10183 10184 10185 10186 10187 10188 10189 10190 10191 10192 10193 10194 10195 10196 10197 10198 10199 10200 10201 10202 10203 10204 10205 10206 10207 10208 10209 10210 10211 10212 10213 10214 10215 10216 10217 10218 10219 10220 10221 10222 10223 10224 10225 10226 10227 10228 10229 10230 10231 10232 10233 10234 10235 10236 10237 10238 10239 10240 10241 10242 10243 10244 10245 10246 10247 10248 10249 10250 10251 10252 10253 10254 10255 10256 10257 10258 10259 10260 10261 10262 10263 10264 10265 10266 10267 10268 10269 10270 10271 10272 10273 10274 10275 10276 10277 10278 10279 10280 10281 10282 10283 10284 10285 10286 10287 10288 10289 10290 10291 10292 10293 10294 10295 10296 10297 10298 10299 10300 10301 10302 10303 10304 10305 10306 10307 10308 10309 10310 10311 10312 10313 10314 10315 10316 10317 10318 10319 10320 10321 10322 10323 10324 10325 10326 10327 10328 10329 10330 10331 10332 10333 10334 10335 10336 10337 10338 10339 10340 10341 10342 10343 10344 10345 10346 10347 10348 10349 10350 10351 10352 10353 10354 10355 10356 10357 10358 10359 10360 10361 10362 10363 10364 10365 10366 10367 10368 10369 10370 10371 10372 10373 10374 10375 10376 10377 10378 10379 10380 10381 10382 10383 10384 10385 10386 10387 10388 10389 10390 10391 10392 10393 10394 10395 10396 10397 10398 10399 10400 10401 10402 10403 10404 10405 10406 10407 10408 10409 10410 10411 10412 10413 10414 10415 10416 10417 10418 10419 10420 10421 10422 10423 10424 10425 10426 10427 10428 10429 10430 10431 10432 10433 10434 10435 10436 10437 10438 10439 10440 10441 10442 10443 10444 10445 10446 10447 10448 10449 10450 10451 10452 10453 10454 10455 10456 10457 10458 10459 10460 10461 10462 10463 10464 10465 10466 10467 10468 10469 10470 10471 10472 10473 10474 10475 10476 10477 10478 10479 10480 10481 10482 10483 10484 10485 10486 10487 10488 10489 10490 10491 10492 10493 10494 10495 10496 10497 10498 10499 10500 10501 10502 10503 10504 10505 10506 10507 10508 10509 10510 10511 10512 10513 10514 10515 10516 10517 10518 10519 10520 10521 10522 10523 10524 10525 10526 10527 10528 10529 10530 10531 10532 10533 10534 10535 10536 10537 10538 10539 10540 10541 10542 10543 10544 10545 10546 10547 10548 10549 10550 10551 10552 10553 10554 10555 10556 10557 10558 10559 10560 10561 10562 10563 10564 10565 10566 10567 10568 10569 10570 10571 10572 10573 10574 10575 10576 10577 10578 10579 10580 10581 10582 10583 10584 10585 10586 10587 10588 10589 10590 10591 10592 10593 10594 10595 10596 10597 10598 10599 10600 10601 10602 10603 10604 10605 10606 10607 10608 10609 10610 10611 10612 10613 10614 10615 10616 10617 10618 10619 10620 10621 10622 10623 10624 10625 10626 10627 10628 10629 10630 10631 10632 10633 10634 10635 10636 10637 10638 10639 10640 10641 10642 10643 10644 10645 10646 10647 10648 10649 10650 10651 10652 10653 10654 10655 10656 10657 10658 10659 10660 10661 10662 10663 10664 10665 10666 10667 10668 10669 10670 10671 10672 10673 10674 10675 10676 10677 10678 10679 10680 10681 10682 10683 10684 10685 10686 10687 10688 10689 10690 10691 10692 10693 10694 10695 10696 10697 10698 10699 10700 10701 10702 10703 10704 10705 10706 10707 10708 10709 10710 10711 10712 10713 10714 10715 10716 10717 10718 10719 10720 10721 10722 10723 10724 10725 10726 10727 10728 10729 10730 10731 10732 10733 10734 10735 10736 10737 10738 10739 10740 10741 10742 10743 10744 10745 10746 10747 10748 10749 10750 10751 10752 10753 10754 10755 10756 10757 10758 10759 10760 10761 10762 10763 10764 10765 10766 10767 10768 10769 10770 10771 10772 10773 10774 10775 10776 10777 10778 10779 10780 10781 10782 10783 10784 10785 10786 10787 10788 10789 10790 10791 10792 10793 10794 10795 10796 10797 10798 10799 10800 10801 10802 10803 10804 10805 10806 10807 10808 10809 10810 10811 10812 10813 10814 10815 10816 10817 10818 10819 10820 10821 10822 10823 10824 10825 10826 10827 10828 10829 10830 10831 10832 10833 10834 10835 10836 10837 10838 10839 10840 10841 10842 10843 10844 10845 10846 10847 10848 10849 10850 10851 10852 10853 10854 10855 10856 10857 10858 10859 10860 10861 10862 10863 10864 10865 10866 10867 10868 10869 10870 10871 10872 10873 10874 10875 10876 10877 10878 10879 10880 10881 10882 10883 10884 10885 10886 10887 10888 10889 10890 10891 10892 10893 10894 10895 10896 10897 10898 10899 10900 10901 10902 10903 10904 10905 10906 10907 10908 10909 10910 10911 10912 10913 10914 10915 10916 10917 10918 10919 10920 10921 10922 10923 10924 10925 10926 10927 10928 10929 10930 10931 10932 10933 10934 10935 10936 10937 10938 10939 10940 10941 10942 10943 10944 10945 10946 10947 10948 10949 10950 10951 10952 10953 10954 10955 10956 10957 10958 10959 10960 10961 10962 10963 10964 10965 10966 10967 10968 10969 10970 10971 10972 10973 10974 10975 10976 10977 10978 10979 10980 10981 10982 10983 10984 10985 10986 10987 10988 10989 10990 10991 10992 10993 10994 10995 10996 10997 10998 10999 11000 11001 11002 11003 11004 11005 11006 11007 11008 11009 11010 11011 11012 11013 11014 11015 11016 11017 11018 11019 11020 11021 11022 11023 11024 11025 11026 11027 11028 11029 11030 11031 11032 11033 11034 11035 11036 11037 11038 11039 11040 11041 11042 11043 11044 11045 11046 11047 11048 11049 11050 11051 11052 11053 11054 11055 11056 11057 11058 11059 11060 11061 11062 11063 11064 11065 11066 11067 11068 11069 11070 11071 11072 11073 11074 11075 11076 11077 11078 11079 11080 11081 11082 11083 11084 11085 11086 11087 11088 11089 11090 11091 11092 11093 11094 11095 11096 11097 11098 11099 11100 11101 11102 11103 11104 11105 11106 11107 11108 11109 11110 11111 11112 11113 11114 11115 11116 11117 11118 11119 11120 11121 11122 11123 11124 11125 11126 11127 11128 11129 11130 11131 11132 11133 11134 11135 11136 11137 11138 11139 11140 11141 11142 11143 11144 11145 11146 11147 11148 11149 11150 11151 11152 11153 11154 11155 11156 11157 11158 11159 11160 11161 11162 11163 11164 11165 11166 11167 11168 11169 11170 11171 11172 11173 11174 11175 11176 11177 11178 11179 11180 11181 11182 11183 11184 11185 11186 11187 11188 11189 11190 11191 11192 11193 11194 11195 11196 11197 11198 11199 11200 11201 11202 11203 11204 11205 11206 11207 11208 11209 11210 11211 11212 11213 11214 11215 11216 11217 11218 11219 11220 11221 11222 11223 11224 11225 11226 11227 11228 11229 11230 11231 11232 11233 11234 11235 11236 11237 11238 11239 11240 11241 11242 11243 11244 11245 11246 11247 11248 11249 11250 11251 11252 11253 11254 11255 11256 11257 11258 11259 11260 11261 11262 11263 11264 11265 11266 11267 11268 11269 11270 11271 11272 11273 11274 11275 11276 11277 11278 11279 11280 11281 11282 11283 11284 11285 11286 11287 11288 11289 11290 11291 11292 11293 11294 11295 11296 11297 11298 11299 11300 11301 11302 11303 11304 11305 11306 11307 11308 11309 11310 11311 11312 11313 11314 11315 11316 11317 11318 11319 11320 11321 11322 11323 11324 11325 11326 11327 11328 11329 11330 11331 11332 11333 11334 11335 11336 11337 11338 11339 11340 11341 11342 11343 11344 11345 11346 11347 11348 11349 11350 11351 11352 11353 11354 11355 11356 11357 11358 11359 11360 11361 11362 11363 11364 11365 11366 11367 11368 11369 11370 11371 11372 11373 11374 11375 11376 11377 11378 11379 11380 11381 11382 11383 11384 11385 11386 11387 11388 11389 11390 11391 11392 11393 11394 11395 11396 11397 11398 11399 11400 11401 11402 11403 11404 11405 11406 11407 11408 11409 11410 11411 11412 11413 11414 11415 11416 11417 11418 11419 11420 11421 11422 11423 11424 11425 11426 11427 11428 11429 11430 11431 11432 11433 11434 11435 11436 11437 11438 11439 11440 11441 11442 11443 11444 11445 11446 11447 11448 11449 11450 11451 11452 11453 11454 11455 11456 11457 11458 11459 11460 11461 11462 11463 11464 11465 11466 11467 11468 11469 11470 11471 11472 11473 11474 11475 11476 11477 11478 11479 11480 11481 11482 11483 11484 11485 11486 11487 11488 11489 11490 11491 11492 11493 11494 11495 11496 11497 11498 11499 11500 11501 11502 11503 11504 11505 11506 11507 11508 11509 11510 11511 11512 11513 11514 11515 11516 11517 11518 11519 11520 11521 11522 11523 11524 11525 11526 11527 11528 11529 11530 11531 11532 11533 11534 11535 11536 11537 11538 11539 11540 11541 11542 11543 11544 11545 11546 11547 11548 11549 11550 11551 11552 11553 11554 11555 11556 11557 11558 11559 11560 11561 11562 11563 11564 11565 11566 11567 11568 11569 11570 11571 11572 11573 11574 11575 11576 11577 11578 11579 11580 11581 11582 11583 11584 11585 11586 11587 11588 11589 11590 11591 11592 11593 11594 11595 11596 11597 11598 11599 11600 11601 11602 11603 11604 11605 11606 11607 11608 11609 11610 11611 11612 11613 11614 11615 11616 11617 11618 11619 11620 11621 11622 11623 11624 11625 11626 11627 11628 11629 11630 11631 11632 11633 11634 11635 11636 11637 11638 11639 11640 11641 11642 11643 11644 11645 11646 11647 11648 11649 11650 11651 11652 11653 11654 11655 11656 11657 11658 11659 11660 11661 11662 11663 11664 11665 11666 11667 11668 11669 11670 11671 11672 11673 11674 11675 11676 11677 11678 11679 11680 11681 11682 11683 11684 11685 11686 11687 11688 11689 11690 11691 11692 11693 11694 11695 11696 11697 11698 11699 11700 11701 11702 11703 11704 11705 11706 11707 11708 11709 11710 11711 11712 11713 11714 11715 11716 11717 11718 11719 11720 11721 11722 11723 11724 11725 11726 11727 11728 11729 11730 11731 11732 11733 11734 11735 11736 11737 11738 11739 11740 11741 11742 11743 11744 11745 11746 11747 11748 11749 11750 11751 11752 11753 11754 11755 11756 11757 11758 11759 11760 11761 11762 11763 11764 11765 11766 11767 11768 11769 11770 11771 11772 11773 11774 11775 11776 11777 11778 11779 11780 11781 11782 11783 11784 11785 11786 11787 11788 11789 11790 11791 11792 11793 11794 11795 11796 11797 11798 11799 11800 11801 11802 11803 11804 11805 11806 11807 11808 11809 11810 11811 11812 11813 11814 11815 11816 11817 11818 11819 11820 11821 11822 11823 11824 11825 11826 11827 11828 11829 11830 11831 11832 11833 11834 11835 11836 11837 11838 11839 11840 11841 11842 11843 11844 11845 11846 11847 11848 11849 11850 11851 11852 11853 11854 11855 11856 11857 11858 11859 11860 11861 11862 11863 11864 11865 11866 11867 11868 11869 11870 11871 11872 11873 11874 11875 11876 11877 11878 11879 11880 11881 11882 11883 11884 11885 11886 11887 11888 11889 11890 11891 11892 11893 11894 11895 11896 11897 11898 11899 11900 11901 11902 11903 11904 11905 11906 11907 11908 11909 11910 11911 11912 11913 11914 11915 11916 11917 11918 11919 11920 11921 11922 11923 11924 11925 11926 11927 11928 11929 11930 11931 11932 11933 11934 11935 11936 11937 11938 11939 11940 11941 11942 11943 11944 11945 11946 11947 11948 11949 11950 11951 11952 11953 11954 11955 11956 11957 11958 11959 11960 11961 11962 11963 11964 11965 11966 11967 11968 11969 11970 11971 11972 11973 11974 11975 11976 11977 11978 11979 11980 11981 11982 11983 11984 11985 11986 11987 11988 11989 11990 11991 11992 11993 11994 11995 11996 11997 11998 11999 12000 12001 12002 12003 12004 12005 12006 12007 12008 12009 12010 12011 12012 12013 12014 12015 12016 12017 12018 12019 12020 12021 12022 12023 12024 12025 12026 12027 12028 12029 12030 12031 12032 12033 12034 12035 12036 12037 12038 12039 12040 12041 12042 12043 12044 12045 12046 12047 12048 12049 12050 12051 12052 12053 12054 12055 12056 12057 12058 12059 12060 12061 12062 12063 12064 12065 12066 12067 12068 12069 12070 12071 12072 12073 12074 12075 12076 12077 12078 12079 12080 12081 12082 12083 12084 12085 12086 12087 12088 12089 12090 12091 12092 12093 12094 12095 12096 12097 12098 12099 12100 12101 12102 12103 12104 12105 12106 12107 12108 12109 12110 12111 12112 12113 12114 12115 12116 12117 12118 12119 12120 12121 12122 12123 12124 12125 12126 12127 12128 12129 12130 12131 12132 12133 12134 12135 12136 12137 12138 12139 12140 12141 12142 12143 12144 12145 12146 12147 12148 12149 12150 12151 12152 12153 12154 12155 12156 12157 12158 12159 12160 12161 12162 12163 12164 12165 12166 12167 12168 12169 12170 12171 12172 12173 12174 12175 12176 12177 12178 12179 12180 12181 12182 12183 12184 12185 12186 12187 12188 12189 12190 12191 12192 12193 12194 12195 12196 12197 12198 12199 12200 12201 12202 12203 12204 12205 12206 12207 12208 12209 12210 12211 12212 12213 12214 12215 12216 12217 12218 12219 12220 12221 12222 12223 12224 12225 12226 12227 12228 12229 12230 12231 12232 12233 12234 12235 12236 12237 12238 12239 12240 12241 12242 12243 12244 12245 12246 12247 12248 12249 12250 12251 12252 12253 12254 12255 12256 12257 12258 12259 12260 12261 12262 12263 12264 12265 12266 12267 12268 12269 12270 12271 12272 12273 12274 12275 12276 12277 12278 12279 12280 12281 12282 12283 12284 12285 12286 12287 12288 12289 12290 12291 12292 12293 12294 12295 12296 12297 12298 12299 12300 12301 12302 12303 12304 12305 12306 12307 12308 12309 12310 12311 12312 12313 12314 12315 12316 12317 12318 12319 12320 12321 12322 12323 12324 12325 12326 12327 12328 12329 12330 12331 12332 12333 12334 12335 12336 12337 12338 12339 12340 12341 12342 12343 12344 12345 12346 12347 12348 12349 12350 12351 12352 12353 12354 12355 12356 12357 12358 12359 12360 12361 12362 12363 12364 12365 12366 12367 12368 12369 12370 12371 12372 12373 12374 12375 12376 12377 12378 12379 12380 12381 12382 12383 12384 12385 12386 12387 12388 12389 12390 12391 12392 12393 12394 12395 12396 12397 12398 12399 12400 12401 12402 12403 12404 12405 12406 12407 12408 12409 12410 12411 12412 12413 12414 12415 12416 12417 12418 12419 12420 12421 12422 12423 12424 12425 12426 12427 12428 12429 12430 12431 12432 12433 12434 12435 12436 12437 12438 12439 12440 12441 12442 12443 12444 12445 12446 12447 12448 12449 12450 12451 12452 12453 12454 12455 12456 12457 12458 12459 12460 12461 12462 12463 12464 12465 12466 12467 12468 12469 12470 12471 12472 12473 12474 12475 12476 12477 12478 12479 12480 12481 12482 12483 12484 12485 12486 12487 12488 12489 12490 12491 12492 12493 12494 12495 12496 12497 12498 12499 12500 12501 12502 12503 12504 12505 12506 12507 12508 12509 12510 12511 12512 12513 12514 12515 12516 12517 12518 12519 12520 12521 12522 12523 12524 12525 12526 12527 12528 12529 12530 12531 12532 12533 12534 12535 12536 12537 12538 12539 12540 12541 12542 12543 12544 12545 12546 12547 12548 12549 12550 12551 12552 12553 12554 12555 12556 12557 12558 12559 12560 12561 12562 12563 12564 12565 12566 12567 12568 12569 12570 12571 12572 12573 12574 12575 12576 12577 12578 12579 12580 12581 12582 12583 12584 12585 12586 12587 12588 12589 12590 12591 12592 12593 12594 12595 12596 12597 12598 12599 12600 12601 12602 12603 12604 12605 12606 12607 12608 12609 12610 12611 12612 12613 12614 12615 12616 12617 12618 12619 12620 12621 12622 12623 12624 12625 12626 12627 12628 12629 12630 12631 12632 12633 12634 12635 12636 12637 12638 12639 12640 12641 12642 12643 12644 12645 12646 12647 12648 12649 12650 12651 12652 12653 12654 12655 12656 12657 12658 12659 12660 12661 12662 12663 12664 12665 12666 12667 12668 12669 12670 12671 12672 12673 12674 12675 12676 12677 12678 12679 12680 12681 12682 12683 12684 12685 12686 12687 12688 12689 12690 12691 12692 12693 12694 12695 12696 12697 12698 12699 12700 12701 12702 12703 12704 12705 12706 12707 12708 12709 12710 12711 12712 12713 12714 12715 12716 12717 12718 12719 12720 12721 12722 12723 12724 12725 12726 12727 12728 12729 12730 12731 12732 12733 12734 12735 12736 12737 12738 12739 12740 12741 12742 12743 12744 12745 12746 12747 12748 12749 12750 12751 12752 12753 12754 12755 12756 12757 12758 12759 12760 12761 12762 12763 12764 12765 12766 12767 12768 12769 12770 12771 12772 12773 12774 12775 12776 12777 12778 12779 12780 12781 12782 12783 12784 12785 12786 12787 12788 12789 12790 12791 12792 12793 12794 12795 12796 12797 12798 12799 12800 12801 12802 12803 12804 12805 12806 12807 12808 12809 12810 12811 12812 12813 12814 12815 12816 12817 12818 12819 12820 12821 12822 12823 12824 12825 12826 12827 12828 12829 12830 12831 12832 12833 12834 12835 12836 12837 12838 12839 12840 12841 12842 12843 12844 12845 12846 12847 12848 12849 12850 12851 12852 12853 12854 12855 12856 12857 12858 12859 12860 12861 12862 12863 12864 12865 12866 12867 12868 12869 12870 12871 12872 12873 12874 12875 12876 12877 12878 12879 12880 12881 12882 12883 12884 12885 12886 12887 12888 12889 12890 12891 12892 12893 12894 12895 12896 12897 12898 12899 12900 12901 12902 12903 12904 12905 12906 12907 12908 12909 12910 12911 12912 12913 12914 12915 12916 12917 12918 12919 12920 12921 12922 12923 12924 12925 12926 12927 12928 12929 12930 12931 12932 12933 12934 12935 12936 12937 12938 12939 12940 12941 12942 12943 12944 12945 12946 12947 12948 12949 12950 12951 12952 12953 12954 12955 12956 12957 12958 12959 12960 12961 12962 12963 12964 12965 12966 12967 12968 12969 12970 12971 12972 12973 12974 12975 12976 12977 12978 12979 12980 12981 12982 12983 12984 12985 12986 12987 12988 12989 12990 12991 12992 12993 12994 12995 12996 12997 12998 12999 13000 13001 13002 13003 13004 13005 13006 13007 13008 13009 13010 13011 13012 13013 13014 13015 13016 13017 13018 13019 13020 13021 13022 13023 13024 13025 13026 13027 13028 13029 13030 13031 13032 13033 13034 13035 13036 13037 13038 13039 13040 13041 13042 13043 13044 13045 13046 13047 13048 13049 13050 13051 13052 13053 13054 13055 13056 13057 13058 13059 13060 13061 13062 13063 13064 13065 13066 13067 13068 13069 13070 13071 13072 13073 13074 13075 13076 13077 13078 13079 13080 13081 13082 13083 13084 13085 13086 13087 13088 13089 13090 13091 13092 13093 13094 13095 13096 13097 13098 13099 13100 13101 13102 13103 13104 13105 13106 13107 13108 13109 13110 13111 13112 13113 13114 13115 13116 13117 13118 13119 13120 13121 13122 13123 13124 13125 13126 13127 13128 13129 13130 13131 13132 13133 13134 13135 13136 13137 13138 13139 13140 13141 13142 13143 13144 13145 13146 13147 13148 13149 13150 13151 13152 13153 13154 13155 13156 13157 13158 13159 13160 13161 13162 13163 13164 13165 13166 13167 13168 13169 13170 13171 13172 13173 13174 13175 13176 13177 13178 13179 13180 13181 13182 13183 13184 13185 13186 13187 13188 13189 13190 13191 13192 13193 13194 13195 13196 13197 13198 13199 13200 13201 13202 13203 13204 13205 13206 13207 13208 13209 13210 13211 13212 13213 13214 13215 13216 13217 13218 13219 13220 13221 13222 13223 13224 13225 13226 13227 13228 13229 13230 13231 13232 13233 13234 13235 13236 13237 13238 13239 13240 13241 13242 13243 13244 13245 13246 13247 13248 13249 13250 13251 13252 13253 13254 13255 13256 13257 13258 13259 13260 13261 13262 13263 13264 13265 13266 13267 13268 13269 13270 13271 13272 13273 13274 13275 13276 13277 13278 13279 13280 13281 13282 13283 13284 13285 13286 13287 13288 13289 13290 13291 13292 13293 13294 13295 13296 13297 13298 13299 13300 13301 13302 13303 13304 13305 13306 13307 13308 13309 13310 13311 13312 13313 13314 13315 13316 13317 13318 13319 13320 13321 13322 13323 13324 13325 13326 13327 13328 13329 13330 13331 13332 13333 13334 13335 13336 13337 13338 13339 13340 13341 13342 13343 13344 13345 13346 13347 13348 13349 13350 13351 13352 13353 13354 13355 13356 13357 13358 13359 13360 13361 13362 13363 13364 13365 13366 13367 13368 13369 13370 13371 13372 13373 13374 13375 13376 13377 13378 13379 13380 13381 13382 13383 13384 13385 13386 13387 13388 13389 13390 13391 13392 13393 13394 13395 13396 13397 13398 13399 13400 13401 13402 13403 13404 13405 13406 13407 13408 13409 13410 13411 13412 13413 13414 13415 13416 13417 13418 13419 13420 13421 13422 13423 13424 13425 13426 13427 13428 13429 13430 13431 13432 13433 13434 13435 13436 13437 13438 13439 13440 13441 13442 13443 13444 13445 13446 13447 13448 13449 13450 13451 13452 13453 13454 13455 13456 13457 13458 13459 13460 13461 13462 13463 13464 13465 13466 13467 13468 13469 13470 13471 13472 13473 13474 13475 13476 13477 13478 13479 13480 13481 13482 13483 13484 13485 13486 13487 13488 13489 13490 13491 13492 13493 13494 13495 13496 13497 13498 13499 13500 13501 13502 13503 13504 13505 13506 13507 13508 13509 13510 13511 13512 13513 13514 13515 13516 13517 13518 13519 13520 13521 13522 13523 13524 13525 13526 13527 13528 13529 13530 13531 13532 13533 13534 13535 13536 13537 13538 13539 13540 13541 13542 13543 13544 13545 13546 13547 13548 13549 13550 13551 13552 13553 13554 13555 13556 13557 13558 13559 13560 13561 13562 13563 13564 13565 13566 13567 13568 13569 13570 13571 13572 13573 13574 13575 13576 13577 13578 13579 13580 13581 13582 13583 13584 13585 13586 13587 13588 13589 13590 13591 13592 13593 13594 13595 13596 13597 13598 13599 13600 13601 13602 13603 13604 13605 13606 13607 13608 13609 13610 13611 13612 13613 13614 13615 13616 13617 13618 13619 13620 13621 13622 13623 13624 13625 13626 13627 13628 13629 13630 13631 13632 13633 13634 13635 13636 13637 13638 13639 13640 13641 13642 13643 13644 13645 13646 13647 13648 13649 13650 13651 13652 13653 13654 13655 13656 13657 13658 13659 13660 13661 13662 13663 13664 13665 13666 13667 13668 13669 13670 13671 13672 13673 13674 13675 13676 13677 13678 13679 13680 13681 13682 13683 13684 13685 13686 13687 13688 13689 13690 13691 13692 13693 13694 13695 13696 13697 13698 13699 13700 13701 13702 13703 13704 13705 13706 13707 13708 13709 13710 13711 13712 13713 13714 13715 13716 13717 13718 13719 13720 13721 13722 13723 13724 13725 13726 13727 13728 13729 13730 13731 13732 13733 13734 13735 13736 13737 13738 13739 13740 13741 13742 13743 13744 13745 13746 13747 13748 13749 13750 13751 13752 13753 13754 13755 13756 13757 13758 13759 13760 13761 13762 13763 13764 13765 13766 13767 13768 13769 13770 13771 13772 13773 13774 13775 13776 13777 13778 13779 13780 13781 13782 13783 13784 13785 13786 13787 13788 13789 13790 13791 13792 13793 13794 13795 13796 13797 13798 13799 13800 13801 13802 13803 13804 13805 13806 13807 13808 13809 13810 13811 13812 13813 13814 13815 13816 13817 13818 13819 13820 13821 13822 13823 13824 13825 13826 13827 13828 13829 13830 13831 13832 13833 13834 13835 13836 13837 13838 13839 13840 13841 13842 13843 13844 13845 13846 13847 13848 13849 13850 13851 13852 13853 13854 13855 13856 13857 13858 13859 13860 13861 13862 13863 13864 13865 13866 13867 13868 13869 13870 13871 13872 13873 13874 13875 13876 13877 13878 13879 13880 13881 13882 13883 13884 13885 13886 13887 13888 13889 13890 13891 13892 13893 13894 13895 13896 13897 13898 13899 13900 13901 13902 13903 13904 13905 13906 13907 13908 13909 13910 13911 13912 13913 13914 13915 13916 13917 13918 13919 13920 13921 13922 13923 13924 13925 13926 13927 13928 13929 13930 13931 13932 13933 13934 13935 13936 13937 13938 13939 13940 13941 13942 13943 13944 13945 13946 13947 13948 13949 13950 13951 13952 13953 13954 13955 13956 13957 13958 13959 13960 13961 13962 13963 13964 13965 13966 13967 13968 13969 13970 13971 13972 13973 13974 13975 13976 13977 13978 13979 13980 13981 13982 13983 13984 13985 13986 13987 13988 13989 13990 13991 13992 13993 13994 13995 13996 13997 13998 13999 14000 14001 14002 14003 14004 14005 14006 14007 14008 14009 14010 14011 14012 14013 14014 14015 14016 14017 14018 14019 14020 14021 14022 14023 14024 14025 14026 14027 14028 14029 14030 14031 14032 14033 14034 14035 14036 14037 14038 14039 14040 14041 14042 14043 14044 14045 14046 14047 14048 14049 14050 14051 14052 14053 14054 14055 14056 14057 14058 14059 14060 14061 14062 14063 14064 14065 14066 14067 14068 14069 14070 14071 14072 14073 14074 14075 14076 14077 14078 14079 14080 14081 14082 14083 14084 14085 14086 14087 14088 14089 14090 14091 14092 14093 14094 14095 14096 14097 14098 14099 14100 14101 14102 14103 14104 14105 14106 14107 14108 14109 14110 14111 14112 14113 14114 14115 14116 14117 14118 14119 14120 14121 14122 14123 14124 14125 14126 14127 14128 14129 14130 14131 14132 14133 14134 14135 14136 14137 14138 14139 14140 14141 14142 14143 14144 14145 14146 14147 14148 14149 14150 14151 14152 14153 14154 14155 14156 14157 14158 14159 14160 14161 14162 14163 14164 14165 14166 14167 14168 14169 14170 14171 14172 14173 14174 14175 14176 14177 14178 14179 14180 14181 14182 14183 14184 14185 14186 14187 14188 14189 14190 14191 14192 14193 14194 14195 14196 14197 14198 14199 14200 14201 14202 14203 14204 14205 14206 14207 14208 14209 14210 14211 14212 14213 14214 14215 14216 14217 14218 14219 14220 14221 14222 14223 14224 14225 14226 14227 14228 14229 14230 14231 14232 14233 14234 14235 14236 14237 14238 14239 14240 14241 14242 14243 14244 14245 14246 14247 14248 14249 14250 14251 14252 14253 14254 14255 14256 14257 14258 14259 14260 14261 14262 14263 14264 14265 14266 14267 14268 14269 14270 14271 14272 14273 14274 14275 14276 14277 14278 14279 14280 14281 14282 14283 14284 14285 14286 14287 14288 14289 14290 14291 14292 14293 14294 14295 14296 14297 14298 14299 14300 14301 14302 14303 14304 14305 14306 14307 14308 14309 14310 14311 14312 14313 14314 14315 14316 14317 14318 14319 14320 14321 14322 14323 14324 14325 14326 14327 14328 14329 14330 14331 14332 14333 14334 14335 14336 14337 14338 14339 14340 14341 14342 14343 14344 14345 14346 14347 14348 14349 14350 14351 14352 14353 14354 14355 14356 14357 14358 14359 14360 14361 14362 14363 14364 14365 14366 14367 14368 14369 14370 14371 14372 14373 14374 14375 14376 14377 14378 14379 14380 14381 14382 14383 14384 14385 14386 14387 14388 14389 14390 14391 14392 14393 14394 14395 14396 14397 14398 14399 14400 14401 14402 14403 14404 14405 14406 14407 14408 14409 14410 14411 14412 14413 14414 14415 14416 14417 14418 14419 14420 14421 14422 14423 14424 14425 14426 14427 14428 14429 14430 14431 14432 14433 14434 14435 14436 14437 14438 14439 14440 14441 14442 14443 14444 14445 14446 14447 14448 14449 14450 14451 14452 14453 14454 14455 14456 14457 14458 14459 14460 14461 14462 14463 14464 14465 14466 14467 14468 14469 14470 14471 14472 14473 14474 14475 14476 14477 14478 14479 14480 14481 14482 14483 14484 14485 14486 14487 14488 14489 14490 14491 14492 14493 14494 14495 14496 14497 14498 14499 14500 14501 14502 14503 14504 14505 14506 14507 14508 14509 14510 14511 14512 14513 14514 14515 14516 14517 14518 14519 14520 14521 14522 14523 14524 14525 14526 14527 14528 14529 14530 14531 14532 14533 14534 14535 14536 14537 14538 14539 14540 14541 14542 14543 14544 14545 14546 14547 14548 14549 14550 14551 14552 14553 14554 14555 14556 14557 14558 14559 14560 14561 14562 14563 14564 14565 14566 14567 14568 14569 14570 14571 14572 14573 14574 14575 14576 14577 14578 14579 14580 14581 14582 14583 14584 14585 14586 14587 14588 14589 14590 14591 14592 14593 14594 14595 14596 14597 14598 14599 14600 14601 14602 14603 14604 14605 14606 14607 14608 14609 14610 14611 14612 14613 14614 14615 14616 14617 14618 14619 14620 14621 14622 14623 14624 14625 14626 14627 14628 14629 14630 14631 14632 14633 14634 14635 14636 14637 14638 14639 14640 14641 14642 14643 14644 14645 14646 14647 14648 14649 14650 14651 14652 14653 14654 14655 14656 14657 14658 14659 14660 14661 14662 14663 14664 14665 14666 14667 14668 14669 14670 14671 14672 14673 14674 14675 14676 14677 14678 14679 14680 14681 14682 14683 14684 14685 14686 14687 14688 14689 14690 14691 14692 14693 14694 14695 14696 14697 14698 14699 14700 14701 14702 14703 14704 14705 14706 14707 14708 14709 14710 14711 14712 14713 14714 14715 14716 14717 14718 14719 14720 14721 14722 14723 14724 14725 14726 14727 14728 14729 14730 14731 14732 14733 14734 14735 14736 14737 14738 14739 14740 14741 14742 14743 14744 14745 14746 14747 14748 14749 14750 14751 14752 14753 14754 14755 14756 14757 14758 14759 14760 14761 14762 14763 14764 14765 14766 14767 14768 14769 14770 14771 14772 14773 14774 14775 14776 14777 14778 14779 14780 14781 14782 14783 14784 14785 14786 14787 14788 14789 14790 14791 14792 14793 14794 14795 14796 14797 14798 14799 14800 14801 14802 14803 14804 14805 14806 14807 14808 14809 14810 14811 14812 14813 14814 14815 14816 14817 14818 14819 14820 14821 14822 14823 14824 14825 14826 14827 14828 14829 14830 14831 14832 14833 14834 14835 14836 14837 14838 14839 14840 14841 14842 14843 14844 14845 14846 14847 14848 14849 14850 14851 14852 14853 14854 14855 14856 14857 14858 14859 14860 14861 14862 14863 14864 14865 14866 14867 14868 14869 14870 14871 14872 14873 14874 14875 14876 14877 14878 14879 14880 14881 14882 14883 14884 14885 14886 14887 14888 14889 14890 14891 14892 14893 14894 14895 14896 14897 14898 14899 14900 14901 14902 14903 14904 14905 14906 14907 14908 14909 14910 14911 14912 14913 14914 14915 14916 14917 14918 14919 14920 14921 14922 14923 14924 14925 14926 14927 14928 14929 14930 14931 14932 14933 14934 14935 14936 14937 14938 14939 14940 14941 14942 14943 14944 14945 14946 14947 14948 14949 14950 14951 14952 14953 14954 14955 14956 14957 14958 14959 14960 14961 14962 14963 14964 14965 14966 14967 14968 14969 14970 14971 14972 14973 14974 14975 14976 14977 14978 14979 14980 14981 14982 14983 14984 14985 14986 14987 14988 14989 14990 14991 14992 14993 14994 14995 14996 14997 14998 14999 15000 15001 15002 15003 15004 15005 15006 15007 15008 15009 15010 15011 15012 15013 15014 15015 15016 15017 15018 15019 15020 15021 15022 15023 15024 15025 15026 15027 15028 15029 15030 15031 15032 15033 15034 15035 15036 15037 15038 15039 15040 15041 15042 15043 15044 15045 15046 15047 15048 15049 15050 15051 15052 15053 15054 15055 15056 15057 15058 15059 15060 15061 15062 15063 15064 15065 15066 15067 15068 15069 15070 15071 15072 15073 15074 15075 15076 15077 15078 15079 15080 15081 15082 15083 15084 15085 15086 15087 15088 15089 15090 15091 15092 15093 15094 15095 15096 15097 15098 15099 15100 15101 15102 15103 15104 15105 15106 15107 15108 15109 15110 15111 15112 15113 15114 15115 15116 15117 15118 15119 15120 15121 15122 15123 15124 15125 15126 15127 15128 15129 15130 15131 15132 15133 15134 15135 15136 15137 15138 15139 15140 15141 15142 15143 15144 15145 15146 15147 15148 15149 15150 15151 15152 15153 15154 15155 15156 15157 15158 15159 15160 15161 15162 15163 15164 15165 15166 15167 15168 15169 15170 15171 15172 15173 15174 15175 15176 15177 15178 15179 15180 15181 15182 15183 15184 15185 15186 15187 15188 15189 15190 15191 15192 15193 15194 15195 15196 15197 15198 15199 15200 15201 15202 15203 15204 15205 15206 15207 15208 15209 15210 15211 15212 15213 15214 15215 15216 15217 15218 15219 15220 15221 15222 15223 15224 15225 15226 15227 15228 15229 15230 15231 15232 15233 15234 15235 15236 15237 15238 15239 15240 15241 15242 15243 15244 15245 15246 15247 15248 15249 15250 15251 15252 15253 15254 15255 15256 15257 15258 15259 15260 15261 15262 15263 15264 15265 15266 15267 15268 15269 15270 15271 15272 15273 15274 15275 15276 15277 15278 15279 15280 15281 15282 15283 15284 15285 15286 15287 15288 15289 15290 15291 15292 15293 15294 15295 15296 15297 15298 15299 15300 15301 15302 15303 15304 15305 15306 15307 15308 15309 15310 15311 15312 15313 15314 15315 15316 15317 15318 15319 15320 15321 15322 15323 15324 15325 15326 15327 15328 15329 15330 15331 15332 15333 15334 15335 15336 15337 15338 15339 15340 15341 15342 15343 15344 15345 15346 15347 15348 15349 15350 15351 15352 15353 15354 15355 15356 15357 15358 15359 15360 15361 15362 15363 15364 15365 15366 15367 15368 15369 15370 15371 15372 15373 15374 15375 15376 15377 15378 15379 15380 15381 15382 15383 15384 15385 15386 15387 15388 15389 15390 15391 15392 15393 15394 15395 15396 15397 15398 15399 15400 15401 15402 15403 15404 15405 15406 15407 15408 15409 15410 15411 15412 15413 15414 15415 15416 15417 15418 15419 15420 15421 15422 15423 15424 15425 15426 15427 15428 15429 15430 15431 15432 15433 15434 15435 15436 15437 15438 15439 15440 15441 15442 15443 15444 15445 15446 15447 15448 15449 15450 15451 15452 15453 15454 15455 15456 15457 15458 15459 15460 15461 15462 15463 15464 15465 15466 15467 15468 15469 15470 15471 15472 15473 15474 15475 15476 15477 15478 15479 15480 15481 15482 15483 15484 15485 15486 15487 15488 15489 15490 15491 15492 15493 15494 15495 15496 15497 15498 15499 15500 15501 15502 15503 15504 15505 15506 15507 15508 15509 15510 15511 15512 15513 15514 15515 15516 15517 15518 15519 15520 15521 15522 15523 15524 15525 15526 15527 15528 15529 15530 15531 15532 15533 15534 15535 15536 15537 15538 15539 15540 15541 15542 15543 15544 15545 15546 15547 15548 15549 15550 15551 15552 15553 15554 15555 15556 15557 15558 15559 15560 15561 15562 15563 15564 15565 15566 15567 15568 15569 15570 15571 15572 15573 15574 15575 15576 15577 15578 15579 15580 15581 15582 15583 15584 15585 15586 15587 15588 15589 15590 15591 15592 15593 15594 15595 15596 15597 15598 15599 15600 15601 15602 15603 15604 15605 15606 15607 15608 15609 15610 15611 15612 15613 15614 15615 15616 15617 15618 15619 15620 15621 15622 15623 15624 15625 15626 15627 15628 15629 15630 15631 15632 15633 15634 15635 15636 15637 15638 15639 15640 15641 15642 15643 15644 15645 15646 15647 15648 15649 15650 15651 15652 15653 15654 15655 15656 15657 15658 15659 15660 15661 15662 15663 15664 15665 15666 15667 15668 15669 15670 15671 15672 15673 15674 15675 15676 15677 15678 15679 15680 15681 15682 15683 15684 15685 15686 15687 15688 15689 15690 15691 15692 15693 15694 15695 15696 15697 15698 15699 15700 15701 15702 15703 15704 15705 15706 15707 15708 15709 15710 15711 15712 15713 15714 15715 15716 15717 15718 15719 15720 15721 15722 15723 15724 15725 15726 15727 15728 15729 15730 15731 15732 15733 15734 15735 15736 15737 15738 15739 15740 15741 15742 15743 15744 15745 15746 15747 15748 15749 15750 15751 15752 15753 15754 15755 15756 15757 15758 15759 15760 15761 15762 15763 15764 15765 15766 15767 15768 15769 15770 15771 15772 15773 15774 15775 15776 15777 15778 15779 15780 15781 15782 15783 15784 15785 15786 15787 15788 15789 15790 15791 15792 15793 15794 15795 15796 15797 15798 15799 15800 15801 15802 15803 15804 15805 15806 15807 15808 15809 15810 15811 15812 15813 15814 15815 15816 15817 15818 15819 15820 15821 15822 15823 15824 15825 15826 15827 15828 15829 15830 15831 15832 15833 15834 15835 15836 15837 15838 15839 15840 15841 15842 15843 15844 15845 15846 15847 15848 15849 15850 15851 15852 15853 15854 15855 15856 15857 15858 15859 15860 15861 15862 15863 15864 15865 15866 15867 15868 15869 15870 15871 15872 15873 15874 15875 15876 15877 15878 15879 15880 15881 15882 15883 15884 15885 15886 15887 15888 15889 15890 15891 15892 15893 15894 15895 15896 15897 15898 15899 15900 15901 15902 15903 15904 15905 15906 15907 15908 15909 15910 15911 15912 15913 15914 15915 15916 15917 15918 15919 15920 15921 15922 15923 15924 15925 15926 15927 15928 15929 15930 15931 15932 15933 15934 15935 15936 15937 15938 15939 15940 15941 15942 15943 15944 15945 15946 15947 15948 15949 15950 15951 15952 15953 15954 15955 15956 15957 15958 15959 15960 15961 15962 15963 15964 15965 15966 15967 15968 15969 15970 15971 15972 15973 15974 15975 15976 15977 15978 15979 15980 15981 15982 15983 15984 15985 15986 15987 15988 15989 15990 15991 15992 15993 15994 15995 15996 15997 15998 15999 16000 16001 16002 16003 16004 16005 16006 16007 16008 16009 16010 16011 16012 16013 16014 16015 16016 16017 16018 16019 16020 16021 16022 16023 16024 16025 16026 16027 16028 16029 16030 16031 16032 16033 16034 16035 16036 16037 16038 16039 16040 16041 16042 16043 16044 16045 16046 16047 16048 16049 16050 16051 16052 16053 16054 16055 16056 16057 16058 16059 16060 16061 16062 16063 16064 16065 16066 16067 16068 16069 16070 16071 16072 16073 16074 16075 16076 16077 16078 16079 16080 16081 16082 16083 16084 16085 16086 16087 16088 16089 16090 16091 16092 16093 16094 16095 16096 16097 16098 16099 16100 16101 16102 16103 16104 16105 16106 16107 16108 16109 16110 16111 16112 16113 16114 16115 16116 16117 16118 16119 16120 16121 16122 16123 16124 16125 16126 16127 16128 16129 16130 16131 16132 16133 16134 16135 16136 16137 16138 16139 16140 16141 16142 16143 16144 16145 16146 16147 16148 16149 16150 16151 16152 16153 16154 16155 16156 16157 16158 16159 16160 16161 16162 16163 16164 16165 16166 16167 16168 16169 16170 16171 16172 16173 16174 16175 16176 16177 16178 16179 16180 16181 16182 16183 16184 16185 16186 16187 16188 16189 16190 16191 16192 16193 16194 16195 16196 16197 16198 16199 16200 16201 16202 16203 16204 16205 16206 16207 16208 16209 16210 16211 16212 16213 16214 16215 16216 16217 16218 16219 16220 16221 16222 16223 16224 16225 16226 16227 16228 16229 16230 16231 16232 16233 16234 16235 16236 16237 16238 16239 16240 16241 16242 16243 16244 16245 16246 16247 16248 16249 16250 16251 16252 16253 16254 16255 16256 16257 16258 16259 16260 16261 16262 16263 16264 16265 16266 16267 16268 16269 16270 16271 16272 16273 16274 16275 16276 16277 16278 16279 16280 16281 16282 16283 16284 16285 16286 16287 16288 16289 16290 16291 16292 16293 16294 16295 16296 16297 16298 16299 16300 16301 16302 16303 16304 16305 16306 16307 16308 16309 16310 16311 16312 16313 16314 16315 16316 16317 16318 16319 16320 16321 16322 16323 16324 16325 16326 16327 16328 16329 16330 16331 16332 16333 16334 16335 16336 16337 16338 16339 16340 16341 16342 16343 16344 16345 16346 16347 16348 16349 16350 16351 16352 16353 16354 16355 16356 16357 16358 16359 16360 16361 16362 16363 16364 16365 16366 16367 16368 16369 16370 16371 16372 16373 16374 16375 16376 16377 16378 16379 16380 16381 16382 16383 16384 16385 16386 16387 16388 16389 16390 16391 16392 16393 16394 16395 16396 16397 16398 16399 16400 16401 16402 16403 16404 16405 16406 16407 16408 16409 16410 16411 16412 16413 16414 16415 16416 16417 16418 16419 16420 16421 16422 16423 16424 16425 16426 16427 16428 16429 16430 16431 16432 16433 16434 16435 16436 16437 16438 16439 16440 16441 16442 16443 16444 16445 16446 16447 16448 16449 16450 16451 16452 16453 16454 16455 16456 16457 16458 16459 16460 16461 16462 16463 16464 16465 16466 16467 16468 16469 16470 16471 16472 16473 16474 16475 16476 16477 16478 16479 16480 16481 16482 16483 16484 16485 16486 16487 16488 16489 16490 16491 16492 16493 16494 16495 16496 16497 16498 16499 16500 16501 16502 16503 16504 16505 16506 16507 16508 16509 16510 16511 16512 16513 16514 16515 16516 16517 16518 16519 16520 16521 16522 16523 16524 16525 16526 16527 16528 16529 16530 16531 16532 16533 16534 16535 16536 16537 16538 16539 16540 16541 16542 16543 16544 16545 16546 16547 16548 16549 16550 16551 16552 16553 16554 16555 16556 16557 16558 16559 16560 16561 16562 16563 16564 16565 16566 16567 16568 16569 16570 16571 16572 16573 16574 16575 16576 16577 16578 16579 16580 16581 16582 16583 16584 16585 16586 16587 16588 16589 16590 16591 16592 16593 16594 16595 16596 16597 16598 16599 16600 16601 16602 16603 16604 16605 16606 16607 16608 16609 16610 16611 16612 16613 16614 16615 16616 16617 16618 16619 16620 16621 16622 16623 16624 16625 16626 16627 16628 16629 16630 16631 16632 16633 16634 16635 16636 16637 16638 16639 16640 16641 16642 16643 16644 16645 16646 16647 16648 16649 16650 16651 16652 16653 16654 16655 16656 16657 16658 16659 16660 16661 16662 16663 16664 16665 16666 16667 16668 16669 16670 16671 16672 16673 16674 16675 16676 16677 16678 16679 16680 16681 16682 16683 16684 16685 16686 16687 16688 16689 16690 16691 16692 16693 16694 16695 16696 16697 16698 16699 16700 16701 16702 16703 16704 16705 16706 16707 16708 16709 16710 16711 16712 16713 16714 16715 16716 16717 16718 16719 16720 16721 16722 16723 16724 16725 16726 16727 16728 16729 16730 16731 16732 16733 16734 16735 16736 16737 16738 16739 16740 16741 16742 16743 16744 16745 16746 16747 16748 16749 16750 16751 16752 16753 16754 16755 16756 16757 16758 16759 16760 16761 16762 16763 16764 16765 16766 16767 16768 16769 16770 16771 16772 16773 16774 16775 16776 16777 16778 16779 16780 16781 16782 16783 16784 16785 16786 16787 16788 16789 16790 16791 16792 16793 16794 16795 16796 16797 16798 16799 16800 16801 16802 16803 16804 16805 16806 16807 16808 16809 16810 16811 16812 16813 16814 16815 16816 16817 16818 16819 16820 16821 16822 16823 16824 16825 16826 16827 16828 16829 16830 16831 16832 16833 16834 16835 16836 16837 16838 16839 16840 16841 16842 16843 16844 16845 16846 16847 16848 16849 16850 16851 16852 16853 16854 16855 16856 16857 16858 16859 16860 16861 16862 16863 16864 16865 16866 16867 16868 16869 16870 16871 16872 16873 16874 16875 16876 16877 16878 16879 16880 16881 16882 16883 16884 16885 16886 16887 16888 16889 16890 16891 16892 16893 16894 16895 16896 16897 16898 16899 16900 16901 16902 16903 16904 16905 16906 16907 16908 16909 16910 16911 16912 16913 16914 16915 16916 16917 16918 16919 16920 16921 16922 16923 16924 16925 16926 16927 16928 16929 16930 16931 16932 16933 16934 16935 16936 16937 16938 16939 16940 16941 16942 16943 16944 16945 16946 16947 16948 16949 16950 16951 16952 16953 16954 16955 16956 16957 16958 16959 16960 16961 16962 16963 16964 16965 16966 16967 16968 16969 16970 16971 16972 16973 16974 16975 16976 16977 16978 16979 16980 16981 16982 16983 16984 16985 16986 16987 16988 16989 16990 16991 16992 16993 16994 16995 16996 16997 16998 16999 17000 17001 17002 17003 17004 17005 17006 17007 17008 17009 17010 17011 17012 17013 17014 17015 17016 17017 17018 17019 17020 17021 17022 17023 17024 17025 17026 17027 17028 17029 17030 17031 17032 17033 17034 17035 17036 17037 17038 17039 17040 17041 17042 17043 17044 17045 17046 17047 17048 17049 17050 17051 17052 17053 17054 17055 17056 17057 17058 17059 17060 17061 17062 17063 17064 17065 17066 17067 17068 17069 17070 17071 17072 17073 17074 17075 17076 17077 17078 17079 17080 17081 17082 17083 17084 17085 17086 17087 17088 17089 17090 17091 17092 17093 17094 17095 17096 17097 17098 17099 17100 17101 17102 17103 17104 17105 17106 17107 17108 17109 17110 17111 17112 17113 17114 17115 17116 17117 17118 17119 17120 17121 17122 17123 17124 17125 17126 17127 17128 17129 17130 17131 17132 17133 17134 17135 17136 17137 17138 17139 17140 17141 17142 17143 17144 17145 17146 17147 17148 17149 17150 17151 17152 17153 17154 17155 17156 17157 17158 17159 17160 17161 17162 17163 17164 17165 17166 17167 17168 17169 17170 17171 17172 17173 17174 17175 17176 17177 17178 17179 17180 17181 17182 17183 17184 17185 17186 17187 17188 17189 17190 17191 17192 17193 17194 17195 17196 17197 17198 17199 17200 17201 17202 17203 17204 17205 17206 17207 17208 17209 17210 17211 17212 17213 17214 17215 17216 17217 17218 17219 17220 17221 17222 17223 17224 17225 17226 17227 17228 17229 17230 17231 17232 17233 17234 17235 17236 17237 17238 17239 17240 17241 17242 17243 17244 17245 17246 17247 17248 17249 17250 17251 17252 17253 17254 17255 17256 17257 17258 17259 17260 17261 17262 17263 17264 17265 17266 17267 17268 17269 17270 17271 17272 17273 17274 17275 17276 17277 17278 17279 17280 17281 17282 17283 17284 17285 17286 17287 17288 17289 17290 17291 17292 17293 17294 17295 17296 17297 17298 17299 17300 17301 17302 17303 17304 17305 17306 17307 17308 17309 17310 17311 17312 17313 17314 17315 17316 17317 17318 17319 17320 17321 17322 17323 17324 17325 17326 17327 17328 17329 17330 17331 17332 17333 17334 17335 17336 17337 17338 17339 17340 17341 17342 17343 17344 17345 17346 17347 17348 17349 17350 17351 17352 17353 17354 17355 17356 17357 17358 17359 17360 17361 17362 17363 17364 17365 17366 17367 17368 17369 17370 17371 17372 17373 17374 17375 17376 17377 17378 17379 17380 17381 17382 17383 17384 17385 17386 17387 17388 17389 17390 17391 17392 17393 17394 17395 17396 17397 17398 17399 17400 17401 17402 17403 17404 17405 17406 17407 17408 17409 17410 17411 17412 17413 17414 17415 17416 17417 17418 17419 17420 17421 17422 17423 17424 17425 17426 17427 17428 17429 17430 17431 17432 17433 17434 17435 17436 17437 17438 17439 17440 17441 17442 17443 17444 17445 17446 17447 17448 17449 17450 17451 17452 17453 17454 17455 17456 17457 17458 17459 17460 17461 17462 17463 17464 17465 17466 17467 17468 17469 17470 17471 17472 17473 17474 17475 17476 17477 17478 17479 17480 17481 17482 17483 17484 17485 17486 17487 17488 17489 17490 17491 17492 17493 17494 17495 17496 17497 17498 17499 17500 17501 17502 17503 17504 17505 17506 17507 17508 17509 17510 17511 17512 17513 17514 17515 17516 17517 17518 17519 17520 17521 17522 17523 17524 17525 17526 17527 17528 17529 17530 17531 17532 17533 17534 17535 17536 17537 17538 17539 17540 17541 17542 17543 17544 17545 17546 17547 17548 17549 17550 17551 17552 17553 17554 17555 17556 17557 17558 17559 17560 17561 17562 17563 17564 17565 17566 17567 17568 17569 17570 17571 17572 17573 17574 17575 17576 17577 17578 17579 17580 17581 17582 17583 17584 17585 17586 17587 17588 17589 17590 17591 17592 17593 17594 17595 17596 17597 17598 17599 17600 17601 17602 17603 17604 17605 17606 17607 17608 17609 17610 17611 17612 17613 17614 17615 17616 17617 17618 17619 17620 17621 17622 17623 17624 17625 17626 17627 17628 17629 17630 17631 17632 17633 17634 17635 17636 17637 17638 17639 17640 17641 17642 17643 17644 17645 17646 17647 17648 17649 17650 17651 17652 17653 17654 17655 17656 17657 17658 17659 17660 17661 17662 17663 17664 17665 17666 17667 17668 17669 17670 17671 17672 17673 17674 17675 17676 17677 17678 17679 17680 17681 17682 17683 17684 17685 17686 17687 17688 17689 17690 17691 17692 17693 17694 17695 17696 17697 17698 17699 17700 17701 17702 17703 17704 17705 17706 17707 17708 17709 17710 17711 17712 17713 17714 17715 17716 17717 17718 17719 17720 17721 17722 17723 17724 17725 17726 17727 17728 17729 17730 17731 17732 17733 17734 17735 17736 17737 17738 17739 17740 17741 17742 17743 17744 17745 17746 17747 17748 17749 17750 17751 17752 17753 17754 17755 17756 17757 17758 17759 17760 17761 17762 17763 17764 17765 17766 17767 17768 17769 17770 17771 17772 17773 17774 17775 17776 17777 17778 17779 17780 17781 17782 17783 17784 17785 17786 17787 17788 17789 17790 17791 17792 17793 17794 17795 17796 17797 17798 17799 17800 17801 17802 17803 17804 17805 17806 17807 17808 17809 17810 17811 17812 17813 17814 17815 17816 17817 17818 17819 17820 17821 17822 17823 17824 17825 17826 17827 17828 17829 17830 17831 17832 17833 17834 17835 17836 17837 17838 17839 17840 17841 17842 17843 17844 17845 17846 17847 17848 17849 17850 17851 17852 17853 17854 17855 17856 17857 17858 17859 17860 17861 17862 17863 17864 17865 17866 17867 17868 17869 17870 17871 17872 17873 17874 17875 17876 17877 17878 17879 17880 17881 17882 17883 17884 17885 17886 17887 17888 17889 17890 17891 17892 17893 17894 17895 17896 17897 17898 17899 17900 17901 17902 17903 17904 17905 17906 17907 17908 17909 17910 17911 17912 17913 17914 17915 17916 17917 17918 17919 17920 17921 17922 17923 17924 17925 17926 17927 17928 17929 17930 17931 17932 17933 17934 17935 17936 17937 17938 17939 17940 17941 17942 17943 17944 17945 17946 17947 17948 17949 17950 17951 17952 17953 17954 17955 17956 17957 17958 17959 17960 17961 17962 17963 17964 17965 17966 17967 17968 17969 17970 17971 17972 17973 17974 17975 17976 17977 17978 17979 17980 17981 17982 17983 17984 17985 17986 17987 17988 17989 17990 17991 17992 17993 17994 17995 17996 17997 17998 17999 18000 18001 18002 18003 18004 18005 18006 18007 18008 18009 18010 18011 18012 18013 18014 18015 18016 18017 18018 18019 18020 18021 18022 18023 18024 18025 18026 18027 18028 18029 18030 18031 18032 18033 18034 18035 18036 18037 18038 18039 18040 18041 18042 18043 18044 18045 18046 18047 18048 18049 18050 18051 18052 18053 18054 18055 18056 18057 18058 18059 18060 18061 18062 18063 18064 18065 18066 18067 18068 18069 18070 18071 18072 18073 18074 18075 18076 18077 18078 18079 18080 18081 18082 18083 18084 18085 18086 18087 18088 18089 18090 18091 18092 18093 18094 18095 18096 18097 18098 18099 18100 18101 18102 18103 18104 18105 18106 18107 18108 18109 18110 18111 18112 18113 18114 18115 18116 18117 18118 18119 18120 18121 18122 18123 18124 18125 18126 18127 18128 18129 18130 18131 18132 18133 18134 18135 18136 18137 18138 18139 18140 18141 18142 18143 18144 18145 18146 18147 18148 18149 18150 18151 18152 18153 18154 18155 18156 18157 18158 18159 18160 18161 18162 18163 18164 18165 18166 18167 18168 18169 18170 18171 18172 18173 18174 18175 18176 18177 18178 18179 18180 18181 18182 18183 18184 18185 18186 18187 18188 18189 18190 18191 18192 18193 18194 18195 18196 18197 18198 18199 18200 18201 18202 18203 18204 18205 18206 18207 18208 18209 18210 18211 18212 18213 18214 18215 18216 18217 18218 18219 18220 18221 18222 18223 18224 18225 18226 18227 18228 18229 18230 18231 18232 18233 18234 18235 18236 18237 18238 18239 18240 18241 18242 18243 18244 18245 18246 18247 18248 18249 18250 18251 18252 18253 18254 18255 18256 18257 18258 18259 18260 18261 18262 18263 18264 18265 18266 18267 18268 18269 18270 18271 18272 18273 18274 18275 18276 18277 18278 18279 18280 18281 18282 18283 18284 18285 18286 18287 18288 18289 18290 18291 18292 18293 18294 18295 18296 18297 18298 18299 18300 18301 18302 18303 18304 18305 18306 18307 18308 18309 18310 18311 18312 18313 18314 18315 18316 18317 18318 18319 18320 18321 18322 18323 18324 18325 18326 18327 18328 18329 18330 18331 18332 18333 18334 18335 18336 18337 18338 18339 18340 18341 18342 18343 18344 18345 18346 18347 18348 18349 18350 18351 18352 18353 18354 18355 18356 18357 18358 18359 18360 18361 18362 18363 18364 18365 18366 18367 18368 18369 18370 18371 18372 18373 18374 18375 18376 18377 18378 18379 18380 18381 18382 18383 18384 18385 18386 18387 18388 18389 18390 18391 18392 18393 18394 18395 18396 18397 18398 18399 18400 18401 18402 18403 18404 18405 18406 18407 18408 18409 18410 18411 18412 18413 18414 18415 18416 18417 18418 18419 18420 18421 18422 18423 18424 18425 18426 18427 18428 18429 18430 18431 18432 18433 18434 18435 18436 18437 18438 18439 18440 18441 18442 18443 18444 18445 18446 18447 18448 18449 18450 18451 18452 18453 18454 18455 18456 18457 18458 18459 18460 18461 18462 18463 18464 18465 18466 18467 18468 18469 18470 18471 18472 18473 18474 18475 18476 18477 18478 18479 18480 18481 18482 18483 18484 18485 18486 18487 18488 18489 18490 18491 18492 18493 18494 18495 18496 18497 18498 18499 18500 18501 18502 18503 18504 18505 18506 18507 18508 18509 18510 18511 18512 18513 18514 18515 18516 18517 18518 18519 18520 18521 18522 18523 18524 18525 18526 18527 18528 18529 18530 18531 18532 18533 18534 18535 18536 18537 18538 18539 18540 18541 18542 18543 18544 18545 18546 18547 18548 18549 18550 18551 18552 18553 18554 18555 18556 18557 18558 18559 18560 18561 18562 18563 18564 18565 18566 18567 18568 18569 18570 18571 18572 18573 18574 18575 18576 18577 18578 18579 18580 18581 18582 18583 18584 18585 18586 18587 18588 18589 18590 18591 18592 18593 18594 18595 18596 18597 18598 18599 18600 18601 18602 18603 18604 18605 18606 18607 18608 18609 18610 18611 18612 18613 18614 18615 18616 18617 18618 18619 18620 18621 18622 18623 18624 18625 18626 18627 18628 18629 18630 18631 18632 18633 18634 18635 18636 18637 18638 18639 18640 18641 18642 18643 18644 18645 18646 18647 18648 18649 18650 18651 18652 18653 18654 18655 18656 18657 18658 18659 18660 18661 18662 18663 18664 18665 18666 18667 18668 18669 18670 18671 18672 18673 18674 18675 18676 18677 18678 18679 18680 18681 18682 18683 18684 18685 18686 18687 18688 18689 18690 18691 18692 18693 18694 18695 18696 18697 18698 18699 18700 18701 18702 18703 18704 18705 18706 18707 18708 18709 18710 18711 18712 18713 18714 18715 18716 18717 18718 18719 18720 18721 18722 18723 18724 18725 18726 18727 18728 18729 18730 18731 18732 18733 18734 18735 18736 18737 18738 18739 18740 18741 18742 18743 18744 18745 18746 18747 18748 18749 18750 18751 18752 18753 18754 18755 18756 18757 18758 18759 18760 18761 18762 18763 18764 18765 18766 18767 18768 18769 18770 18771 18772 18773 18774 18775 18776 18777 18778 18779 18780 18781 18782 18783 18784 18785 18786 18787 18788 18789 18790 18791 18792 18793 18794 18795 18796 18797 18798 18799 18800 18801 18802 18803 18804 18805 18806 18807 18808 18809 18810 18811 18812 18813 18814 18815 18816 18817 18818 18819 18820 18821 18822 18823 18824 18825 18826 18827 18828 18829 18830 18831 18832 18833 18834 18835 18836 18837 18838 18839 18840 18841 18842 18843 18844 18845 18846 18847 18848 18849 18850 18851 18852 18853 18854 18855 18856 18857 18858 18859 18860 18861 18862 18863 18864 18865 18866 18867 18868 18869 18870 18871 18872 18873 18874 18875 18876 18877 18878 18879 18880 18881 18882 18883 18884 18885 18886 18887 18888 18889 18890 18891 18892 18893 18894 18895 18896 18897 18898 18899 18900 18901 18902 18903 18904 18905 18906 18907 18908 18909 18910 18911 18912 18913 18914 18915 18916 18917 18918 18919 18920 18921 18922 18923 18924 18925 18926 18927 18928 18929 18930 18931 18932 18933 18934 18935 18936 18937 18938 18939 18940 18941 18942 18943 18944 18945 18946 18947 18948 18949 18950 18951 18952 18953 18954 18955 18956 18957 18958 18959 18960 18961 18962 18963 18964 18965 18966 18967 18968 18969 18970 18971 18972 18973 18974 18975 18976 18977 18978 18979 18980 18981 18982 18983 18984 18985 18986 18987 18988 18989 18990 18991 18992 18993 18994 18995 18996 18997 18998 18999 19000 19001 19002 19003 19004 19005 19006 19007 19008 19009 19010 19011 19012 19013 19014 19015 19016 19017 19018 19019 19020 19021 19022 19023 19024 19025 19026 19027 19028 19029 19030 19031 19032 19033 19034 19035 19036 19037 19038 19039 19040 19041 19042 19043 19044 19045 19046 19047 19048 19049 19050 19051 19052 19053 19054 19055 19056 19057 19058 19059 19060 19061 19062 19063 19064 19065 19066 19067 19068 19069 19070 19071 19072 19073 19074 19075 19076 19077 19078 19079 19080 19081 19082 19083 19084 19085 19086 19087 19088 19089 19090 19091 19092 19093 19094 19095 19096 19097 19098 19099 19100 19101 19102 19103 19104 19105 19106 19107 19108 19109 19110 19111 19112 19113 19114 19115 19116 19117 19118 19119 19120 19121 19122 19123 19124 19125 19126 19127 19128 19129 19130 19131 19132 19133 19134 19135 19136 19137 19138 19139 19140 19141 19142 19143 19144 19145 19146 19147 19148 19149 19150 19151 19152 19153 19154 19155 19156 19157 19158 19159 19160 19161 19162 19163 19164 19165 19166 19167 19168 19169 19170 19171 19172 19173 19174 19175 19176 19177 19178 19179 19180 19181 19182 19183 19184 19185 19186 19187 19188 19189 19190 19191 19192 19193 19194 19195 19196 19197 19198 19199 19200 19201 19202 19203 19204 19205 19206 19207 19208 19209 19210 19211 19212 19213 19214 19215 19216 19217 19218 19219 19220 19221 19222 19223 19224 19225 19226 19227 19228 19229 19230 19231 19232 19233 19234 19235 19236 19237 19238 19239 19240 19241 19242 19243 19244 19245 19246 19247 19248 19249 19250 19251 19252 19253 19254 19255 19256 19257 19258 19259 19260 19261 19262 19263 19264 19265 19266 19267 19268 19269 19270 19271 19272 19273 19274 19275 19276 19277 19278 19279 19280 19281 19282 19283 19284 19285 19286 19287 19288 19289 19290 19291 19292 19293 19294 19295 19296 19297 19298 19299 19300 19301 19302 19303 19304 19305 19306 19307 19308 19309 19310 19311 19312 19313 19314 19315 19316 19317 19318 19319 19320 19321 19322 19323 19324 19325 19326 19327 19328 19329 19330 19331 19332 19333 19334 19335 19336 19337 19338 19339 19340 19341 19342 19343 19344 19345 19346 19347 19348 19349 19350 19351 19352 19353 19354 19355 19356 19357 19358 19359 19360 19361 19362 19363 19364 19365 19366 19367 19368 19369 19370 19371 19372 19373 19374 19375 19376 19377 19378 19379 19380 19381 19382 19383 19384 19385 19386 19387 19388 19389 19390 19391 19392 19393 19394 19395 19396 19397 19398 19399 19400 19401 19402 19403 19404 19405 19406 19407 19408 19409 19410 19411 19412 19413 19414 19415 19416 19417 19418 19419 19420 19421 19422 19423 19424 19425 19426 19427 19428 19429 19430 19431 19432 19433 19434 19435 19436 19437 19438 19439 19440 19441 19442 19443 19444 19445 19446 19447 19448 19449 19450 19451 19452 19453 19454 19455 19456 19457 19458 19459 19460 19461 19462 19463 19464 19465 19466 19467 19468 19469 19470 19471 19472 19473 19474 19475 19476 19477 19478 19479 19480 19481 19482 19483 19484 19485 19486 19487 19488 19489 19490 19491 19492 19493 19494 19495 19496 19497 19498 19499 19500 19501 19502 19503 19504 19505 19506 19507 19508 19509 19510 19511 19512 19513 19514 19515 19516 19517 19518 19519 19520 19521 19522 19523 19524 19525 19526 19527 19528 19529 19530 19531 19532 19533 19534 19535 19536 19537 19538 19539 19540 19541 19542 19543 19544 19545 19546 19547 19548 19549 19550 19551 19552 19553 19554 19555 19556 19557 19558 19559 19560 19561 19562 19563 19564 19565 19566 19567 19568 19569 19570 19571 19572 19573 19574 19575 19576 19577 19578 19579 19580 19581 19582 19583 19584 19585 19586 19587 19588 19589 19590 19591 19592 19593 19594 19595 19596 19597 19598 19599 19600 19601 19602 19603 19604 19605 19606 19607 19608 19609 19610 19611 19612 19613 19614 19615 19616 19617 19618 19619 19620 19621 19622 19623 19624 19625 19626 19627 19628 19629 19630 19631 19632 19633 19634 19635 19636 19637 19638 19639 19640 19641 19642 19643 19644 19645 19646 19647 19648 19649 19650 19651 19652 19653 19654 19655 19656 19657 19658 19659 19660 19661 19662 19663 19664 19665 19666 19667 19668 19669 19670 19671 19672 19673 19674 19675 19676 19677 19678 19679 19680 19681 19682 19683 19684 19685 19686 19687 19688 19689 19690 19691 19692 19693 19694 19695 19696 19697 19698 19699 19700 19701 19702 19703 19704 19705 19706 19707 19708 19709 19710 19711 19712 19713 19714 19715 19716 19717 19718 19719 19720 19721 19722 19723 19724 19725 19726 19727 19728 19729 19730 19731 19732 19733 19734 19735 19736 19737 19738 19739 19740 19741 19742 19743 19744 19745 19746 19747 19748 19749 19750 19751 19752 19753 19754 19755 19756 19757 19758 19759 19760 19761 19762 19763 19764 19765 19766 19767 19768 19769 19770 19771 19772 19773 19774 19775 19776 19777 19778 19779 19780 19781 19782 19783 19784 19785 19786 19787 19788 19789 19790 19791 19792 19793 19794 19795 19796 19797 19798 19799 19800 19801 19802 19803 19804 19805 19806 19807 19808 19809 19810 19811 19812 19813 19814 19815 19816 19817 19818 19819 19820 19821 19822 19823 19824 19825 19826 19827 19828 19829 19830 19831 19832 19833 19834 19835 19836 19837 19838 19839 19840 19841 19842 19843 19844 19845 19846 19847 19848 19849 19850 19851 19852 19853 19854 19855 19856 19857 19858 19859 19860 19861 19862 19863 19864 19865 19866 19867 19868 19869 19870 19871 19872 19873 19874 19875 19876 19877 19878 19879 19880 19881 19882 19883 19884 19885 19886 19887 19888 19889 19890 19891 19892 19893 19894 19895 19896 19897 19898 19899 19900 19901 19902 19903 19904 19905 19906 19907 19908 19909 19910 19911 19912 19913 19914 19915 19916 19917 19918 19919 19920 19921 19922 19923 19924 19925 19926 19927 19928 19929 19930 19931 19932 19933 19934 19935 19936 19937 19938 19939 19940 19941 19942 19943 19944 19945 19946 19947 19948 19949 19950 19951 19952 19953 19954 19955 19956 19957 19958 19959 19960 19961 19962 19963 19964 19965 19966 19967 19968 19969 19970 19971 19972 19973 19974 19975 19976 19977 19978 19979 19980 19981 19982 19983 19984 19985 19986 19987 19988 19989 19990 19991 19992 19993 19994 19995 19996 19997 19998 19999 20000 20001 20002 20003 20004 20005 20006 20007 20008 20009 20010 20011 20012 20013 20014 20015 20016 20017 20018 20019 20020 20021 20022 20023 20024 20025 20026 20027 20028 20029 20030 20031 20032 20033 20034 20035 20036 20037 20038 20039 20040 20041 20042 20043 20044 20045 20046 20047 20048 20049 20050 20051 20052 20053 20054 20055 20056 20057 20058 20059 20060 20061 20062 20063 20064 20065 20066 20067 20068 20069 20070 20071 20072 20073 20074 20075 20076 20077 20078 20079 20080 20081 20082 20083 20084 20085 20086 20087 20088 20089 20090 20091 20092 20093 20094 20095 20096 20097 20098 20099 20100 20101 20102 20103 20104 20105 20106 20107 20108 20109 20110 20111 20112 20113 20114 20115 20116 20117 20118 20119 20120 20121 20122 20123 20124 20125 20126 20127 20128 20129 20130 20131 20132 20133 20134 20135 20136 20137 20138 20139 20140 20141 20142 20143 20144 20145 20146 20147 20148 20149 20150 20151 20152 20153 20154 20155 20156 20157 20158 20159 20160 20161 20162 20163 20164 20165 20166 20167 20168 20169 20170 20171 20172 20173 20174 20175 20176 20177 20178 20179 20180 20181 20182 20183 20184 20185 20186 20187 20188 20189 20190 20191 20192 20193 20194 20195 20196 20197 20198 20199 20200 20201 20202 20203 20204 20205 20206 20207 20208 20209 20210 20211 20212 20213 20214 20215 20216 20217 20218 20219 20220 20221 20222 20223 20224 20225 20226 20227 20228 20229 20230 20231 20232 20233 20234 20235 20236 20237 20238 20239 20240 20241 20242 20243 20244 20245 20246 20247 20248 20249 20250 20251 20252 20253 20254 20255 20256 20257 20258 20259 20260 20261 20262 20263 20264 20265 20266 20267 20268 20269 20270 20271 20272 20273 20274 20275 20276 20277 20278 20279 20280 20281 20282 20283 20284 20285 20286 20287 20288 20289 20290 20291 20292 20293 20294 20295 20296 20297 20298 20299 20300 20301 20302 20303 20304 20305 20306 20307 20308 20309 20310 20311 20312 20313 20314 20315 20316 20317 20318 20319 20320 20321 20322 20323 20324 20325 20326 20327 20328 20329 20330 20331 20332 20333 20334 20335 20336 20337 20338 20339 20340 20341 20342 20343 20344 20345 20346 20347 20348 20349 20350 20351 20352 20353 20354 20355 20356 20357 20358 20359 20360 20361 20362 20363 20364 20365 20366 20367 20368 20369 20370 20371 20372 20373 20374 20375 20376 20377 20378 20379 20380 20381 20382 20383 20384 20385 20386 20387 20388 20389 20390 20391 20392 20393 20394 20395 20396 20397 20398 20399 20400 20401 20402 20403 20404 20405 20406 20407 20408 20409 20410 20411 20412 20413 20414 20415 20416 20417 20418 20419 20420 20421 20422 20423 20424 20425 20426 20427 20428 20429 20430 20431 20432 20433 20434 20435 20436 20437 20438 20439 20440 20441 20442 20443 20444 20445 20446 20447 20448 20449 20450 20451 20452 20453 20454 20455 20456 20457 20458 20459 20460 20461 20462 20463 20464 20465 20466 20467 20468 20469 20470 20471 20472 20473 20474 20475 20476 20477 20478 20479 20480 20481 20482 20483 20484 20485 20486 20487 20488 20489 20490 20491 20492 20493 20494 20495 20496 20497 20498 20499 20500 20501 20502 20503 20504 20505 20506 20507 20508 20509 20510 20511 20512 20513 20514 20515 20516 20517 20518 20519 20520 20521 20522 20523 20524 20525 20526 20527 20528 20529 20530 20531 20532 20533 20534 20535 20536 20537 20538 20539 20540 20541 20542 20543 20544 20545 20546 20547 20548 20549 20550 20551 20552 20553 20554 20555 20556 20557 20558 20559 20560 20561 20562 20563 20564 20565 20566 20567 20568 20569 20570 20571 20572 20573 20574 20575 20576 20577 20578 20579 20580 20581 20582 20583 20584 20585 20586 20587 20588 20589 20590 20591 20592 20593 20594 20595 20596 20597 20598 20599 20600 20601 20602 20603 20604 20605 20606 20607 20608 20609 20610 20611 20612 20613 20614 20615 20616 20617 20618 20619 20620 20621 20622 20623 20624 20625 20626 20627 20628 20629 20630 20631 20632 20633 20634 20635 20636 20637 20638 20639 20640 20641 20642 20643 20644 20645 20646 20647 20648 20649 20650 20651 20652 20653 20654 20655 20656 20657 20658 20659 20660 20661 20662 20663 20664 20665 20666 20667 20668 20669 20670 20671 20672 20673 20674 20675 20676 20677 20678 20679 20680 20681 20682 20683 20684 20685 20686 20687 20688 20689 20690 20691 20692 20693 20694 20695 20696 20697 20698 20699 20700 20701 20702 20703 20704 20705 20706 20707 20708 20709 20710 20711 20712 20713 20714 20715 20716 20717 20718 20719 20720 20721 20722 20723 20724 20725 20726 20727 20728 20729 20730 20731 20732 20733 20734 20735 20736 20737 20738 20739 20740 20741 20742 20743 20744 20745 20746 20747 20748 20749 20750 20751 20752 20753 20754 20755 20756 20757 20758 20759 20760 20761 20762 20763 20764 20765 20766 20767 20768 20769 20770 20771 20772 20773 20774 20775 20776 20777 20778 20779 20780 20781 20782 20783 20784 20785 20786 20787 20788 20789 20790 20791 20792 20793 20794 20795 20796 20797 20798 20799 20800 20801 20802 20803 20804 20805 20806 20807 20808 20809 20810 20811 20812 20813 20814 20815 20816 20817 20818 20819 20820 20821 20822 20823 20824 20825 20826 20827 20828 20829 20830 20831 20832 20833 20834 20835 20836 20837 20838 20839 20840 20841 20842 20843 20844 20845 20846 20847 20848 20849 20850 20851 20852 20853 20854 20855 20856 20857 20858 20859 20860 20861 20862 20863 20864 20865 20866 20867 20868 20869 20870 20871 20872 20873 20874 20875 20876 20877 20878 20879 20880 20881 20882 20883 20884 20885 20886 20887 20888 20889 20890 20891 20892 20893 20894 20895 20896 20897 20898 20899 20900 20901 20902 20903 20904 20905 20906 20907 20908 20909 20910 20911 20912 20913 20914 20915 20916 20917 20918 20919 20920 20921 20922 20923 20924 20925 20926 20927 20928 20929 20930 20931 20932 20933 20934 20935 20936 20937 20938 20939 20940 20941 20942 20943 20944 20945 20946 20947 20948 20949 20950 20951 20952 20953 20954 20955 20956 20957 20958 20959 20960 20961 20962 20963 20964 20965 20966 20967 20968 20969 20970 20971 20972 20973 20974 20975 20976 20977 20978 20979 20980 20981 20982 20983 20984 20985 20986 20987 20988 20989 20990 20991 20992 20993 20994 20995 20996 20997 20998 20999 21000 21001 21002 21003 21004 21005 21006 21007 21008 21009 21010 21011 21012 21013 21014 21015 21016 21017 21018 21019 21020 21021 21022 21023 21024 21025 21026 21027 21028 21029 21030 21031 21032 21033 21034 21035 21036 21037 21038 21039 21040 21041 21042 21043 21044 21045 21046 21047 21048 21049 21050 21051 21052 21053 21054 21055 21056 21057 21058 21059 21060 21061 21062 21063 21064 21065 21066 21067 21068 21069 21070 21071 21072 21073 21074 21075 21076 21077 21078 21079 21080 21081 21082 21083 21084 21085 21086 21087 21088 21089 21090 21091 21092 21093 21094 21095 21096 21097 21098 21099 21100 21101 21102 21103 21104 21105 21106 21107 21108 21109 21110 21111 21112 21113 21114 21115 21116 21117 21118 21119 21120 21121 21122 21123 21124 21125 21126 21127 21128 21129 21130 21131 21132 21133 21134 21135 21136 21137 21138 21139 21140 21141 21142 21143 21144 21145 21146 21147 21148 21149 21150 21151 21152 21153 21154 21155 21156 21157 21158 21159 21160 21161 21162 21163 21164 21165 21166 21167 21168 21169 21170 21171 21172 21173 21174 21175 21176 21177 21178 21179 21180 21181 21182 21183 21184 21185 21186 21187 21188 21189 21190 21191 21192 21193 21194 21195 21196 21197 21198 21199 21200 21201 21202 21203 21204 21205 21206 21207 21208 21209 21210 21211 21212 21213 21214 21215 21216 21217 21218 21219 21220 21221 21222 21223 21224 21225 21226 21227 21228 21229 21230 21231 21232 21233 21234 21235 21236 21237 21238 21239 21240 21241 21242 21243 21244 21245 21246 21247 21248 21249 21250 21251 21252 21253 21254 21255 21256 21257 21258 21259 21260 21261 21262 21263 21264 21265 21266 21267 21268 21269 21270 21271 21272 21273 21274 21275 21276 21277 21278 21279 21280 21281 21282 21283 21284 21285 21286 21287 21288 21289 21290 21291 21292 21293 21294 21295 21296 21297 21298 21299 21300 21301 21302 21303 21304 21305 21306 21307 21308 21309 21310 21311 21312 21313 21314 21315 21316 21317 21318 21319 21320 21321 21322 21323 21324 21325 21326 21327 21328 21329 21330 21331 21332 21333 21334 21335 21336 21337 21338 21339 21340 21341 21342 21343 21344 21345 21346 21347 21348 21349 21350 21351 21352 21353 21354 21355 21356 21357 21358 21359 21360 21361 21362 21363 21364 21365 21366 21367 21368 21369 21370 21371 21372 21373 21374 21375 21376 21377 21378 21379 21380 21381 21382 21383 21384 21385 21386 21387 21388 21389 21390 21391 21392 21393 21394 21395 21396 21397 21398 21399 21400 21401 21402 21403 21404 21405 21406 21407 21408 21409 21410 21411 21412 21413 21414 21415 21416 21417 21418 21419 21420 21421 21422 21423 21424 21425 21426 21427 21428 21429 21430 21431 21432 21433 21434 21435 21436 21437 21438 21439 21440 21441 21442 21443 21444 21445 21446 21447 21448 21449 21450 21451 21452 21453 21454 21455 21456 21457 21458 21459 21460 21461 21462 21463 21464 21465 21466 21467 21468 21469 21470 21471 21472 21473 21474 21475 21476 21477 21478 21479 21480 21481 21482 21483 21484 21485 21486 21487 21488 21489 21490 21491 21492 21493 21494 21495 21496 21497 21498 21499 21500 21501 21502 21503 21504 21505 21506 21507 21508 21509 21510 21511 21512 21513 21514 21515 21516 21517 21518 21519 21520 21521 21522 21523 21524 21525 21526 21527 21528 21529 21530 21531 21532 21533 21534 21535 21536 21537 21538 21539 21540 21541 21542 21543 21544 21545 21546 21547 21548 21549 21550 21551 21552 21553 21554 21555 21556 21557 21558 21559 21560 21561 21562 21563 21564 21565 21566 21567 21568 21569 21570 21571 21572 21573 21574 21575 21576 21577 21578 21579 21580 21581 21582 21583 21584 21585 21586 21587 21588 21589 21590 21591 21592 21593 21594 21595 21596 21597 21598 21599 21600 21601 21602 21603 21604 21605 21606 21607 21608 21609 21610 21611 21612 21613 21614 21615 21616 21617 21618 21619 21620 21621 21622 21623 21624 21625 21626 21627 21628 21629 21630 21631 21632 21633 21634 21635 21636 21637 21638 21639 21640 21641 21642 21643 21644 21645 21646 21647 21648 21649 21650 21651 21652 21653 21654 21655 21656 21657 21658 21659 21660 21661 21662 21663 21664 21665 21666 21667 21668 21669 21670 21671 21672 21673 21674 21675 21676 21677 21678 21679 21680 21681 21682 21683 21684 21685 21686 21687 21688 21689 21690 21691 21692 21693 21694 21695 21696 21697 21698 21699 21700 21701 21702 21703 21704 21705 21706 21707 21708 21709 21710 21711 21712 21713 21714 21715 21716 21717 21718 21719 21720 21721 21722 21723 21724 21725 21726 21727 21728 21729 21730 21731 21732 21733 21734 21735 21736 21737 21738 21739 21740 21741 21742 21743 21744 21745 21746 21747 21748 21749 21750 21751 21752 21753 21754 21755 21756 21757 21758 21759 21760 21761 21762 21763 21764 21765 21766 21767 21768 21769 21770 21771 21772 21773 21774 21775 21776 21777 21778 21779 21780 21781 21782 21783 21784 21785 21786 21787 21788 21789 21790 21791 21792 21793 21794 21795 21796 21797 21798 21799 21800 21801 21802 21803 21804 21805 21806 21807 21808 21809 21810 21811 21812 21813 21814 21815 21816 21817 21818 21819 21820 21821 21822 21823 21824 21825 21826 21827 21828 21829 21830 21831 21832 21833 21834 21835 21836 21837 21838 21839 21840 21841 21842 21843 21844 21845 21846 21847 21848 21849 21850 21851 21852 21853 21854 21855 21856 21857 21858 21859 21860 21861 21862 21863 21864 21865 21866 21867 21868 21869 21870 21871 21872 21873 21874 21875 21876 21877 21878 21879 21880 21881 21882 21883 21884 21885 21886 21887 21888 21889 21890 21891 21892 21893 21894 21895 21896 21897 21898 21899 21900 21901 21902 21903 21904 21905 21906 21907 21908 21909 21910 21911 21912 21913 21914 21915 21916 21917 21918 21919 21920 21921 21922 21923 21924 21925 21926 21927 21928 21929 21930 21931 21932 21933 21934 21935 21936 21937 21938 21939 21940 21941 21942 21943 21944 21945 21946 21947 21948 21949 21950 21951 21952 21953 21954 21955 21956 21957 21958 21959 21960 21961 21962 21963 21964 21965 21966 21967 21968 21969 21970 21971 21972 21973 21974 21975 21976 21977 21978 21979 21980 21981 21982 21983 21984 21985 21986 21987 21988 21989 21990 21991 21992 21993 21994 21995 21996 21997 21998 21999 22000 22001 22002 22003 22004 22005 22006 22007 22008 22009 22010 22011 22012 22013 22014 22015 22016 22017 22018 22019 22020 22021 22022 22023 22024 22025 22026 22027 22028 22029 22030 22031 22032 22033 22034 22035 22036 22037 22038 22039 22040 22041 22042 22043 22044 22045 22046 22047 22048 22049 22050 22051 22052 22053 22054 22055 22056 22057 22058 22059 22060 22061 22062 22063 22064 22065 22066 22067 22068 22069 22070 22071 22072 22073 22074 22075 22076 22077 22078 22079 22080 22081 22082 22083 22084 22085 22086 22087 22088 22089 22090 22091 22092 22093 22094 22095 22096 22097 22098 22099 22100 22101 22102 22103 22104 22105 22106 22107 22108 22109 22110 22111 22112 22113 22114 22115 22116 22117 22118 22119 22120 22121 22122 22123 22124 22125 22126 22127 22128 22129 22130 22131 22132 22133 22134 22135 22136 22137 22138 22139 22140 22141 22142 22143 22144 22145 22146 22147 22148 22149 22150 22151 22152 22153 22154 22155 22156 22157 22158 22159 22160 22161 22162 22163 22164 22165 22166 22167 22168 22169 22170 22171 22172 22173 22174 22175 22176 22177 22178 22179 22180 22181 22182 22183 22184 22185 22186 22187 22188 22189 22190 22191 22192 22193 22194 22195 22196 22197 22198 22199 22200 22201 22202 22203 22204 22205 22206 22207 22208 22209 22210 22211 22212 22213 22214 22215 22216 22217 22218 22219 22220 22221 22222 22223 22224 22225 22226 22227 22228 22229 22230 22231 22232 22233 22234 22235 22236 22237 22238 22239 22240 22241 22242 22243 22244 22245 22246 22247 22248 22249 22250 22251 22252 22253 22254 22255 22256 22257 22258 22259 22260 22261 22262 22263 22264 22265 22266 22267 22268 22269 22270 22271 22272 22273 22274 22275 22276 22277 22278 22279 22280 22281 22282 22283 22284 22285 22286 22287 22288 22289 22290 22291 22292 22293 22294 22295 22296 22297 22298 22299 22300 22301 22302 22303 22304 22305 22306 22307 22308 22309 22310 22311 22312 22313 22314 22315 22316 22317 22318 22319 22320 22321 22322 22323 22324 22325 22326 22327 22328 22329 22330 22331 22332 22333 22334 22335 22336 22337 22338 22339 22340 22341 22342 22343 22344 22345 22346 22347 22348 22349 22350 22351 22352 22353 22354 22355 22356 22357 22358 22359 22360 22361 22362 22363 22364 22365 22366 22367 22368 22369 22370 22371 22372 22373 22374 22375 22376 22377 22378 22379 22380 22381 22382 22383 22384 22385 22386 22387 22388 22389 22390 22391 22392 22393 22394 22395 22396 22397 22398 22399 22400 22401 22402 22403 22404 22405 22406 22407 22408 22409 22410 22411 22412 22413 22414 22415 22416 22417 22418 22419 22420 22421 22422 22423 22424 22425 22426 22427 22428 22429 22430 22431 22432 22433 22434 22435 22436 22437 22438 22439 22440 22441 22442 22443 22444 22445 22446 22447 22448 22449 22450 22451 22452 22453 22454 22455 22456 22457 22458 22459 22460 22461 22462 22463 22464 22465 22466 22467 22468 22469 22470 22471 22472 22473 22474 22475 22476 22477 22478 22479 22480 22481 22482 22483 22484 22485 22486 22487 22488 22489 22490 22491 22492 22493 22494 22495 22496 22497 22498 22499 22500 22501 22502 22503 22504 22505 22506 22507 22508 22509 22510 22511 22512 22513 22514 22515 22516 22517 22518 22519 22520 22521 22522 22523 22524 22525 22526 22527 22528 22529 22530 22531 22532 22533 22534 22535 22536 22537 22538 22539 22540 22541 22542 22543 22544 22545 22546 22547 22548 22549 22550 22551 22552 22553 22554 22555 22556 22557 22558 22559 22560 22561 22562 22563 22564 22565 22566 22567 22568 22569 22570 22571 22572 22573 22574 22575 22576 22577 22578 22579 22580 22581 22582 22583 22584 22585 22586 22587 22588 22589 22590 22591 22592 22593 22594 22595 22596 22597 22598 22599 22600 22601 22602 22603 22604 22605 22606 22607 22608 22609 22610 22611 22612 22613 22614 22615 22616 22617 22618 22619 22620 22621 22622 22623 22624 22625 22626 22627 22628 22629 22630 22631 22632 22633 22634 22635 22636 22637 22638 22639 22640 22641 22642 22643 22644 22645 22646 22647 22648 22649 22650 22651 22652 22653 22654 22655 22656 22657 22658 22659 22660 22661 22662 22663 22664 22665 22666 22667 22668 22669 22670 22671 22672 22673 22674 22675 22676 22677 22678 22679 22680 22681 22682 22683 22684 22685 22686 22687 22688 22689 22690 22691 22692 22693 22694 22695 22696 22697 22698 22699 22700 22701 22702 22703 22704 22705 22706 22707 22708 22709 22710 22711 22712 22713 22714 22715 22716 22717 22718 22719 22720 22721 22722 22723 22724 22725 22726 22727 22728 22729 22730 22731 22732 22733 22734 22735 22736 22737 22738 22739 22740 22741 22742 22743 22744 22745 22746 22747 22748 22749 22750 22751 22752 22753 22754 22755 22756 22757 22758 22759 22760 22761 22762 22763 22764 22765 22766 22767 22768 22769 22770 22771 22772 22773 22774 22775 22776 22777 22778 22779 22780 22781 22782 22783 22784 22785 22786 22787 22788 22789 22790 22791 22792 22793 22794 22795 22796 22797 22798 22799 22800 22801 22802 22803 22804 22805 22806 22807 22808 22809 22810 22811 22812 22813 22814 22815 22816 22817 22818 22819 22820 22821 22822 22823 22824 22825 22826 22827 22828 22829 22830 22831 22832 22833 22834 22835 22836 22837 22838 22839 22840 22841 22842 22843 22844 22845 22846 22847 22848 22849 22850 22851 22852 22853 22854 22855 22856 22857 22858 22859 22860 22861 22862 22863 22864 22865 22866 22867 22868 22869 22870 22871 22872 22873 22874 22875 22876 22877 22878 22879 22880 22881 22882 22883 22884 22885 22886 22887 22888 22889 22890 22891 22892 22893 22894 22895 22896 22897 22898 22899 22900 22901 22902 22903 22904 22905 22906 22907 22908 22909 22910 22911 22912 22913 22914 22915 22916 22917 22918 22919 22920 22921 22922 22923 22924 22925 22926 22927 22928 22929 22930 22931 22932 22933 22934 22935 22936 22937 22938 22939 22940 22941 22942 22943 22944 22945 22946 22947 22948 22949 22950 22951 22952 22953 22954 22955 22956 22957 22958 22959 22960 22961 22962 22963 22964 22965 22966 22967 22968 22969 22970 22971 22972 22973 22974 22975 22976 22977 22978 22979 22980 22981 22982 22983 22984 22985 22986 22987 22988 22989 22990 22991 22992 22993 22994 22995 22996 22997 22998 22999 23000 23001 23002 23003 23004 23005 23006 23007 23008 23009 23010 23011 23012 23013 23014 23015 23016 23017 23018 23019 23020 23021 23022 23023 23024 23025 23026 23027 23028 23029 23030 23031 23032 23033 23034 23035 23036 23037 23038 23039 23040 23041 23042 23043 23044 23045 23046 23047 23048 23049 23050 23051 23052 23053 23054 23055 23056 23057 23058 23059 23060 23061 23062 23063 23064 23065 23066 23067 23068 23069 23070 23071 23072 23073 23074 23075 23076 23077 23078 23079 23080 23081 23082 23083 23084 23085 23086 23087 23088 23089 23090 23091 23092 23093 23094 23095 23096 23097 23098 23099 23100 23101 23102 23103 23104 23105 23106 23107 23108 23109 23110 23111 23112 23113 23114 23115 23116 23117 23118 23119 23120 23121 23122 23123 23124 23125 23126 23127 23128 23129 23130 23131 23132 23133 23134 23135 23136 23137 23138 23139 23140 23141 23142 23143 23144 23145 23146 23147 23148 23149 23150 23151 23152 23153 23154 23155 23156 23157 23158 23159 23160 23161 23162 23163 23164 23165 23166 23167 23168 23169 23170 23171 23172 23173 23174 23175 23176 23177 23178 23179 23180 23181 23182 23183 23184 23185 23186 23187 23188 23189 23190 23191 23192 23193 23194 23195 23196 23197 23198 23199 23200 23201 23202 23203 23204 23205 23206 23207 23208 23209 23210 23211 23212 23213 23214 23215 23216 23217 23218 23219 23220 23221 23222 23223 23224 23225 23226 23227 23228 23229 23230 23231 23232 23233 23234 23235 23236 23237 23238 23239 23240 23241 23242 23243 23244 23245 23246 23247 23248 23249 23250 23251 23252 23253 23254 23255 23256 23257 23258 23259 23260 23261 23262 23263 23264 23265 23266 23267 23268 23269 23270 23271 23272 23273 23274 23275 23276 23277 23278 23279 23280 23281 23282 23283 23284 23285 23286 23287 23288 23289 23290 23291 23292 23293 23294 23295 23296 23297 23298 23299 23300 23301 23302 23303 23304 23305 23306 23307 23308 23309 23310 23311 23312 23313 23314 23315 23316 23317 23318 23319 23320 23321 23322 23323 23324 23325 23326 23327 23328 23329 23330 23331 23332 23333 23334 23335 23336 23337 23338 23339 23340 23341 23342 23343 23344 23345 23346 23347 23348 23349 23350 23351 23352 23353 23354 23355 23356 23357 23358 23359 23360 23361 23362 23363 23364 23365 23366 23367 23368 23369 23370 23371 23372 23373 23374 23375 23376 23377 23378 23379 23380 23381 23382 23383 23384 23385 23386 23387 23388 23389 23390 23391 23392 23393 23394 23395 23396 23397 23398 23399 23400 23401 23402 23403 23404 23405 23406 23407 23408 23409 23410 23411 23412 23413 23414 23415 23416 23417 23418 23419 23420 23421 23422 23423 23424 23425 23426 23427 23428 23429 23430 23431 23432 23433 23434 23435 23436 23437 23438 23439 23440 23441 23442 23443 23444 23445 23446 23447 23448 23449 23450 23451 23452 23453 23454 23455 23456 23457 23458 23459 23460 23461 23462 23463 23464 23465 23466 23467 23468 23469 23470 23471 23472 23473 23474 23475 23476 23477 23478 23479 23480 23481 23482 23483 23484 23485 23486 23487 23488 23489 23490 23491 23492 23493 23494 23495 23496 23497 23498 23499 23500 23501 23502 23503 23504 23505 23506 23507 23508 23509 23510 23511 23512 23513 23514 23515 23516 23517 23518 23519 23520 23521 23522 23523 23524 23525 23526 23527 23528 23529 23530 23531 23532 23533 23534 23535 23536 23537 23538 23539 23540 23541 23542 23543 23544 23545 23546 23547 23548 23549 23550 23551 23552 23553 23554 23555 23556 23557 23558 23559 23560 23561 23562 23563 23564 23565 23566 23567 23568 23569 23570 23571 23572 23573 23574 23575 23576 23577 23578 23579 23580 23581 23582 23583 23584 23585 23586 23587 23588 23589 23590 23591 23592 23593 23594 23595 23596 23597 23598 23599 23600 23601 23602 23603 23604 23605 23606 23607 23608 23609 23610 23611 23612 23613 23614 23615 23616 23617 23618 23619 23620 23621 23622 23623 23624 23625 23626 23627 23628 23629 23630 23631 23632 23633 23634 23635 23636 23637 23638 23639 23640 23641 23642 23643 23644 23645 23646 23647 23648 23649 23650 23651 23652 23653 23654 23655 23656 23657 23658 23659 23660 23661 23662 23663 23664 23665 23666 23667 23668 23669 23670 23671 23672 23673 23674 23675 23676 23677 23678 23679 23680 23681 23682 23683 23684 23685 23686 23687 23688 23689 23690 23691 23692 23693 23694 23695 23696 23697 23698 23699 23700 23701 23702 23703 23704 23705 23706 23707 23708 23709 23710 23711 23712 23713 23714 23715 23716 23717 23718 23719 23720 23721 23722 23723 23724 23725 23726 23727 23728 23729 23730 23731 23732 23733 23734 23735 23736 23737 23738 23739 23740 23741 23742 23743 23744 23745 23746 23747 23748 23749 23750 23751 23752 23753 23754 23755 23756 23757 23758 23759 23760 23761 23762 23763 23764 23765 23766 23767 23768 23769 23770 23771 23772 23773 23774 23775 23776 23777 23778 23779 23780 23781 23782 23783 23784 23785 23786 23787 23788 23789 23790 23791 23792 23793 23794 23795 23796 23797 23798 23799 23800 23801 23802 23803 23804 23805 23806 23807 23808 23809 23810 23811 23812 23813 23814 23815 23816 23817 23818 23819 23820 23821 23822 23823 23824 23825 23826 23827 23828 23829 23830 23831 23832 23833 23834 23835 23836 23837 23838 23839 23840 23841 23842 23843 23844 23845 23846 23847 23848 23849 23850 23851 23852 23853 23854 23855 23856 23857 23858 23859 23860 23861 23862 23863 23864 23865 23866 23867 23868 23869 23870 23871 23872 23873 23874 23875 23876 23877 23878 23879 23880 23881 23882 23883 23884 23885 23886 23887 23888 23889 23890 23891 23892 23893 23894 23895 23896 23897 23898 23899 23900 23901 23902 23903 23904 23905 23906 23907 23908 23909 23910 23911 23912 23913 23914 23915 23916 23917 23918 23919 23920 23921 23922 23923 23924 23925 23926 23927 23928 23929 23930 23931 23932 23933 23934 23935 23936 23937 23938 23939 23940 23941 23942 23943 23944 23945 23946 23947 23948 23949 23950 23951 23952 23953 23954 23955 23956 23957 23958 23959 23960 23961 23962 23963 23964 23965 23966 23967 23968 23969 23970 23971 23972 23973 23974 23975 23976 23977 23978 23979 23980 23981 23982 23983 23984 23985 23986 23987 23988 23989 23990 23991 23992 23993 23994 23995 23996 23997 23998 23999 24000 24001 24002 24003 24004 24005 24006 24007 24008 24009 24010 24011 24012 24013 24014 24015 24016 24017 24018 24019 24020 24021 24022 24023 24024 24025 24026 24027 24028 24029 24030 24031 24032 24033 24034 24035 24036 24037 24038 24039 24040 24041 24042 24043 24044 24045 24046 24047 24048 24049 24050 24051 24052 24053 24054 24055 24056 24057 24058 24059 24060 24061 24062 24063 24064 24065 24066 24067 24068 24069 24070 24071 24072 24073 24074 24075 24076 24077 24078 24079 24080 24081 24082 24083 24084 24085 24086 24087 24088 24089 24090 24091 24092 24093 24094 24095 24096 24097 24098 24099 24100 24101 24102 24103 24104 24105 24106 24107 24108 24109 24110 24111 24112 24113 24114 24115 24116 24117 24118 24119 24120 24121 24122 24123 24124 24125 24126 24127 24128 24129 24130 24131 24132 24133 24134 24135 24136 24137 24138 24139 24140 24141 24142 24143 24144 24145 24146 24147 24148 24149 24150 24151 24152 24153 24154 24155 24156 24157 24158 24159 24160 24161 24162 24163 24164 24165 24166 24167 24168 24169 24170 24171 24172 24173 24174 24175 24176 24177 24178 24179 24180 24181 24182 24183 24184 24185 24186 24187 24188 24189 24190 24191 24192 24193 24194 24195 24196 24197 24198 24199 24200 24201 24202 24203 24204 24205 24206 24207 24208 24209 24210 24211 24212 24213 24214 24215 24216 24217 24218 24219 24220 24221 24222 24223 24224 24225 24226 24227 24228 24229 24230 24231 24232 24233 24234 24235 24236 24237 24238 24239 24240 24241 24242 24243 24244 24245 24246 24247 24248 24249 24250 24251 24252 24253 24254 24255 24256 24257 24258 24259 24260 24261 24262 24263 24264 24265 24266 24267 24268 24269 24270 24271 24272 24273 24274 24275 24276 24277 24278 24279 24280 24281 24282 24283 24284 24285 24286 24287 24288 24289 24290 24291 24292 24293 24294 24295 24296 24297 24298 24299 24300 24301 24302 24303 24304 24305 24306 24307 24308 24309 24310 24311 24312 24313 24314 24315 24316 24317 24318 24319 24320 24321 24322 24323 24324 24325 24326 24327 24328 24329 24330 24331 24332 24333 24334 24335 24336 24337 24338 24339 24340 24341 24342 24343 24344 24345 24346 24347 24348 24349 24350 24351 24352 24353 24354 24355 24356 24357 24358 24359 24360 24361 24362 24363 24364 24365 24366 24367 24368 24369 24370 24371 24372 24373 24374 24375 24376 24377 24378 24379 24380 24381 24382 24383 24384 24385 24386 24387 24388 24389 24390 24391 24392 24393 24394 24395 24396 24397 24398 24399 24400 24401 24402 24403 24404 24405 24406 24407 24408 24409 24410 24411 24412 24413 24414 24415 24416 24417 24418 24419 24420 24421 24422 24423 24424 24425 24426 24427 24428 24429 24430 24431 24432 24433 24434 24435 24436 24437 24438 24439 24440 24441 24442 24443 24444 24445 24446 24447 24448 24449 24450 24451 24452 24453 24454 24455 24456 24457 24458 24459 24460 24461 24462 24463 24464 24465 24466 24467 24468 24469 24470 24471 24472 24473 24474 24475 24476 24477 24478 24479 24480 24481 24482 24483 24484 24485 24486 24487 24488 24489 24490 24491 24492 24493 24494 24495 24496 24497 24498 24499 24500 24501 24502 24503 24504 24505 24506 24507 24508 24509 24510 24511 24512 24513 24514 24515 24516 24517 24518 24519 24520 24521 24522 24523 24524 24525 24526 24527 24528 24529 24530 24531 24532 24533 24534 24535 24536 24537 24538 24539 24540 24541 24542 24543 24544 24545 24546 24547 24548 24549 24550 24551 24552 24553 24554 24555 24556 24557 24558 24559 24560 24561 24562 24563 24564 24565 24566 24567 24568 24569 24570 24571 24572 24573 24574 24575 24576 24577 24578 24579 24580 24581 24582 24583 24584 24585 24586 24587 24588 24589 24590 24591 24592 24593 24594 24595 24596 24597 24598 24599 24600 24601 24602 24603 24604 24605 24606 24607 24608 24609 24610 24611 24612 24613 24614 24615 24616 24617 24618 24619 24620 24621 24622 24623 24624 24625 24626 24627 24628 24629 24630 24631 24632 24633 24634 24635 24636 24637 24638 24639 24640 24641 24642 24643 24644 24645 24646 24647 24648 24649 24650 24651 24652 24653 24654 24655 24656 24657 24658 24659 24660 24661 24662 24663 24664 24665 24666 24667 24668 24669 24670 24671 24672 24673 24674 24675 24676 24677 24678 24679 24680 24681 24682 24683 24684 24685 24686 24687 24688 24689 24690 24691 24692 24693 24694 24695 24696 24697 24698 24699 24700 24701 24702 24703 24704 24705 24706 24707 24708 24709 24710 24711 24712 24713 24714 24715 24716 24717 24718 24719 24720 24721 24722 24723 24724 24725 24726 24727 24728 24729 24730 24731 24732 24733 24734 24735 24736 24737 24738 24739 24740 24741 24742 24743 24744 24745 24746 24747 24748 24749 24750 24751 24752 24753 24754 24755 24756 24757 24758 24759 24760 24761 24762 24763 24764 24765 24766 24767 24768 24769 24770 24771 24772 24773 24774 24775 24776 24777 24778 24779 24780 24781 24782 24783 24784 24785 24786 24787 24788 24789 24790 24791 24792 24793 24794 24795 24796 24797 24798 24799 24800 24801 24802 24803 24804 24805 24806 24807 24808 24809 24810 24811 24812 24813 24814 24815 24816 24817 24818 24819 24820 24821 24822 24823 24824 24825 24826 24827 24828 24829 24830 24831 24832 24833 24834 24835 24836 24837 24838 24839 24840 24841 24842 24843 24844 24845 24846 24847 24848 24849 24850 24851 24852 24853 24854 24855 24856 24857 24858 24859 24860 24861 24862 24863 24864 24865 24866 24867 24868 24869 24870 24871 24872 24873 24874 24875 24876 24877 24878 24879 24880 24881 24882 24883 24884 24885 24886 24887 24888 24889 24890 24891 24892 24893 24894 24895 24896 24897 24898 24899 24900 24901 24902 24903 24904 24905 24906 24907 24908 24909 24910 24911 24912 24913 24914 24915 24916 24917 24918 24919 24920 24921 24922 24923 24924 24925 24926 24927 24928 24929 24930 24931 24932 24933 24934 24935 24936 24937 24938 24939 24940 24941 24942 24943 24944 24945 24946 24947 24948 24949 24950 24951 24952 24953 24954 24955 24956 24957 24958 24959 24960 24961 24962 24963 24964 24965 24966 24967 24968 24969 24970 24971 24972 24973 24974 24975 24976 24977 24978 24979 24980 24981 24982 24983 24984 24985 24986 24987 24988 24989 24990 24991 24992 24993 24994 24995 24996 24997 24998 24999 25000 25001 25002 25003 25004 25005 25006 25007 25008 25009 25010 25011 25012 25013 25014 25015 25016 25017 25018 25019 25020 25021 25022 25023 25024 25025 25026 25027 25028 25029 25030 25031 25032 25033 25034 25035 25036 25037 25038 25039 25040 25041 25042 25043 25044 25045 25046 25047 25048 25049 25050 25051 25052 25053 25054 25055 25056 25057 25058 25059 25060 25061 25062 25063 25064 25065 25066 25067 25068 25069 25070 25071 25072 25073 25074 25075 25076 25077 25078 25079 25080 25081 25082 25083 25084 25085 25086 25087 25088 25089 25090 25091 25092 25093 25094 25095 25096 25097 25098 25099 25100 25101 25102 25103 25104 25105 25106 25107 25108 25109 25110 25111 25112 25113 25114 25115 25116 25117 25118 25119 25120 25121 25122 25123 25124 25125 25126 25127 25128 25129 25130 25131 25132 25133 25134 25135 25136 25137 25138 25139 25140 25141 25142 25143 25144 25145 25146 25147 25148 25149 25150 25151 25152 25153 25154 25155 25156 25157 25158 25159 25160 25161 25162 25163 25164 25165 25166 25167 25168 25169 25170 25171 25172 25173 25174 25175 25176 25177 25178 25179 25180 25181 25182 25183 25184 25185 25186 25187 25188 25189 25190 25191 25192 25193 25194 25195 25196 25197 25198 25199 25200 25201 25202 25203 25204 25205 25206 25207 25208 25209 25210 25211 25212 25213 25214 25215 25216 25217 25218 25219 25220 25221 25222 25223 25224 25225 25226 25227 25228 25229 25230 25231 25232 25233 25234 25235 25236 25237 25238 25239 25240 25241 25242 25243 25244 25245 25246 25247 25248 25249 25250 25251 25252 25253 25254 25255 25256 25257 25258 25259 25260 25261 25262 25263 25264 25265 25266 25267 25268 25269 25270 25271 25272 25273 25274 25275 25276 25277 25278 25279 25280 25281 25282 25283 25284 25285 25286 25287 25288 25289 25290 25291 25292 25293 25294 25295 25296 25297 25298 25299 25300 25301 25302 25303 25304 25305 25306 25307 25308 25309 25310 25311 25312 25313 25314 25315 25316 25317 25318 25319 25320 25321 25322 25323 25324 25325 25326 25327 25328 25329 25330 25331 25332 25333 25334 25335 25336 25337 25338 25339 25340 25341 25342 25343 25344 25345 25346 25347 25348 25349 25350 25351 25352 25353 25354 25355 25356 25357 25358 25359 25360 25361 25362 25363 25364 25365 25366 25367 25368 25369 25370 25371 25372 25373 25374 25375 25376 25377 25378 25379 25380 25381 25382 25383 25384 25385 25386 25387 25388 25389 25390 25391 25392 25393 25394 25395 25396 25397 25398 25399 25400 25401 25402 25403 25404 25405 25406 25407 25408 25409 25410 25411 25412 25413 25414 25415 25416 25417 25418 25419 25420 25421 25422 25423 25424 25425 25426 25427 25428 25429 25430 25431 25432 25433 25434 25435 25436 25437 25438 25439 25440 25441 25442 25443 25444 25445 25446 25447 25448 25449 25450 25451 25452 25453 25454 25455 25456 25457 25458 25459 25460 25461 25462 25463 25464 25465 25466 25467 25468 25469 25470 25471 25472 25473 25474 25475 25476 25477 25478 25479 25480 25481 25482 25483 25484 25485 25486 25487 25488 25489 25490 25491 25492 25493 25494 25495 25496 25497 25498 25499 25500 25501 25502 25503 25504 25505 25506 25507 25508 25509 25510 25511 25512 25513 25514 25515 25516 25517 25518 25519 25520 25521 25522 25523 25524 25525 25526 25527 25528 25529 25530 25531 25532 25533 25534 25535 25536 25537 25538 25539 25540 25541 25542 25543 25544 25545 25546 25547 25548 25549 25550 25551 25552 25553 25554 25555 25556 25557 25558 25559 25560 25561 25562 25563 25564 25565 25566 25567 25568 25569 25570 25571 25572 25573 25574 25575 25576 25577 25578 25579 25580 25581 25582 25583 25584 25585 25586 25587 25588 25589 25590 25591 25592 25593 25594 25595 25596 25597 25598 25599 25600 25601 25602 25603 25604 25605 25606 25607 25608 25609 25610 25611 25612 25613 25614 25615 25616 25617 25618 25619 25620 25621 25622 25623 25624 25625 25626 25627 25628 25629 25630 25631 25632 25633 25634 25635 25636 25637 25638 25639 25640 25641 25642 25643 25644 25645 25646 25647 25648 25649 25650 25651 25652 25653 25654 25655 25656 25657 25658 25659 25660 25661 25662 25663 25664 25665 25666 25667 25668 25669 25670 25671 25672 25673 25674 25675 25676 25677 25678 25679 25680 25681 25682 25683 25684 25685 25686 25687 25688 25689 25690 25691 25692 25693 25694 25695 25696 25697 25698 25699 25700 25701 25702 25703 25704 25705 25706 25707 25708 25709 25710 25711 25712 25713 25714 25715 25716 25717 25718 25719 25720 25721 25722 25723 25724 25725 25726 25727 25728 25729 25730 25731 25732 25733 25734 25735 25736 25737 25738 25739 25740 25741 25742 25743 25744 25745 25746 25747 25748 25749 25750 25751 25752 25753 25754 25755 25756 25757 25758 25759 25760 25761 25762 25763 25764 25765 25766 25767 25768 25769 25770 25771 25772 25773 25774 25775 25776 25777 25778 25779 25780 25781 25782 25783 25784 25785 25786 25787 25788 25789 25790 25791 25792 25793 25794 25795 25796 25797 25798 25799 25800 25801 25802 25803 25804 25805 25806 25807 25808 25809 25810 25811 25812 25813 25814 25815 25816 25817 25818 25819 25820 25821 25822 25823 25824 25825 25826 25827 25828 25829 25830 25831 25832 25833 25834 25835 25836 25837 25838 25839 25840 25841 25842 25843 25844 25845 25846 25847 25848 25849 25850 25851 25852 25853 25854 25855 25856 25857 25858 25859 25860 25861 25862 25863 25864 25865 25866 25867 25868 25869 25870 25871 25872 25873 25874 25875 25876 25877 25878 25879 25880 25881 25882 25883 25884 25885 25886 25887 25888 25889 25890 25891 25892 25893 25894 25895 25896 25897 25898 25899 25900 25901 25902 25903 25904 25905 25906 25907 25908 25909 25910 25911 25912 25913 25914 25915 25916 25917 25918 25919 25920 25921 25922 25923 25924 25925 25926 25927 25928 25929 25930 25931 25932 25933 25934 25935 25936 25937 25938 25939 25940 25941 25942 25943 25944 25945 25946 25947 25948 25949 25950 25951 25952 25953 25954 25955 25956 25957 25958 25959 25960 25961 25962 25963 25964 25965 25966 25967 25968 25969 25970 25971 25972 25973 25974 25975 25976 25977 25978 25979 25980 25981 25982 25983 25984 25985 25986 25987 25988 25989 25990 25991 25992 25993 25994 25995 25996 25997 25998 25999 26000 26001 26002 26003 26004 26005 26006 26007 26008 26009 26010 26011 26012 26013 26014 26015 26016 26017 26018 26019 26020 26021 26022 26023 26024 26025 26026 26027 26028 26029 26030 26031 26032 26033 26034 26035 26036 26037 26038 26039 26040 26041 26042 26043 26044 26045 26046 26047 26048 26049 26050 26051 26052 26053 26054 26055 26056 26057 26058 26059 26060 26061 26062 26063 26064 26065 26066 26067 26068 26069 26070 26071 26072 26073 26074 26075 26076 26077 26078 26079 26080 26081 26082 26083 26084 26085 26086 26087 26088 26089 26090 26091 26092 26093 26094 26095 26096 26097 26098 26099 26100 26101 26102 26103 26104 26105 26106 26107 26108 26109 26110 26111 26112 26113 26114 26115 26116 26117 26118 26119 26120 26121 26122 26123 26124 26125 26126 26127 26128 26129 26130 26131 26132 26133 26134 26135 26136 26137 26138 26139 26140 26141 26142 26143 26144 26145 26146 26147 26148 26149 26150 26151 26152 26153 26154 26155 26156 26157 26158 26159 26160 26161 26162 26163 26164 26165 26166 26167 26168 26169 26170 26171 26172 26173 26174 26175 26176 26177 26178 26179 26180 26181 26182 26183 26184 26185 26186 26187 26188 26189 26190 26191 26192 26193 26194 26195 26196 26197 26198 26199 26200 26201 26202 26203 26204 26205 26206 26207 26208 26209 26210 26211 26212 26213 26214 26215 26216 26217 26218 26219 26220 26221 26222 26223 26224 26225 26226 26227 26228 26229 26230 26231 26232 26233 26234 26235 26236 26237 26238 26239 26240 26241 26242 26243 26244 26245 26246 26247 26248 26249 26250 26251 26252 26253 26254 26255 26256 26257 26258 26259 26260 26261 26262 26263 26264 26265 26266 26267 26268 26269 26270 26271 26272 26273 26274 26275 26276 26277 26278 26279 26280 26281 26282 26283 26284 26285 26286 26287 26288 26289 26290 26291 26292 26293 26294 26295 26296 26297 26298 26299 26300 26301 26302 26303 26304 26305 26306 26307 26308 26309 26310 26311 26312 26313 26314 26315 26316 26317 26318 26319 26320 26321 26322 26323 26324 26325 26326 26327 26328 26329 26330 26331 26332 26333 26334 26335 26336 26337 26338 26339 26340 26341 26342 26343 26344 26345 26346 26347 26348 26349 26350 26351 26352 26353 26354 26355 26356 26357 26358 26359 26360 26361 26362 26363 26364 26365 26366 26367 26368 26369 26370 26371 26372 26373 26374 26375 26376 26377 26378 26379 26380 26381 26382 26383 26384 26385 26386 26387 26388 26389 26390 26391 26392 26393 26394 26395 26396 26397 26398 26399 26400 26401 26402 26403 26404 26405 26406 26407 26408 26409 26410 26411 26412 26413 26414 26415 26416 26417 26418 26419 26420 26421 26422 26423 26424 26425 26426 26427 26428 26429 26430 26431 26432 26433 26434 26435 26436 26437 26438 26439 26440 26441 26442 26443 26444 26445 26446 26447 26448 26449 26450 26451 26452 26453 26454 26455 26456 26457 26458 26459 26460 26461 26462 26463 26464 26465 26466 26467 26468 26469 26470 26471 26472 26473 26474 26475 26476 26477 26478 26479 26480 26481 26482 26483 26484 26485 26486 26487 26488 26489 26490 26491 26492 26493 26494 26495 26496 26497 26498 26499 26500 26501 26502 26503 26504 26505 26506 26507 26508 26509 26510 26511 26512 26513 26514 26515 26516 26517 26518 26519 26520 26521 26522 26523 26524 26525 26526 26527 26528 26529 26530 26531 26532 26533 26534 26535 26536 26537 26538 26539 26540 26541 26542 26543 26544 26545 26546 26547 26548 26549 26550 26551 26552 26553 26554 26555 26556 26557 26558 26559 26560 26561 26562 26563 26564 26565 26566 26567 26568 26569 26570 26571 26572 26573 26574 26575 26576 26577 26578 26579 26580 26581 26582 26583 26584 26585 26586 26587 26588 26589 26590 26591 26592 26593 26594 26595 26596 26597 26598 26599 26600 26601 26602 26603 26604 26605 26606 26607 26608 26609 26610 26611 26612 26613 26614 26615 26616 26617 26618 26619 26620 26621 26622 26623 26624 26625 26626 26627 26628 26629 26630 26631 26632 26633 26634 26635 26636 26637 26638 26639 26640 26641 26642 26643 26644 26645 26646 26647 26648 26649 26650 26651 26652 26653 26654 26655 26656 26657 26658 26659 26660 26661 26662 26663 26664 26665 26666 26667 26668 26669 26670 26671 26672 26673 26674 26675 26676 26677 26678 26679 26680 26681 26682 26683 26684 26685 26686 26687 26688 26689 26690 26691 26692 26693 26694 26695 26696 26697 26698 26699 26700 26701 26702 26703 26704 26705 26706 26707 26708 26709 26710 26711 26712 26713 26714 26715 26716 26717 26718 26719 26720 26721 26722 26723 26724 26725 26726 26727 26728 26729 26730 26731 26732 26733 26734 26735 26736 26737 26738 26739 26740 26741 26742 26743 26744 26745 26746 26747 26748 26749 26750 26751 26752 26753 26754 26755 26756 26757 26758 26759 26760 26761 26762 26763 26764 26765 26766 26767 26768 26769 26770 26771 26772 26773 26774 26775 26776 26777 26778 26779 26780 26781 26782 26783 26784 26785 26786 26787 26788 26789 26790 26791 26792 26793 26794 26795 26796 26797 26798 26799 26800 26801 26802 26803 26804 26805 26806 26807 26808 26809 26810 26811 26812 26813 26814 26815 26816 26817 26818 26819 26820 26821 26822 26823 26824 26825 26826 26827 26828 26829 26830 26831 26832 26833 26834 26835 26836 26837 26838 26839 26840 26841 26842 26843 26844 26845 26846 26847 26848 26849 26850 26851 26852 26853 26854 26855 26856 26857 26858 26859 26860 26861 26862 26863 26864 26865 26866 26867 26868 26869 26870 26871 26872 26873 26874 26875 26876 26877 26878 26879 26880 26881 26882 26883 26884 26885 26886 26887 26888 26889 26890 26891 26892 26893 26894 26895 26896 26897 26898 26899 26900 26901 26902 26903 26904 26905 26906 26907 26908 26909 26910 26911 26912 26913 26914 26915 26916 26917 26918 26919 26920 26921 26922 26923 26924 26925 26926 26927 26928 26929 26930 26931 26932 26933 26934 26935 26936 26937 26938 26939 26940 26941 26942 26943 26944 26945 26946 26947 26948 26949 26950 26951 26952 26953 26954 26955 26956 26957 26958 26959 26960 26961 26962 26963 26964 26965 26966 26967 26968 26969 26970 26971 26972 26973 26974 26975 26976 26977 26978 26979 26980 26981 26982 26983 26984 26985 26986 26987 26988 26989 26990 26991 26992 26993 26994 26995 26996 26997 26998 26999 27000 27001 27002 27003 27004 27005 27006 27007 27008 27009 27010 27011 27012 27013 27014 27015 27016 27017 27018 27019 27020 27021 27022 27023 27024 27025 27026 27027 27028 27029 27030 27031 27032 27033 27034 27035 27036 27037 27038 27039 27040 27041 27042 27043 27044 27045 27046 27047 27048 27049 27050 27051 27052 27053 27054 27055 27056 27057 27058 27059 27060 27061 27062 27063 27064 27065 27066 27067 27068 27069 27070 27071 27072 27073 27074 27075 27076 27077 27078 27079 27080 27081 27082 27083 27084 27085 27086 27087 27088 27089 27090 27091 27092 27093 27094 27095 27096 27097 27098 27099 27100 27101 27102 27103 27104 27105 27106 27107 27108 27109 27110 27111 27112 27113 27114 27115 27116 27117 27118 27119 27120 27121 27122 27123 27124 27125 27126 27127 27128 27129 27130 27131 27132 27133 27134 27135 27136 27137 27138 27139 27140 27141 27142 27143 27144 27145 27146 27147 27148 27149 27150 27151 27152 27153 27154 27155 27156 27157 27158 27159 27160 27161 27162 27163 27164 27165 27166 27167 27168 27169 27170 27171 27172 27173 27174 27175 27176 27177 27178 27179 27180 27181 27182 27183 27184 27185 27186 27187 27188 27189 27190 27191 27192 27193 27194 27195 27196 27197 27198 27199 27200 27201 27202 27203 27204 27205 27206 27207 27208 27209 27210 27211 27212 27213 27214 27215 27216 27217 27218 27219 27220 27221 27222 27223 27224 27225 27226 27227 27228 27229 27230 27231 27232 27233 27234 27235 27236 27237 27238 27239 27240 27241 27242 27243 27244 27245 27246 27247 27248 27249 27250 27251 27252 27253 27254 27255 27256 27257 27258 27259 27260 27261 27262 27263 27264 27265 27266 27267 27268 27269 27270 27271 27272 27273 27274 27275 27276 27277 27278 27279 27280 27281 27282 27283 27284 27285 27286 27287 27288 27289 27290 27291 27292 27293 27294 27295 27296 27297 27298 27299 27300 27301 27302 27303 27304 27305 27306 27307 27308 27309 27310 27311 27312 27313 27314 27315 27316 27317 27318 27319 27320 27321 27322 27323 27324 27325 27326 27327 27328 27329 27330 27331 27332 27333 27334 27335 27336 27337 27338 27339 27340 27341 27342 27343 27344 27345 27346 27347 27348 27349 27350 27351 27352 27353 27354 27355 27356 27357 27358 27359 27360 27361 27362 27363 27364 27365 27366 27367 27368 27369 27370 27371 27372 27373 27374 27375 27376 27377 27378 27379 27380 27381 27382 27383 27384 27385 27386 27387 27388 27389 27390 27391 27392 27393 27394 27395 27396 27397 27398 27399 27400 27401 27402 27403 27404 27405 27406 27407 27408 27409 27410 27411 27412 27413 27414 27415 27416 27417 27418 27419 27420 27421 27422 27423 27424 27425 27426 27427 27428 27429 27430 27431 27432 27433 27434 27435 27436 27437 27438 27439 27440 27441 27442 27443 27444 27445 27446 27447 27448 27449 27450 27451 27452 27453 27454 27455 27456 27457 27458 27459 27460 27461 27462 27463 27464 27465 27466 27467 27468 27469 27470 27471 27472 27473 27474 27475 27476 27477 27478 27479 27480 27481 27482 27483 27484 27485 27486 27487 27488 27489 27490 27491 27492 27493 27494 27495 27496 27497 27498 27499 27500 27501 27502 27503 27504 27505 27506 27507 27508 27509 27510 27511 27512 27513 27514 27515 27516 27517 27518 27519 27520 27521 27522 27523 27524 27525 27526 27527 27528 27529 27530 27531 27532 27533 27534 27535 27536 27537 27538 27539 27540 27541 27542 27543 27544 27545 27546 27547 27548 27549 27550 27551 27552 27553 27554 27555 27556 27557 27558 27559 27560 27561 27562 27563 27564 27565 27566 27567 27568 27569 27570 27571 27572 27573 27574 27575 27576 27577 27578 27579 27580 27581 27582 27583 27584 27585 27586 27587 27588 27589 27590 27591 27592 27593 27594 27595 27596 27597 27598 27599 27600 27601 27602 27603 27604 27605 27606 27607 27608 27609 27610 27611 27612 27613 27614 27615 27616 27617 27618 27619 27620 27621 27622 27623 27624 27625 27626 27627 27628 27629 27630 27631 27632 27633 27634 27635 27636 27637 27638 27639 27640 27641 27642 27643 27644 27645 27646 27647 27648 27649 27650 27651 27652 27653 27654 27655 27656 27657 27658 27659 27660 27661 27662 27663 27664 27665 27666 27667 27668 27669 27670 27671 27672 27673 27674 27675 27676 27677 27678 27679 27680 27681 27682 27683 27684 27685 27686 27687 27688 27689 27690 27691 27692 27693 27694 27695 27696 27697 27698 27699 27700 27701 27702 27703 27704 27705 27706 27707 27708 27709 27710 27711 27712 27713 27714 27715 27716 27717 27718 27719 27720 27721 27722 27723 27724 27725 27726 27727 27728 27729 27730 27731 27732 27733 27734 27735 27736 27737 27738 27739 27740 27741 27742 27743 27744 27745 27746 27747 27748 27749 27750 27751 27752 27753 27754 27755 27756 27757 27758 27759 27760 27761 27762 27763 27764 27765 27766 27767 27768 27769 27770 27771 27772 27773 27774 27775 27776 27777 27778 27779 27780 27781 27782 27783 27784 27785 27786 27787 27788 27789 27790 27791 27792 27793 27794 27795 27796 27797 27798 27799 27800 27801 27802 27803 27804 27805 27806 27807 27808 27809 27810 27811 27812 27813 27814 27815 27816 27817 27818 27819 27820 27821 27822 27823 27824 27825 27826 27827 27828 27829 27830 27831 27832 27833 27834 27835 27836 27837 27838 27839 27840 27841 27842 27843 27844 27845 27846 27847 27848 27849 27850 27851 27852 27853 27854 27855 27856 27857 27858 27859 27860 27861 27862 27863 27864 27865 27866 27867 27868 27869 27870 27871 27872 27873 27874 27875 27876 27877 27878 27879 27880 27881 27882 27883 27884 27885 27886 27887 27888 27889 27890 27891 27892 27893 27894 27895 27896 27897 27898 27899 27900 27901 27902 27903 27904 27905 27906 27907 27908 27909 27910 27911 27912 27913 27914 27915 27916 27917 27918 27919 27920 27921 27922 27923 27924 27925 27926 27927 27928 27929 27930 27931 27932 27933 27934 27935 27936 27937 27938 27939 27940 27941 27942 27943 27944 27945 27946 27947 27948 27949 27950 27951 27952 27953 27954 27955 27956 27957 27958 27959 27960 27961 27962 27963 27964 27965 27966 27967 27968 27969 27970 27971 27972 27973 27974 27975 27976 27977 27978 27979 27980 27981 27982 27983 27984 27985 27986 27987 27988 27989 27990 27991 27992 27993 27994 27995 27996 27997 27998 27999 28000 28001 28002 28003 28004 28005 28006 28007 28008 28009 28010 28011 28012 28013 28014 28015 28016 28017 28018 28019 28020 28021 28022 28023 28024 28025 28026 28027 28028 28029 28030 28031 28032 28033 28034 28035 28036 28037 28038 28039 28040 28041 28042 28043 28044 28045 28046 28047 28048 28049 28050 28051 28052 28053 28054 28055 28056 28057 28058 28059 28060 28061 28062 28063 28064 28065 28066 28067 28068 28069 28070 28071 28072 28073 28074 28075 28076 28077 28078 28079 28080 28081 28082 28083 28084 28085 28086 28087 28088 28089 28090 28091 28092 28093 28094 28095 28096 28097 28098 28099 28100 28101 28102 28103 28104 28105 28106 28107 28108 28109 28110 28111 28112 28113 28114 28115 28116 28117 28118 28119 28120 28121 28122 28123 28124 28125 28126 28127 28128 28129 28130 28131 28132 28133 28134 28135 28136 28137 28138 28139 28140 28141 28142 28143 28144 28145 28146 28147 28148 28149 28150 28151 28152 28153 28154 28155 28156 28157 28158 28159 28160 28161 28162 28163 28164 28165 28166 28167 28168 28169 28170 28171 28172 28173 28174 28175 28176 28177 28178 28179 28180 28181 28182 28183 28184 28185 28186 28187 28188 28189 28190 28191 28192 28193 28194 28195 28196 28197 28198 28199 28200 28201 28202 28203 28204 28205 28206 28207 28208 28209 28210 28211 28212 28213 28214 28215 28216 28217 28218 28219 28220 28221 28222 28223 28224 28225 28226 28227 28228 28229 28230 28231 28232 28233 28234 28235 28236 28237 28238 28239 28240 28241 28242 28243 28244 28245 28246 28247 28248 28249 28250 28251 28252 28253 28254 28255 28256 28257 28258 28259 28260 28261 28262 28263 28264 28265 28266 28267 28268 28269 28270 28271 28272 28273 28274 28275 28276 28277 28278 28279 28280 28281 28282 28283 28284 28285 28286 28287 28288 28289 28290 28291 28292 28293 28294 28295 28296 28297 28298 28299 28300 28301 28302 28303 28304 28305 28306 28307 28308 28309 28310 28311 28312 28313 28314 28315 28316 28317 28318 28319 28320 28321 28322 28323 28324 28325 28326 28327 28328 28329 28330 28331 28332 28333 28334 28335 28336 28337 28338 28339 28340 28341 28342 28343 28344 28345 28346 28347 28348 28349 28350 28351 28352 28353 28354 28355 28356 28357 28358 28359 28360 28361 28362 28363 28364 28365 28366 28367 28368 28369 28370 28371 28372 28373 28374 28375 28376 28377 28378 28379 28380 28381 28382 28383 28384 28385 28386 28387 28388 28389 28390 28391 28392 28393 28394 28395 28396 28397 28398 28399 28400 28401 28402 28403 28404 28405 28406 28407 28408 28409 28410 28411 28412 28413 28414 28415 28416 28417 28418 28419 28420 28421 28422 28423 28424 28425 28426 28427 28428 28429 28430 28431 28432 28433 28434 28435 28436 28437 28438 28439 28440 28441 28442 28443 28444 28445 28446 28447 28448 28449 28450 28451 28452 28453 28454 28455 28456 28457 28458 28459 28460 28461 28462 28463 28464 28465 28466 28467 28468 28469 28470 28471 28472 28473 28474 28475 28476 28477 28478 28479 28480 28481 28482 28483 28484 28485 28486 28487 28488 28489 28490 28491 28492 28493 28494 28495 28496 28497 28498 28499 28500 28501 28502 28503 28504 28505 28506 28507 28508 28509 28510 28511 28512 28513 28514 28515 28516 28517 28518 28519 28520 28521 28522 28523 28524 28525 28526 28527 28528 28529 28530 28531 28532 28533 28534 28535 28536 28537 28538 28539 28540 28541 28542 28543 28544 28545 28546 28547 28548 28549 28550 28551 28552 28553 28554 28555 28556 28557 28558 28559 28560 28561 28562 28563 28564 28565 28566 28567 28568 28569 28570 28571 28572 28573 28574 28575 28576 28577 28578 28579 28580 28581 28582 28583 28584 28585 28586 28587 28588 28589 28590 28591 28592 28593 28594 28595 28596 28597 28598 28599 28600 28601 28602 28603 28604 28605 28606 28607 28608 28609 28610 28611 28612 28613 28614 28615 28616 28617 28618 28619 28620 28621 28622 28623 28624 28625 28626 28627 28628 28629 28630 28631 28632 28633 28634 28635 28636 28637 28638 28639 28640 28641 28642 28643 28644 28645 28646 28647 28648 28649 28650 28651 28652 28653 28654 28655 28656 28657 28658 28659 28660 28661 28662 28663 28664 28665 28666 28667 28668 28669 28670 28671 28672 28673 28674 28675 28676 28677 28678 28679 28680 28681 28682 28683 28684 28685 28686 28687 28688 28689 28690 28691 28692 28693 28694 28695 28696 28697 28698 28699 28700 28701 28702 28703 28704 28705 28706 28707 28708 28709 28710 28711 28712 28713 28714 28715 28716 28717 28718 28719 28720 28721 28722 28723 28724 28725 28726 28727 28728 28729 28730 28731 28732 28733 28734 28735 28736 28737 28738 28739 28740 28741 28742 28743 28744 28745 28746 28747 28748 28749 28750 28751 28752 28753 28754 28755 28756 28757 28758 28759 28760 28761 28762 28763 28764 28765 28766 28767 28768 28769 28770 28771 28772 28773 28774 28775 28776 28777 28778 28779 28780 28781 28782 28783 28784 28785 28786 28787 28788 28789 28790 28791 28792 28793 28794 28795 28796 28797 28798 28799 28800 28801 28802 28803 28804 28805 28806 28807 28808 28809 28810 28811 28812 28813 28814 28815 28816 28817 28818 28819 28820 28821 28822 28823 28824 28825 28826 28827 28828 28829 28830 28831 28832 28833 28834 28835 28836 28837 28838 28839 28840 28841 28842 28843 28844 28845 28846 28847 28848 28849 28850 28851 28852 28853 28854 28855 28856 28857 28858 28859 28860 28861 28862 28863 28864 28865 28866 28867 28868 28869 28870 28871 28872 28873 28874 28875 28876 28877 28878 28879 28880 28881 28882 28883 28884 28885 28886 28887 28888 28889 28890 28891 28892 28893 28894 28895 28896 28897 28898 28899 28900 28901 28902 28903 28904 28905 28906 28907 28908 28909 28910 28911 28912 28913 28914 28915 28916 28917 28918 28919 28920 28921 28922 28923 28924 28925 28926 28927 28928 28929 28930 28931 28932 28933 28934 28935 28936 28937 28938 28939 28940 28941 28942 28943 28944 28945 28946 28947 28948 28949 28950 28951 28952 28953 28954 28955 28956 28957 28958 28959 28960 28961 28962 28963 28964 28965 28966 28967 28968 28969 28970 28971 28972 28973 28974 28975 28976 28977 28978 28979 28980 28981 28982 28983 28984 28985 28986 28987 28988 28989 28990 28991 28992 28993 28994 28995 28996 28997 28998 28999 29000 29001 29002 29003 29004 29005 29006 29007 29008 29009 29010 29011 29012 29013 29014 29015 29016 29017 29018 29019 29020 29021 29022 29023 29024 29025 29026 29027 29028 29029 29030 29031 29032 29033 29034 29035 29036 29037 29038 29039 29040 29041 29042 29043 29044 29045 29046 29047 29048 29049 29050 29051 29052 29053 29054 29055 29056 29057 29058 29059 29060 29061 29062 29063 29064 29065 29066 29067 29068 29069 29070 29071 29072 29073 29074 29075 29076 29077 29078 29079 29080 29081 29082 29083 29084 29085 29086 29087 29088 29089 29090 29091 29092 29093 29094 29095 29096 29097 29098 29099 29100 29101 29102 29103 29104 29105 29106 29107 29108 29109 29110 29111 29112 29113 29114 29115 29116 29117 29118 29119 29120 29121 29122 29123 29124 29125 29126 29127 29128 29129 29130 29131 29132 29133 29134 29135 29136 29137 29138 29139 29140 29141 29142 29143 29144 29145 29146 29147 29148 29149 29150 29151 29152 29153 29154 29155 29156 29157 29158 29159 29160 29161 29162 29163 29164 29165 29166 29167 29168 29169 29170 29171 29172 29173 29174 29175 29176 29177 29178 29179 29180 29181 29182 29183 29184 29185 29186 29187 29188 29189 29190 29191 29192 29193 29194 29195 29196 29197 29198 29199 29200 29201 29202 29203 29204 29205 29206 29207 29208 29209 29210 29211 29212 29213 29214 29215 29216 29217 29218 29219 29220 29221 29222 29223 29224 29225 29226 29227 29228 29229 29230 29231 29232 29233 29234 29235 29236 29237 29238 29239 29240 29241 29242 29243 29244 29245 29246 29247 29248 29249 29250 29251 29252 29253 29254 29255 29256 29257 29258 29259 29260 29261 29262 29263 29264 29265 29266 29267 29268 29269 29270 29271 29272 29273 29274 29275 29276 29277 29278 29279 29280 29281 29282 29283 29284 29285 29286 29287 29288 29289 29290 29291 29292 29293 29294 29295 29296 29297 29298 29299 29300 29301 29302 29303 29304 29305 29306 29307 29308 29309 29310 29311 29312 29313 29314 29315 29316 29317 29318 29319 29320 29321 29322 29323 29324 29325 29326 29327 29328 29329 29330 29331 29332 29333 29334 29335 29336 29337 29338 29339 29340 29341 29342 29343 29344 29345 29346 29347 29348 29349 29350 29351 29352 29353 29354 29355 29356 29357 29358 29359 29360 29361 29362 29363 29364 29365 29366 29367 29368 29369 29370 29371 29372 29373 29374 29375 29376 29377 29378 29379 29380 29381 29382 29383 29384 29385 29386 29387 29388 29389 29390 29391 29392 29393 29394 29395 29396 29397 29398 29399 29400 29401 29402 29403 29404 29405 29406 29407 29408 29409 29410 29411 29412 29413 29414 29415 29416 29417 29418 29419 29420 29421 29422 29423 29424 29425 29426 29427 29428 29429 29430 29431 29432 29433 29434 29435 29436 29437 29438 29439 29440 29441 29442 29443 29444 29445 29446 29447 29448 29449 29450 29451 29452 29453 29454 29455 29456 29457 29458 29459 29460 29461 29462 29463 29464 29465 29466 29467 29468 29469 29470 29471 29472 29473 29474 29475 29476 29477 29478 29479 29480 29481 29482 29483 29484 29485 29486 29487 29488 29489 29490 29491 29492 29493 29494 29495 29496 29497 29498 29499 29500 29501 29502 29503 29504 29505 29506 29507 29508 29509 29510 29511 29512 29513 29514 29515 29516 29517 29518 29519 29520 29521 29522 29523 29524 29525 29526 29527 29528 29529 29530 29531 29532 29533 29534 29535 29536 29537 29538 29539 29540 29541 29542 29543 29544 29545 29546 29547 29548 29549 29550 29551 29552 29553 29554 29555 29556 29557 29558 29559 29560 29561 29562 29563 29564 29565 29566 29567 29568 29569 29570 29571 29572 29573 29574 29575 29576 29577 29578 29579 29580 29581 29582 29583 29584 29585 29586 29587 29588 29589 29590 29591 29592 29593 29594 29595 29596 29597 29598 29599 29600 29601 29602 29603 29604 29605 29606 29607 29608 29609 29610 29611 29612 29613 29614 29615 29616 29617 29618 29619 29620 29621 29622 29623 29624 29625 29626 29627 29628 29629 29630 29631 29632 29633 29634 29635 29636 29637 29638 29639 29640 29641 29642 29643 29644 29645 29646 29647 29648 29649 29650 29651 29652 29653 29654 29655 29656 29657 29658 29659 29660 29661 29662 29663 29664 29665 29666 29667 29668 29669 29670 29671 29672 29673 29674 29675 29676 29677 29678 29679 29680 29681 29682 29683 29684 29685 29686 29687 29688 29689 29690 29691 29692 29693 29694 29695 29696 29697 29698 29699 29700 29701 29702 29703 29704 29705 29706 29707 29708 29709 29710 29711 29712 29713 29714 29715 29716 29717 29718 29719 29720 29721 29722 29723 29724 29725 29726 29727 29728 29729 29730 29731 29732 29733 29734 29735 29736 29737 29738 29739 29740 29741 29742 29743 29744 29745 29746 29747 29748 29749 29750 29751 29752 29753 29754 29755 29756 29757 29758 29759 29760 29761 29762 29763 29764 29765 29766 29767 29768 29769 29770 29771 29772 29773 29774 29775 29776 29777 29778 29779 29780 29781 29782 29783 29784 29785 29786 29787 29788 29789 29790 29791 29792 29793 29794 29795 29796 29797 29798 29799 29800 29801 29802 29803 29804 29805 29806 29807 29808 29809 29810 29811 29812 29813 29814 29815 29816 29817 29818 29819 29820 29821 29822 29823 29824 29825 29826 29827 29828 29829 29830 29831 29832 29833 29834 29835 29836 29837 29838 29839 29840 29841 29842 29843 29844 29845 29846 29847 29848 29849 29850 29851 29852 29853 29854 29855 29856 29857 29858 29859 29860 29861 29862 29863 29864 29865 29866 29867 29868 29869 29870 29871 29872 29873 29874 29875 29876 29877 29878 29879 29880 29881 29882 29883 29884 29885 29886 29887 29888 29889 29890 29891 29892 29893 29894 29895 29896 29897 29898 29899 29900 29901 29902 29903 29904 29905 29906 29907 29908 29909 29910 29911 29912 29913 29914 29915 29916 29917 29918 29919 29920 29921 29922 29923 29924 29925 29926 29927 29928 29929 29930 29931 29932 29933 29934 29935 29936 29937 29938 29939 29940 29941 29942 29943 29944 29945 29946 29947 29948 29949 29950 29951 29952 29953 29954 29955 29956 29957 29958 29959 29960 29961 29962 29963 29964 29965 29966 29967 29968 29969 29970 29971 29972 29973 29974 29975 29976 29977 29978 29979 29980 29981 29982 29983 29984 29985 29986 29987 29988 29989 29990 29991 29992 29993 29994 29995 29996 29997 29998 29999 30000 30001 30002 30003 30004 30005 30006 30007 30008 30009 30010 30011 30012 30013 30014 30015 30016 30017 30018 30019 30020 30021 30022 30023 30024 30025 30026 30027 30028 30029 30030 30031 30032 30033 30034 30035 30036 30037 30038 30039 30040 30041 30042 30043 30044 30045 30046 30047 30048 30049 30050 30051 30052 30053 30054 30055 30056 30057 30058 30059 30060 30061 30062 30063 30064 30065 30066 30067 30068 30069 30070 30071 30072 30073 30074 30075 30076 30077 30078 30079 30080 30081 30082 30083 30084 30085 30086 30087 30088 30089 30090 30091 30092 30093 30094 30095 30096 30097 30098 30099 30100 30101 30102 30103 30104 30105 30106 30107 30108 30109 30110 30111 30112 30113 30114 30115 30116 30117 30118 30119 30120 30121 30122 30123 30124 30125 30126 30127 30128 30129 30130 30131 30132 30133 30134 30135 30136 30137 30138 30139 30140 30141 30142 30143 30144 30145 30146 30147 30148 30149 30150 30151 30152 30153 30154 30155 30156 30157 30158 30159 30160 30161 30162 30163 30164 30165 30166 30167 30168 30169 30170 30171 30172 30173 30174 30175 30176 30177 30178 30179 30180 30181 30182 30183 30184 30185 30186 30187 30188 30189 30190 30191 30192 30193 30194 30195 30196 30197 30198 30199 30200 30201 30202 30203 30204 30205 30206 30207 30208 30209 30210 30211 30212 30213 30214 30215 30216 30217 30218 30219 30220 30221 30222 30223 30224 30225 30226 30227 30228 30229 30230 30231 30232 30233 30234 30235 30236 30237 30238 30239 30240 30241 30242 30243 30244 30245 30246 30247 30248 30249 30250 30251 30252 30253 30254 30255 30256 30257 30258 30259 30260 30261 30262 30263 30264 30265 30266 30267 30268 30269 30270 30271 30272 30273 30274 30275 30276 30277 30278 30279 30280 30281 30282 30283 30284 30285 30286 30287 30288 30289 30290 30291 30292 30293 30294 30295 30296 30297 30298 30299 30300 30301 30302 30303 30304 30305 30306 30307 30308 30309 30310 30311 30312 30313 30314 30315 30316 30317 30318 30319 30320 30321 30322 30323 30324 30325 30326 30327 30328 30329 30330 30331 30332 30333 30334 30335 30336 30337 30338 30339 30340 30341 30342 30343 30344 30345 30346 30347 30348 30349 30350 30351 30352 30353 30354 30355 30356 30357 30358 30359 30360 30361 30362 30363 30364 30365 30366 30367 30368 30369 30370 30371 30372 30373 30374 30375 30376 30377 30378 30379 30380 30381 30382 30383 30384 30385 30386 30387 30388 30389 30390 30391 30392 30393 30394 30395 30396 30397 30398 30399 30400 30401 30402 30403 30404 30405 30406 30407 30408 30409 30410 30411 30412 30413 30414 30415 30416 30417 30418 30419 30420 30421 30422 30423 30424 30425 30426 30427 30428 30429 30430 30431 30432 30433 30434 30435 30436 30437 30438 30439 30440 30441 30442 30443 30444 30445 30446 30447 30448 30449 30450 30451 30452 30453 30454 30455 30456 30457 30458 30459 30460 30461 30462 30463 30464 30465 30466 30467 30468 30469 30470 
</DataArray>
<DataArray type="UInt32" Name="offsets" format="ascii">
3 6 9 11 14 17 20 23 26 29 32 35 38 41 43 46 49 51 54 57 60 63 66 69 72 75 78 81 84 87 90 93 96 99 102 105 108 111 114 117 120 123 126 129 132 135 138 140 143 146 149 151 154 157 160 163 166 169 171 174 177 180 183 186 189 191 194 197 200 203 206 209 212 215 218 221 224 227 230 233 236 239 242 245 248 251 254 257 260 263 266 269 272 275 278 281 284 287 290 293 296 299 302 305 308 311 314 317 320 323 326 329 332 335 338 341 344 347 349 352 355 358 361 364 366 368 371 374 377 380 383 386 389 391 393 396 399 402 405 408 411 413 416 419 422 425 427 429 431 434 437 440 443 446 449 452 455 458 461 464 467 470 473 476 479 482 485 488 491 494 497 500 503 506 509 512 515 518 521 524 527 530 533 536 539 542 545 548 551 554 557 560 563 566 569 572 575 578 581 584 587 590 593 596 599 602 605 608 611 614 617 620 623 626 628 631 634 637 640 642 645 648 651 654 657 659 662 665 668 670 673 675 678 680 683 685 688 691 694 697 700 703 706 709 712 715 718 721 724 727 730 733 736 739 741 744 747 750 753 756 759 762 765 768 771 774 777 780 783 786 789 791 794 797 799 802 805 808 810 813 816 819 821 824 827 830 833 836 839 842 845 848 851 854 857 860 863 866 869 872 875 878 881 884 887 890 893 896 898 901 904 907 909 912 915 918 921 924 927 930 933 936 939 942 945 948 951 954 957 960 963 966 969 972 975 978 981 984 987 990 993 996 999 1002 1005 1008 1011 1014 1017 1020 1023 1026 1029 1032 1034 1037 1039 1042 1045 1048 1051 1054 1057 1060 1063 1066 1069 1071 1074 1077 1080 1083 1086 1089 1092 1095 1098 1101 1104 1107 1110 1113 1116 1119 1122 1125 1128 1131 1134 1137 1140 1143 1146 1149 1152 1155 1158 1161 1164 1166 1169 1172 1174 1177 1180 1183 1186 1188 1190 1193 1196 1199 1202 1205 1208 1211 1214 1217 1220 1223 1225 1228 1231 1234 1237 1240 1243 1245 1248 1251 1254 1257 1259 1262 1265 1268 1271 1274 1277 1280 1282 1285 1288 1291 1294 1296 1299 1302 1305 1307 1310 1313 1315 1318 1321 1324 1327 1330 1332 1335 1338 1341 1344 1347 1350 1353 1355 1358 1361 1364 1367 1370 1373 1375 1378 1381 1384 1387 1389 1392 1395 1398 1401 1404 1407 1410 1413 1415 1418 1421 1424 1427 1430 1433 1436 1439 1442 1445 1448 1451 1454 1457 1460 1463 1466 1468 1471 1474 1477 1480 1483 1486 1489 1492 1495 1498 1501 1504 1507 1510 1512 1515 1518 1521 1524 1527 1530 1533 1536 1539 1542 1545 1547 1550 1553 1556 1559 1562 1565 1568 1571 1574 1577 1580 1583 1586 1588 1591 1594 1597 1600 1603 1606 1609 1612 1615 1618 1621 1624 1627 1630 1632 1635 1638 1640 1643 1646 1649 1651 1654 1657 1660 1663 1665 1668 1671 1674 1677 1680 1683 1686 1688 1691 1693 1696 1699 1702 1705 1708 1711 1713 1716 1719 1722 1725 1727 1730 1733 1736 1739 1742 1745 1748 1750 1753 1756 1759 1762 1765 1768 1771 1774 1777 1780 1783 1786 1789 1792 1795 1798 1801 1803 1806 1809 1812 1815 1817 1820 1823 1826 1828 1831 1834 1837 1840 1843 1846 1849 1852 1855 1858 1861 1863 1866 1869 1872 1875 1878 1881 1884 1887 1890 1893 1896 1899 1902 1905 1908 1911 1914 1917 1920 1923 1926 1929 1932 1935 1938 1941 1944 1947 1950 1953 1956 1958 1961 1964 1967 1970 1973 1976 1979 1982 1985 1988 1991 1994 1997 2000 2003 2006 2009 2012 2015 2018 2021 2024 2027 2030 2033 2036 2038 2041 2044 2047 2050 2053 2056 2058 2061 2063 2066 2069 2072 2074 2076 2079 2081 2084 2087 2089 2092 2095 2097 2100 2103 2105 2108 2111 2114 2117 2119 2122 2124 2127 2130 2133 2136 2139 2141 2144 2147 2149 2152 2155 2158 2160 2163 2165 2168 2171 2174 2177 2180 2183 2186 2189 2192 2195 2198 2201 2203 2205 2208 2211 2214 2217 2219 2222 2225 2227 2230 2233 2236 2239 2242 2245 2248 2251 2254 2256 2259 2262 2265 2268 2271 2273 2276 2279 2282 2285 2288 2291 2294 2297 2300 2303 2306 2309 2312 2314 2317 2319 2322 2325 2328 2331 2333 2336 2339 2342 2345 2348 2351 2354 2356 2359 2362 2365 2367 2369 2372 2375 2378 2380 2383 2386 2389 2392 2395 2398 2401 2404 2407 2410 2413 2416 2419 2422 2425 2427 2430 2433 2436 2438 2441 2444 2446 2449 2452 2454 2457 2460 2463 2466 2469 2472 2474 2476 2479 2482 2485 2488 2491 2494 2497 2500 2503 2506 2509 2512 2515 2518 2521 2524 2527 2530 2533 2536 2539 2541 2544 2547 2549 2552 2555 2558 2561 2563 2566 2569 2572 2575 2577 2580 2582 2584 2587 2589 2591 2594 2597 2600 2603 2606 2609 2612 2615 2618 2621 2624 2627 2629 2632 2635 2638 2641 2644 2647 2650 2653 2656 2659 2662 2665 2668 2670 2672 2675 2678 2681 2684 2687 2690 2693 2696 2699 2702 2705 2708 2711 2714 2717 2720 2723 2726 2729 2732 2735 2738 2741 2744 2747 2750 2753 2756 2759 2762 2765 2767 2770 2773 2776 2779 2782 2785 2788 2791 2794 2797 2800 2803 2806 2809 2812 2815 2818 2820 2822 2825 2828 2831 2834 2837 2840 2843 2846 2849 2852 2855 2858 2861 2864 2866 2869 2872 2875 2878 2881 2884 2886 2889 2891 2894 2897 2900 2903 2906 2909 2912 2915 2918 2921 2924 2927 2930 2933 2936 2939 2942 2944 2947 2950 2953 2956 2959 2962 2964 2967 2969 2972 2975 2978 2981 2984 2986 2989 2992 2995 2998 3001 3003 3006 3009 3012 3015 3018 3021 3024 3027 3030 3033 3036 3039 3042 3044 3047 3050 3053 3056 3059 3062 3065 3067 3070 3073 3075 3078 3081 3083 3086 3089 3091 3094 3097 3100 3103 3106 3109 3112 3115 3118 3121 3124 3127 3130 3133 3136 3138 3141 3144 3147 3150 3152 3155 3158 3161 3164 3167 3170 3173 3176 3179 3182 3184 3187 3190 3193 3196 3199 3202 3205 3208 3211 3213 3216 3219 3222 3225 3228 3231 3234 3237 3240 3243 3246 3249 3252 3255 3258 3261 3264 3267 3270 3273 3276 3279 3282 3284 3287 3290 3293 3296 3299 3301 3304 3307 3309 3312 3315 3318 3321 3324 3327 3330 3333 3336 3339 3342 3345 3348 3351 3354 3357 3360 3363 3366 3369 3372 3375 3378 3380 3383 3386 3389 3392 3395 3398 3401 3404 3407 3410 3413 3416 3419 3422 3425 3428 3431 3434 3437 3440 3443 3446 3449 3452 3455 3458 3461 3464 3467 3470 3473 3476 3479 3482 3485 3488 3491 3494 3497 3500 3503 3506 3509 3512 3515 3518 3521 3523 3526 3529 3532 3535 3538 3540 3543 3546 3549 3552 3555 3558 3560 3563 3566 3569 3572 3574 3577 3580 3583 3586 3588 3591 3594 3597 3600 3603 3605 3608 3611 3614 3616 3619 3622 3625 3628 3631 3634 3637 3639 3642 3645 3648 3651 3653 3656 3659 3662 3665 3667 3669 3671 3674 3677 3680 3683 3686 3689 3692 3695 3698 3701 3704 3707 3710 3713 3716 3719 3722 3725 3728 3731 3734 3737 3740 3743 3746 3749 3752 3755 3758 3761 3764 3767 3770 3773 3776 3779 3782 3785 3788 3790 3793 3796 3799 3802 3805 3808 3811 3814 3817 3820 3823 3826 3829 3832 3835 3838 3841 3844 3847 3850 3853 3856 3859 3862 3865 3868 3871 3874 3877 3880 3883 3885 3888 3891 3894 3897 3900 3903 3905 3908 3911 3914 3917 3920 3922 3925 3928 3931 3934 3937 3940 3943 3946 3949 3952 3955 3958 3961 3964 3967 3970 3973 3976 3979 3981 3984 3987 3990 3992 3995 3997 4000 4003 4006 4009 4011 4014 4017 4020 4023 4025 4028 4031 4034 4037 4040 4043 4046 4049 4052 4054 4057 4060 4063 4066 4069 4072 4074 4077 4080 4082 4085 4088 4091 4094 4096 4099 4102 4105 4108 4111 4114 4117 4120 4123 4126 4129 4131 4134 4137 4140 4143 4146 4149 4152 4155 4158 4160 4163 4166 4169 4171 4174 4176 4179 4182 4185 4188 4191 4194 4197 4200 4203 4206 4209 4212 4215 4218 4221 4224 4227 4230 4233 4236 4239 4242 4244 4247 4250 4253 4255 4258 4261 4264 4267 4270 4272 4275 4278 4280 4282 4285 4288 4291 4293 4296 4299 4301 4304 4306 4309 4311 4314 4316 4319 4322 4325 4327 4329 4332 4335 4338 4341 4343 4346 4349 4352 4354 4357 4360 4363 4366 4369 4372 4375 4378 4381 4383 4386 4389 4392 4395 4398 4401 4404 4407 4410 4413 4416 4418 4421 4424 4427 4430 4433 4436 4439 4442 4445 4448 4451 4454 4457 4460 4462 4465 4468 4471 4473 4476 4479 4482 4485 4487 4490 4492 4495 4498 4501 4504 4507 4510 4513 4516 4519 4522 4525 4528 4531 4534 4537 4540 4543 4546 4548 4551 4554 4557 4560 4563 4566 4569 4572 4575 4578 4580 4583 4586 4589 4592 4595 4598 4601 4604 4607 4610 4613 4616 4619 4622 4625 4628 4631 4634 4637 4640 4643 4646 4649 4652 4655 4658 4661 4664 4666 4669 4672 4675 4678 4681 4684 4687 4690 4692 4695 4698 4700 4703 4706 4709 4712 4715 4718 4721 4724 4727 4730 4733 4736 4739 4742 4745 4748 4751 4754 4756 4759 4762 4765 4768 4771 4774 4777 4780 4783 4786 4789 4792 4795 4798 4801 4804 4807 4810 4813 4816 4819 4822 4825 4828 4831 4834 4837 4839 4842 4845 4848 4851 4854 4857 4860 4863 4866 4869 4872 4875 4878 4881 4884 4887 4890 4893 4896 4899 4902 4905 4908 4911 4914 4917 4920 4923 4926 4929 4932 4935 4938 4941 4944 4947 4950 4953 4956 4959 4962 4965 4968 4971 4974 4977 4979 4981 4984 4987 4989 4992 4995 4998 5001 5003 5006 5009 5012 5015 5018 5021 5023 5026 5029 5032 5035 5038 5041 5044 5047 5050 5053 5056 5059 5062 5065 5067 5070 5073 5076 5079 5082 5085 5088 5091 5094 5097 5100 5103 5106 5109 5111 5114 5117 5120 5123 5126 5129 5132 5135 5138 5141 5144 5147 5150 5153 5156 5159 5162 5165 5168 5171 5174 5177 5180 5183 5186 5189 5192 5195 5198 5201 5204 5207 5210 5213 5216 5219 5222 5225 5228 5231 5234 5237 5239 5242 5245 5248 5251 5254 5257 5260 5263 5266 5268 5271 5274 5277 5280 5283 5286 5289 5292 5295 5298 5301 5304 5307 5310 5313 5315 5317 5320 5323 5326 5329 5332 5334 5336 5339 5341 5344 5346 5349 5352 5355 5357 5359 5361 5364 5366 5369 5372 5375 5378 5381 5383 5386 5389 5391 5394 5397 5399 5402 5405 5408 5410 5413 5415 5417 5420 5422 5424 5426 5428 5431 5434 5436 5439 5441 5444 5447 5449 5452 5455 5457 5460 5463 5466 5469 5472 5475 5477 5480 5483 5486 5489 5492 5495 5498 5501 5504 5507 5509 5512 5515 5517 5520 5523 5525 5528 5531 5534 5537 5540 5543 5546 5549 5552 5555 5558 5561 5564 5567 5570 5573 5576 5579 5582 5585 5588 5591 5594 5597 5600 5603 5606 5608 5611 5614 5617 5620 5623 5626 5629 5632 5634 5637 5640 5643 5646 5648 5651 5654 5657 5659 5662 5665 5668 5671 5674 5677 5680 5683 5686 5689 5692 5695 5697 5700 5703 5705 5708 5711 5714 5717 5720 5723 5726 5729 5732 5735 5738 5741 5744 5747 5750 5753 5756 5759 5762 5765 5767 5770 5773 5776 5779 5781 5784 5787 5790 5793 5796 5799 5802 5805 5808 5811 5814 5817 5820 5823 5826 5829 5832 5835 5838 5840 5843 5846 5849 5852 5855 5858 5861 5863 5866 5869 5872 5874 5877 5880 5883 5886 5889 5892 5895 5898 5901 5903 5906 5909 5912 5915 5918 5921 5924 5927 5930 5933 5936 5938 5941 5944 5947 5949 5952 5955 5958 5960 5963 5966 5969 5972 5975 5977 5980 5983 5986 5989 5992 5995 5998 6001 6004 6007 6010 6013 6016 6018 6021 6024 6027 6030 6033 6036 6039 6042 6045 6048 6051 6054 6057 6060 6063 6066 6069 6072 6075 6078 6081 6084 6087 6090 6092 6095 6098 6101 6104 6107 6110 6113 6115 6118 6121 6124 6127 6130 6133 6136 6139 6142 6145 6148 6151 6154 6157 6160 6163 6166 6169 6171 6174 6176 6179 6182 6185 6188 6191 6194 6196 6199 6202 6205 6208 6211 6214 6217 6220 6223 6226 6229 6232 6235 6238 6241 6244 6247 6250 6253 6256 6259 6262 6265 6268 6271 6274 6277 6280 6283 6285 6288 6291 6294 6297 6299 6302 6305 6308 6311 6314 6317 6320 6323 6326 6328 6331 6334 6336 6339 6342 6344 6347 6350 6353 6356 6359 6362 6365 6368 6370 6373 6376 6379 6382 6384 6387 6390 6393 6396 6398 6401 6404 6407 6410 6413 6416 6418 6421 6424 6427 6429 6432 6435 6437 6440 6443 6445 6448 6451 6453 6456 6458 6461 6463 6466 6469 6471 6474 6477 6480 6483 6486 6489 6491 6494 6497 6500 6502 6505 6508 6510 6513 6516 6519 6522 6525 6528 6531 6534 6537 6539 6542 6545 6548 6551 6554 6557 6560 6562 6565 6568 6571 6574 6577 6580 6583 6586 6588 6591 6594 6597 6600 6603 6606 6609 6612 6615 6618 6621 6624 6627 6630 6633 6636 6639 6642 6645 6648 6651 6654 6657 6660 6663 6666 6668 6671 6673 6676 6679 6682 6684 6687 6690 6693 6696 6699 6702 6705 6708 6711 6714 6717 6720 6723 6726 6729 6732 6735 6738 6741 6744 6747 6750 6753 6756 6759 6762 6765 6767 6770 6772 6775 6778 6781 6784 6787 6790 6793 6796 6799 6802 6805 6808 6811 6814 6817 6820 6823 6826 6829 6831 6834 6837 6840 6842 6845 6848 6851 6854 6857 6860 6863 6866 6869 6872 6875 6878 6881 6884 6887 6890 6893 6896 6899 6902 6904 6907 6910 6913 6916 6919 6922 6925 6928 6931 6934 6937 6940 6943 6946 6949 6952 6955 6958 6961 6964 6967 6970 6973 6976 6979 6982 6985 6988 6991 6994 6997 7000 7003 7006 7009 7012 7015 7018 7021 7024 7027 7030 7033 7036 7039 7042 7045 7048 7051 7054 7057 7060 7063 7065 7068 7071 7074 7077 7079 7082 7085 7088 7091 7094 7097 7100 7103 7106 7109 7112 7115 7118 7121 7123 7126 7129 7132 7135 7138 7140 7143 7146 7149 7152 7155 7158 7161 7164 7167 7170 7173 7176 7179 7182 7185 7188 7191 7194 7197 7200 7203 7206 7209 7212 7215 7217 7219 7222 7225 7228 7230 7233 7236 7239 7242 7245 7248 7251 7253 7256 7259 7262 7265 7268 7271 7274 7277 7280 7283 7285 7288 7291 7294 7297 7300 7303 7305 7307 7310 7313 7316 7319 7322 7325 7328 7331 7334 7336 7339 7342 7345 7347 7350 7353 7356 7359 7362 7364 7367 7369 7372 7375 7378 7381 7384 7387 7390 7392 7395 7398 7401 7404 7407 7410 7413 7416 7419 7422 7425 7428 7430 7433 7436 7439 7442 7445 7448 7451 7454 7457 7460 7463 7466 7468 7471 7474 7477 7480 7482 7485 7488 7491 7494 7496 7499 7502 7505 7507 7510 7512 7515 7518 7521 7524 7527 7530 7533 7536 7539 7542 7545 7548 7551 7553 7556 7559 7562 7565 7568 7571 7574 7577 7580 7583 7586 7589 7592 7595 7598 7601 7604 7606 7608 7611 7614 7617 7620 7623 7626 7628 7631 7634 7637 7640 7643 7646 7649 7652 7655 7658 7661 7664 7667 7670 7673 7676 7679 7682 7685 7688 7691 7694 7697 7700 7703 7706 7709 7712 7715 7718 7721 7724 7727 7730 7733 7736 7739 7742 7745 7748 7751 7754 7757 7760 7763 7766 7769 7772 7775 7778 7781 7784 7787 7790 7793 7796 7799 7802 7804 7807 7810 7813 7816 7819 7821 7824 7827 7830 7833 7836 7839 7842 7845 7848 7851 7854 7856 7859 7862 7865 7867 7870 7873 7876 7879 7882 7885 7888 7891 7894 7897 7900 7903 7906 7908 7911 7914 7917 7920 7923 7926 7929 7932 7935 7938 7941 7944 7947 7950 7953 7956 7959 7962 7965 7968 7971 7974 7977 7979 7982 7985 7988 7991 7994 7997 8000 8003 8006 8009 8012 8015 8018 8021 8024 8027 8029 8032 8035 8038 8041 8044 8047 8049 8052 8055 8058 8061 8064 8067 8070 8073 8076 8079 8081 8084 8087 8090 8092 8095 8098 8101 8104 8107 8110 8113 8116 8119 8122 8125 8128 8131 8134 8136 8139 8141 8144 8147 8150 8153 8156 8159 8162 8164 8167 8169 8172 8175 8178 8181 8184 8187 8190 8193 8196 8199 8202 8205 8207 8210 8213 8216 8219 8221 8224 8227 8230 8233 8235 8238 8241 8244 8247 8249 8252 8255 8258 8261 8263 8266 8269 8272 8275 8278 8281 8284 8286 8289 8292 8295 8298 8301 8304 8307 8310 8313 8316 8319 8321 8324 8327 8330 8332 8335 8338 8340 8343 8346 8349 8352 8355 8358 8361 8364 8367 8370 8373 8376 8379 8382 8385 8388 8391 8394 8397 8400 8403 8406 8409 8412 8415 8418 8421 8424 8427 8430 8433 8436 8439 8442 8445 8448 8451 8454 8457 8460 8463 8466 8469 8472 8475 8478 8481 8484 8487 8490 8493 8496 8499 8502 8505 8508 8511 8514 8517 8520 8523 8526 8529 8532 8535 8538 8541 8544 8547 8550 8553 8556 8559 8562 8565 8568 8571 8574 8576 8579 8582 8585 8588 8591 8594 8596 8599 8602 8605 8608 8611 8614 8616 8619 8622 8625 8627 8630 8633 8636 8639 8642 8644 8647 8650 8653 8656 8659 8662 8665 8668 8671 8674 8677 8680 8683 8686 8689 8692 8695 8698 8700 8703 8706 8709 8712 8715 8718 8721 8724 8727 8730 8733 8736 8738 8741 8744 8747 8750 8753 8756 8759 8762 8765 8768 8771 8774 8777 8780 8783 8786 8789 8792 8795 8798 8801 8804 8807 8810 8812 8815 8818 8821 8824 8827 8830 8833 8836 8839 8842 8844 8846 8849 8851 8854 8857 8859 8862 8865 8868 8871 8874 8877 8880 8883 8886 8889 8892 8895 8898 8901 8904 8907 8910 8913 8915 8918 8921 8924 8927 8930 8933 8936 8939 8941 8944 8947 8950 8953 8956 8959 8962 8965 8968 8971 8974 8977 8980 8983 8985 8988 8991 8994 8996 8999 9002 9005 9008 9011 9014 9017 9019 9022 9025 9028 9031 9034 9036 9039 9041 9044 9047 9050 9053 9056 9059 9062 9064 9066 9069 9071 9074 9077 9079 9082 9085 9088 9091 9094 9097 9100 9103 9106 9109 9112 9115 9117 9120 9123 9126 9129 9131 9134 9137 9140 9143 9146 9149 9152 9155 9158 9161 9164 9167 9170 9173 9176 9179 9182 9185 9188 9190 9193 9196 9199 9202 9205 9208 9211 9213 9216 9219 9222 9225 9228 9231 9234 9237 9240 9243 9246 9249 9252 9255 9258 9261 9264 9267 9270 9273 9276 9279 9282 9284 9287 9290 9293 9295 9298 9300 9303 9306 9309 9312 9315 9318 9320 9323 9326 9329 9332 9335 9338 9341 9343 9346 9349 9352 9355 9358 9360 9363 9366 9368 9371 9373 9376 9378 9381 9384 9387 9390 9393 9396 9398 9401 9403 9406 9409 9412 9415 9418 9420 9423 9426 9429 9432 9435 9438 9440 9443 9445 9448 9451 9454 9457 9460 9463 9466 9469 9472 9475 9478 9481 9484 9487 9489 9492 9495 9498 9501 9504 9506 9509 9512 9514 9517 9520 9523 9526 9529 9532 9535 9538 9541 9544 9547 9550 9553 9556 9559 9562 9565 9568 9571 9574 9577 9580 9583 9586 9589 9592 9594 9597 9600 9603 9606 9609 9612 9615 9618 9621 9624 9626 9628 9631 9634 9636 9639 9642 9645 9648 9651 9654 9657 9660 9663 9666 9668 9671 9674 9677 9680 9683 9686 9689 9692 9694 9697 9699 9702 9705 9708 9711 9714 9717 9720 9723 9726 9729 9731 9734 9737 9740 9743 9746 9749 9752 9754 9757 9760 9762 9765 9768 9771 9774 9777 9780 9783 9786 9789 9792 9795 9798 9801 9804 9807 9810 9813 9816 9819 9822 9825 9828 9830 9833 9836 9838 9841 9844 9847 9850 9853 9855 9858 9861 9864 9867 9870 9872 9875 9878 9881 9884 9886 9889 9892 9895 9898 9901 9904 9907 9910 9913 9916 9919 9922 9925 9928 9931 9934 9937 9940 9943 9946 9949 9952 9955 9958 9961 9964 9967 9970 9973 9976 9979 9982 9985 9988 9991 9994 9997 10000 10003 10006 10009 10012 10015 10018 10021 10024 10027 10030 10033 10036 10039 10042 10045 10048 10051 10054 10057 10060 10063 10066 10069 10072 10075 10078 10081 10084 10087 10090 10093 10096 10099 10102 10105 10108 10111 10114 10117 10120 10123 10126 10129 10132 10135 10138 10141 10143 10146 10149 10152 10155 10158 10161 10164 10167 10170 10173 10176 10179 10182 10184 10186 10189 10192 10194 10197 10200 10203 10206 10209 10212 10215 10218 10221 10224 10227 10230 10233 10236 10239 10242 10245 10248 10250 10253 10256 10259 10262 10265 10268 10271 10274 10277 10279 10282 10285 10288 10291 10294 10297 10300 10303 10306 10309 10312 10314 10317 10320 10323 10326 10329 10332 10335 10338 10341 10344 10347 10350 10352 10355 10358 10361 10364 10367 10370 10373 10376 10379 10382 10385 10387 10390 10392 10395 10398 10401 10403 10406 10409 10412 10415 10417 10420 10422 10425 10427 10430 10433 10436 10438 10440 10443 10446 10449 10452 10455 10457 10460 10463 10466 10469 10472 10475 10478 10480 10482 10485 10488 10491 10493 10495 10498 10501 10504 10507 10510 10513 10516 10519 10522 10525 10528 10531 10534 10537 10540 10543 10546 10549 10551 10554 10557 10560 10563 10566 10569 10572 10575 10577 10580 10583 10586 10588 10591 10593 10596 10599 10602 10605 10608 10611 10614 10617 10620 10623 10625 10628 10631 10634 10637 10640 10643 10646 10649 10651 10654 10657 10660 10663 10665 10668 10671 10674 10677 10679 10682 10685 10688 10691 10693 10696 10699 10702 10705 10708 10711 10714 10717 10720 10723 10725 10728 10731 10734 10737 10740 10743 10746 10749 10752 10755 10758 10761 10764 10767 10770 10773 10776 10779 10782 10785 10788 10790 10793 10796 10799 10801 10804 10806 10809 10812 10815 10818 10821 10824 10827 10830 10833 10836 10839 10841 10844 10847 10849 10852 10855 10858 10861 10864 10867 10870 10873 10876 10879 10882 10884 10887 10889 10892 10895 10898 10901 10903 10906 10909 10912 10915 10918 10921 10923 10926 10929 10931 10933 10936 10939 10942 10945 10948 10951 10953 10956 10959 10962 10965 10968 10970 10973 10976 10979 10982 10985 10988 10991 10994 10997 11000 11003 11006 11009 11012 11014 11017 11020 11023 11026 11029 11032 11035 11037 11040 11043 11046 11049 11052 11055 11057 11060 11063 11066 11069 11071 11074 11077 11080 11083 11086 11089 11091 11093 11096 11099 11102 11105 11108 11111 11113 11116 11118 11121 11124 11126 11128 11130 11133 11135 11138 11140 11143 11146 11149 11152 11155 11158 11161 11164 11166 11169 11172 11174 11177 11179 11182 11185 11188 11191 11194 11196 11198 11201 11204 11207 11210 11213 11216 11219 11221 11224 11227 11230 11233 11236 11239 11242 11245 11247 11250 11253 11256 11259 11261 11264 11267 11269 11271 11274 11277 11279 11282 11284 11287 11290 11292 11295 11298 11300 11303 11306 11309 11312 11314 11317 11320 11323 11326 11329 11332 11334 11337 11340 11343 11346 11349 11352 11355 11358 11361 11364 11367 11370 11373 11376 11379 11382 11385 11388 11390 11393 11396 11399 11402 11405 11408 11411 11414 11417 11420 11422 11425 11428 11431 11434 11436 11439 11442 11444 11447 11449 11452 11455 11458 11461 11464 11467 11470 11473 11476 11479 11482 11485 11488 11491 11494 11497 11500 11503 11506 11509 11512 11515 11518 11521 11524 11527 11530 11533 11536 11539 11542 11545 11548 11551 11554 11557 11560 11563 11566 11569 11572 11575 11578 11581 11584 11587 11590 11593 11596 11599 11602 11604 11606 11609 11612 11615 11618 11621 11624 11627 11629 11632 11635 11638 11640 11643 11646 11649 11652 11655 11658 11661 11664 11666 11669 11672 11675 11678 11681 11684 11687 11689 11692 11695 11698 11701 11704 11707 11710 11713 11715 11718 11720 11723 11726 11729 11732 11735 11738 11741 11744 11746 11749 11752 11754 11757 11760 11763 11766 11769 11772 11775 11778 11781 11784 11787 11790 11793 11796 11799 11802 11805 11808 11811 11814 11816 11819 11821 11824 11827 11830 11832 11835 11838 11840 11843 11846 11849 11852 11855 11858 11861 11863 11866 11869 11872 11875 11878 11881 11884 11886 11889 11892 11895 11898 11901 11903 11906 11909 11912 11915 11918 11921 11924 11927 11930 11933 11936 11939 11942 11945 11948 11951 11954 11957 11960 11963 11966 11969 11972 11975 11977 11980 11983 11986 11989 11992 11995 11998 12001 12003 12006 12009 12012 12015 12018 12021 12024 12027 12030 12033 12036 12039 12042 12045 12048 12051 12054 12057 12060 12063 12065 12068 12071 12074 12077 12080 12083 12086 12089 12092 12095 12098 12101 12104 12107 12110 12113 12116 12119 12122 12124 12127 12129 12132 12135 12138 12141 12144 12147 12150 12153 12156 12159 12162 12164 12167 12170 12173 12176 12179 12181 12184 12187 12190 12192 12194 12197 12200 12202 12205 12208 12210 12213 12216 12218 12221 12224 12227 12230 12232 12235 12238 12240 12242 12245 12248 12251 12254 12257 12259 12262 12265 12268 12271 12274 12277 12280 12283 12286 12289 12292 12295 12298 12301 12304 12307 12310 12313 12316 12319 12322 12325 12328 12331 12334 12337 12340 12343 12346 12349 12352 12355 12358 12361 12364 12367 12369 12372 12375 12378 12381 12384 12386 12389 12392 12394 12397 12400 12403 12406 12409 12412 12414 12417 12420 12423 12426 12429 12432 12434 12437 12440 12443 12446 12449 12452 12455 12458 12461 12464 12467 12470 12473 12476 12479 12482 12485 12488 12490 12493 12496 12499 12502 12505 12508 12511 12514 12517 12520 12523 12526 12529 12532 12535 12538 12541 12544 12547 12550 12552 12555 12557 12560 12563 12565 12568 12571 12574 12577 12580 12583 12586 12589 12591 12594 12597 12600 12603 12606 12609 12611 12614 12617 12619 12622 12625 12628 12631 12634 12636 12639 12642 12645 12648 12650 12653 12655 12658 12661 12664 12666 12669 12672 12675 12678 12681 12684 12687 12690 12693 12696 12699 12702 12705 12708 12711 12713 12716 12719 12722 12725 12728 12730 12732 12735 12738 12741 12744 12747 12750 12753 12756 12759 12761 12764 12767 12770 12773 12776 12779 12782 12784 12787 12790 12793 12796 12799 12801 12804 12807 12810 12813 12816 12819 12821 12824 12827 12830 12833 12836 12839 12842 12845 12848 12851 12854 12856 12859 12862 12865 12868 12871 12874 12877 12880 12883 12886 12889 12892 12895 12898 12901 12904 12907 12910 12913 12916 12919 12922 12925 12928 12931 12934 12936 12939 12942 12945 12948 12951 12954 12957 12960 12963 12966 12969 12972 12975 12978 12981 12984 12986 12989 12992 12995 12997 13000 13003 13006 13009 13012 13015 13017 13020 13023 13025 13028 13030 13033 13036 13039 13042 13044 13047 13050 13053 13056 13059 13062 13065 13068 13071 13074 13077 13080 13083 13086 13089 13092 13095 13098 13101 13104 13107 13110 13113 13116 13119 13122 13125 13128 13131 13134 13137 13140 13143 13146 13149 13152 13154 13157 13160 13163 13165 13168 13170 13173 13176 13179 13181 13183 13186 13189 13192 13195 13198 13201 13204 13207 13210 13213 13216 13219 13222 13225 13228 13230 13233 13236 13239 13242 13245 13247 13250 13253 13256 13259 13262 13265 13268 13271 13274 13277 13280 13283 13286 13289 13292 13295 13298 13301 13304 13306 13309 13311 13314 13316 13319 13322 13325 13328 13331 13334 13336 13339 13342 13345 13348 13351 13354 13357 13360 13363 13366 13369 13372 13375 13378 13381 13383 13386 13389 13391 13394 13397 13400 13403 13406 13409 13412 13415 13417 13420 13422 13425 13428 13431 13434 13437 13440 13443 13446 13449 13452 13455 13458 13461 13464 13467 13470 13473 13476 13478 13481 13484 13487 13490 13493 13496 13499 13502 13505 13508 13511 13514 13517 13520 13522 13525 13528 13531 13533 13536 13539 13542 13545 13548 13551 13554 13557 13559 13562 13565 13567 13570 13573 13576 13579 13582 13584 13587 13590 13593 13596 13599 13602 13605 13608 13611 13614 13616 13619 13622 13624 13627 13630 13633 13636 13638 13641 13643 13646 13649 13652 13655 13657 13660 13662 13665 13668 13670 13672 13674 13677 13680 13682 13685 13688 13691 13694 13697 13700 13702 13705 13708 13711 13714 13717 13720 13722 13725 13728 13731 13734 13737 13740 13743 13745 13748 13751 13754 13757 13760 13763 13766 13769 13772 13775 13778 13781 13783 13786 13789 13792 13795 13798 13801 13804 13807 13810 13813 13815 13818 13821 13824 13827 13830 13833 13836 13839 13842 13845 13848 13851 13854 13857 13860 13863 13866 13869 13872 13875 13878 13881 13884 13887 13890 13893 13896 13898 13901 13904 13907 13910 13913 13916 13919 13922 13925 13928 13931 13933 13936 13939 13942 13945 13948 13951 13954 13957 13960 13963 13965 13967 13970 13973 13976 13979 13982 13985 13987 13990 13993 13996 13999 14002 14004 14007 14010 14013 14016 14019 14022 14025 14028 14031 14034 14037 14040 14042 14045 14048 14051 14054 14057 14060 14063 14066 14069 14072 14075 14078 14081 14084 14087 14090 14093 14096 14099 14102 14105 14108 14111 14114 14117 14119 14122 14125 14128 14131 14133 14136 14139 14142 14145 14148 14151 14154 14156 14159 14162 14165 14167 14169 14172 14175 14178 14181 14184 14186 14188 14191 14194 14197 14200 14203 14206 14209 14212 14215 14218 14221 14224 14226 14229 14231 14234 14237 14240 14243 14246 14249 14252 14255 14258 14261 14264 14267 14270 14273 14276 14279 14282 14285 14288 14290 14292 14295 14298 14301 14304 14307 14310 14313 14316 14319 14322 14325 14328 14331 14334 14337 14340 14343 14346 14348 14351 14354 14357 14360 14363 14366 14368 14370 14373 14376 14379 14382 14385 14388 14391 14394 14397 14400 14403 14406 14409 14412 14415 14418 14421 14424 14427 14430 14432 14435 14438 14440 14443 14446 14448 14451 14454 14457 14459 14462 14464 14467 14470 14473 14476 14479 14482 14485 14487 14490 14493 14496 14499 14502 14505 14508 14511 14514 14517 14520 14523 14526 14529 14532 14535 14538 14541 14543 14546 14549 14552 14555 14557 14560 14563 14566 14569 14572 14574 14577 14580 14583 14586 14589 14592 14595 14598 14601 14603 14606 14609 14612 14615 14618 14621 14624 14627 14630 14633 14636 14639 14642 14645 14648 14651 14654 14657 14660 14662 14665 14668 14671 14674 14677 14679 14682 14685 14688 14690 14693 14696 14698 14701 14704 14707 14710 14713 14716 14719 14722 14725 14728 14731 14734 14737 14739 14741 14744 14747 14750 14753 14756 14759 14762 14765 14768 14771 14774 14777 14780 14783 14786 14789 14792 14794 14797 14800 14802 14804 14807 14810 14813 14816 14819 14822 14825 14828 14831 14833 14836 14838 14841 14844 14847 14850 14853 14856 14859 14862 14865 14868 14871 14873 14875 14878 14881 14884 14887 14890 14893 14896 14898 14901 14904 14907 14910 14913 14916 14919 14921 14924 14927 14930 14932 14935 14938 14941 14944 14947 14950 14953 14956 14959 14962 14965 14968 14971 14974 14977 14980 14983 14986 14989 14992 14995 14998 15001 15004 15007 15010 15013 15016 15019 15022 15025 15028 15031 15034 15037 15040 15043 15046 15049 15052 15055 15058 15061 15064 15066 15069 15072 15075 15078 15081 15084 15087 15090 15093 15096 15099 15102 15105 15108 15111 15114 15117 15120 15123 15126 15129 15132 15135 15138 15141 15144 15147 15150 15153 15156 15159 15162 15165 15168 15171 15174 15177 15180 15183 15186 15189 15192 15195 15197 15200 15202 15205 15208 15211 15214 15217 15220 15223 15226 15229 15232 15235 15238 15241 15244 15247 15250 15253 15256 15259 15262 15264 15267 15270 15273 15276 15279 15282 15285 15288 15291 15294 15297 15300 15303 15306 15309 15312 15315 15318 15321 15324 15327 15329 15332 15335 15337 15340 15343 15346 15349 15352 15355 15358 15361 15364 15366 15369 15372 15375 15378 15381 15384 15387 15390 15392 15395 15398 15401 15404 15407 15410 15413 15416 15419 15422 15424 15427 15430 15433 15436 15438 15441 15444 15447 15449 15452 15454 15457 15460 15463 15465 15468 15471 15474 15476 15479 15482 15484 15487 15489 15492 15495 15498 15500 15503 15506 15509 15512 15514 15517 15519 15522 15525 15528 15531 15533 15536 15539 15542 15544 15546 15549 15552 15555 15557 15559 15562 15565 15568 15571 15573 15576 15579 15582 15585 15587 15590 15593 15596 15599 15602 15605 15608 15611 15614 15617 15620 15622 15625 15628 15631 15633 15636 15639 15642 15644 15647 15650 15653 15655 15658 15661 15664 15667 15670 15673 15675 15678 15681 15684 15687 15690 15693 15696 15698 15701 15703 15706 15709 15712 15715 15718 15720 15723 15726 15729 15731 15733 15736 15738 15741 15744 15747 15750 15753 15756 15759 15762 15765 15768 15771 15774 15776 15779 15782 15785 15788 15791 15793 15795 15798 15800 15803 15805 15808 15811 15814 15817 15819 15821 15824 15827 15829 15832 15835 15838 15841 15844 15847 15850 15853 15856 15858 15861 15864 15867 15869 15872 15874 15877 15880 15883 15886 15888 15891 15893 15896 15899 15902 15905 15908 15911 15914 15917 15920 15923 15926 15929 15932 15935 15938 15940 15943 15946 15948 15951 15954 15956 15959 15962 15965 15967 15969 15972 15975 15977 15979 15982 15985 15988 15991 15993 15996 15999 16002 16004 16007 16010 16013 16016 16018 16021 16024 16027 16029 16032 16035 16037 16040 16043 16046 16049 16052 16054 16057 16060 16063 16065 16068 16071 16074 16077 16080 16083 16086 16088 16091 16094 16097 16100 16103 16106 16109 16112 16115 16118 16121 16124 16127 16130 16133 16136 16139 16142 16145 16148 16151 16154 16157 16160 16163 16166 16169 16172 16175 16177 16180 16183 16186 16189 16192 16195 16197 16200 16203 16206 16208 16211 16214 16217 16220 16223 16225 16228 16231 16234 16236 16239 16242 16245 16248 16250 16253 16256 16258 16261 16264 16267 16270 16273 16276 16279 16282 16285 16288 16291 16294 16297 16300 16303 16306 16308 16311 16314 16317 16319 16321 16324 16327 16330 16333 16336 16338 16341 16344 16347 16349 16352 16355 16358 16361 16363 16366 16369 16372 16374 16377 16380 16383 16386 16389 16392 16395 16398 16401 16404 16407 16410 16413 16416 16419 16422 16425 16428 16431 16434 16437 16440 16443 16446 16448 16451 16454 16457 16460 16462 16465 16468 16471 16474 16477 16480 16483 16485 16487 16490 16493 16496 16498 16501 16504 16507 16510 16512 16515 16518 16521 16524 16527 16530 16533 16535 16538 16541 16544 16547 16549 16552 16555 16558 16561 16563 16566 16569 16572 16574 16577 16579 16582 16585 16588 16591 16593 16596 16599 16602 16605 16608 16610 16613 16616 16618 16621 16623 16626 16629 16632 16635 16638 16641 16644 16647 16650 16653 16656 16659 16662 16665 16668 16670 16673 16676 16678 16681 16683 16686 16689 16692 16695 16698 16701 16704 16707 16710 16713 16716 16719 16722 16724 16727 16730 16733 16736 16739 16742 16745 16748 16751 16753 16756 16759 16762 16765 16768 16771 16774 16777 16780 16783 16786 16789 16792 16794 16797 16800 16803 16806 16809 16811 16814 16817 16820 16823 16826 16829 16832 16834 16837 16840 16843 16846 16849 16851 16853 16856 16859 16862 16865 16868 16871 16874 16877 16880 16883 16886 16889 16892 16895 16898 16901 16904 16907 16909 16912 16915 16918 16921 16924 16927 16930 16933 16936 16939 16942 16945 16948 16951 16954 16957 16960 16963 16966 16969 16971 16974 16977 16979 16982 16985 16988 16991 16994 16997 17000 17003 17006 17009 17012 17014 17016 17019 17021 17024 17027 17030 17033 17036 17039 17042 17044 17047 17050 17052 17055 17058 17061 17063 17066 17069 17071 17074 17077 17080 17083 17086 17089 17092 17094 17097 17100 17103 17106 17109 17112 17114 17117 17120 17123 17126 17128 17131 17134 17136 17139 17142 17145 17147 17149 17152 17155 17158 17160 17162 17165 17168 17170 17173 17175 17178 17180 17183 17186 17188 17191 17193 17196 17199 17201 17204 17207 17209 17212 17215 17218 17221 17224 17227 17229 17232 17235 17238 17240 17243 17246 17249 17251 17254 17257 17260 17263 17265 17268 17271 17274 17276 17279 17282 17285 17288 17291 17294 17296 17298 17301 17304 17307 17310 17313 17316 17319 17321 17324 17327 17330 17333 17336 17339 17341 17344 17347 17350 17352 17355 17357 17360 17362 17365 17367 17370 17373 17376 17378 17381 17384 17387 17390 17393 17396 17399 17402 17405 17408 17411 17414 17417 17420 17422 17425 17428 17431 17434 17437 17440 17443 17446 17449 17452 17455 17458 17460 17462 17465 17468 17471 17474 17477 17479 17482 17484 17486 17489 17491 17493 17496 17499 17502 17504 17507 17510 17513 17516 17519 17522 17525 17528 17531 17534 17537 17539 17542 17544 17547 17550 17552 17555 17557 17560 17563 17566 17569 17572 17575 17578 17581 17584 17587 17590 17593 17596 17599 17602 17605 17608 17610 17612 17615 17618 17621 17623 17626 17629 17632 17635 17638 17641 17644 17647 17650 17652 17655 17658 17661 17664 17667 17670 17673 17676 17679 17682 17684 17687 17690 17692 17695 17697 17700 17702 17705 17708 17711 17714 17717 17719 17722 17725 17728 17730 17733 17735 17737 17739 17742 17744 17747 17749 17751 17754 17757 17760 17763 17765 17768 17771 17774 17777 17779 17782 17785 17788 17791 17794 17797 17800 17803 17806 17809 17812 17814 17817 17820 17823 17826 17829 17832 17835 17838 17841 17843 17846 17848 17851 17854 17857 17860 17863 17865 17868 17871 17874 17877 17879 17881 17884 17887 17890 17893 17896 17898 17901 17903 17906 17908 17911 17914 17917 17920 17923 17926 17929 17932 17935 17938 17941 17944 17947 17949 17951 17953 17956 17959 17961 17963 17966 17968 17971 17974 17977 17980 17983 17986 17989 17992 17995 17998 18001 18003 18006 18009 18012 18015 18018 18021 18024 18027 18030 18033 18036 18039 18041 18044 18046 18049 18052 18054 18057 18059 18061 18063 18066 18068 18071 18074 18076 18079 18081 18084 18086 18089 18092 18095 18098 18101 18104 18107 18110 18112 18115 18118 18120 18123 18126 18129 18132 18134 18137 18140 18143 18146 18148 18151 18154 18157 18160 18163 18166 18169 18172 18174 18177 18180 18183 18186 18189 18192 18195 18198 18201 18204 18206 18209 18212 18215 18218 18221 18224 18227 18230 18232 18235 18238 18240 18243 18246 18249 18252 18255 18258 18261 18263 18265 18268 18271 18274 18277 18280 18283 18286 18289 18292 18295 18298 18301 18304 18307 18309 18312 18315 18318 18321 18323 18326 18329 18332 18335 18338 18341 18344 18347 18350 18353 18356 18359 18362 18365 18368 18371 18374 18377 18380 18383 18386 18389 18392 18394 18397 18399 18402 18405 18408 18410 18413 18416 18419 18422 18425 18428 18430 18433 18435 18438 18441 18444 18447 18450 18453 18456 18459 18462 18465 18468 18471 18474 18477 18480 18483 18485 18488 18491 18494 18497 18499 18502 18505 18508 18511 18514 18516 18519 18522 18524 18527 18530 18533 18535 18537 18540 18543 18546 18549 18551 18554 18557 18560 18562 18565 18567 18570 18573 18576 18579 18581 18584 18587 18589 18592 18595 18598 18601 18603 18606 18609 18612 18615 18617 18620 18623 18626 18628 18631 18634 18637 18640 18643 18645 18648 18651 18654 18656 18659 18662 18664 18667 18670 18672 18674 18677 18679 18682 18685 18688 18690 18693 18695 18698 18701 18703 18706 18709 18712 18715 18718 18721 18723 18726 18728 18730 18732 18734 18737 18740 18743 18745 18748 18750 18753 18756 18758 18761 18764 18767 18769 18772 18775 18777 18780 18782 18785 18787 18790 18793 18796 18798 18801 18804 18806 18809 18812 18814 18817 18820 18822 18825 18828 18831 18834 18837 18840 18842 18845 18848 18851 18853 18855 18857 18859 18861 18864 18867 18870 18873 18876 18879 18882 18885 18888 18891 18894 18897 18900 18902 18905 18908 18911 18914 18917 18920 18923 18926 18929 18932 18935 18938 18941 18944 18947 18950 18953 18955 18958 18961 18964 18967 18970 18973 18975 18978 18981 18984 18987 18990 18993 18996 18998 19001 19004 19007 19010 19013 19016 19019 19022 19025 19028 19031 19034 19037 19040 19043 19046 19049 19052 19055 19058 19061 19064 19067 19070 19072 19075 19077 19080 19083 19086 19089 19092 19095 19098 19101 19104 19107 19110 19113 19116 19119 19122 19125 19128 19131 19134 19137 19140 19143 19146 19149 19152 19155 19158 19161 19164 19167 19170 19173 19176 19178 19181 19184 19187 19190 19193 19196 19199 19202 19205 19208 19211 19214 19217 19220 19223 19226 19229 19232 19235 19237 19240 19242 19245 19247 19249 19252 19255 19258 19261 19264 19267 19269 19271 19274 19277 19279 19282 19285 19288 19291 19294 19297 19299 19302 19305 19308 19311 19314 19317 19320 19323 19326 19329 19332 19335 19338 19341 19344 19347 19350 19353 19356 19358 19360 19363 19366 19369 19372 19375 19378 19381 19384 19387 19390 19393 19396 19399 19402 19405 19408 19411 19414 19417 19420 19423 19426 19429 19432 19435 19438 19441 19444 19447 19450 19453 19456 19458 19461 19463 19466 19468 19471 19474 19477 19480 19482 19485 19488 19491 19493 19496 19499 19501 19504 19507 19510 19513 19516 19519 19522 19525 19528 19531 19534 19537 19540 19542 19545 19548 19550 19553 19556 19559 19562 19565 19568 19570 19573 19576 19579 19582 19585 19588 19591 19594 19597 19600 19603 19606 19609 19612 19615 19617 19620 19623 19626 19629 19632 19635 19637 19640 19643 19646 19649 19652 19655 19658 19661 19664 19667 19670 19673 19675 19678 19681 19684 19687 19690 19693 19695 19698 19701 19704 19707 19709 19711 19714 19717 19719 19721 19724 19727 19730 19732 19735 19737 19740 19742 19745 19748 19751 19754 19757 19760 19763 19766 19769 19772 19774 19777 19780 19782 19785 19788 19790 19792 19795 19798 19801 19804 19807 19810 19813 19816 19819 19822 19825 19828 19831 19834 19837 19839 19842 19845 19848 19851 19854 19856 19858 19861 19864 19866 19869 19872 19875 19878 19881 19884 19887 19890 19893 19895 19898 19901 19903 19906 19908 19911 19913 19916 19919 19922 19924 19927 19930 19932 19935 19938 19940 19943 19946 19948 19951 19953 19956 19959 19961 19964 19967 19970 19972 19974 19977 19980 19982 19985 19988 19990 19992 19995 19997 20000 20003 20005 20008 20010 20013 20015 20018 20021 20023 20025 20028 20031 20033 20036 20038 20040 20043 20046 20049 20052 20055 20057 20060 20063 20066 20069 20072 20075 20078 20080 20083 20086 20088 20091 20094 20097 20100 20103 20106 20109 20112 20115 20118 20121 20124 20127 20130 20133 20136 20139 20142 20145 20148 20151 20153 20156 20159 20162 20164 20167 20170 20173 20176 20178 20181 20184 20187 20190 20193 20195 20198 20200 20203 20206 20208 20211 20214 20217 20220 20222 20225 20228 20231 20233 20236 20239 20242 20244 20247 20249 20252 20255 20258 20261 20264 20266 20269 20272 20274 20277 20280 20282 20284 20287 20289 20292 20295 20298 20300 20303 20306 20308 20311 20314 20316 20319 20322 20324 20326 20329 20332 20335 20337 20340 20343 20346 20349 20352 20355 20358 20361 20363 20366 20368 20371 20374 20376 20379 20382 20384 20387 20389 20391 20394 20397 20400 20403 20406 20409 20411 20414 20417 20420 20423 20426 20429 20432 20435 20438 20441 20444 20447 20449 20451 20454 20456 20459 20462 20465 20467 20470 20472 20475 20478 20481 20483 20486 20489 20492 20495 20497 20499 20502 20505 20508 20510 20513 20516 20518 20521 20523 20525 20527 20530 20532 20535 20538 20540 20543 20546 20548 20551 20553 20556 20558 20560 20563 20566 20568 20571 20574 20577 20579 20581 20584 20587 20589 20592 20595 20598 20600 20603 20606 20609 20611 20613 20615 20618 20621 20624 20627 20630 20632 20635 20637 20640 20643 20646 20649 20651 20654 20657 20659 20662 20665 20668 20671 20673 20676 20678 20680 20683 20685 20688 20690 20693 20696 20699 20702 20705 20708 20711 20714 20717 20720 20723 20726 20729 20732 20734 20737 20740 20743 20745 20748 20750 20752 20755 20758 20761 20764 20767 20770 20773 20775 20778 20781 20783 20786 20789 20792 20795 20798 20800 20803 20805 20808 20810 20813 20816 20819 20822 20825 20828 20831 20834 20837 20840 20843 20846 20849 20852 20855 20858 20860 20863 20865 20868 20871 20874 20877 20880 20883 20886 20889 20892 20895 20898 20901 20904 20907 20910 20913 20916 20919 20922 20925 20928 20931 20934 20936 20939 20942 20945 20948 20951 20954 20957 20960 20963 20966 20968 20971 20974 20977 20980 20983 20986 20989 20992 20995 20998 21001 21003 21006 21009 21012 21015 21018 21021 21024 21027 21030 21033 21036 21039 21042 21045 21047 21050 21053 21056 21058 21060 21063 21066 21069 21072 21075 21077 21080 21082 21085 21088 21091 21094 21097 21100 21103 21105 21108 21110 21113 21116 21119 21122 21125 21128 21131 21134 21137 21140 21143 21145 21148 21150 21152 21155 21158 21161 21164 21167 21170 21173 21176 21179 21182 21185 21188 21191 21194 21197 21200 21202 21205 21208 21211 21214 21217 21220 21223 21225 21228 21231 21234 21237 21240 21243 21246 21249 21252 21255 21258 21261 21264 21267 21270 21273 21276 21279 21281 21284 21287 21290 21292 21294 21297 21299 21302 21305 21308 21311 21314 21317 21320 21323 21326 21329 21332 21335 21338 21341 21344 21347 21349 21352 21355 21358 21360 21363 21366 21369 21371 21374 21377 21380 21382 21385 21388 21391 21394 21397 21400 21402 21405 21408 21411 21414 21417 21419 21422 21425 21428 21430 21433 21436 21439 21441 21444 21447 21450 21453 21455 21457 21459 21462 21465 21468 21470 21473 21475 21478 21481 21484 21486 21489 21492 21495 21497 21499 21502 21505 21507 21510 21512 21515 21518 21520 21523 21526 21529 21532 21535 21538 21541 21544 21546 21549 21552 21555 21557 21560 21563 21566 21568 21571 21573 21576 21579 21582 21585 21587 21590 21593 21596 21599 21602 21604 21607 21610 21613 21616 21619 21621 21624 21627 21630 21632 21634 21637 21639 21641 21644 21647 21649 21652 21655 21658 21661 21664 21667 21669 21672 21675 21678 21680 21683 21686 21689 21692 21695 21697 21700 21703 21705 21708 21711 21713 21715 21718 21721 21724 21726 21728 21731 21734 21736 21739 21742 21744 21746 21749 21752 21754 21756 21759 21762 21764 21767 21770 21773 21776 21779 21781 21784 21787 21790 21793 21796 21799 21802 21805 21808 21811 21813 21816 21819 21822 21825 21828 21831 21834 21837 21840 21843 21846 21849 21852 21854 21857 21860 21863 21866 21869 21872 21874 21877 21880 21882 21885 21888 21891 21893 21896 21899 21902 21905 21907 21909 21912 21915 21918 21921 21924 21927 21930 21933 21936 21939 21941 21944 21947 21950 21953 21956 21958 21961 21964 21966 21969 21972 21975 21978 21981 21984 21987 21990 21992 21995 21998 22001 22004 22006 22008 22011 22014 22017 22020 22023 22025 22027 22030 22033 22036 22039 22042 22045 22048 22051 22054 22057 22060 22063 22066 22069 22072 22075 22078 22081 22084 22087 22090 22093 22096 22099 22102 22105 22107 22110 22113 22116 22119 22122 22125 22128 22131 22134 22137 22139 22142 22145 22148 22151 22154 22157 22160 22163 22165 22168 22171 22174 22177 22180 22182 22185 22188 22191 22194 22197 22200 22203 22206 22209 22212 22215 22218 22221 22224 22227 22230 22233 22236 22239 22242 22245 22248 22251 22253 22256 22258 22261 22264 22267 22270 22273 22276 22279 22281 22284 22287 22290 22293 22296 22299 22302 22305 22308 22311 22314 22317 22320 22322 22325 22328 22331 22333 22336 22339 22342 22345 22348 22351 22354 22357 22360 22363 22365 22368 22371 22374 22377 22380 22383 22386 22389 22392 22394 22397 22400 22403 22406 22409 22412 22415 22418 22421 22424 22427 22430 22433 22436 22439 22442 22444 22447 22450 22453 22456 22459 22462 22465 22468 22471 22474 22476 22478 22481 22483 22485 22488 22491 22494 22497 22500 22502 22505 22508 22511 22513 22516 22519 22522 22525 22528 22531 22534 22537 22540 22543 22546 22549 22552 22555 22557 22560 22563 22566 22569 22572 22575 22577 22580 22583 22586 22589 22592 22595 22598 22601 22604 22607 22610 22613 22616 22619 22622 22625 22628 22631 22634 22637 22640 22643 22646 22649 22652 22655 22657 22660 22663 22666 22669 22672 22675 22678 22680 22683 22686 22689 22692 22695 22697 22700 22703 22705 22707 22710 22713 22715 22718 22721 22724 22726 22729 22732 22735 22738 22741 22744 22747 22750 22753 22756 22759 22762 22764 22767 22770 22773 22775 22778 22781 22784 22786 22788 22791 22794 22796 22799 22802 22805 22808 22811 22814 22817 22820 22823 22826 22829 22832 22835 22838 22841 22844 22847 22850 22853 22856 22859 22862 22865 22868 22871 22874 22877 22880 22883 22886 22889 22892 22895 22898 22901 22904 22907 22910 22913 22916 22919 22922 22925 22928 22931 22934 22937 22940 22942 22945 22948 22951 22954 22957 22959 22962 22965 22968 22971 22973 22976 22979 22982 22984 22987 22990 22993 22996 22999 23001 23003 23006 23009 23012 23014 23017 23020 23023 23026 23029 23032 23035 23038 23041 23044 23047 23050 23053 23056 23059 23062 23064 23067 23069 23072 23074 23077 23080 23083 23086 23089 23092 23095 23098 23101 23104 23106 23109 23112 23115 23118 23121 23124 23127 23130 23133 23136 23139 23142 23145 23148 23151 23154 23157 23160 23163 23166 23169 23172 23175 23178 23181 23184 23187 23190 23192 23195 23198 23201 23204 23207 23210 23213 23216 23219 23221 23224 23227 23230 23232 23235 23238 23241 23244 23247 23249 23252 23255 23257 23260 23263 23266 23269 23272 23275 23277 23280 23283 23286 23289 23292 23295 23298 23301 23303 23306 23309 23312 23315 23318 23321 23324 23327 23329 23332 23335 23337 23340 23342 23345 23348 23351 23354 23357 23360 23363 23366 23369 23372 23374 23377 23380 23383 23386 23389 23391 23394 23397 23400 23403 23405 23408 23410 23413 23416 23419 23421 23424 23427 23429 23432 23435 23438 23441 23444 23447 23450 23453 23456 23459 23462 23465 23468 23471 23474 23477 23480 23483 23485 23488 23491 23494 23497 23500 23503 23506 23509 23511 23514 23517 23520 23522 23525 23528 23531 23534 23536 23539 23542 23545 23548 23550 23553 23556 23559 23562 23565 23568 23571 23573 23576 23579 23582 23585 23587 23589 23592 23595 23598 23601 23604 23607 23609 23612 23615 23618 23620 23623 23626 23629 23631 23634 23637 23640 23643 23646 23649 23651 23654 23657 23660 23663 23666 23669 23671 23674 23676 23679 23681 23683 23685 23688 23691 23694 23697 23700 23703 23706 23709 23712 23715 23717 23719 23722 23724 23726 23729 23732 23735 23737 23740 23742 23745 23748 23751 23754 23756 23758 23761 23764 23767 23770 23773 23776 23779 23781 23784 23787 23789 23792 23795 23798 23801 23803 23806 23809 23812 23814 23817 23820 23823 23826 23829 23832 23835 23838 23841 23844 23847 23850 23853 23856 23859 23861 23864 23867 23870 23873 23876 23879 23882 23884 23887 23890 23893 23896 23898 23901 23904 23907 23910 23913 23916 23919 23921 23924 23927 23929 23932 23935 23938 23941 23944 23947 23950 23953 23955 23958 23960 23963 23965 23967 23970 23973 23976 23979 23982 23984 23987 23990 23993 23996 23999 24002 24005 24008 24011 24014 24017 24020 24023 24025 24028 24031 24034 24037 24040 24043 24046 24049 24052 24055 24058 24060 24063 24066 24069 24072 24074 24077 24080 24083 24086 24088 24091 24094 24097 24100 24103 24106 24109 24112 24115 24118 24121 24124 24127 24130 24133 24136 24139 24142 24145 24148 24151 24154 24157 24160 24162 24165 24168 24171 24174 24177 24180 24183 24186 24189 24191 24194 24197 24200 24203 24206 24209 24212 24215 24218 24221 24224 24227 24230 24233 24236 24239 24242 24245 24248 24251 24254 24257 24260 24263 24266 24269 24272 24275 24278 24281 24284 24287 24290 24293 24296 24299 24302 24305 24308 24311 24314 24317 24320 24323 24326 24329 24332 24335 24338 24341 24344 24346 24349 24351 24354 24357 24360 24363 24366 24369 24372 24375 24378 24381 24384 24387 24390 24393 24396 24399 24402 24405 24408 24411 24414 24417 24420 24423 24426 24429 24432 24435 24438 24441 24444 24447 24450 24453 24456 24459 24462 24465 24468 24471 24474 24476 24479 24481 24484 24487 24490 24493 24496 24499 24502 24505 24508 24511 24513 24516 24519 24522 24524 24527 24530 24532 24535 24537 24540 24542 24544 24546 24549 24552 24554 24557 24560 24563 24565 24568 24571 24574 24577 24580 24583 24585 24588 24591 24593 24596 24599 24602 24605 24608 24610 24613 24616 24619 24622 24625 24628 24631 24634 24636 24639 24641 24644 24646 24649 24652 24655 24658 24661 24663 24666 24669 24672 24675 24678 24680 24683 24686 24688 24691 24694 24697 24700 24703 24706 24709 24712 24715 24718 24721 24724 24727 24730 24733 24736 24739 24742 24745 24748 24751 24754 24757 24760 24763 24766 24769 24772 24775 24778 24781 24784 24787 24790 24793 24796 24799 24802 24805 24808 24811 24813 24816 24818 24821 24824 24827 24830 24833 24836 24839 24842 24845 24848 24851 24854 24857 24860 24863 24866 24869 24872 24875 24878 24881 24884 24887 24890 24893 24895 24898 24901 24904 24907 24910 24913 24916 24919 24922 24924 24927 24929 24932 24935 24938 24941 24944 24947 24949 24952 24954 24957 24960 24963 24966 24969 24971 24974 24977 24979 24982 24985 24988 24991 24994 24997 25000 25003 25006 25008 25011 25014 25017 25020 25023 25026 25028 25031 25034 25037 25040 25043 25046 25049 25052 25055 25057 25060 25063 25066 25069 25072 25075 25078 25081 25084 25087 25090 25093 25095 25098 25101 25103 25106 25109 25112 25115 25118 25120 25122 25124 25127 25130 25133 25135 25138 25141 25143 25146 25148 25150 25153 25155 25158 25161 25164 25166 25168 25170 25173 25176 25179 25182 25185 25188 25191 25193 25196 25199 25201 25204 25207 25209 25212 25215 25218 25221 25224 25226 25229 25232 25235 25237 25240 25242 25245 25248 25251 25254 25257 25260 25263 25266 25269 25271 25274 25277 25280 25283 25286 25289 25292 25295 25297 25300 25303 25305 25308 25311 25314 25317 25320 25323 25325 25328 25331 25334 25337 25340 25342 25345 25348 25351 25353 25356 25359 25362 25365 25368 25371 25374 25377 25380 25383 25386 25389 25392 25395 25397 25400 25403 25406 25409 25412 25414 25417 25420 25423 25426 25429 25432 25435 25438 25441 25444 25446 25449 25451 25454 25457 25460 25462 25464 25467 25470 25473 25475 25478 25481 25484 25487 25489 25492 25495 25498 25501 25504 25506 25508 25511 25514 25517 25520 25523 25526 25528 25531 25534 25537 25540 25543 25546 25549 25552 25555 25558 25561 25564 25566 25569 25572 25575 25578 25581 25584 25587 25590 25592 25595 25598 25601 25604 25607 25610 25613 25615 25618 25620 25623 25626 25628 25631 25634 25637 25640 25642 25645 25648 25650 25652 25655 25657 25660 25663 25666 25669 25672 25675 25678 25681 25684 25687 25690 25693 25696 25699 25701 25704 25707 25710 25713 25716 25719 25722 25724 25727 25729 25732 25735 25738 25740 25743 25746 25749 25752 25754 25757 25760 25762 25764 25767 25770 25773 25775 25778 25781 25784 25786 25789 25792 25794 25796 25799 25802 25805 25808 25811 25813 25815 25818 25821 25823 25826 25829 25832 25835 25837 25839 25842 25845 25848 25851 25854 25856 25859 25862 25865 25868 25871 25874 25877 25880 25883 25886 25888 25891 25894 25897 25899 25902 25905 25908 25911 25914 25917 25920 25923 25926 25929 25932 25935 25938 25941 25944 25947 25949 25952 25955 25958 25961 25964 25967 25970 25973 25976 25979 25982 25985 25988 25991 25994 25997 26000 26003 26006 26009 26012 26015 26018 26021 26024 26027 26030 26033 26035 26038 26041 26043 26046 26049 26052 26055 26058 26061 26063 26066 26069 26072 26075 26078 26081 26083 26086 26088 26091 26094 26096 26099 26101 26104 26107 26109 26112 26114 26117 26120 26122 26125 26128 26131 26133 26136 26139 26142 26145 26148 26151 26153 26156 26159 26161 26164 26167 26170 26173 26176 26179 26182 26185 26188 26191 26194 26196 26199 26202 26204 26207 26210 26212 26215 26218 26221 26224 26226 26229 26232 26235 26238 26241 26244 26247 26249 26251 26254 26257 26260 26263 26266 26269 26272 26275 26278 26281 26284 26287 26290 26293 26296 26299 26302 26305 26308 26311 26313 26315 26318 26321 26324 26327 26330 26333 26336 26338 26341 26344 26347 26350 26353 26355 26358 26361 26364 26366 26369 26371 26374 26377 26380 26382 26385 26388 26391 26394 26396 26399 26402 26405 26408 26411 26414 26416 26419 26422 26425 26428 26431 26433 26436 26439 26442 26445 26448 26451 26454 26456 26459 26462 26465 26468 26470 26472 26475 26478 26480 26483 26486 26488 26491 26494 26497 26499 26502 26505 26508 26511 26514 26517 26519 26522 26524 26526 26529 26532 26535 26538 26541 26544 26547 26550 26553 26556 26559 26562 26565 26568 26571 26574 26577 26580 26583 26586 26588 26591 26594 26596 26599 26601 26604 26607 26610 26613 26616 26619 26622 26625 26628 26631 26634 26637 26639 26642 26645 26648 26650 26653 26656 26659 26662 26665 26668 26671 26674 26677 26680 26682 26685 26688 26691 26694 26697 26700 26702 26705 26708 26711 26714 26716 26719 26722 26725 26727 26730 26732 26735 26737 26740 26743 26746 26748 26751 26754 26756 26759 26762 26765 26768 26771 26773 26776 26779 26782 26785 26788 26791 26794 26797 26800 26802 26804 26807 26809 26812 26815 26818 26821 26823 26826 26828 26831 26834 26836 26839 26842 26844 26847 26849 26852 26855 26858 26861 26863 26866 26869 26872 26875 26877 26880 26883 26886 26889 26892 26895 26897 26900 26902 26905 26908 26911 26914 26917 26920 26922 26925 26928 26931 26934 26936 26939 26942 26945 26948 26950 26953 26956 26958 26961 26964 26967 26969 26971 26974 26976 26979 26981 26983 26986 26989 26991 26994 26997 26999 27002 27005 27008 27011 27014 27017 27020 27023 27026 27029 27032 27035 27038 27041 27044 27047 27050 27053 27056 27059 27062 27065 27068 27071 27074 27077 27080 27083 27086 27089 27092 27095 27098 27101 27104 27107 27110 27113 27116 27119 27122 27125 27128 27131 27134 27137 27140 27143 27146 27149 27151 27154 27157 27160 27163 27166 27169 27172 27175 27178 27181 27184 27187 27190 27193 27196 27199 27202 27205 27208 27211 27214 27217 27220 27223 27226 27229 27232 27235 27238 27241 27244 27247 27250 27253 27256 27259 27262 27265 27268 27271 27274 27277 27280 27283 27286 27289 27291 27294 27297 27300 27303 27306 27309 27312 27315 27318 27320 27322 27325 27328 27331 27333 27336 27339 27342 27345 27348 27351 27353 27356 27359 27361 27364 27367 27370 27373 27376 27378 27381 27384 27386 27389 27392 27395 27397 27400 27403 27406 27409 27412 27415 27418 27421 27424 27427 27430 27433 27436 27439 27442 27445 27448 27451 27453 27456 27459 27462 27465 27468 27471 27474 27477 27480 27483 27486 27488 27491 27494 27497 27500 27503 27506 27509 27512 27515 27518 27521 27524 27527 27530 27533 27536 27539 27542 27545 27548 27551 27554 27557 27560 27563 27566 27569 27572 27575 27578 27581 27584 27587 27590 27593 27596 27599 27602 27605 27608 27610 27613 27616 27619 27622 27624 27627 27630 27632 27634 27637 27640 27643 27645 27648 27651 27654 27657 27660 27662 27665 27668 27671 27674 27677 27680 27683 27685 27688 27691 27693 27696 27699 27701 27704 27707 27710 27713 27716 27719 27722 27725 27728 27731 27734 27737 27740 27743 27746 27749 27752 27754 27757 27760 27763 27766 27769 27772 27775 27778 27781 27784 27787 27790 27792 27795 27797 27800 27803 27806 27808 27811 27814 27816 27819 27822 27825 27828 27831 27833 27836 27839 27841 27844 27847 27850 27853 27855 27858 27861 27864 27867 27870 27873 27876 27878 27881 27884 27887 27890 27893 27896 27899 27902 27905 27907 27910 27913 27916 27919 27922 27925 27928 27931 27934 27936 27939 27942 27945 27948 27951 27953 27956 27959 27962 27964 27967 27970 27973 27976 27979 27982 27985 27988 27991 27994 27997 27999 28002 28005 28008 28011 28014 28017 28019 28022 28025 28028 28031 28034 28037 28040 28043 28046 28049 28052 28055 28058 28061 28064 28067 28070 28073 28075 28078 28081 28084 28087 28090 28093 28096 28099 28102 28105 28108 28111 28114 28116 28119 28122 28125 28127 28130 28133 28136 28138 28141 28143 28146 28149 28152 28155 28158 28161 28164 28167 28170 28173 28175 28178 28181 28183 28186 28189 28191 28194 28197 28199 28202 28205 28207 28210 28213 28215 28217 28220 28223 28226 28229 28232 28235 28238 28240 28243 28246 28249 28252 28255 28258 28261 28264 28267 28270 28273 28276 28279 28281 28284 28287 28290 28292 28295 28297 28300 28303 28306 28309 28312 28315 28318 28321 28324 28327 28329 28332 28335 28338 28340 28342 28345 28348 28351 28354 28357 28360 28363 28366 28369 28372 28375 28378 28381 28384 28387 28390 28392 28395 28397 28400 28403 28405 28408 28411 28414 28417 28420 28423 28426 28429 28432 28435 28437 28440 28443 28446 28449 28452 28455 28458 28461 28464 28467 28470 28473 28476 28479 28482 28485 28488 28491 28494 28497 28500 28503 28506 28509 28512 28515 28518 28521 28524 28527 28530 28533 28536 28539 28541 28544 28547 28550 28553 28555 28558 28561 28564 28566 28569 28572 28575 28578 28581 28584 28586 28589 28592 28595 28597 28600 28602 28605 28608 28611 28614 28617 28620 28623 28626 28629 28632 28634 28637 28640 28642 28645 28648 28650 28653 28656 28659 28661 28664 28666 28669 28672 28675 28678 28681 28684 28687 28689 28692 28695 28698 28700 28703 28706 28708 28711 28714 28716 28718 28721 28724 28727 28729 28732 28735 28738 28741 28743 28746 28749 28752 28755 28758 28761 28764 28767 28770 28773 28776 28779 28782 28785 28787 28790 28793 28796 28799 28802 28805 28807 28809 28812 28815 28817 28820 28823 28826 28828 28831 28834 28837 28840 28843 28846 28849 28852 28854 28856 28859 28862 28865 28868 28871 28874 28877 28880 28883 28886 28889 28892 28894 28897 28899 28902 28905 28907 28910 28913 28915 28918 28920 28923 28926 28928 28931 28933 28936 28939 28942 28944 28947 28949 28952 28955 28957 28960 28963 28966 28969 28972 28974 28976 28979 28982 28984 28987 28990 28993 28996 28999 29002 29005 29007 29010 29013 29016 29019 29022 29025 29028 29031 29034 29037 29040 29043 29046 29049 29052 29054 29057 29060 29063 29065 29068 29071 29074 29077 29080 29083 29086 29089 29091 29094 29097 29100 29103 29105 29107 29110 29113 29116 29119 29122 29125 29128 29131 29134 29137 29140 29143 29146 29149 29152 29155 29158 29160 29163 29166 29169 29172 29175 29178 29180 29183 29186 29189 29192 29194 29197 29199 29202 29205 29208 29210 29212 29215 29217 29220 29223 29225 29228 29231 29233 29236 29239 29242 29244 29247 29250 29252 29255 29258 29261 29264 29267 29270 29272 29275 29278 29281 29284 29287 29289 29292 29295 29298 29301 29304 29306 29309 29312 29315 29318 29321 29324 29327 29330 29333 29335 29338 29341 29344 29347 29350 29353 29356 29359 29362 29365 29368 29371 29374 29377 29380 29383 29386 29389 29392 29395 29398 29401 29404 29407 29410 29413 29416 29418 29421 29424 29427 29430 29433 29436 29439 29442 29445 29448 29450 29453 29456 29459 29462 29465 29468 29471 29474 29477 29480 29483 29486 29489 29492 29495 29498 29501 29504 29507 29510 29513 29516 29519 29522 29525 29528 29531 29534 29537 29540 29543 29546 29549 29552 29555 29558 29560 29563 29566 29569 29571 29574 29577 29580 29583 29586 29589 29592 29595 29598 29601 29604 29607 29610 29613 29616 29619 29622 29625 29628 29630 29633 29635 29637 29640 29643 29646 29648 29650 29653 29655 29657 29659 29662 29665 29667 29669 29672 29674 29676 29679 29682 29685 29688 29691 29694 29696 29699 29702 29704 29707 29709 29712 29714 29716 29719 29722 29725 29728 29731 29734 29737 29740 29743 29746 29749 29751 29754 29757 29759 29762 29765 29768 29771 29774 29777 29780 29783 29786 29789 29792 29795 29798 29801 29804 29807 29809 29811 29814 29817 29820 29823 29826 29828 29831 29834 29837 29840 29842 29844 29847 29850 29853 29856 29859 29861 29864 29866 29869 29872 29874 29877 29880 29882 29885 29888 29891 29894 29896 29899 29901 29904 29907 29910 29913 29916 29919 29922 29925 29928 29931 29933 29935 29938 29941 29943 29946 29949 29952 29955 29958 29960 29963 29966 29969 29972 29975 29977 29980 29983 29986 29988 29990 29992 29995 29998 30001 30004 30007 30010 30013 30016 30019 30022 30025 30027 30030 30033 30036 30038 30041 30044 30047 30050 30053 30056 30059 30062 30065 30068 30070 30073 30076 30079 30082 30085 30088 30091 30094 30097 30100 30103 30106 30109 30112 30115 30118 30121 30124 30127 30130 30132 30134 30136 30139 30142 30145 30148 30151 30153 30156 30159 30162 30164 30167 30170 30173 30176 30179 30181 30184 30187 30189 30192 30195 30198 30201 30204 30207 30209 30212 30215 30217 30219 30222 30225 30228 30231 30234 30237 30240 30243 30245 30248 30251 30254 30257 30260 30262 30265 30268 30271 30274 30277 30280 30283 30285 30287 30290 30293 30296 30299 30302 30304 30307 30310 30313 30315 30318 30321 30324 30326 30329 30332 30334 30337 30340 30343 30346 30349 30352 30355 30358 30360 30363 30366 30369 30372 30375 30378 30380 30383 30385 30388 30391 30394 30397 30400 30403 30406 30409 30412 30414 30417 30420 30423 30426 30429 30431 30434 30437 30440 30443 30446 30449 30452 30454 30457 30460 30463 30466 30469 30471 
</DataArray>
<DataArray type="UInt32" Name="types" format="ascii">
5 5 5 3 5 5 5 5 5 5 5 5 5 5 3 5 5 3 5 5 5 5 5 5 5 5 5 5 5 5 5 5 5 5 5 5 5 5 5 5 5 5 5 5 5 5 5 3 5 5 5 3 5 5 5 5 5 5 3 5 5 5 5 5 5 3 5 5 5 5 5 5 5 5 5 5 5 5 5 5 5 5 5 5 5 5 5 5 5 5 5 5 5 5 5 5 5 5 5 5 5 5 5 5 5 5 5 5 5 5 5 5 5 5 5 5 5 5 3 5 5 5 5 5 3 3 5 5 5 5 5 5 5 3 3 5 5 5 5 5 5 3 5 5 5 5 3 3 3 5 5 5 5 5 5 5 5 5 5 5 5 5 5 5 5 5 5 5 5 5 5 5 5 5 5 5 5 5 5 5 5 5 5 5 5 5 5 5 5 5 5 5 5 5 5 5 5 5 5 5 5 5 5 5 5 5 5 5 5 5 5 5 5 5 3 5 5 5 5 3 5 5 5 5 5 3 5 5 5 3 5 3 5 3 5 3 5 5 5 5 5 5 5 5 5 5 5 5 5 5 5 5 5 5 3 5 5 5 5 5 5 5 5 5 5 5 5 5 5 5 5 3 5 5 3 5 5 5 3 5 5 5 3 5 5 5 5 5 5 5 5 5 5 5 5 5 5 5 5 5 5 5 5 5 5 5 5 5 3 5 5 5 3 5 5 5 5 5 5 5 5 5 5 5 5 5 5 5 5 5 5 5 5 5 5 5 5 5 5 5 5 5 5 5 5 5 5 5 5 5 5 5 5 5 3 5 3 5 5 5 5 5 5 5 5 5 5 3 5 5 5 5 5 5 5 5 5 5 5 5 5 5 5 5 5 5 5 5 5 5 5 5 5 5 5 5 5 5 5 3 5 5 3 5 5 5 5 3 3 5 5 5 5 5 5 5 5 5 5 5 3 5 5 5 5 5 5 3 5 5 5 5 3 5 5 5 5 5 5 5 3 5 5 5 5 3 5 5 5 3 5 5 3 5 5 5 5 5 3 5 5 5 5 5 5 5 3 5 5 5 5 5 5 3 5 5 5 5 3 5 5 5 5 5 5 5 5 3 5 5 5 5 5 5 5 5 5 5 5 5 5 5 5 5 5 3 5 5 5 5 5 5 5 5 5 5 5 5 5 5 3 5 5 5 5 5 5 5 5 5 5 5 3 5 5 5 5 5 5 5 5 5 5 5 5 5 3 5 5 5 5 5 5 5 5 5 5 5 5 5 5 3 5 5 3 5 5 5 3 5 5 5 5 3 5 5 5 5 5 5 5 3 5 3 5 5 5 5 5 5 3 5 5 5 5 3 5 5 5 5 5 5 5 3 5 5 5 5 5 5 5 5 5 5 5 5 5 5 5 5 5 3 5 5 5 5 3 5 5 5 3 5 5 5 5 5 5 5 5 5 5 5 3 5 5 5 5 5 5 5 5 5 5 5 5 5 5 5 5 5 5 5 5 5 5 5 5 5 5 5 5 5 5 5 3 5 5 5 5 5 5 5 5 5 5 5 5 5 5 5 5 5 5 5 5 5 5 5 5 5 5 3 5 5 5 5 5 5 3 5 3 5 5 5 3 3 5 3 5 5 3 5 5 3 5 5 3 5 5 5 5 3 5 3 5 5 5 5 5 3 5 5 3 5 5 5 3 5 3 5 5 5 5 5 5 5 5 5 5 5 5 3 3 5 5 5 5 3 5 5 3 5 5 5 5 5 5 5 5 5 3 5 5 5 5 5 3 5 5 5 5 5 5 5 5 5 5 5 5 5 3 5 3 5 5 5 5 3 5 5 5 5 5 5 5 3 5 5 5 3 3 5 5 5 3 5 5 5 5 5 5 5 5 5 5 5 5 5 5 5 3 5 5 5 3 5 5 3 5 5 3 5 5 5 5 5 5 3 3 5 5 5 5 5 5 5 5 5 5 5 5 5 5 5 5 5 5 5 5 5 3 5 5 3 5 5 5 5 3 5 5 5 5 3 5 3 3 5 3 3 5 5 5 5 5 5 5 5 5 5 5 5 3 5 5 5 5 5 5 5 5 5 5 5 5 5 3 3 5 5 5 5 5 5 5 5 5 5 5 5 5 5 5 5 5 5 5 5 5 5 5 5 5 5 5 5 5 5 5 3 5 5 5 5 5 5 5 5 5 5 5 5 5 5 5 5 5 3 3 5 5 5 5 5 5 5 5 5 5 5 5 5 5 3 5 5 5 5 5 5 3 5 3 5 5 5 5 5 5 5 5 5 5 5 5 5 5 5 5 5 3 5 5 5 5 5 5 3 5 3 5 5 5 5 5 3 5 5 5 5 5 3 5 5 5 5 5 5 5 5 5 5 5 5 5 3 5 5 5 5 5 5 5 3 5 5 3 5 5 3 5 5 3 5 5 5 5 5 5 5 5 5 5 5 5 5 5 5 3 5 5 5 5 3 5 5 5 5 5 5 5 5 5 5 3 5 5 5 5 5 5 5 5 5 3 5 5 5 5 5 5 5 5 5 5 5 5 5 5 5 5 5 5 5 5 5 5 5 3 5 5 5 5 5 3 5 5 3 5 5 5 5 5 5 5 5 5 5 5 5 5 5 5 5 5 5 5 5 5 5 5 3 5 5 5 5 5 5 5 5 5 5 5 5 5 5 5 5 5 5 5 5 5 5 5 5 5 5 5 5 5 5 5 5 5 5 5 5 5 5 5 5 5 5 5 5 5 5 5 3 5 5 5 5 5 3 5 5 5 5 5 5 3 5 5 5 5 3 5 5 5 5 3 5 5 5 5 5 3 5 5 5 3 5 5 5 5 5 5 5 3 5 5 5 5 3 5 5 5 5 3 3 3 5 5 5 5 5 5 5 5 5 5 5 5 5 5 5 5 5 5 5 5 5 5 5 5 5 5 5 5 5 5 5 5 5 5 5 5 5 5 5 3 5 5 5 5 5 5 5 5 5 5 5 5 5 5 5 5 5 5 5 5 5 5 5 5 5 5 5 5 5 5 5 3 5 5 5 5 5 5 3 5 5 5 5 5 3 5 5 5 5 5 5 5 5 5 5 5 5 5 5 5 5 5 5 5 3 5 5 5 3 5 3 5 5 5 5 3 5 5 5 5 3 5 5 5 5 5 5 5 5 5 3 5 5 5 5 5 5 3 5 5 3 5 5 5 5 3 5 5 5 5 5 5 5 5 5 5 5 3 5 5 5 5 5 5 5 5 5 3 5 5 5 3 5 3 5 5 5 5 5 5 5 5 5 5 5 5 5 5 5 5 5 5 5 5 5 5 3 5 5 5 3 5 5 5 5 5 3 5 5 3 3 5 5 5 3 5 5 3 5 3 5 3 5 3 5 5 5 3 3 5 5 5 5 3 5 5 5 3 5 5 5 5 5 5 5 5 5 3 5 5 5 5 5 5 5 5 5 5 5 3 5 5 5 5 5 5 5 5 5 5 5 5 5 5 3 5 5 5 3 5 5 5 5 3 5 3 5 5 5 5 5 5 5 5 5 5 5 5 5 5 5 5 5 5 3 5 5 5 5 5 5 5 5 5 5 3 5 5 5 5 5 5 5 5 5 5 5 5 5 5 5 5 5 5 5 5 5 5 5 5 5 5 5 5 3 5 5 5 5 5 5 5 5 3 5 5 3 5 5 5 5 5 5 5 5 5 5 5 5 5 5 5 5 5 5 3 5 5 5 5 5 5 5 5 5 5 5 5 5 5 5 5 5 5 5 5 5 5 5 5 5 5 5 3 5 5 5 5 5 5 5 5 5 5 5 5 5 5 5 5 5 5 5 5 5 5 5 5 5 5 5 5 5 5 5 5 5 5 5 5 5 5 5 5 5 5 5 5 5 5 3 3 5 5 3 5 5 5 5 3 5 5 5 5 5 5 3 5 5 5 5 5 5 5 5 5 5 5 5 5 5 3 5 5 5 5 5 5 5 5 5 5 5 5 5 5 3 5 5 5 5 5 5 5 5 5 5 5 5 5 5 5 5 5 5 5 5 5 5 5 5 5 5 5 5 5 5 5 5 5 5 5 5 5 5 5 5 5 5 3 5 5 5 5 5 5 5 5 5 3 5 5 5 5 5 5 5 5 5 5 5 5 5 5 5 3 3 5 5 5 5 5 3 3 5 3 5 3 5 5 5 3 3 3 5 3 5 5 5 5 5 3 5 5 3 5 5 3 5 5 5 3 5 3 3 5 3 3 3 3 5 5 3 5 3 5 5 3 5 5 3 5 5 5 5 5 5 3 5 5 5 5 5 5 5 5 5 5 3 5 5 3 5 5 3 5 5 5 5 5 5 5 5 5 5 5 5 5 5 5 5 5 5 5 5 5 5 5 5 5 5 5 3 5 5 5 5 5 5 5 5 3 5 5 5 5 3 5 5 5 3 5 5 5 5 5 5 5 5 5 5 5 5 3 5 5 3 5 5 5 5 5 5 5 5 5 5 5 5 5 5 5 5 5 5 5 5 3 5 5 5 5 3 5 5 5 5 5 5 5 5 5 5 5 5 5 5 5 5 5 5 5 3 5 5 5 5 5 5 5 3 5 5 5 3 5 5 5 5 5 5 5 5 5 3 5 5 5 5 5 5 5 5 5 5 5 3 5 5 5 3 5 5 5 3 5 5 5 5 5 3 5 5 5 5 5 5 5 5 5 5 5 5 5 3 5 5 5 5 5 5 5 5 5 5 5 5 5 5 5 5 5 5 5 5 5 5 5 5 3 5 5 5 5 5 5 5 3 5 5 5 5 5 5 5 5 5 5 5 5 5 5 5 5 5 5 3 5 3 5 5 5 5 5 5 3 5 5 5 5 5 5 5 5 5 5 5 5 5 5 5 5 5 5 5 5 5 5 5 5 5 5 5 5 5 3 5 5 5 5 3 5 5 5 5 5 5 5 5 5 3 5 5 3 5 5 3 5 5 5 5 5 5 5 5 3 5 5 5 5 3 5 5 5 5 3 5 5 5 5 5 5 3 5 5 5 3 5 5 3 5 5 3 5 5 3 5 3 5 3 5 5 3 5 5 5 5 5 5 3 5 5 5 3 5 5 3 5 5 5 5 5 5 5 5 5 3 5 5 5 5 5 5 5 3 5 5 5 5 5 5 5 5 3 5 5 5 5 5 5 5 5 5 5 5 5 5 5 5 5 5 5 5 5 5 5 5 5 5 5 3 5 3 5 5 5 3 5 5 5 5 5 5 5 5 5 5 5 5 5 5 5 5 5 5 5 5 5 5 5 5 5 5 5 3 5 3 5 5 5 5 5 5 5 5 5 5 5 5 5 5 5 5 5 5 5 3 5 5 5 3 5 5 5 5 5 5 5 5 5 5 5 5 5 5 5 5 5 5 5 5 3 5 5 5 5 5 5 5 5 5 5 5 5 5 5 5 5 5 5 5 5 5 5 5 5 5 5 5 5 5 5 5 5 5 5 5 5 5 5 5 5 5 5 5 5 5 5 5 5 5 5 5 5 5 3 5 5 5 5 3 5 5 5 5 5 5 5 5 5 5 5 5 5 5 3 5 5 5 5 5 3 5 5 5 5 5 5 5 5 5 5 5 5 5 5 5 5 5 5 5 5 5 5 5 5 5 3 3 5 5 5 3 5 5 5 5 5 5 5 3 5 5 5 5 5 5 5 5 5 5 3 5 5 5 5 5 5 3 3 5 5 5 5 5 5 5 5 5 3 5 5 5 3 5 5 5 5 5 3 5 3 5 5 5 5 5 5 5 3 5 5 5 5 5 5 5 5 5 5 5 5 3 5 5 5 5 5 5 5 5 5 5 5 5 3 5 5 5 5 3 5 5 5 5 3 5 5 5 3 5 3 5 5 5 5 5 5 5 5 5 5 5 5 5 3 5 5 5 5 5 5 5 5 5 5 5 5 5 5 5 5 5 3 3 5 5 5 5 5 5 3 5 5 5 5 5 5 5 5 5 5 5 5 5 5 5 5 5 5 5 5 5 5 5 5 5 5 5 5 5 5 5 5 5 5 5 5 5 5 5 5 5 5 5 5 5 5 5 5 5 5 5 5 5 5 5 5 5 5 3 5 5 5 5 5 3 5 5 5 5 5 5 5 5 5 5 5 3 5 5 5 3 5 5 5 5 5 5 5 5 5 5 5 5 5 3 5 5 5 5 5 5 5 5 5 5 5 5 5 5 5 5 5 5 5 5 5 5 5 3 5 5 5 5 5 5 5 5 5 5 5 5 5 5 5 5 3 5 5 5 5 5 5 3 5 5 5 5 5 5 5 5 5 5 3 5 5 5 3 5 5 5 5 5 5 5 5 5 5 5 5 5 5 3 5 3 5 5 5 5 5 5 5 3 5 3 5 5 5 5 5 5 5 5 5 5 5 5 3 5 5 5 5 3 5 5 5 5 3 5 5 5 5 3 5 5 5 5 3 5 5 5 5 5 5 5 3 5 5 5 5 5 5 5 5 5 5 5 3 5 5 5 3 5 5 3 5 5 5 5 5 5 5 5 5 5 5 5 5 5 5 5 5 5 5 5 5 5 5 5 5 5 5 5 5 5 5 5 5 5 5 5 5 5 5 5 5 5 5 5 5 5 5 5 5 5 5 5 5 5 5 5 5 5 5 5 5 5 5 5 5 5 5 5 5 5 5 5 5 5 5 5 5 5 3 5 5 5 5 5 5 3 5 5 5 5 5 5 3 5 5 5 3 5 5 5 5 5 3 5 5 5 5 5 5 5 5 5 5 5 5 5 5 5 5 5 5 3 5 5 5 5 5 5 5 5 5 5 5 5 3 5 5 5 5 5 5 5 5 5 5 5 5 5 5 5 5 5 5 5 5 5 5 5 5 3 5 5 5 5 5 5 5 5 5 5 3 3 5 3 5 5 3 5 5 5 5 5 5 5 5 5 5 5 5 5 5 5 5 5 5 3 5 5 5 5 5 5 5 5 3 5 5 5 5 5 5 5 5 5 5 5 5 5 5 3 5 5 5 3 5 5 5 5 5 5 5 3 5 5 5 5 5 3 5 3 5 5 5 5 5 5 5 3 3 5 3 5 5 3 5 5 5 5 5 5 5 5 5 5 5 5 3 5 5 5 5 3 5 5 5 5 5 5 5 5 5 5 5 5 5 5 5 5 5 5 5 3 5 5 5 5 5 5 5 3 5 5 5 5 5 5 5 5 5 5 5 5 5 5 5 5 5 5 5 5 5 5 5 3 5 5 5 3 5 3 5 5 5 5 5 5 3 5 5 5 5 5 5 5 3 5 5 5 5 5 3 5 5 3 5 3 5 3 5 5 5 5 5 5 3 5 3 5 5 5 5 5 3 5 5 5 5 5 5 3 5 3 5 5 5 5 5 5 5 5 5 5 5 5 5 5 3 5 5 5 5 5 3 5 5 3 5 5 5 5 5 5 5 5 5 5 5 5 5 5 5 5 5 5 5 5 5 5 5 5 5 5 3 5 5 5 5 5 5 5 5 5 5 3 3 5 5 3 5 5 5 5 5 5 5 5 5 5 3 5 5 5 5 5 5 5 5 3 5 3 5 5 5 5 5 5 5 5 5 5 3 5 5 5 5 5 5 5 3 5 5 3 5 5 5 5 5 5 5 5 5 5 5 5 5 5 5 5 5 5 5 5 5 5 3 5 5 3 5 5 5 5 5 3 5 5 5 5 5 3 5 5 5 5 3 5 5 5 5 5 5 5 5 5 5 5 5 5 5 5 5 5 5 5 5 5 5 5 5 5 5 5 5 5 5 5 5 5 5 5 5 5 5 5 5 5 5 5 5 5 5 5 5 5 5 5 5 5 5 5 5 5 5 5 5 5 5 5 5 5 5 5 5 5 5 5 5 5 5 5 5 5 5 5 5 5 5 5 5 5 3 5 5 5 5 5 5 5 5 5 5 5 5 5 3 3 5 5 3 5 5 5 5 5 5 5 5 5 5 5 5 5 5 5 5 5 5 3 5 5 5 5 5 5 5 5 5 3 5 5 5 5 5 5 5 5 5 5 5 3 5 5 5 5 5 5 5 5 5 5 5 5 3 5 5 5 5 5 5 5 5 5 5 5 3 5 3 5 5 5 3 5 5 5 5 3 5 3 5 3 5 5 5 3 3 5 5 5 5 5 3 5 5 5 5 5 5 5 3 3 5 5 5 3 3 5 5 5 5 5 5 5 5 5 5 5 5 5 5 5 5 5 5 3 5 5 5 5 5 5 5 5 3 5 5 5 3 5 3 5 5 5 5 5 5 5 5 5 5 3 5 5 5 5 5 5 5 5 3 5 5 5 5 3 5 5 5 5 3 5 5 5 5 3 5 5 5 5 5 5 5 5 5 5 3 5 5 5 5 5 5 5 5 5 5 5 5 5 5 5 5 5 5 5 5 5 3 5 5 5 3 5 3 5 5 5 5 5 5 5 5 5 5 5 3 5 5 3 5 5 5 5 5 5 5 5 5 5 5 3 5 3 5 5 5 5 3 5 5 5 5 5 5 3 5 5 3 3 5 5 5 5 5 5 3 5 5 5 5 5 3 5 5 5 5 5 5 5 5 5 5 5 5 5 5 3 5 5 5 5 5 5 5 3 5 5 5 5 5 5 3 5 5 5 5 3 5 5 5 5 5 5 3 3 5 5 5 5 5 5 3 5 3 5 5 3 3 3 5 3 5 3 5 5 5 5 5 5 5 5 3 5 5 3 5 3 5 5 5 5 5 3 3 5 5 5 5 5 5 5 3 5 5 5 5 5 5 5 5 3 5 5 5 5 3 5 5 3 3 5 5 3 5 3 5 5 3 5 5 3 5 5 5 5 3 5 5 5 5 5 5 3 5 5 5 5 5 5 5 5 5 5 5 5 5 5 5 5 5 5 3 5 5 5 5 5 5 5 5 5 5 3 5 5 5 5 3 5 5 3 5 3 5 5 5 5 5 5 5 5 5 5 5 5 5 5 5 5 5 5 5 5 5 5 5 5 5 5 5 5 5 5 5 5 5 5 5 5 5 5 5 5 5 5 5 5 5 5 5 5 5 5 5 3 3 5 5 5 5 5 5 5 3 5 5 5 3 5 5 5 5 5 5 5 5 3 5 5 5 5 5 5 5 3 5 5 5 5 5 5 5 5 3 5 3 5 5 5 5 5 5 5 5 3 5 5 3 5 5 5 5 5 5 5 5 5 5 5 5 5 5 5 5 5 5 5 5 3 5 3 5 5 5 3 5 5 3 5 5 5 5 5 5 5 3 5 5 5 5 5 5 5 3 5 5 5 5 5 3 5 5 5 5 5 5 5 5 5 5 5 5 5 5 5 5 5 5 5 5 5 5 5 5 3 5 5 5 5 5 5 5 5 3 5 5 5 5 5 5 5 5 5 5 5 5 5 5 5 5 5 5 5 5 3 5 5 5 5 5 5 5 5 5 5 5 5 5 5 5 5 5 5 5 3 5 3 5 5 5 5 5 5 5 5 5 5 5 3 5 5 5 5 5 3 5 5 5 3 3 5 5 3 5 5 3 5 5 3 5 5 5 5 3 5 5 3 3 5 5 5 5 5 3 5 5 5 5 5 5 5 5 5 5 5 5 5 5 5 5 5 5 5 5 5 5 5 5 5 5 5 5 5 5 5 5 5 5 5 5 3 5 5 5 5 5 3 5 5 3 5 5 5 5 5 5 3 5 5 5 5 5 5 3 5 5 5 5 5 5 5 5 5 5 5 5 5 5 5 5 5 5 3 5 5 5 5 5 5 5 5 5 5 5 5 5 5 5 5 5 5 5 5 3 5 3 5 5 3 5 5 5 5 5 5 5 5 3 5 5 5 5 5 5 3 5 5 3 5 5 5 5 5 3 5 5 5 5 3 5 3 5 5 5 3 5 5 5 5 5 5 5 5 5 5 5 5 5 5 5 3 5 5 5 5 5 3 3 5 5 5 5 5 5 5 5 5 3 5 5 5 5 5 5 5 3 5 5 5 5 5 3 5 5 5 5 5 5 3 5 5 5 5 5 5 5 5 5 5 5 3 5 5 5 5 5 5 5 5 5 5 5 5 5 5 5 5 5 5 5 5 5 5 5 5 5 5 3 5 5 5 5 5 5 5 5 5 5 5 5 5 5 5 5 3 5 5 5 3 5 5 5 5 5 5 3 5 5 3 5 3 5 5 5 5 3 5 5 5 5 5 5 5 5 5 5 5 5 5 5 5 5 5 5 5 5 5 5 5 5 5 5 5 5 5 5 5 5 5 5 5 5 3 5 5 5 3 5 3 5 5 5 3 3 5 5 5 5 5 5 5 5 5 5 5 5 5 5 5 3 5 5 5 5 5 3 5 5 5 5 5 5 5 5 5 5 5 5 5 5 5 5 5 5 5 3 5 3 5 3 5 5 5 5 5 5 3 5 5 5 5 5 5 5 5 5 5 5 5 5 5 5 3 5 5 3 5 5 5 5 5 5 5 5 3 5 3 5 5 5 5 5 5 5 5 5 5 5 5 5 5 5 5 5 5 3 5 5 5 5 5 5 5 5 5 5 5 5 5 5 3 5 5 5 3 5 5 5 5 5 5 5 5 3 5 5 3 5 5 5 5 5 3 5 5 5 5 5 5 5 5 5 5 3 5 5 3 5 5 5 5 3 5 3 5 5 5 5 3 5 3 5 5 3 3 3 5 5 3 5 5 5 5 5 5 3 5 5 5 5 5 5 3 5 5 5 5 5 5 5 3 5 5 5 5 5 5 5 5 5 5 5 5 3 5 5 5 5 5 5 5 5 5 5 3 5 5 5 5 5 5 5 5 5 5 5 5 5 5 5 5 5 5 5 5 5 5 5 5 5 5 5 3 5 5 5 5 5 5 5 5 5 5 5 3 5 5 5 5 5 5 5 5 5 5 3 3 5 5 5 5 5 5 3 5 5 5 5 5 3 5 5 5 5 5 5 5 5 5 5 5 5 3 5 5 5 5 5 5 5 5 5 5 5 5 5 5 5 5 5 5 5 5 5 5 5 5 5 3 5 5 5 5 3 5 5 5 5 5 5 5 3 5 5 5 3 3 5 5 5 5 5 3 3 5 5 5 5 5 5 5 5 5 5 5 5 3 5 3 5 5 5 5 5 5 5 5 5 5 5 5 5 5 5 5 5 5 5 3 3 5 5 5 5 5 5 5 5 5 5 5 5 5 5 5 5 5 5 3 5 5 5 5 5 5 3 3 5 5 5 5 5 5 5 5 5 5 5 5 5 5 5 5 5 5 5 5 3 5 5 3 5 5 3 5 5 5 3 5 3 5 5 5 5 5 5 5 3 5 5 5 5 5 5 5 5 5 5 5 5 5 5 5 5 5 5 3 5 5 5 5 3 5 5 5 5 5 3 5 5 5 5 5 5 5 5 5 3 5 5 5 5 5 5 5 5 5 5 5 5 5 5 5 5 5 5 5 3 5 5 5 5 5 3 5 5 5 3 5 5 3 5 5 5 5 5 5 5 5 5 5 5 5 5 3 3 5 5 5 5 5 5 5 5 5 5 5 5 5 5 5 5 5 3 5 5 3 3 5 5 5 5 5 5 5 5 5 3 5 3 5 5 5 5 5 5 5 5 5 5 5 3 3 5 5 5 5 5 5 5 3 5 5 5 5 5 5 5 3 5 5 5 3 5 5 5 5 5 5 5 5 5 5 5 5 5 5 5 5 5 5 5 5 5 5 5 5 5 5 5 5 5 5 5 5 5 5 5 5 5 5 5 5 5 5 5 5 3 5 5 5 5 5 5 5 5 5 5 5 5 5 5 5 5 5 5 5 5 5 5 5 5 5 5 5 5 5 5 5 5 5 5 5 5 5 5 5 5 5 5 5 3 5 3 5 5 5 5 5 5 5 5 5 5 5 5 5 5 5 5 5 5 5 5 3 5 5 5 5 5 5 5 5 5 5 5 5 5 5 5 5 5 5 5 5 5 3 5 5 3 5 5 5 5 5 5 5 5 5 3 5 5 5 5 5 5 5 5 3 5 5 5 5 5 5 5 5 5 5 3 5 5 5 5 3 5 5 5 3 5 3 5 5 5 3 5 5 5 3 5 5 3 5 3 5 5 5 3 5 5 5 5 3 5 3 5 5 5 5 3 5 5 5 3 3 5 5 5 3 3 5 5 5 5 3 5 5 5 5 3 5 5 5 5 5 5 5 5 5 5 5 3 5 5 5 3 5 5 5 3 5 5 5 3 5 5 5 5 5 5 3 5 5 5 5 5 5 5 3 5 3 5 5 5 5 5 3 5 5 5 3 3 5 3 5 5 5 5 5 5 5 5 5 5 5 5 3 5 5 5 5 5 3 3 5 3 5 3 5 5 5 5 3 3 5 5 3 5 5 5 5 5 5 5 5 5 3 5 5 5 3 5 3 5 5 5 5 3 5 3 5 5 5 5 5 5 5 5 5 5 5 5 5 5 5 3 5 5 3 5 5 3 5 5 5 3 3 5 5 3 3 5 5 5 5 3 5 5 5 3 5 5 5 5 3 5 5 5 3 5 5 3 5 5 5 5 5 3 5 5 5 3 5 5 5 5 5 5 5 3 5 5 5 5 5 5 5 5 5 5 5 5 5 5 5 5 5 5 5 5 5 5 5 5 5 5 5 5 5 3 5 5 5 5 5 5 3 5 5 5 3 5 5 5 5 5 3 5 5 5 3 5 5 5 5 3 5 5 3 5 5 5 5 5 5 5 5 5 5 5 5 5 5 5 5 3 5 5 5 3 3 5 5 5 5 5 3 5 5 5 3 5 5 5 5 3 5 5 5 3 5 5 5 5 5 5 5 5 5 5 5 5 5 5 5 5 5 5 5 5 5 5 5 5 3 5 5 5 5 3 5 5 5 5 5 5 5 3 3 5 5 5 3 5 5 5 5 3 5 5 5 5 5 5 5 3 5 5 5 5 3 5 5 5 5 3 5 5 5 3 5 3 5 5 5 5 3 5 5 5 5 5 3 5 5 3 5 3 5 5 5 5 5 5 5 5 5 5 5 5 5 5 5 3 5 5 3 5 3 5 5 5 5 5 5 5 5 5 5 5 5 5 3 5 5 5 5 5 5 5 5 5 3 5 5 5 5 5 5 5 5 5 5 5 5 5 3 5 5 5 5 5 3 5 5 5 5 5 5 5 3 5 5 5 5 5 3 3 5 5 5 5 5 5 5 5 5 5 5 5 5 5 5 5 5 5 3 5 5 5 5 5 5 5 5 5 5 5 5 5 5 5 5 5 5 5 5 3 5 5 3 5 5 5 5 5 5 5 5 5 5 5 3 3 5 3 5 5 5 5 5 5 5 3 5 5 3 5 5 5 3 5 5 3 5 5 5 5 5 5 5 3 5 5 5 5 5 5 3 5 5 5 5 3 5 5 3 5 5 5 3 3 5 5 5 3 3 5 5 3 5 3 5 3 5 5 3 5 3 5 5 3 5 5 3 5 5 5 5 5 5 3 5 5 5 3 5 5 5 3 5 5 5 5 3 5 5 5 3 5 5 5 5 5 5 3 3 5 5 5 5 5 5 5 3 5 5 5 5 5 5 3 5 5 5 3 5 3 5 3 5 3 5 5 5 3 5 5 5 5 5 5 5 5 5 5 5 5 5 5 3 5 5 5 5 5 5 5 5 5 5 5 5 3 3 5 5 5 5 5 3 5 3 3 5 3 3 5 5 5 3 5 5 5 5 5 5 5 5 5 5 5 3 5 3 5 5 3 5 3 5 5 5 5 5 5 5 5 5 5 5 5 5 5 5 5 5 3 3 5 5 5 3 5 5 5 5 5 5 5 5 5 3 5 5 5 5 5 5 5 5 5 5 3 5 5 3 5 3 5 3 5 5 5 5 5 3 5 5 5 3 5 3 3 3 5 3 5 3 3 5 5 5 5 3 5 5 5 5 3 5 5 5 5 5 5 5 5 5 5 5 3 5 5 5 5 5 5 5 5 5 3 5 3 5 5 5 5 5 3 5 5 5 5 3 3 5 5 5 5 5 3 5 3 5 3 5 5 5 5 5 5 5 5 5 5 5 5 5 3 3 3 5 5 3 3 5 3 5 5 5 5 5 5 5 5 5 5 5 3 5 5 5 5 5 5 5 5 5 5 5 5 3 5 3 5 5 3 5 3 3 3 5 3 5 5 3 5 3 5 3 5 5 5 5 5 5 5 5 3 5 5 3 5 5 5 5 3 5 5 5 5 3 5 5 5 5 5 5 5 5 3 5 5 5 5 5 5 5 5 5 5 3 5 5 5 5 5 5 5 5 3 5 5 3 5 5 5 5 5 5 5 3 3 5 5 5 5 5 5 5 5 5 5 5 5 5 5 3 5 5 5 5 3 5 5 5 5 5 5 5 5 5 5 5 5 5 5 5 5 5 5 5 5 5 5 5 3 5 3 5 5 5 3 5 5 5 5 5 5 3 5 3 5 5 5 5 5 5 5 5 5 5 5 5 5 5 5 5 3 5 5 5 5 3 5 5 5 5 5 3 5 5 3 5 5 5 3 3 5 5 5 5 3 5 5 5 3 5 3 5 5 5 5 3 5 5 3 5 5 5 5 3 5 5 5 5 3 5 5 5 3 5 5 5 5 5 3 5 5 5 3 5 5 3 5 5 3 3 5 3 5 5 5 3 5 3 5 5 3 5 5 5 5 5 5 3 5 3 3 3 3 5 5 5 3 5 3 5 5 3 5 5 5 3 5 5 3 5 3 5 3 5 5 5 3 5 5 3 5 5 3 5 5 3 5 5 5 5 5 5 3 5 5 5 3 3 3 3 3 5 5 5 5 5 5 5 5 5 5 5 5 5 3 5 5 5 5 5 5 5 5 5 5 5 5 5 5 5 5 5 3 5 5 5 5 5 5 3 5 5 5 5 5 5 5 3 5 5 5 5 5 5 5 5 5 5 5 5 5 5 5 5 5 5 5 5 5 5 5 5 3 5 3 5 5 5 5 5 5 5 5 5 5 5 5 5 5 5 5 5 5 5 5 5 5 5 5 5 5 5 5 5 5 5 5 5 3 5 5 5 5 5 5 5 5 5 5 5 5 5 5 5 5 5 5 5 3 5 3 5 3 3 5 5 5 5 5 5 3 3 5 5 3 5 5 5 5 5 5 3 5 5 5 5 5 5 5 5 5 5 5 5 5 5 5 5 5 5 5 3 3 5 5 5 5 5 5 5 5 5 5 5 5 5 5 5 5 5 5 5 5 5 5 5 5 5 5 5 5 5 5 5 5 3 5 3 5 3 5 5 5 5 3 5 5 5 3 5 5 3 5 5 5 5 5 5 5 5 5 5 5 5 5 3 5 5 3 5 5 5 5 5 5 3 5 5 5 5 5 5 5 5 5 5 5 5 5 5 5 3 5 5 5 5 5 5 3 5 5 5 5 5 5 5 5 5 5 5 5 3 5 5 5 5 5 5 3 5 5 5 5 3 3 5 5 3 3 5 5 5 3 5 3 5 3 5 5 5 5 5 5 5 5 5 5 3 5 5 3 5 5 3 3 5 5 5 5 5 5 5 5 5 5 5 5 5 5 5 3 5 5 5 5 5 3 3 5 5 3 5 5 5 5 5 5 5 5 5 3 5 5 3 5 3 5 3 5 5 5 3 5 5 3 5 5 3 5 5 3 5 3 5 5 3 5 5 5 3 3 5 5 3 5 5 3 3 5 3 5 5 3 5 3 5 3 5 5 3 3 5 5 3 5 3 3 5 5 5 5 5 3 5 5 5 5 5 5 5 3 5 5 3 5 5 5 5 5 5 5 5 5 5 5 5 5 5 5 5 5 5 5 5 5 3 5 5 5 3 5 5 5 5 3 5 5 5 5 5 3 5 3 5 5 3 5 5 5 5 3 5 5 5 3 5 5 5 3 5 3 5 5 5 5 5 3 5 5 3 5 5 3 3 5 3 5 5 5 3 5 5 3 5 5 3 5 5 3 3 5 5 5 3 5 5 5 5 5 5 5 5 3 5 3 5 5 3 5 5 3 5 3 3 5 5 5 5 5 5 3 5 5 5 5 5 5 5 5 5 5 5 5 3 3 5 3 5 5 5 3 5 3 5 5 5 3 5 5 5 5 3 3 5 5 5 3 5 5 3 5 3 3 3 5 3 5 5 3 5 5 3 5 3 5 3 3 5 5 3 5 5 5 3 3 5 5 3 5 5 5 3 5 5 5 3 3 3 5 5 5 5 5 3 5 3 5 5 5 5 3 5 5 3 5 5 5 5 3 5 3 3 5 3 5 3 5 5 5 5 5 5 5 5 5 5 5 5 5 5 3 5 5 5 3 5 3 3 5 5 5 5 5 5 5 3 5 5 3 5 5 5 5 5 3 5 3 5 3 5 5 5 5 5 5 5 5 5 5 5 5 5 5 5 5 3 5 3 5 5 5 5 5 5 5 5 5 5 5 5 5 5 5 5 5 5 5 5 5 5 5 3 5 5 5 5 5 5 5 5 5 5 3 5 5 5 5 5 5 5 5 5 5 5 3 5 5 5 5 5 5 5 5 5 5 5 5 5 5 3 5 5 5 3 3 5 5 5 5 5 3 5 3 5 5 5 5 5 5 5 3 5 3 5 5 5 5 5 5 5 5 5 5 5 3 5 3 3 5 5 5 5 5 5 5 5 5 5 5 5 5 5 5 5 3 5 5 5 5 5 5 5 3 5 5 5 5 5 5 5 5 5 5 5 5 5 5 5 5 5 5 3 5 5 5 3 3 5 3 5 5 5 5 5 5 5 5 5 5 5 5 5 5 5 5 3 5 5 5 3 5 5 5 3 5 5 5 3 5 5 5 5 5 5 3 5 5 5 5 5 3 5 5 5 3 5 5 5 3 5 5 5 5 3 3 3 5 5 5 3 5 3 5 5 5 3 5 5 5 3 3 5 5 3 5 3 5 5 3 5 5 5 5 5 5 5 5 3 5 5 5 3 5 5 5 3 5 3 5 5 5 5 3 5 5 5 5 5 3 5 5 5 5 5 3 5 5 5 3 3 5 3 3 5 5 3 5 5 5 5 5 5 3 5 5 5 3 5 5 5 5 5 3 5 5 3 5 5 3 3 5 5 5 3 3 5 5 3 5 5 3 3 5 5 3 3 5 5 3 5 5 5 5 5 3 5 5 5 5 5 5 5 5 5 5 3 5 5 5 5 5 5 5 5 5 5 5 5 5 3 5 5 5 5 5 5 3 5 5 3 5 5 5 3 5 5 5 5 3 3 5 5 5 5 5 5 5 5 5 5 3 5 5 5 5 5 3 5 5 3 5 5 5 5 5 5 5 5 3 5 5 5 5 3 3 5 5 5 5 5 3 3 5 5 5 5 5 5 5 5 5 5 5 5 5 5 5 5 5 5 5 5 5 5 5 5 5 5 3 5 5 5 5 5 5 5 5 5 5 3 5 5 5 5 5 5 5 5 3 5 5 5 5 5 3 5 5 5 5 5 5 5 5 5 5 5 5 5 5 5 5 5 5 5 5 5 5 5 3 5 3 5 5 5 5 5 5 5 3 5 5 5 5 5 5 5 5 5 5 5 5 5 3 5 5 5 3 5 5 5 5 5 5 5 5 5 5 3 5 5 5 5 5 5 5 5 5 3 5 5 5 5 5 5 5 5 5 5 5 5 5 5 5 5 3 5 5 5 5 5 5 5 5 5 5 3 3 5 3 3 5 5 5 5 5 3 5 5 5 3 5 5 5 5 5 5 5 5 5 5 5 5 5 5 3 5 5 5 5 5 5 3 5 5 5 5 5 5 5 5 5 5 5 5 5 5 5 5 5 5 5 5 5 5 5 5 5 5 3 5 5 5 5 5 5 5 3 5 5 5 5 5 3 5 5 3 3 5 5 3 5 5 5 3 5 5 5 5 5 5 5 5 5 5 5 5 3 5 5 5 3 5 5 5 3 3 5 5 3 5 5 5 5 5 5 5 5 5 5 5 5 5 5 5 5 5 5 5 5 5 5 5 5 5 5 5 5 5 5 5 5 5 5 5 5 5 5 5 5 5 5 5 5 5 5 5 5 3 5 5 5 5 5 3 5 5 5 5 3 5 5 5 3 5 5 5 5 5 3 3 5 5 5 3 5 5 5 5 5 5 5 5 5 5 5 5 5 5 5 5 3 5 3 5 3 5 5 5 5 5 5 5 5 5 5 3 5 5 5 5 5 5 5 5 5 5 5 5 5 5 5 5 5 5 5 5 5 5 5 5 5 5 5 5 3 5 5 5 5 5 5 5 5 5 3 5 5 5 3 5 5 5 5 5 3 5 5 3 5 5 5 5 5 5 3 5 5 5 5 5 5 5 5 3 5 5 5 5 5 5 5 5 3 5 5 3 5 3 5 5 5 5 5 5 5 5 5 5 3 5 5 5 5 5 3 5 5 5 5 3 5 3 5 5 5 3 5 5 3 5 5 5 5 5 5 5 5 5 5 5 5 5 5 5 5 5 5 3 5 5 5 5 5 5 5 5 3 5 5 5 3 5 5 5 5 3 5 5 5 5 3 5 5 5 5 5 5 5 3 5 5 5 5 3 3 5 5 5 5 5 5 3 5 5 5 3 5 5 5 3 5 5 5 5 5 5 3 5 5 5 5 5 5 3 5 3 5 3 3 3 5 5 5 5 5 5 5 5 5 5 3 3 5 3 3 5 5 5 3 5 3 5 5 5 5 3 3 5 5 5 5 5 5 5 3 5 5 3 5 5 5 5 3 5 5 5 3 5 5 5 5 5 5 5 5 5 5 5 5 5 5 5 3 5 5 5 5 5 5 5 3 5 5 5 5 3 5 5 5 5 5 5 5 3 5 5 3 5 5 5 5 5 5 5 5 3 5 3 5 3 3 5 5 5 5 5 3 5 5 5 5 5 5 5 5 5 5 5 5 5 3 5 5 5 5 5 5 5 5 5 5 5 3 5 5 5 5 3 5 5 5 5 3 5 5 5 5 5 5 5 5 5 5 5 5 5 5 5 5 5 5 5 5 5 5 5 5 3 5 5 5 5 5 5 5 5 5 3 5 5 5 5 5 5 5 5 5 5 5 5 5 5 5 5 5 5 5 5 5 5 5 5 5 5 5 5 5 5 5 5 5 5 5 5 5 5 5 5 5 5 5 5 5 5 5 5 5 5 5 3 5 3 5 5 5 5 5 5 5 5 5 5 5 5 5 5 5 5 5 5 5 5 5 5 5 5 5 5 5 5 5 5 5 5 5 5 5 5 5 5 5 5 5 3 5 3 5 5 5 5 5 5 5 5 5 5 3 5 5 5 3 5 5 3 5 3 5 3 3 3 5 5 3 5 5 5 3 5 5 5 5 5 5 3 5 5 3 5 5 5 5 5 3 5 5 5 5 5 5 5 5 3 5 3 5 3 5 5 5 5 5 3 5 5 5 5 5 3 5 5 3 5 5 5 5 5 5 5 5 5 5 5 5 5 5 5 5 5 5 5 5 5 5 5 5 5 5 5 5 5 5 5 5 5 5 5 5 5 5 5 5 5 3 5 3 5 5 5 5 5 5 5 5 5 5 5 5 5 5 5 5 5 5 5 5 5 5 5 5 5 3 5 5 5 5 5 5 5 5 5 3 5 3 5 5 5 5 5 5 3 5 3 5 5 5 5 5 3 5 5 3 5 5 5 5 5 5 5 5 5 3 5 5 5 5 5 5 3 5 5 5 5 5 5 5 5 5 3 5 5 5 5 5 5 5 5 5 5 5 5 3 5 5 3 5 5 5 5 5 3 3 3 5 5 5 3 5 5 3 5 3 3 5 3 5 5 5 3 3 3 5 5 5 5 5 5 5 3 5 5 3 5 5 3 5 5 5 5 5 3 5 5 5 3 5 3 5 5 5 5 5 5 5 5 5 3 5 5 5 5 5 5 5 5 3 5 5 3 5 5 5 5 5 5 3 5 5 5 5 5 3 5 5 5 3 5 5 5 5 5 5 5 5 5 5 5 5 5 5 3 5 5 5 5 5 3 5 5 5 5 5 5 5 5 5 5 3 5 3 5 5 5 3 3 5 5 5 3 5 5 5 5 3 5 5 5 5 5 3 3 5 5 5 5 5 5 3 5 5 5 5 5 5 5 5 5 5 5 5 3 5 5 5 5 5 5 5 5 3 5 5 5 5 5 5 5 3 5 3 5 5 3 5 5 5 5 3 5 5 3 3 5 3 5 5 5 5 5 5 5 5 5 5 5 5 5 5 3 5 5 5 5 5 5 5 3 5 3 5 5 5 3 5 5 5 5 3 5 5 3 3 5 5 5 3 5 5 5 3 5 5 3 3 5 5 5 5 5 3 3 5 5 3 5 5 5 5 3 3 5 5 5 5 5 3 5 5 5 5 5 5 5 5 5 5 3 5 5 5 3 5 5 5 5 5 5 5 5 5 5 5 5 5 5 5 5 3 5 5 5 5 5 5 5 5 5 5 5 5 5 5 5 5 5 5 5 5 5 5 5 5 5 5 5 5 3 5 5 3 5 5 5 5 5 5 3 5 5 5 5 5 5 3 5 3 5 5 3 5 3 5 5 3 5 3 5 5 3 5 5 5 3 5 5 5 5 5 5 3 5 5 3 5 5 5 5 5 5 5 5 5 5 5 3 5 5 3 5 5 3 5 5 5 5 3 5 5 5 5 5 5 5 3 3 5 5 5 5 5 5 5 5 5 5 5 5 5 5 5 5 5 5 5 5 3 3 5 5 5 5 5 5 5 3 5 5 5 5 5 3 5 5 5 3 5 3 5 5 5 3 5 5 5 5 3 5 5 5 5 5 5 3 5 5 5 5 5 3 5 5 5 5 5 5 5 3 5 5 5 5 3 3 5 5 3 5 5 3 5 5 5 3 5 5 5 5 5 5 3 5 3 3 5 5 5 5 5 5 5 5 5 5 5 5 5 5 5 5 5 5 5 5 3 5 5 3 5 3 5 5 5 5 5 5 5 5 5 5 5 5 3 5 5 5 3 5 5 5 5 5 5 5 5 5 5 3 5 5 5 5 5 5 3 5 5 5 5 3 5 5 5 3 5 3 5 3 5 5 5 3 5 5 3 5 5 5 5 5 3 5 5 5 5 5 5 5 5 5 3 3 5 3 5 5 5 5 3 5 3 5 5 3 5 5 3 5 3 5 5 5 5 3 5 5 5 5 3 5 5 5 5 5 5 3 5 3 5 5 5 5 5 5 3 5 5 5 5 3 5 5 5 5 3 5 5 3 5 5 5 3 3 5 3 5 3 3 5 5 3 5 5 3 5 5 5 5 5 5 5 5 5 5 5 5 5 5 5 5 5 5 5 5 5 5 5 5 5 5 5 5 5 5 5 5 5 5 5 5 5 5 5 5 5 5 5 5 5 5 5 5 5 5 3 5 5 5 5 5 5 5 5 5 5 5 5 5 5 5 5 5 5 5 5 5 5 5 5 5 5 5 5 5 5 5 5 5 5 5 5 5 5 5 5 5 5 5 5 5 5 3 5 5 5 5 5 5 5 5 5 3 3 5 5 5 3 5 5 5 5 5 5 3 5 5 3 5 5 5 5 5 3 5 5 3 5 5 5 3 5 5 5 5 5 5 5 5 5 5 5 5 5 5 5 5 5 5 3 5 5 5 5 5 5 5 5 5 5 5 3 5 5 5 5 5 5 5 5 5 5 5 5 5 5 5 5 5 5 5 5 5 5 5 5 5 5 5 5 5 5 5 5 5 5 5 5 5 5 5 5 3 5 5 5 5 3 5 5 3 3 5 5 5 3 5 5 5 5 5 3 5 5 5 5 5 5 5 3 5 5 3 5 5 3 5 5 5 5 5 5 5 5 5 5 5 5 5 5 5 5 5 3 5 5 5 5 5 5 5 5 5 5 5 5 3 5 3 5 5 5 3 5 5 3 5 5 5 5 5 3 5 5 3 5 5 5 5 3 5 5 5 5 5 5 5 3 5 5 5 5 5 5 5 5 5 3 5 5 5 5 5 5 5 5 5 3 5 5 5 5 5 3 5 5 5 3 5 5 5 5 5 5 5 5 5 5 5 3 5 5 5 5 5 5 3 5 5 5 5 5 5 5 5 5 5 5 5 5 5 5 5 5 5 3 5 5 5 5 5 5 5 5 5 5 5 5 5 3 5 5 5 3 5 5 5 3 5 3 5 5 5 5 5 5 5 5 5 5 3 5 5 3 5 5 3 5 5 3 5 5 3 5 5 3 3 5 5 5 5 5 5 5 3 5 5 5 5 5 5 5 5 5 5 5 5 5 3 5 5 5 3 5 3 5 5 5 5 5 5 5 5 5 5 3 5 5 5 3 3 5 5 5 5 5 5 5 5 5 5 5 5 5 5 5 5 3 5 3 5 5 3 5 5 5 5 5 5 5 5 5 5 3 5 5 5 5 5 5 5 5 5 5 5 5 5 5 5 5 5 5 5 5 5 5 5 5 5 5 5 5 5 5 5 5 5 5 3 5 5 5 5 3 5 5 5 3 5 5 5 5 5 5 3 5 5 5 3 5 3 5 5 5 5 5 5 5 5 5 5 3 5 5 3 5 5 3 5 5 5 3 5 3 5 5 5 5 5 5 5 3 5 5 5 3 5 5 3 5 5 3 3 5 5 5 3 5 5 5 5 3 5 5 5 5 5 5 5 5 5 5 5 5 5 5 3 5 5 5 5 5 5 3 3 5 5 3 5 5 5 3 5 5 5 5 5 5 5 5 3 3 5 5 5 5 5 5 5 5 5 5 5 5 3 5 3 5 5 3 5 5 3 5 3 5 5 3 5 3 5 5 5 3 5 3 5 5 3 5 5 5 5 5 3 3 5 5 3 5 5 5 5 5 5 5 3 5 5 5 5 5 5 5 5 5 5 5 5 5 5 5 3 5 5 5 3 5 5 5 5 5 5 5 5 3 5 5 5 5 3 3 5 5 5 5 5 5 5 5 5 5 5 5 5 5 5 5 5 3 5 5 5 5 5 5 3 5 5 5 5 3 5 3 5 5 5 3 3 5 3 5 5 3 5 5 3 5 5 5 3 5 5 3 5 5 5 5 5 5 3 5 5 5 5 5 3 5 5 5 5 5 3 5 5 5 5 5 5 5 5 5 3 5 5 5 5 5 5 5 5 5 5 5 5 5 5 5 5 5 5 5 5 5 5 5 5 5 5 5 3 5 5 5 5 5 5 5 5 5 5 3 5 5 5 5 5 5 5 5 5 5 5 5 5 5 5 5 5 5 5 5 5 5 5 5 5 5 5 5 5 5 5 5 5 5 5 5 3 5 5 5 3 5 5 5 5 5 5 5 5 5 5 5 5 5 5 5 5 5 5 5 3 5 3 3 5 5 5 3 3 5 3 3 3 5 5 3 3 5 3 3 5 5 5 5 5 5 3 5 5 3 5 3 5 3 3 5 5 5 5 5 5 5 5 5 5 5 3 5 5 3 5 5 5 5 5 5 5 5 5 5 5 5 5 5 5 5 3 3 5 5 5 5 5 3 5 5 5 5 3 3 5 5 5 5 5 3 5 3 5 5 3 5 5 3 5 5 5 5 3 5 3 5 5 5 5 5 5 5 5 5 5 3 3 5 5 3 5 5 5 5 5 3 5 5 5 5 5 3 5 5 5 3 3 3 5 5 5 5 5 5 5 5 5 5 5 3 5 5 5 3 5 5 5 5 5 5 5 5 5 5 3 5 5 5 5 5 5 5 5 5 5 5 5 5 5 5 5 5 5 5 5 3 3 3 5 5 5 5 5 3 5 5 5 3 5 5 5 5 5 3 5 5 3 5 5 5 5 5 5 3 5 5 3 3 5 5 5 5 5 5 5 5 3 5 5 5 5 5 3 5 5 5 5 5 5 5 3 3 5 5 5 5 5 3 5 5 5 3 5 5 5 3 5 5 3 5 5 5 5 5 5 5 5 3 5 5 5 5 5 5 3 5 3 5 5 5 5 5 5 5 5 5 3 5 5 5 5 5 3 5 5 5 5 5 5 5 3 5 5 5 5 5 3 
</DataArray>
</Cells>
<PointData Scalars="" Vectors="displacement," Tensors="">
<DataArray type="Float64" Name="displacement" NumberOfComponents="3" format="ascii">
-0.034996934980639764 -9.6733543031102396e-07 0 -0.034666529257062415 2.1306521915179161e-05 0 -0.032601278329619843 1.4598655047781148e-06 0 -0.034996934980639764 -9.6733543031102396e-07 0 -0.034929361617587168 -2.0797034088410045e-06 0 -0.035001060868838078 4.7354686024864916e-07 0 -0.034996934980639764 -9.6733543031102396e-07 0 -0.034666529257062415 2.1306521915179161e-05 0 -0.034929361617587168 -2.0797034088410045e-06 0 -0.033453727136283161 -0.00018753895482016985 0 -0.032596655125530755 -1.054066572965998e-07 0 -0.032157560345257422 -0.00035003852321937944 0 -0.032592905181955394 -3.1404773934029966e-07 0 -0.031857207735490015 -0.00020116610844835936 0 -0.032592905181955394 -3.1404773934029966e-07 0 -0.031857207735490015 -0.00020116610844835936 0 -0.031166368579670971 -1.888752114321241e-07 0 -0.032157560345257422 -0.00035003852321937944 0 -0.031857207735490015 -0.00020116610844835936 0 -0.032642302939968573 -0.00013963818380042419 0 -0.031857207735490015 -0.00020116610844835936 0 -0.032456649740218488 0.00010625904984575284 0 -0.031151282698862359 -3.5373770317509888e-05 0 -0.031857207735490015 -0.00020116610844835936 0 -0.031166368579670971 -1.888752114321241e-07 0 -0.031151282698862359 -3.5373770317509888e-05 0 -0.032456649740218488 0.00010625904984575284 0 -0.033599099587299876 8.7360031126695382e-06 0 -0.033339590140834777 0.00052803513007987476 0 -0.031857207735490015 -0.00020116610844835936 0 -0.032456649740218488 0.00010625904984575284 0 -0.032642302939968573 -0.00013963818380042419 0 -0.032456649740218488 0.00010625904984575284 0 -0.032642302939968573 -0.00013963818380042419 0 -0.033599099587299876 8.7360031126695382e-06 0 -0.032642302939968573 -0.00013963818380042419 0 -0.033374000486608074 -0.00057631012072563805 0 -0.033599099587299876 8.7360031126695382e-06 0 -0.033374000486608074 -0.00057631012072563805 0 -0.034215741109015749 -0.00016646287296357248 0 -0.033599099587299876 8.7360031126695382e-06 0 -0.033453727136283161 -0.00018753895482016985 0 -0.034114935287661734 -0.00023432367583101947 0 -0.032157560345257422 -0.00035003852321937944 0 -0.032642302939968573 -0.00013963818380042419 0 -0.033374000486608074 -0.00057631012072563805 0 -0.033374000486608074 -0.00057631012072563805 0 -0.034997501282624355 -1.8221168273638308e-06 0 -0.034215741109015749 -0.00016646287296357248 0 -0.034114935287661734 -0.00023432367583101947 0 -0.034999611643131728 -8.9795789610854692e-08 0 -0.034997501282624355 -1.8221168273638308e-06 0 -0.034525345497112274 -9.2934988483400982e-05 0 -0.035000138978141179 3.7790771126171823e-07 0 -0.034997501282624355 -1.8221168273638308e-06 0 -0.034525345497112274 -9.2934988483400982e-05 0 -0.034215741109015749 -0.00016646287296357248 0 -0.034525345497112274 -9.2934988483400982e-05 0 -0.034215741109015749 -0.00016646287296357248 0 -0.033599099587299876 8.7360031126695382e-06 0 -0.035000138978141179 3.7790771126171823e-07 0 -0.03478535211086789 -1.5183875306580462e-05 0 -0.034999614966444617 -1.2050831261594389e-07 0 -0.03478535211086789 -1.5183875306580462e-05 0 -0.034999614966444617 -1.2050831261594389e-07 0 -0.034803615646587613 5.0813997564852896e-05 0 -0.034525345497112274 -9.2934988483400982e-05 0 -0.035000138978141179 3.7790771126171823e-07 0 -0.03478535211086789 -1.5183875306580462e-05 0 -0.034525345497112274 -9.2934988483400982e-05 0 -0.03478535211086789 -1.5183875306580462e-05 0 -0.03454456958333349 8.4108507905572785e-05 0 -0.03478535211086789 -1.5183875306580462e-05 0 -0.034713270116633131 5.8509187020659842e-05 0 -0.034803615646587613 5.0813997564852896e-05 0 -0.03478535211086789 -1.5183875306580462e-05 0 -0.034713270116633131 5.8509187020659842e-05 0 -0.03454456958333349 8.4108507905572785e-05 0 -0.034713270116633131 5.8509187020659842e-05 0 -0.03454456958333349 8.4108507905572785e-05 0 -0.0346025333439084 0.00021412301006462839 0 -0.034713270116633131 5.8509187020659842e-05 0 -0.0346025333439084 0.00021412301006462839 0 -0.034700198190982134 0.00017931794483990712 0 -0.034525345497112274 -9.2934988483400982e-05 0 -0.03454456958333349 8.4108507905572785e-05 0 -0.034078992094407547 0.00024807145032304067 0 -0.03454456958333349 8.4108507905572785e-05 0 -0.034376913710129832 0.00038931468903522702 0 -0.034078992094407547 0.00024807145032304067 0 -0.03454456958333349 8.4108507905572785e-05 0 -0.034376913710129832 0.00038931468903522702 0 -0.0346025333439084 0.00021412301006462839 0 -0.034376913710129832 0.00038931468903522702 0 -0.0346025333439084 0.00021412301006462839 0 -0.034621060473937697 0.00040153014215226933 0 -0.0346025333439084 0.00021412301006462839 0 -0.034621060473937697 0.00040153014215226933 0 -0.034700198190982134 0.00017931794483990712 0 -0.033599099587299876 8.7360031126695382e-06 0 -0.034078992094407547 0.00024807145032304067 0 -0.033339590140834777 0.00052803513007987476 0 -0.034525345497112274 -9.2934988483400982e-05 0 -0.033599099587299876 8.7360031126695382e-06 0 -0.034078992094407547 0.00024807145032304067 0 -0.034078992094407547 0.00024807145032304067 0 -0.033339590140834777 0.00052803513007987476 0 -0.033971118858305512 0.00080327668264183456 0 -0.034376913710129832 0.00038931468903522702 0 -0.034078992094407547 0.00024807145032304067 0 -0.033971118858305512 0.00080327668264183456 0 -0.033339590140834777 0.00052803513007987476 0 -0.033971118858305512 0.00080327668264183456 0 -0.032966798532762388 0.0015193666327287605 0 -0.034447813651717347 0.0006862242466256339 0 -0.034621060473937697 0.00040153014215226933 0 -0.034705771245566508 0.00064182438079889072 0 -0.034376913710129832 0.00038931468903522702 0 -0.034447813651717347 0.0006862242466256339 0 -0.034621060473937697 0.00040153014215226933 0 -0.034376913710129832 0.00038931468903522702 0 -0.033971118858305512 0.00080327668264183456 0 -0.034447813651717347 0.0006862242466256339 0 -0.033971118858305512 0.00080327668264183456 0 -0.034447813651717347 0.0006862242466256339 0 -0.034250925442431412 0.0010168383991072422 0 -0.034447813651717347 0.0006862242466256339 0 -0.034250925442431412 0.0010168383991072422 0 -0.034562438453957671 0.00090942208509552699 0 -0.034447813651717347 0.0006862242466256339 0 -0.034562438453957671 0.00090942208509552699 0 -0.034705771245566508 0.00064182438079889072 0 -0.034562438453957671 0.00090942208509552699 0 -0.03442981807727747 0.0013095867163727109 0 -0.03470484280823273 0.0010991530230723265 0 -0.034250925442431412 0.0010168383991072422 0 -0.034562438453957671 0.00090942208509552699 0 -0.03442981807727747 0.0013095867163727109 0 -0.030049873781154042 -0.00015257769287269532 0 -0.029119734527087295 7.6432288482736047e-05 0 -0.034250925442431412 0.0010168383991072422 0 -0.03442981807727747 0.0013095867163727109 0 -0.033832042273681188 0.0014293228828479792 0 -0.025403561406250785 -0.0018853706515922018 0 -0.024398365852448207 -0.0012552078111595546 0 -0.024576219831857826 -0.00086657326974492457 0 -0.025403561406250785 -0.0018853706515922018 0 -0.026392863788984332 -0.0014596537176719466 0 -0.025520434794428112 -0.0010447867558949222 0 -0.029119734527087295 7.6432288482736047e-05 0 -0.02858130984642588 0.00058803586613316616 0 -0.033971118858305512 0.00080327668264183456 0 -0.033832042273681188 0.0014293228828479792 0 -0.032966798532762388 0.0015193666327287605 0 -0.033971118858305512 0.00080327668264183456 0 -0.034250925442431412 0.0010168383991072422 0 -0.033832042273681188 0.0014293228828479792 0 -0.024398365852448207 -0.0012552078111595546 0 -0.024064355066471949 -0.00071581526038800268 0 -0.024576219831857826 -0.00086657326974492457 0 -0.024398365852448207 -0.0012552078111595546 0 -0.02412175801524967 -0.00036998284021315061 0 -0.024064355066471949 -0.00071581526038800268 0 -0.02412175801524967 -0.00036998284021315061 0 -0.024272662765645287 -0.00041195975910708453 0 -0.024064355066471949 -0.00071581526038800268 0 -0.02412175801524967 -0.00036998284021315061 0 -0.024272662765645287 -0.00041195975910708453 0 -0.025073662663041112 0.00045816222357449499 0 -0.02858130984642588 0.00058803586613316616 0 -0.02828980310724212 0.00088613542889304535 0 -0.032966798532762388 0.0015193666327287605 0 -0.031444684673284769 0.0015244009739622609 0 -0.032178880454890695 0.00062243314480158601 0 -0.024272662765645287 -0.00041195975910708453 0 -0.025073662663041112 0.00045816222357449499 0 -0.024737950606602988 -0.00044124221563930985 0 -0.026233988672455154 -9.3634849350315264e-05 0 -0.025073662663041112 0.00045816222357449499 0 -0.024737950606602988 -0.00044124221563930985 0 -0.026233988672455154 -9.3634849350315264e-05 0 -0.026368683254890744 -1.3335777843737005e-06 0 -0.028299225352640452 2.6049664322296635e-06 0 -0.026233988672455154 -9.3634849350315264e-05 0 -0.026368683254890744 -1.3335777843737005e-06 0 -0.025275477241525034 -0.00020445616000722199 0 -0.026233988672455154 -9.3634849350315264e-05 0 -0.028299225352640452 2.6049664322296635e-06 0 -0.025073662663041112 0.00045816222357449499 0 -0.028302954623968056 4.1357002276199676e-07 0 -0.02828980310724212 0.00088613542889304535 0 -0.031444684673284769 0.0015244009739622609 0 -0.030492624430307317 0.00028314554787753533 0 -0.032178880454890695 0.00062243314480158601 0 -0.028306668717830816 3.330009917868962e-06 0 -0.031444684673284769 0.0015244009739622609 0 -0.030492624430307317 0.00028314554787753533 0 -0.028306668717830816 3.330009917868962e-06 0 -0.030492624430307317 0.00028314554787753533 0 -0.029733672473435474 -8.0365929456677692e-07 0 -0.030492624430307317 0.00028314554787753533 0 -0.029733672473435474 -8.0365929456677692e-07 0 -0.031151282698862359 -3.5373770317509888e-05 0 -0.031166368579670971 -1.888752114321241e-07 0 -0.029733672473435474 -8.0365929456677692e-07 0 -0.031151282698862359 -3.5373770317509888e-05 0 -0.030492624430307317 0.00028314554787753533 0 -0.031151282698862359 -3.5373770317509888e-05 0 -0.032178880454890695 0.00062243314480158601 0 -0.032456649740218488 0.00010625904984575284 0 -0.031151282698862359 -3.5373770317509888e-05 0 -0.032178880454890695 0.00062243314480158601 0 -0.032456649740218488 0.00010625904984575284 0 -0.033339590140834777 0.00052803513007987476 0 -0.032178880454890695 0.00062243314480158601 0 -0.033339590140834777 0.00052803513007987476 0 -0.032966798532762388 0.0015193666327287605 0 -0.032178880454890695 0.00062243314480158601 0 -0.033169313005664273 -0.00045068036288706801 0 -0.033521010661023663 -0.00034073744356618739 0 -0.033603204630691184 -0.00021393402385884051 0 -0.033169313005664273 -0.00045068036288706801 0 -0.033521010661023663 -0.00034073744356618739 0 -0.033108558932898394 -0.00053529313378147239 0 -0.033521010661023663 -0.00034073744356618739 0 -0.033545195921865167 -0.00039800053756331729 0 -0.033108558932898394 -0.00053529313378147239 0 -0.033545195921865167 -0.00039800053756331729 0 -0.033186583705536711 -0.00058492509070801784 0 -0.033108558932898394 -0.00053529313378147239 0 -0.033545195921865167 -0.00039800053756331729 0 -0.033939076547631564 -0.00022365285586752729 0 -0.033979251565948693 -0.00025899700450485711 0 -0.033521010661023663 -0.00034073744356618739 0 -0.033545195921865167 -0.00039800053756331729 0 -0.033939076547631564 -0.00022365285586752729 0 -0.033521010661023663 -0.00034073744356618739 0 -0.033939076547631564 -0.00022365285586752729 0 -0.033860351016819612 -0.00019139538282725857 0 -0.033521010661023663 -0.00034073744356618739 0 -0.033860351016819612 -0.00019139538282725857 0 -0.033603204630691184 -0.00021393402385884051 0 -0.033860351016819612 -0.00019139538282725857 0 -0.033971547657953252 -9.1891088997308483e-05 0 -0.033603204630691184 -0.00021393402385884051 0 -0.033860351016819612 -0.00019139538282725857 0 -0.034282311196507473 -9.4536796420618328e-05 0 -0.033971547657953252 -9.1891088997308483e-05 0 -0.033939076547631564 -0.00022365285586752729 0 -0.033860351016819612 -0.00019139538282725857 0 -0.034282311196507473 -9.4536796420618328e-05 0 -0.034282311196507473 -9.4536796420618328e-05 0 -0.034999155655214581 -4.6814745791905264e-08 0 -0.034454796740113952 -4.8400063044701645e-05 0 -0.034282311196507473 -9.4536796420618328e-05 0 -0.034999155655214581 -4.6814745791905264e-08 0 -0.034464888350304784 -9.7177609448710785e-05 0 -0.034999155655214581 -4.6814745791905264e-08 0 -0.034464888350304784 -9.7177609448710785e-05 0 -0.03499909080050876 -8.826812871932012e-08 0 -0.033939076547631564 -0.00022365285586752729 0 -0.034464888350304784 -9.7177609448710785e-05 0 -0.033979251565948693 -0.00025899700450485711 0 -0.033939076547631564 -0.00022365285586752729 0 -0.034282311196507473 -9.4536796420618328e-05 0 -0.034464888350304784 -9.7177609448710785e-05 0 -0.034400691939014065 -0.00014570460182478196 0 -0.033908185470384433 -0.00031246186780335705 0 -0.033979251565948693 -0.00025899700450485711 0 -0.034464888350304784 -9.7177609448710785e-05 0 -0.034400691939014065 -0.00014570460182478196 0 -0.033979251565948693 -0.00025899700450485711 0 -0.034464888350304784 -9.7177609448710785e-05 0 -0.03499909080050876 -8.826812871932012e-08 0 -0.034400691939014065 -0.00014570460182478196 0 -0.03499909080050876 -8.826812871932012e-08 0 -0.034400691939014065 -0.00014570460182478196 0 -0.034999134266867502 -1.0070329949597485e-07 0 -0.033908185470384433 -0.00031246186780335705 0 -0.033446273470186541 -0.00051141940203077157 0 -0.033959657359892155 -0.00031280347563320844 0 -0.033908185470384433 -0.00031246186780335705 0 -0.033613907610987238 -0.00041249240797487961 0 -0.033446273470186541 -0.00051141940203077157 0 -0.034400691939014065 -0.00014570460182478196 0 -0.033908185470384433 -0.00031246186780335705 0 -0.033959657359892155 -0.00031280347563320844 0 -0.033545195921865167 -0.00039800053756331729 0 -0.033979251565948693 -0.00025899700450485711 0 -0.033613907610987238 -0.00041249240797487961 0 -0.033908185470384433 -0.00031246186780335705 0 -0.033979251565948693 -0.00025899700450485711 0 -0.033613907610987238 -0.00041249240797487961 0 -0.033613907610987238 -0.00041249240797487961 0 -0.033446273470186541 -0.00051141940203077157 0 -0.033186583705536711 -0.00058492509070801784 0 -0.033545195921865167 -0.00039800053756331729 0 -0.033613907610987238 -0.00041249240797487961 0 -0.033186583705536711 -0.00058492509070801784 0 -0.033446273470186541 -0.00051141940203077157 0 -0.033578251737543523 -0.00048039793614752671 0 -0.033959657359892155 -0.00031280347563320844 0 -0.033578251737543523 -0.00048039793614752671 0 -0.033543029597949442 -0.00052310932370642528 0 -0.033980862781161719 -0.00033901636562352552 0 -0.033446273470186541 -0.00051141940203077157 0 -0.033578251737543523 -0.00048039793614752671 0 -0.033112621035181596 -0.00068403778296194384 0 -0.033578251737543523 -0.00048039793614752671 0 -0.033543029597949442 -0.00052310932370642528 0 -0.033112621035181596 -0.00068403778296194384 0 -0.033543029597949442 -0.00052310932370642528 0 -0.033187114834551272 -0.00067758725111736616 0 -0.033112621035181596 -0.00068403778296194384 0 -0.033543029597949442 -0.00052310932370642528 0 -0.033980862781161719 -0.00033901636562352552 0 -0.033786846544856683 -0.00049800992566999584 0 -0.033543029597949442 -0.00052310932370642528 0 -0.033786846544856683 -0.00049800992566999584 0 -0.033187114834551272 -0.00067758725111736616 0 -0.033980862781161719 -0.00033901636562352552 0 -0.034475577128617478 -0.00018823889770172743 0 -0.033786846544856683 -0.00049800992566999584 0 -0.033980862781161719 -0.00033901636562352552 0 -0.033959657359892155 -0.00031280347563320844 0 -0.034479820763883347 -0.00013547765322637271 0 -0.033578251737543523 -0.00048039793614752671 0 -0.033980862781161719 -0.00033901636562352552 0 -0.033959657359892155 -0.00031280347563320844 0 -0.034400691939014065 -0.00014570460182478196 0 -0.033959657359892155 -0.00031280347563320844 0 -0.034479820763883347 -0.00013547765322637271 0 -0.034400691939014065 -0.00014570460182478196 0 -0.034479820763883347 -0.00013547765322637271 0 -0.034999134266867502 -1.0070329949597485e-07 0 -0.034479820763883347 -0.00013547765322637271 0 -0.034999134266867502 -1.0070329949597485e-07 0 -0.034999650620765627 -7.9269946497013046e-09 0 -0.034479820763883347 -0.00013547765322637271 0 -0.034475577128617478 -0.00018823889770172743 0 -0.034999650620765627 -7.9269946497013046e-09 0 -0.033980862781161719 -0.00033901636562352552 0 -0.034479820763883347 -0.00013547765322637271 0 -0.034475577128617478 -0.00018823889770172743 0 -0.034663052200855991 0.0001095270459101535 0 -0.034803615646587613 5.0813997564852896e-05 0 -0.034632146150280069 1.7882383118538355e-05 0 -0.03454545967624148 -4.2305691890685711e-05 0 -0.034999853400322307 4.5957881164132074e-08 0 -0.034663052200855991 0.0001095270459101535 0 -0.034999815835249568 1.5537497405529456e-07 0 -0.034803615646587613 5.0813997564852896e-05 0 -0.034999815835249568 1.5537497405529456e-07 0 -0.034999614966444617 -1.2050831261594389e-07 0 -0.034803615646587613 5.0813997564852896e-05 0 -0.034713270116633131 5.8509187020659842e-05 0 -0.034632146150280069 1.7882383118538355e-05 0 -0.034700198190982134 0.00017931794483990712 0 -0.034713270116633131 5.8509187020659842e-05 0 -0.034803615646587613 5.0813997564852896e-05 0 -0.034632146150280069 1.7882383118538355e-05 0 -0.034663052200855991 0.0001095270459101535 0 -0.034632146150280069 1.7882383118538355e-05 0 -0.03383711937601197 -0.0002806130476053135 0 -0.03454545967624148 -4.2305691890685711e-05 0 -0.03378295199381369 -0.00040032119022805106 0 -0.034586993116935374 9.1235962281044822e-05 0 -0.034272938886012946 -5.2358288195463888e-05 0 -0.034632146150280069 1.7882383118538355e-05 0 -0.03383711937601197 -0.0002806130476053135 0 -0.033738392049575315 -0.00048268410463311602 0 -0.034621060473937697 0.00040153014215226933 0 -0.034700198190982134 0.00017931794483990712 0 -0.034889779957106612 0.00037223249634396979 0 -0.034632146150280069 1.7882383118538355e-05 0 -0.034700198190982134 0.00017931794483990712 0 -0.034889779957106612 0.00037223249634396979 0 -0.034705771245566508 0.00064182438079889072 0 -0.034889779957106612 0.00037223249634396979 0 -0.034923659071067134 0.00087508277856032613 0 -0.034621060473937697 0.00040153014215226933 0 -0.034705771245566508 0.00064182438079889072 0 -0.034889779957106612 0.00037223249634396979 0 -0.03383711937601197 -0.0002806130476053135 0 -0.033738392049575315 -0.00048268410463311602 0 -0.032910850875634355 -0.00081799488568155864 0 -0.033738392049575315 -0.00048268410463311602 0 -0.032910850875634355 -0.00081799488568155864 0 -0.032893508769931988 -0.00094441442899978565 0 -0.034272938886012946 -5.2358288195463888e-05 0 -0.034258983815214694 0.00020341964023724092 0 -0.03378295199381369 -0.00040032119022805106 0 -0.033072103809012751 -0.00080037045734752477 0 -0.032893508769931988 -0.00094441442899978565 0 -0.031963993705253463 -0.0013846399102246077 0 -0.03242858904681923 -0.0010496937153413322 0 -0.032910850875634355 -0.00081799488568155864 0 -0.032893508769931988 -0.00094441442899978565 0 -0.03242858904681923 -0.0010496937153413322 0 -0.034562438453957671 0.00090942208509552699 0 -0.034923659071067134 0.00087508277856032613 0 -0.03470484280823273 0.0010991530230723265 0 -0.034562438453957671 0.00090942208509552699 0 -0.034705771245566508 0.00064182438079889072 0 -0.034923659071067134 0.00087508277856032613 0 -0.03442981807727747 0.0013095867163727109 0 -0.03470484280823273 0.0010991530230723265 0 -0.034890152569890809 0.0012993155907312357 0 -0.034923659071067134 0.00087508277856032613 0 -0.03470484280823273 0.0010991530230723265 0 -0.034890152569890809 0.0012993155907312357 0 -0.030049873781154042 -0.00015257769287269532 0 -0.03075211181915706 -0.0013091797579524512 0 -0.025403561406250785 -0.0018853706515922018 0 -0.027380491133340751 -0.0022654068599541216 0 -0.026392863788984332 -0.0014596537176719466 0 -0.027380491133340751 -0.0022654068599541216 0 -0.027601157890363163 -0.001506958501686709 0 -0.026392863788984332 -0.0014596537176719466 0 -0.03239346869099128 -0.0020679049719473596 0 -0.031963993705253463 -0.0013846399102246077 0 -0.030575550929890713 -0.0020779281568698393 0 -0.027669374641297078 -0.0030132662058660561 0 -0.030575550929890713 -0.0020779281568698393 0 -0.027601157890363163 -0.001506958501686709 0 -0.03075211181915706 -0.0013091797579524512 0 -0.030207777826600141 -0.0022410483344169523 0 -0.03075211181915706 -0.0013091797579524512 0 -0.028539187387259867 -0.0020000284602505096 0 -0.034258983815214694 0.00020341964023724092 0 -0.03075211181915706 -0.0013091797579524512 0 -0.032893508769931988 -0.00094441442899978565 0 -0.03239346869099128 -0.0020679049719473596 0 -0.031963993705253463 -0.0013846399102246077 0 -0.031963993705253463 -0.0013846399102246077 0 -0.031977411703519996 -0.0012304741109151569 0 -0.03242858904681923 -0.0010496937153413322 0 -0.031963993705253463 -0.0013846399102246077 0 -0.031977411703519996 -0.0012304741109151569 0 -0.031270266914055676 -0.001621044227888185 0 -0.031963993705253463 -0.0013846399102246077 0 -0.031270266914055676 -0.001621044227888185 0 -0.030575550929890713 -0.0020779281568698393 0 -0.031270266914055676 -0.001621044227888185 0 -0.030575550929890713 -0.0020779281568698393 0 -0.030737915557164684 -0.0014252328804194208 0 -0.030575550929890713 -0.0020779281568698393 0 -0.030737915557164684 -0.0014252328804194208 0 -0.029247605701330549 -0.0010142957012692268 0 -0.031397284040756403 -0.001399542614780216 0 -0.030737915557164684 -0.0014252328804194208 0 -0.031488138472329737 -0.0010781462909838239 0 -0.031270266914055676 -0.001621044227888185 0 -0.031397284040756403 -0.001399542614780216 0 -0.030737915557164684 -0.0014252328804194208 0 -0.031270266914055676 -0.001621044227888185 0 -0.031397284040756403 -0.001399542614780216 0 -0.03193753576909323 -0.001251673232174977 0 -0.031397284040756403 -0.001399542614780216 0 -0.03193753576909323 -0.001251673232174977 0 -0.031943771556141219 -0.0011897912419919626 0 -0.031977411703519996 -0.0012304741109151569 0 -0.031270266914055676 -0.001621044227888185 0 -0.03193753576909323 -0.001251673232174977 0 -0.03193753576909323 -0.001251673232174977 0 -0.03257835234028849 -0.00092238046483209934 0 -0.032238941239826062 -0.0010913740653337939 0 -0.03193753576909323 -0.001251673232174977 0 -0.03257835234028849 -0.00092238046483209934 0 -0.032555740545044204 -0.00094178809070412416 0 -0.031977411703519996 -0.0012304741109151569 0 -0.03193753576909323 -0.001251673232174977 0 -0.032555740545044204 -0.00094178809070412416 0 -0.031977411703519996 -0.0012304741109151569 0 -0.03242858904681923 -0.0010496937153413322 0 -0.032555740545044204 -0.00094178809070412416 0 -0.032910850875634355 -0.00081799488568155864 0 -0.03242858904681923 -0.0010496937153413322 0 -0.032555740545044204 -0.00094178809070412416 0 -0.032555740545044204 -0.00094178809070412416 0 -0.033187114834551272 -0.00067758725111736616 0 -0.033112621035181596 -0.00068403778296194384 0 -0.032910850875634355 -0.00081799488568155864 0 -0.032555740545044204 -0.00094178809070412416 0 -0.033187114834551272 -0.00067758725111736616 0 -0.033786846544856683 -0.00049800992566999584 0 -0.032910850875634355 -0.00081799488568155864 0 -0.033187114834551272 -0.00067758725111736616 0 -0.03257835234028849 -0.00092238046483209934 0 -0.032555740545044204 -0.00094178809070412416 0 -0.033112621035181596 -0.00068403778296194384 0 -0.03257835234028849 -0.00092238046483209934 0 -0.033112621035181596 -0.00068403778296194384 0 -0.032915871552854525 -0.00074779583913553731 0 -0.033446273470186541 -0.00051141940203077157 0 -0.033112621035181596 -0.00068403778296194384 0 -0.032915871552854525 -0.00074779583913553731 0 -0.033446273470186541 -0.00051141940203077157 0 -0.032915871552854525 -0.00074779583913553731 0 -0.033186583705536711 -0.00058492509070801784 0 -0.033186583705536711 -0.00058492509070801784 0 -0.032712284440702961 -0.00079102623243341151 0 -0.032882879576325359 -0.00066570182821313456 0 -0.032915871552854525 -0.00074779583913553731 0 -0.033186583705536711 -0.00058492509070801784 0 -0.032712284440702961 -0.00079102623243341151 0 -0.032712284440702961 -0.00079102623243341151 0 -0.032535164226884593 -0.00092458853126725453 0 -0.032299869377468697 -0.00099921273184990661 0 -0.032712284440702961 -0.00079102623243341151 0 -0.032299869377468697 -0.00099921273184990661 0 -0.03251207141366589 -0.00079911816583730019 0 -0.032712284440702961 -0.00079102623243341151 0 -0.03251207141366589 -0.00079911816583730019 0 -0.032882879576325359 -0.00066570182821313456 0 -0.032535164226884593 -0.00092458853126725453 0 -0.032238941239826062 -0.0010913740653337939 0 -0.032299869377468697 -0.00099921273184990661 0 -0.032915871552854525 -0.00074779583913553731 0 -0.032712284440702961 -0.00079102623243341151 0 -0.032535164226884593 -0.00092458853126725453 0 -0.03257835234028849 -0.00092238046483209934 0 -0.032915871552854525 -0.00074779583913553731 0 -0.032535164226884593 -0.00092458853126725453 0 -0.03257835234028849 -0.00092238046483209934 0 -0.032535164226884593 -0.00092458853126725453 0 -0.032238941239826062 -0.0010913740653337939 0 -0.03193753576909323 -0.001251673232174977 0 -0.032238941239826062 -0.0010913740653337939 0 -0.031943771556141219 -0.0011897912419919626 0 -0.031943771556141219 -0.0011897912419919626 0 -0.031953999516707979 -0.0010373758706627718 0 -0.032299869377468697 -0.00099921273184990661 0 -0.032238941239826062 -0.0010913740653337939 0 -0.031943771556141219 -0.0011897912419919626 0 -0.032299869377468697 -0.00099921273184990661 0 -0.031397284040756403 -0.001399542614780216 0 -0.031943771556141219 -0.0011897912419919626 0 -0.031488138472329737 -0.0010781462909838239 0 -0.031943771556141219 -0.0011897912419919626 0 -0.031953999516707979 -0.0010373758706627718 0 -0.031488138472329737 -0.0010781462909838239 0 -0.031953999516707979 -0.0010373758706627718 0 -0.032113809531622191 -0.00077705344975807344 0 -0.031488138472329737 -0.0010781462909838239 0 -0.031953999516707979 -0.0010373758706627718 0 -0.032226897969069378 -0.00086712968695661129 0 -0.032113809531622191 -0.00077705344975807344 0 -0.032299869377468697 -0.00099921273184990661 0 -0.032226897969069378 -0.00086712968695661129 0 -0.03251207141366589 -0.00079911816583730019 0 -0.031953999516707979 -0.0010373758706627718 0 -0.032299869377468697 -0.00099921273184990661 0 -0.032226897969069378 -0.00086712968695661129 0 -0.032226897969069378 -0.00086712968695661129 0 -0.032249854985291281 -0.00068832071213157102 0 -0.03251207141366589 -0.00079911816583730019 0 -0.032249854985291281 -0.00068832071213157102 0 -0.032607428749611471 -0.00065081900625558813 0 -0.03251207141366589 -0.00079911816583730019 0 -0.032113224942820338 -0.00071669094484885917 0 -0.032226897969069378 -0.00086712968695661129 0 -0.032249854985291281 -0.00068832071213157102 0 -0.032113224942820338 -0.00071669094484885917 0 -0.032226897969069378 -0.00086712968695661129 0 -0.032113809531622191 -0.00077705344975807344 0 -0.032113224942820338 -0.00071669094484885917 0 -0.032249854985291281 -0.00068832071213157102 0 -0.031773952788175006 -0.00051835248500680829 0 -0.032249854985291281 -0.00068832071213157102 0 -0.032109325793510203 -0.0005649289621622092 0 -0.031773952788175006 -0.00051835248500680829 0 -0.032249854985291281 -0.00068832071213157102 0 -0.032607428749611471 -0.00065081900625558813 0 -0.032109325793510203 -0.0005649289621622092 0 -0.032607428749611471 -0.00065081900625558813 0 -0.032281259534336929 -0.00056310598616375574 0 -0.032109325793510203 -0.0005649289621622092 0 -0.032607428749611471 -0.00065081900625558813 0 -0.03251207141366589 -0.00079911816583730019 0 -0.032882879576325359 -0.00066570182821313456 0 -0.032607428749611471 -0.00065081900625558813 0 -0.033108558932898394 -0.00053529313378147239 0 -0.032882879576325359 -0.00066570182821313456 0 -0.033186583705536711 -0.00058492509070801784 0 -0.033108558932898394 -0.00053529313378147239 0 -0.032882879576325359 -0.00066570182821313456 0 -0.032607428749611471 -0.00065081900625558813 0 -0.033108558932898394 -0.00053529313378147239 0 -0.032729720376240598 -0.0005563592749679619 0 -0.033169313005664273 -0.00045068036288706801 0 -0.033108558932898394 -0.00053529313378147239 0 -0.032729720376240598 -0.0005563592749679619 0 -0.028919533349951336 -0.00058476254366679286 0 -0.028442349082130041 -0.00064950935492053669 0 -0.028714074522038904 -0.00077073721451435232 0 -0.028919533349951336 -0.00058476254366679286 0 -0.028714074522038904 -0.00077073721451435232 0 -0.02901772931046236 -0.00081059487698458281 0 -0.028919533349951336 -0.00058476254366679286 0 -0.02901772931046236 -0.00081059487698458281 0 -0.029380382675860628 -0.00068232897326176204 0 -0.028442349082130041 -0.00064950935492053669 0 -0.028584289895269226 -0.00074632374131005936 0 -0.028490020918485952 -0.00084408677398501223 0 -0.028442349082130041 -0.00064950935492053669 0 -0.028584289895269226 -0.00074632374131005936 0 -0.028714074522038904 -0.00077073721451435232 0 -0.028584289895269226 -0.00074632374131005936 0 -0.028714074522038904 -0.00077073721451435232 0 -0.028717773493859681 -0.0011092885359714835 0 -0.02901772931046236 -0.00081059487698458281 0 -0.028717773493859681 -0.0011092885359714835 0 -0.029521356428295013 -0.00091015078121424507 0 -0.028714074522038904 -0.00077073721451435232 0 -0.02901772931046236 -0.00081059487698458281 0 -0.028717773493859681 -0.0011092885359714835 0 -0.032113224942820338 -0.00071669094484885917 0 -0.03196610444984678 -0.00097380980277618446 0 -0.031773952788175006 -0.00051835248500680829 0 -0.032113224942820338 -0.00071669094484885917 0 -0.03196610444984678 -0.00097380980277618446 0 -0.032113809531622191 -0.00077705344975807344 0 -0.03196610444984678 -0.00097380980277618446 0 -0.032016189858280648 -0.00052879017195962537 0 -0.032113809531622191 -0.00077705344975807344 0 -0.030362625282546813 -0.0010052927538805134 0 -0.030426005485938049 -0.00046475850285484973 0 -0.028584289895269226 -0.00074632374131005936 0 -0.028717773493859681 -0.0011092885359714835 0 -0.028842872307599486 -0.00030420675501150531 0 -0.032016189858280648 -0.00052879017195962537 0 -0.032113809531622191 -0.00077705344975807344 0 -0.031488138472329737 -0.0010781462909838239 0 -0.032016189858280648 -0.00052879017195962537 0 -0.031488138472329737 -0.0010781462909838239 0 -0.03043846520056212 -0.00035987097030432997 0 -0.028842872307599486 -0.00030420675501150531 0 -0.029231099363943906 -0.00052793337623345234 0 -0.03043846520056212 -0.00035987097030432997 0 -0.030426005485938049 -0.00046475850285484973 0 -0.030402871929644745 -0.00035993215050706144 0 -0.029231099363943906 -0.00052793337623345234 0 -0.02943211307953637 -0.00073916051012590158 0 -0.029762387746935404 -0.00033121638810109955 0 -0.029231099363943906 -0.00052793337623345234 0 -0.029762387746935404 -0.00033121638810109955 0 -0.03043846520056212 -0.00035987097030432997 0 -0.028584289895269226 -0.00074632374131005936 0 -0.029231099363943906 -0.00052793337623345234 0 -0.028490020918485952 -0.00084408677398501223 0 -0.028584289895269226 -0.00074632374131005936 0 -0.028842872307599486 -0.00030420675501150531 0 -0.029231099363943906 -0.00052793337623345234 0 -0.028442349082130041 -0.00064950935492053669 0 -0.028490020918485952 -0.00084408677398501223 0 -0.027911358169362525 -0.000444760446684056 0 -0.028398108391546967 -0.00080927311872916376 0 -0.028750081660790256 -0.00078570593613168859 0 -0.028490020918485952 -0.00084408677398501223 0 -0.027654150376101024 -0.00082613793294274455 0 -0.027911358169362525 -0.000444760446684056 0 -0.027654150376101024 -0.00082613793294274455 0 -0.027227658099207974 -0.00077364200441144848 0 -0.027504481010921192 -0.00033331432763279093 0 -0.029231099363943906 -0.00052793337623345234 0 -0.028490020918485952 -0.00084408677398501223 0 -0.02943211307953637 -0.00073916051012590158 0 -0.028750081660790256 -0.00078570593613168859 0 -0.027016532955197906 -0.00068782415934149743 0 -0.02943211307953637 -0.00073916051012590158 0 -0.029653723833372458 -0.0003344570031672504 0 -0.029762387746935404 -0.00033121638810109955 0 -0.027016532955197906 -0.00068782415934149743 0 -0.028570952211671333 0.00011973442834311291 0 -0.027929746161205197 0.00053566989768660865 0 -0.027523902259431701 -0.00014554760045207681 0 -0.026664270589788267 0.0005807234820078619 0 -0.027016532955197906 -0.00068782415934149743 0 -0.024801696689719984 -0.00039764753425458165 0 -0.024198652811006239 -0.002261109627031359 0 -0.023092720679415996 -0.001362241108364986 0 -0.024120579107300706 -0.0015954463031502531 0 -0.028570952211671333 0.00011973442834311291 0 -0.027890701970197111 -0.00056343960228565255 0 -0.029653723833372458 -0.0003344570031672504 0 -0.029229689243055072 5.4642773388892786e-05 0 -0.029762387746935404 -0.00033121638810109955 0 -0.029229689243055072 5.4642773388892786e-05 0 -0.029762387746935404 -0.00033121638810109955 0 -0.03043846520056212 -0.00035987097030432997 0 -0.030737915557164684 -0.0014252328804194208 0 -0.03043846520056212 -0.00035987097030432997 0 -0.029247605701330549 -0.0010142957012692268 0 -0.030737915557164684 -0.0014252328804194208 0 -0.031488138472329737 -0.0010781462909838239 0 -0.03043846520056212 -0.00035987097030432997 0 -0.029229689243055072 5.4642773388892786e-05 0 -0.03043846520056212 -0.00035987097030432997 0 -0.027960115347785263 -0.00042641172707899583 0 -0.03043846520056212 -0.00035987097030432997 0 -0.029247605701330549 -0.0010142957012692268 0 -0.027960115347785263 -0.00042641172707899583 0 -0.027960115347785263 -0.00042641172707899583 0 -0.026287772446492681 -0.00066738162603629332 0 -0.025960241371782131 -0.00011199858449140038 0 -0.027960115347785263 -0.00042641172707899583 0 -0.02744097351567178 -0.00084045041878626225 0 -0.026287772446492681 -0.00066738162603629332 0 -0.029247605701330549 -0.0010142957012692268 0 -0.027960115347785263 -0.00042641172707899583 0 -0.02744097351567178 -0.00084045041878626225 0 -0.029247605701330549 -0.0010142957012692268 0 -0.02744097351567178 -0.00084045041878626225 0 -0.027601157890363163 -0.001506958501686709 0 -0.030575550929890713 -0.0020779281568698393 0 -0.029247605701330549 -0.0010142957012692268 0 -0.027601157890363163 -0.001506958501686709 0 -0.02744097351567178 -0.00084045041878626225 0 -0.027601157890363163 -0.001506958501686709 0 -0.026287772446492681 -0.00066738162603629332 0 -0.026392863788984332 -0.0014596537176719466 0 -0.026287772446492681 -0.00066738162603629332 0 -0.025520434794428112 -0.0010447867558949222 0 -0.027601157890363163 -0.001506958501686709 0 -0.026392863788984332 -0.0014596537176719466 0 -0.026287772446492681 -0.00066738162603629332 0 -0.026287772446492681 -0.00066738162603629332 0 -0.025960241371782131 -0.00011199858449140038 0 -0.025210747778994406 -0.00044372367044934858 0 -0.027523902259431701 -0.00014554760045207681 0 -0.025960241371782131 -0.00011199858449140038 0 -0.026664270589788267 0.0005807234820078619 0 -0.027523902259431701 -0.00014554760045207681 0 -0.027960115347785263 -0.00042641172707899583 0 -0.025960241371782131 -0.00011199858449140038 0 -0.025960241371782131 -0.00011199858449140038 0 -0.026664270589788267 0.0005807234820078619 0 -0.024421761887612043 -2.0130602339469137e-05 0 -0.024801696689719984 -0.00039764753425458165 0 -0.024665643964069939 -0.00012358487774443566 0 -0.025960241371782131 -0.00011199858449140038 0 -0.024421761887612043 -2.0130602339469137e-05 0 -0.024844542450586603 2.1839716864411154e-05 0 -0.024421761887612043 -2.0130602339469137e-05 0 -0.023072348248558378 -0.0012087886110385213 0 -0.02273617036635402 -0.0015765892658923099 0 -0.023092720679415996 -0.001362241108364986 0 -0.024421761887612043 -2.0130602339469137e-05 0 -0.023072348248558378 -0.0012087886110385213 0 -0.023092720679415996 -0.001362241108364986 0 -0.023072348248558378 -0.0012087886110385213 0 -0.023172712582807262 -0.0012029267582798276 0 -0.023072348248558378 -0.0012087886110385213 0 -0.022655201521948096 -0.0014206673050189832 0 -0.023172712582807262 -0.0012029267582798276 0 -0.023072348248558378 -0.0012087886110385213 0 -0.02273617036635402 -0.0015765892658923099 0 -0.022655201521948096 -0.0014206673050189832 0 -0.02273617036635402 -0.0015765892658923099 0 -0.021509858620796924 -0.0012069733372883096 0 -0.022655201521948096 -0.0014206673050189832 0 -0.02273617036635402 -0.0015765892658923099 0 -0.021509858620796924 -0.0012069733372883096 0 -0.020770261284299464 -0.0012847174425071491 0 -0.021509858620796924 -0.0012069733372883096 0 -0.022007829232134582 -0.0010531081771526078 0 -0.020655705615804935 -0.00089757474510327535 0 -0.021509858620796924 -0.0012069733372883096 0 -0.022007829232134582 -0.0010531081771526078 0 -0.022655201521948096 -0.0014206673050189832 0 -0.022007829232134582 -0.0010531081771526078 0 -0.022655201521948096 -0.0014206673050189832 0 -0.023508683024043974 -0.0016150570994024039 0 -0.022007829232134582 -0.0010531081771526078 0 -0.023508683024043974 -0.0016150570994024039 0 -0.02312105810885158 -0.00028133157434894097 0 -0.023508683024043974 -0.0016150570994024039 0 -0.024956943406737885 -0.00083471626533126303 0 -0.02312105810885158 -0.00028133157434894097 0 -0.024985510757093429 0.00032010500154054888 0 -0.024120579107300706 -0.0015954463031502531 0 -0.025520944824720053 -0.0014996409122027003 0 -0.024985510757093429 0.00032010500154054888 0 -0.023172712582807262 -0.0012029267582798276 0 -0.024120579107300706 -0.0015954463031502531 0 -0.022655201521948096 -0.0014206673050189832 0 -0.023508683024043974 -0.0016150570994024039 0 -0.023172712582807262 -0.0012029267582798276 0 -0.024257966264283299 -0.00065951229363016858 0 -0.023279128024106432 -0.0011929476779884811 0 -0.023092720679415996 -0.001362241108364986 0 -0.023172712582807262 -0.0012029267582798276 0 -0.024120579107300706 -0.0015954463031502531 0 -0.024198652811006239 -0.002261109627031359 0 -0.024120579107300706 -0.0015954463031502531 0 -0.025520944824720053 -0.0014996409122027003 0 -0.027016532955197906 -0.00068782415934149743 0 -0.026295565700356686 -0.0010724848385403973 0 -0.027654150376101024 -0.00082613793294274455 0 -0.027504481010921192 -0.00033331432763279093 0 -0.027911358169362525 -0.000444760446684056 0 -0.027911358169362525 -0.000444760446684056 0 -0.027161092374119632 -5.9185117102228613e-05 0 -0.028030301508086244 -0.00026469770588307041 0 -0.027161092374119632 -5.9185117102228613e-05 0 -0.027781518649851095 0.00011223120672482145 0 -0.028030301508086244 -0.00026469770588307041 0 -0.026295565700356686 -0.0010724848385403973 0 -0.027233276573410643 1.7089286508932009e-05 0 -0.024985510757093429 0.00032010500154054888 0 -0.025520944824720053 -0.0014996409122027003 0 -0.027161092374119632 -5.9185117102228613e-05 0 -0.027504481010921192 -0.00033331432763279093 0 -0.027911358169362525 -0.000444760446684056 0 -0.027161092374119632 -5.9185117102228613e-05 0 -0.024985510757093429 0.00032010500154054888 0 -0.026612271395170719 0.0010214370779059432 0 -0.027161092374119632 -5.9185117102228613e-05 0 -0.024257966264283299 -0.00065951229363016858 0 -0.025752659560172107 0.00011946714660110433 0 -0.026612271395170719 0.0010214370779059432 0 -0.027377456264380019 0.00063547282347530269 0 -0.026761271387368151 0.00089232179626068896 0 -0.027377456264380019 0.00063547282347530269 0 -0.027161092374119632 -5.9185117102228613e-05 0 -0.027781518649851095 0.00011223120672482145 0 -0.026612271395170719 0.0010214370779059432 0 -0.027377456264380019 0.00063547282347530269 0 -0.027161092374119632 -5.9185117102228613e-05 0 -0.027781518649851095 0.00011223120672482145 0 -0.02819994007213019 0.00040452768875714719 0 -0.02829331157763031 -3.4155678063058366e-05 0 -0.027377456264380019 0.00063547282347530269 0 -0.027781518649851095 0.00011223120672482145 0 -0.02819994007213019 0.00040452768875714719 0 -0.027377456264380019 0.00063547282347530269 0 -0.02819994007213019 0.00040452768875714719 0 -0.027584915338846883 0.00079448262019686012 0 -0.028267169258435143 0.00075702677685457063 0 -0.02819994007213019 0.00040452768875714719 0 -0.027584915338846883 0.00079448262019686012 0 -0.028267169258435143 0.00075702677685457063 0 -0.02819994007213019 0.00040452768875714719 0 -0.028726872328333111 0.00048066666022279368 0 -0.02819994007213019 0.00040452768875714719 0 -0.028828979547890255 -4.4499013856106106e-06 0 -0.028726872328333111 0.00048066666022279368 0 -0.02829331157763031 -3.4155678063058366e-05 0 -0.028636808831044299 -0.0003417763839030231 0 -0.028828979547890255 -4.4499013856106106e-06 0 -0.02819994007213019 0.00040452768875714719 0 -0.02829331157763031 -3.4155678063058366e-05 0 -0.028828979547890255 -4.4499013856106106e-06 0 -0.027781518649851095 0.00011223120672482145 0 -0.02829331157763031 -3.4155678063058366e-05 0 -0.028030301508086244 -0.00026469770588307041 0 -0.02829331157763031 -3.4155678063058366e-05 0 -0.028030301508086244 -0.00026469770588307041 0 -0.028636808831044299 -0.0003417763839030231 0 -0.028442349082130041 -0.00064950935492053669 0 -0.028030301508086244 -0.00026469770588307041 0 -0.028636808831044299 -0.0003417763839030231 0 -0.028442349082130041 -0.00064950935492053669 0 -0.027911358169362525 -0.000444760446684056 0 -0.028030301508086244 -0.00026469770588307041 0 -0.028919533349951336 -0.00058476254366679286 0 -0.028442349082130041 -0.00064950935492053669 0 -0.028636808831044299 -0.0003417763839030231 0 -0.023651441436623517 -0.00042001593323289085 0 -0.023403020927647771 -0.00046721129361561536 0 -0.023090510349093138 -0.00032153725461953492 0 -0.023651441436623517 -0.00042001593323289085 0 -0.023090510349093138 -0.00032153725461953492 0 -0.023528342950642898 -0.0003933410062570627 0 -0.023403020927647771 -0.00046721129361561536 0 -0.022541023650954034 -0.00016743290174298371 0 -0.02392350169915676 -0.00032079881544578345 0 -0.023403020927647771 -0.00046721129361561536 0 -0.022541023650954034 -0.00016743290174298371 0 -0.023090510349093138 -0.00032153725461953492 0 -0.023090510349093138 -0.00032153725461953492 0 -0.023041407826962196 -0.00044119780482626276 0 -0.022408047423742285 -0.00058157805728381335 0 -0.022541023650954034 -0.00016743290174298371 0 -0.023090510349093138 -0.00032153725461953492 0 -0.022408047423742285 -0.00058157805728381335 0 -0.023090510349093138 -0.00032153725461953492 0 -0.023041407826962196 -0.00044119780482626276 0 -0.023528342950642898 -0.0003933410062570627 0 -0.023041407826962196 -0.00044119780482626276 0 -0.023261309991158913 -0.00047500019891558236 0 -0.022876120617420333 -0.00056763156307204079 0 -0.023041407826962196 -0.00044119780482626276 0 -0.023261309991158913 -0.00047500019891558236 0 -0.023528342950642898 -0.0003933410062570627 0 -0.023305142962828009 -0.00025356161509438907 0 -0.022388686328640484 -0.00040270641964645345 0 -0.022499615730495914 -1.1001450758720521e-07 0 -0.022856895459235464 1.1209212280136751e-05 0 -0.021299925622685643 -9.9025407612578098e-05 0 -0.023261309991158913 -0.00047500019891558236 0 -0.023711363191723397 -0.00042142631748248179 0 -0.023109594314274482 -0.00057756320023076471 0 -0.023261309991158913 -0.00047500019891558236 0 -0.023528342950642898 -0.0003933410062570627 0 -0.023711363191723397 -0.00042142631748248179 0 -0.023305142962828009 -0.00025356161509438907 0 -0.024238159818331148 -0.00012839219526887159 0 -0.022856895459235464 1.1209212280136751e-05 0 -0.024434376778706149 -3.377833611746247e-07 0 -0.024514618514611401 -8.4378411308211527e-05 0 -0.022499615730495914 -1.1001450758720521e-07 0 -0.022856895459235464 1.1209212280136751e-05 0 -0.024434376778706149 -3.377833611746247e-07 0 -0.023711363191723397 -0.00042142631748248179 0 -0.024071129664327406 -0.000272138183816565 0 -0.024514618514611401 -8.4378411308211527e-05 0 -0.023528342950642898 -0.0003933410062570627 0 -0.023711363191723397 -0.00042142631748248179 0 -0.02382081453711709 -0.00035272250457751977 0 -0.023711363191723397 -0.00042142631748248179 0 -0.02382081453711709 -0.00035272250457751977 0 -0.024071129664327406 -0.000272138183816565 0 -0.024071129664327406 -0.000272138183816565 0 -0.023988237678018387 -0.00032838342482814788 0 -0.024374395418372944 -0.00024713140520993124 0 -0.02382081453711709 -0.00035272250457751977 0 -0.024071129664327406 -0.000272138183816565 0 -0.023988237678018387 -0.00032838342482814788 0 -0.023651441436623517 -0.00042001593323289085 0 -0.023528342950642898 -0.0003933410062570627 0 -0.023988237678018387 -0.00032838342482814788 0 -0.023528342950642898 -0.0003933410062570627 0 -0.02382081453711709 -0.00035272250457751977 0 -0.023988237678018387 -0.00032838342482814788 0 -0.023651441436623517 -0.00042001593323289085 0 -0.023988237678018387 -0.00032838342482814788 0 -0.024324664984292674 -0.0003719115942576104 0 -0.023651441436623517 -0.00042001593323289085 0 -0.024324664984292674 -0.0003719115942576104 0 -0.024132849099852745 -0.00045818511951723471 0 -0.023988237678018387 -0.00032838342482814788 0 -0.024324664984292674 -0.0003719115942576104 0 -0.024374395418372944 -0.00024713140520993124 0 -0.024324664984292674 -0.0003719115942576104 0 -0.024374395418372944 -0.00024713140520993124 0 -0.025275477241525034 -0.00020445616000722199 0 -0.024434376778706149 -3.377833611746247e-07 0 -0.024514618514611401 -8.4378411308211527e-05 0 -0.025275477241525034 -0.00020445616000722199 0 -0.024514618514611401 -8.4378411308211527e-05 0 -0.024374395418372944 -0.00024713140520993124 0 -0.025275477241525034 -0.00020445616000722199 0 -0.024071129664327406 -0.000272138183816565 0 -0.024514618514611401 -8.4378411308211527e-05 0 -0.024374395418372944 -0.00024713140520993124 0 -0.026368683254890744 -1.3335777843737005e-06 0 -0.024434376778706149 -3.377833611746247e-07 0 -0.025275477241525034 -0.00020445616000722199 0 -0.024324664984292674 -0.0003719115942576104 0 -0.025275477241525034 -0.00020445616000722199 0 -0.024737950606602988 -0.00044124221563930985 0 -0.026233988672455154 -9.3634849350315264e-05 0 -0.025275477241525034 -0.00020445616000722199 0 -0.024737950606602988 -0.00044124221563930985 0 -0.024324664984292674 -0.0003719115942576104 0 -0.024737950606602988 -0.00044124221563930985 0 -0.024132849099852745 -0.00045818511951723471 0 -0.024737950606602988 -0.00044124221563930985 0 -0.024132849099852745 -0.00045818511951723471 0 -0.023931028556251139 -0.00058066435327810886 0 -0.024272662765645287 -0.00041195975910708453 0 -0.024737950606602988 -0.00044124221563930985 0 -0.023931028556251139 -0.00058066435327810886 0 -0.023651441436623517 -0.00042001593323289085 0 -0.024132849099852745 -0.00045818511951723471 0 -0.023931028556251139 -0.00058066435327810886 0 -0.023651441436623517 -0.00042001593323289085 0 -0.023403020927647771 -0.00046721129361561536 0 -0.023931028556251139 -0.00058066435327810886 0 -0.023403020927647771 -0.00046721129361561536 0 -0.023931028556251139 -0.00058066435327810886 0 -0.023996882183519336 -0.0006187258868866096 0 -0.024272662765645287 -0.00041195975910708453 0 -0.023931028556251139 -0.00058066435327810886 0 -0.024064355066471949 -0.00071581526038800268 0 -0.024064355066471949 -0.00071581526038800268 0 -0.023996882183519336 -0.0006187258868866096 0 -0.024576219831857826 -0.00086657326974492457 0 -0.023931028556251139 -0.00058066435327810886 0 -0.024064355066471949 -0.00071581526038800268 0 -0.023996882183519336 -0.0006187258868866096 0 -0.023996882183519336 -0.0006187258868866096 0 -0.024576219831857826 -0.00086657326974492457 0 -0.024459448624895408 -0.00032386193772532057 0 -0.025403561406250785 -0.0018853706515922018 0 -0.025520434794428112 -0.0010447867558949222 0 -0.024576219831857826 -0.00086657326974492457 0 -0.025520434794428112 -0.0010447867558949222 0 -0.024576219831857826 -0.00086657326974492457 0 -0.025210747778994406 -0.00044372367044934858 0 -0.024576219831857826 -0.00086657326974492457 0 -0.025210747778994406 -0.00044372367044934858 0 -0.024459448624895408 -0.00032386193772532057 0 -0.026287772446492681 -0.00066738162603629332 0 -0.025520434794428112 -0.0010447867558949222 0 -0.025210747778994406 -0.00044372367044934858 0 -0.025960241371782131 -0.00011199858449140038 0 -0.025210747778994406 -0.00044372367044934858 0 -0.024844542450586603 2.1839716864411154e-05 0 -0.025210747778994406 -0.00044372367044934858 0 -0.024844542450586603 2.1839716864411154e-05 0 -0.024459448624895408 -0.00032386193772532057 0 -0.024625115259418993 -5.0093322820403042e-05 0 -0.024844542450586603 2.1839716864411154e-05 0 -0.024459448624895408 -0.00032386193772532057 0 -0.023403020927647771 -0.00046721129361561536 0 -0.023996882183519336 -0.0006187258868866096 0 -0.02392350169915676 -0.00032079881544578345 0 -0.023996882183519336 -0.0006187258868866096 0 -0.024459448624895408 -0.00032386193772532057 0 -0.02392350169915676 -0.00032079881544578345 0 -0.024625115259418993 -5.0093322820403042e-05 0 -0.02392350169915676 -0.00032079881544578345 0 -0.024166914181814589 0.00026571882342429172 0 -0.024625115259418993 -5.0093322820403042e-05 0 -0.024459448624895408 -0.00032386193772532057 0 -0.02392350169915676 -0.00032079881544578345 0 -0.022541023650954034 -0.00016743290174298371 0 -0.02392350169915676 -0.00032079881544578345 0 -0.024166914181814589 0.00026571882342429172 0 -0.022512027886452103 -0.00016741189302725971 0 -0.022305267445876159 -0.00035531622664158533 0 -0.022541023650954034 -0.00016743290174298371 0 -0.020386420280375822 -0.00086758803026031734 0 -0.021179524287254843 -0.0010786344619386032 0 -0.022305267445876159 -0.00035531622664158533 0 -0.022535176824225258 -0.0010146688136595291 0 -0.020386420280375822 -0.00086758803026031734 0 -0.020227389686624925 -0.0013303129777041285 0 -0.02030507883991213 -0.0017435655460258685 0 -0.020227389686624925 -0.0013303129777041285 0 -0.02030507883991213 -0.0017435655460258685 0 -0.020101127300580654 -0.0013540435682198079 0 -0.020227389686624925 -0.0013303129777041285 0 -0.020181594840553679 -0.0014484740050203519 0 -0.021179524287254843 -0.0010786344619386032 0 -0.020386420280375822 -0.00086758803026031734 0 -0.020227389686624925 -0.0013303129777041285 0 -0.021179524287254843 -0.0010786344619386032 0 -0.024421761887612043 -2.0130602339469137e-05 0 -0.02273617036635402 -0.0015765892658923099 0 -0.024768516860859437 -0.00030737807716690386 0 -0.024421761887612043 -2.0130602339469137e-05 0 -0.024844542450586603 2.1839716864411154e-05 0 -0.024768516860859437 -0.00030737807716690386 0 -0.024625115259418993 -5.0093322820403042e-05 0 -0.024844542450586603 2.1839716864411154e-05 0 -0.024768516860859437 -0.00030737807716690386 0 -0.024625115259418993 -5.0093322820403042e-05 0 -0.024166914181814589 0.00026571882342429172 0 -0.024768516860859437 -0.00030737807716690386 0 -0.02030507883991213 -0.0017435655460258685 0 -0.020770261284299464 -0.0012847174425071491 0 -0.020101127300580654 -0.0013540435682198079 0 -0.02273617036635402 -0.0015765892658923099 0 -0.02030507883991213 -0.0017435655460258685 0 -0.020770261284299464 -0.0012847174425071491 0 -0.022711207753615108 -0.0014894530240346065 0 -0.022535176824225258 -0.0010146688136595291 0 -0.021509858620796924 -0.0012069733372883096 0 -0.020770261284299464 -0.0012847174425071491 0 -0.02001421924070584 -0.0011202208300061585 0 -0.020770261284299464 -0.0012847174425071491 0 -0.020101127300580654 -0.0013540435682198079 0 -0.02001421924070584 -0.0011202208300061585 0 -0.020101127300580654 -0.0013540435682198079 0 -0.02001421924070584 -0.0011202208300061585 0 -0.01968218772120536 -0.0013808820663164111 0 -0.02001421924070584 -0.0011202208300061585 0 -0.01968218772120536 -0.0013808820663164111 0 -0.019071595514513467 -0.0011282600336683601 0 -0.021509858620796924 -0.0012069733372883096 0 -0.02001421924070584 -0.0011202208300061585 0 -0.020655705615804935 -0.00089757474510327535 0 -0.020227389686624925 -0.0013303129777041285 0 -0.020181594840553679 -0.0014484740050203519 0 -0.01968218772120536 -0.0013808820663164111 0 -0.020227389686624925 -0.0013303129777041285 0 -0.020101127300580654 -0.0013540435682198079 0 -0.01968218772120536 -0.0013808820663164111 0 -0.020181594840553679 -0.0014484740050203519 0 -0.01968218772120536 -0.0013808820663164111 0 -0.019534009750472141 -0.0016376759739755197 0 -0.020181594840553679 -0.0014484740050203519 0 -0.020208453479123954 -0.0015574104276596236 0 -0.019534009750472141 -0.0016376759739755197 0 -0.020208453479123954 -0.0015574104276596236 0 -0.020112422042197341 -0.0016848323285781955 0 -0.019534009750472141 -0.0016376759739755197 0 -0.020112422042197341 -0.0016848323285781955 0 -0.021342708896368398 -0.0018265242831754229 0 -0.018659993703542568 -0.00171709150616916 0 -0.020112422042197341 -0.0016848323285781955 0 -0.021227092889329904 -0.0014751795570415119 0 -0.021342708896368398 -0.0018265242831754229 0 -0.020208453479123954 -0.0015574104276596236 0 -0.020112422042197341 -0.0016848323285781955 0 -0.020737630291898033 -0.0014610633330436244 0 -0.020112422042197341 -0.0016848323285781955 0 -0.021227092889329904 -0.0014751795570415119 0 -0.020737630291898033 -0.0014610633330436244 0 -0.021227092889329904 -0.0014751795570415119 0 -0.020737630291898033 -0.0014610633330436244 0 -0.021613639661831607 -0.0011039293079122758 0 -0.020737630291898033 -0.0014610633330436244 0 -0.020835652342586591 -0.0012937652103226175 0 -0.021613639661831607 -0.0011039293079122758 0 -0.021227092889329904 -0.0014751795570415119 0 -0.021613639661831607 -0.0011039293079122758 0 -0.021828130403810143 -0.0012696707674918063 0 -0.020181594840553679 -0.0014484740050203519 0 -0.020835652342586591 -0.0012937652103226175 0 -0.021179524287254843 -0.0010786344619386032 0 -0.020181594840553679 -0.0014484740050203519 0 -0.020208453479123954 -0.0015574104276596236 0 -0.020835652342586591 -0.0012937652103226175 0 -0.020208453479123954 -0.0015574104276596236 0 -0.020737630291898033 -0.0014610633330436244 0 -0.020835652342586591 -0.0012937652103226175 0 -0.020835652342586591 -0.0012937652103226175 0 -0.021179524287254843 -0.0010786344619386032 0 -0.021613639661831607 -0.0011039293079122758 0 -0.021613639661831607 -0.0011039293079122758 0 -0.022408047423742285 -0.00058157805728381335 0 -0.022511030120921406 -0.00079310823797278823 0 -0.021179524287254843 -0.0010786344619386032 0 -0.021613639661831607 -0.0011039293079122758 0 -0.022408047423742285 -0.00058157805728381335 0 -0.022541023650954034 -0.00016743290174298371 0 -0.021179524287254843 -0.0010786344619386032 0 -0.022408047423742285 -0.00058157805728381335 0 -0.022499615730495914 -1.1001450758720521e-07 0 -0.021299925622685643 -9.9025407612578098e-05 0 -0.020567688340742307 2.3499741760754018e-07 0 -0.023261309991158913 -0.00047500019891558236 0 -0.023109594314274482 -0.00057756320023076471 0 -0.022876120617420333 -0.00056763156307204079 0 -0.023041407826962196 -0.00044119780482626276 0 -0.022408047423742285 -0.00058157805728381335 0 -0.022876120617420333 -0.00056763156307204079 0 -0.022408047423742285 -0.00058157805728381335 0 -0.022876120617420333 -0.00056763156307204079 0 -0.022511030120921406 -0.00079310823797278823 0 -0.023109594314274482 -0.00057756320023076471 0 -0.022876120617420333 -0.00056763156307204079 0 -0.022511030120921406 -0.00079310823797278823 0 -0.021613639661831607 -0.0011039293079122758 0 -0.022511030120921406 -0.00079310823797278823 0 -0.022293042397503054 -0.0010595496421123977 0 -0.022511030120921406 -0.00079310823797278823 0 -0.022293042397503054 -0.0010595496421123977 0 -0.022717762483136283 -0.0011315890505055287 0 -0.022388686328640484 -0.00040270641964645345 0 -0.020331495249627626 -0.00017805444578553804 0 -0.021299925622685643 -9.9025407612578098e-05 0 -0.020788120362803999 0.00036693900196822587 0 -0.020567688340742307 2.3499741760754018e-07 0 -0.023109594314274482 -0.00057756320023076471 0 -0.022511030120921406 -0.00079310823797278823 0 -0.022717762483136283 -0.0011315890505055287 0 -0.020331495249627626 -0.00017805444578553804 0 -0.02056547077690514 -1.667287964111906e-08 0 -0.019147252547746633 8.7721516435749453e-05 0 -0.018527398823146909 3.0328268460934989e-05 0 -0.018784134197172557 -4.7187768489496689e-07 0 -0.018595875591427776 0.00051018642940200965 0 -0.018527398823146909 3.0328268460934989e-05 0 -0.017463913372241284 -0.00063420654656339058 0 -0.018527398823146909 3.0328268460934989e-05 0 -0.018784134197172557 -4.7187768489496689e-07 0 -0.017850736851690658 -0.00039949396357498391 0 -0.019147252547746633 8.7721516435749453e-05 0 -0.020564434594841127 8.3605358369911135e-07 0 -0.018784134197172557 -4.7187768489496689e-07 0 -0.020331495249627626 -0.00017805444578553804 0 -0.019455662569073419 -9.3727692919120799e-06 0 -0.020331495249627626 -0.00017805444578553804 0 -0.019517558152758102 -0.0011648556831899354 0 -0.021227092889329904 -0.0014751795570415119 0 -0.021828130403810143 -0.0012696707674918063 0 -0.021342708896368398 -0.0018265242831754229 0 -0.021613639661831607 -0.0011039293079122758 0 -0.022293042397503054 -0.0010595496421123977 0 -0.021828130403810143 -0.0012696707674918063 0 -0.022293042397503054 -0.0010595496421123977 0 -0.022717762483136283 -0.0011315890505055287 0 -0.021828130403810143 -0.0012696707674918063 0 -0.022717762483136283 -0.0011315890505055287 0 -0.021828130403810143 -0.0012696707674918063 0 -0.021342708896368398 -0.0018265242831754229 0 -0.018527398823146909 3.0328268460934989e-05 0 -0.017463913372241284 -0.00063420654656339058 0 -0.017850736851690658 -0.00039949396357498391 0 -0.01758094191034227 -0.00067164698433206716 0 -0.017850736851690658 -0.00039949396357498391 0 -0.017302140614163852 -0.00044227159641547326 0 -0.017463913372241284 -0.00063420654656339058 0 -0.01758094191034227 -0.00067164698433206716 0 -0.017850736851690658 -0.00039949396357498391 0 -0.017463913372241284 -0.00063420654656339058 0 -0.01758094191034227 -0.00067164698433206716 0 -0.017771401884455543 -0.0010004676352865164 0 -0.018784134197172557 -4.7187768489496689e-07 0 -0.017850736851690658 -0.00039949396357498391 0 -0.017002593378254972 -1.1292569462238638e-06 0 -0.017002593378254972 -1.1292569462238638e-06 0 -0.017302140614163852 -0.00044227159641547326 0 -0.016837789549895826 -0.00012005376968116393 0 -0.017850736851690658 -0.00039949396357498391 0 -0.017002593378254972 -1.1292569462238638e-06 0 -0.017302140614163852 -0.00044227159641547326 0 -0.017592363877295861 -0.0010173976186486418 0 -0.016850697491268732 -0.00088151489146294005 0 -0.017771401884455543 -0.0010004676352865164 0 -0.017670470336533475 -0.0015186919594260839 0 -0.017003617095449362 -0.001659944841353849 0 -0.01758094191034227 -0.00067164698433206716 0 -0.017302140614163852 -0.00044227159641547326 0 -0.017771401884455543 -0.0010004676352865164 0 -0.017302140614163852 -0.00044227159641547326 0 -0.017771401884455543 -0.0010004676352865164 0 -0.016837789549895826 -0.00012005376968116393 0 -0.017670470336533475 -0.0015186919594260839 0 -0.017482488891987759 -0.0011652820593773614 0 -0.016625102093275421 -0.0013357724277875877 0 -0.017003617095449362 -0.001659944841353849 0 -0.015266695922904085 -0.0012201546308084027 0 -0.016625102093275421 -0.0013357724277875877 0 -0.017670470336533475 -0.0015186919594260839 0 -0.017003617095449362 -0.001659944841353849 0 -0.016625102093275421 -0.0013357724277875877 0 -0.016850697491268732 -0.00088151489146294005 0 -0.015311091154160981 -0.00057586772628132933 0 -0.016837789549895826 -0.00012005376968116393 0 -0.015365252686684773 0.00011271508517835763 0 -0.015222067108063703 2.4625618315218515e-07 0 -0.017002593378254972 -1.1292569462238638e-06 0 -0.016837789549895826 -0.00012005376968116393 0 -0.015222067108063703 2.4625618315218515e-07 0 -0.019534009750472141 -0.0016376759739755197 0 -0.018659993703542568 -0.00171709150616916 0 -0.018852984558028741 -0.0013823100144956539 0 -0.020112422042197341 -0.0016848323285781955 0 -0.019534009750472141 -0.0016376759739755197 0 -0.018659993703542568 -0.00171709150616916 0 -0.019517558152758102 -0.0011648556831899354 0 -0.018824960634707306 -0.0015561787135827722 0 -0.017463913372241284 -0.00063420654656339058 0 -0.017771401884455543 -0.0010004676352865164 0 -0.018659993703542568 -0.00171709150616916 0 -0.017771401884455543 -0.0010004676352865164 0 -0.017670470336533475 -0.0015186919594260839 0 -0.018659993703542568 -0.00171709150616916 0 -0.018659993703542568 -0.00171709150616916 0 -0.018852984558028741 -0.0013823100144956539 0 -0.017482488891987759 -0.0011652820593773614 0 -0.017670470336533475 -0.0015186919594260839 0 -0.018659993703542568 -0.00171709150616916 0 -0.017482488891987759 -0.0011652820593773614 0 -0.018852984558028741 -0.0013823100144956539 0 -0.017955207465371548 -8.4421875007878434e-05 0 -0.019016087905202626 -0.0010596146401016591 0 -0.018852984558028741 -0.0013823100144956539 0 -0.017482488891987759 -0.0011652820593773614 0 -0.017955207465371548 -8.4421875007878434e-05 0 -0.017482488891987759 -0.0011652820593773614 0 -0.017955207465371548 -8.4421875007878434e-05 0 -0.015893573729309628 -0.00049296779622626772 0 -0.014241220300815273 -0.00018773811607943796 0 -0.015950434199593844 -0.0011444940564043378 0 -0.015365252686684773 0.00011271508517835763 0 -0.015222067108063703 2.4625618315218515e-07 0 -0.013440573295957986 4.2364042968842287e-07 0 -0.017482488891987759 -0.0011652820593773614 0 -0.016625102093275421 -0.0013357724277875877 0 -0.015893573729309628 -0.00049296779622626772 0 -0.015266695922904085 -0.0012201546308084027 0 -0.016625102093275421 -0.0013357724277875877 0 -0.015893573729309628 -0.00049296779622626772 0 -0.017955207465371548 -8.4421875007878434e-05 0 -0.015893573729309628 -0.00049296779622626772 0 -0.015451744857402241 0.00074384355338332159 0 -0.015311091154160981 -0.00057586772628132933 0 -0.013440495354713393 -1.1658454789305432e-07 0 -0.015266695922904085 -0.0012201546308084027 0 -0.015893573729309628 -0.00049296779622626772 0 -0.013437893139120114 -3.566347446332463e-06 0 -0.015893573729309628 -0.00049296779622626772 0 -0.013437893139120114 -3.566347446332463e-06 0 -0.015451744857402241 0.00074384355338332159 0 -0.013437893139120114 -3.566347446332463e-06 0 -0.011685922619354366 4.5570517229916265e-06 0 -0.015451744857402241 0.00074384355338332159 0 -0.011682094229564182 1.1498806330956061e-07 0 -0.012947370003603492 0.00042006285655156044 0 -0.011678083081081181 1.2124616017380903e-06 0 -0.010289994857323544 0.00037533625483682892 0 -0.010436836784919343 -9.8605422790433111e-05 0 -0.010289994857323544 0.00037533625483682892 0 -0.010217989305920281 0.00037796691280884992 0 -0.010436836784919343 -9.8605422790433111e-05 0 -0.014241220300815273 -0.00018773811607943796 0 -0.012947370003603492 0.00042006285655156044 0 -0.010512680926988555 -0.00025716762369811392 0 -0.010289994857323544 0.00037533625483682892 0 -0.010217989305920281 0.00037796691280884992 0 -0.010512680926988555 -0.00025716762369811392 0 -0.010817420603038509 0.00053857733780552687 0 -0.010217989305920281 0.00037796691280884992 0 -0.010512680926988555 -0.00025716762369811392 0 -0.010817420603038509 0.00053857733780552687 0 -0.012614641834253856 0.00016576285134309933 0 -0.010817420603038509 0.00053857733780552687 0 -0.0098544084269484213 0.00025560991222375168 0 -0.011849932392964203 0.0012471334806431384 0 -0.010817420603038509 0.00053857733780552687 0 -0.010217989305920281 0.00037796691280884992 0 -0.0098544084269484213 0.00025560991222375168 0 -0.009665758861474489 0.00017677755012054019 0 -0.0092185778030075115 7.4817885446197309e-07 0 -0.010217989305920281 0.00037796691280884992 0 -0.0098544084269484213 0.00025560991222375168 0 -0.010224850914689047 -7.0466731636383299e-05 0 -0.0085596348167331481 3.1891896368647178e-05 0 -0.0092790609897706322 6.2296486382705637e-05 0 -0.0082906712985683362 -0.00011475136927896439 0 -0.0098544084269484213 0.00025560991222375168 0 -0.0085596348167331481 3.1891896368647178e-05 0 -0.0092790609897706322 6.2296486382705637e-05 0 -0.0098544084269484213 0.00025560991222375168 0 -0.0085596348167331481 3.1891896368647178e-05 0 -0.0082135897336978476 -0.00011211437466639337 0 -0.0085596348167331481 3.1891896368647178e-05 0 -0.0082135897336978476 -0.00011211437466639337 0 -0.0077624807889127576 3.7518709927286766e-05 0 -0.010224850914689047 -7.0466731636383299e-05 0 -0.0098200762432721356 5.1389424935864706e-05 0 -0.010436836784919343 -9.8605422790433111e-05 0 -0.0082135897336978476 -0.00011211437466639337 0 -0.0075360591676633688 0.00012240750431324006 0 -0.0077624807889127576 3.7518709927286766e-05 0 -0.0092185778030075115 7.4817885446197309e-07 0 -0.0087059177503249624 1.7266716536811429e-05 0 -0.0098200762432721356 5.1389424935864706e-05 0 -0.0098580137136387441 -1.1533055827556649e-06 0 -0.00803548991189223 1.3188923983842359e-06 0 -0.0098200762432721356 5.1389424935864706e-05 0 -0.0098580137136387441 -1.1533055827556649e-06 0 -0.010436836784919343 -9.8605422790433111e-05 0 -0.011678083081081181 1.2124616017380903e-06 0 -0.0098580137136387441 -1.1533055827556649e-06 0 -0.010436836784919343 -9.8605422790433111e-05 0 -0.010217989305920281 0.00037796691280884992 0 -0.010224850914689047 -7.0466731636383299e-05 0 -0.010436836784919343 -9.8605422790433111e-05 0 -0.015616156432506981 0.0026789940610437908 0 -0.013233666372188115 0.0027302111834489502 0 -0.014569928583828431 0.0032264326408234542 0 -0.015616156432506981 0.0026789940610437908 0 -0.01742231175882971 0.0031266467442117849 0 -0.017333599200015766 0.0037628642778163484 0 -0.015460471201354525 0.0026010786606388454 0 -0.015248053043142282 0.0031244652305940407 0 -0.015616156432506981 0.0026789940610437908 0 -0.01742231175882971 0.0031266467442117849 0 -0.017818805756215132 0.0023829109894627954 0 -0.01742231175882971 0.0031266467442117849 0 -0.017333599200015766 0.0037628642778163484 0 -0.017902579064786043 0.0034534623947707599 0 -0.013233666372188115 0.0027302111834489502 0 -0.014569928583828431 0.0032264326408234542 0 -0.0137957784439537 0.0020191175257296824 0 -0.0088524946478879991 -0.00029398384298915623 0 -0.0089807429319366458 0.00027005046814298719 0 -0.0086950587886051017 -0.0006017777809569179 0 -0.011756814554323449 0.0016156510386452316 0 -0.011253270363644825 0.00080532460242875126 0 -0.0088524946478879991 -0.00029398384298915623 0 -0.0093253955753454382 -3.5572988837867055e-05 0 -0.0089807429319366458 0.00027005046814298719 0 -0.0088524946478879991 -0.00029398384298915623 0 -0.0093253955753454382 -3.5572988837867055e-05 0 -0.0087140454550734339 -0.00020760513886082383 0 -0.0093253955753454382 -3.5572988837867055e-05 0 -0.0092790609897706322 6.2296486382705637e-05 0 -0.0087140454550734339 -0.00020760513886082383 0 -0.0093253955753454382 -3.5572988837867055e-05 0 -0.0092790609897706322 6.2296486382705637e-05 0 -0.010233322184425301 0.00041058389971800627 0 -0.0098544084269484213 0.00025560991222375168 0 -0.010233322184425301 0.00041058389971800627 0 -0.011849932392964203 0.0012471334806431384 0 -0.0098544084269484213 0.00025560991222375168 0 -0.0092790609897706322 6.2296486382705637e-05 0 -0.010233322184425301 0.00041058389971800627 0 -0.010233322184425301 0.00041058389971800627 0 -0.0089807429319366458 0.00027005046814298719 0 -0.011849932392964203 0.0012471334806431384 0 -0.015616156432506981 0.0026789940610437908 0 -0.014569928583828431 0.0032264326408234542 0 -0.011849932392964203 0.0012471334806431384 0 -0.011756814554323449 0.0016156510386452316 0 -0.011717052967441606 0.0011985123459132465 0 -0.0093253955753454382 -3.5572988837867055e-05 0 -0.010233322184425301 0.00041058389971800627 0 -0.0089807429319366458 0.00027005046814298719 0 -0.015616156432506981 0.0026789940610437908 0 -0.011849932392964203 0.0012471334806431384 0 -0.01542671477095018 0.0007665946305190146 0 -0.010817420603038509 0.00053857733780552687 0 -0.011849932392964203 0.0012471334806431384 0 -0.012614641834253856 0.00016576285134309933 0 -0.011849932392964203 0.0012471334806431384 0 -0.012614641834253856 0.00016576285134309933 0 -0.01542671477095018 0.0007665946305190146 0 -0.012614641834253856 0.00016576285134309933 0 -0.01542671477095018 0.0007665946305190146 0 -0.015973102694312021 -0.00036746619045009883 0 -0.01542671477095018 0.0007665946305190146 0 -0.017801337428834895 0.00018334996753194697 0 -0.015973102694312021 -0.00036746619045009883 0 -0.015616156432506981 0.0026789940610437908 0 -0.01542671477095018 0.0007665946305190146 0 -0.01735656091705225 0.0014644287488281376 0 -0.015616156432506981 0.0026789940610437908 0 -0.01735656091705225 0.0014644287488281376 0 -0.017818805756215132 0.0023829109894627954 0 -0.01542671477095018 0.0007665946305190146 0 -0.01735656091705225 0.0014644287488281376 0 -0.017801337428834895 0.00018334996753194697 0 -0.01735656091705225 0.0014644287488281376 0 -0.017801337428834895 0.00018334996753194697 0 -0.018456788706551413 0.0010012947936642454 0 -0.017801337428834895 0.00018334996753194697 0 -0.018165194309676148 -0.00078631039162576114 0 -0.019363190352987069 -0.00042566445510764213 0 -0.017801337428834895 0.00018334996753194697 0 -0.015973102694312021 -0.00036746619045009883 0 -0.018165194309676148 -0.00078631039162576114 0 -0.015973102694312021 -0.00036746619045009883 0 -0.017787407321436698 -0.001465782909587502 0 -0.018165194309676148 -0.00078631039162576114 0 -0.017787407321436698 -0.001465782909587502 0 -0.018165194309676148 -0.00078631039162576114 0 -0.019321894563057995 -0.00088112221393026188 0 -0.018165194309676148 -0.00078631039162576114 0 -0.019321894563057995 -0.00088112221393026188 0 -0.019363190352987069 -0.00042566445510764213 0 -0.010512680926988555 -0.00025716762369811392 0 -0.012614641834253856 0.00016576285134309933 0 -0.012936515482528744 -0.0014496633071667915 0 -0.012614641834253856 0.00016576285134309933 0 -0.015973102694312021 -0.00036746619045009883 0 -0.012936515482528744 -0.0014496633071667915 0 -0.017498361028341607 -0.0014637956102457989 0 -0.015950434199593844 -0.0011444940564043378 0 -0.015973102694312021 -0.00036746619045009883 0 -0.017787407321436698 -0.001465782909587502 0 -0.012936515482528744 -0.0014496633071667915 0 -0.017787407321436698 -0.001465782909587502 0 -0.019016087905202626 -0.0010596146401016591 0 -0.018907664949503088 -0.0012293359064750359 0 -0.018852984558028741 -0.0013823100144956539 0 -0.019016087905202626 -0.0010596146401016591 0 -0.018907664949503088 -0.0012293359064750359 0 -0.018852984558028741 -0.0013823100144956539 0 -0.018907664949503088 -0.0012293359064750359 0 -0.019270071480939573 -0.0013757950197309881 0 -0.017787407321436698 -0.001465782909587502 0 -0.018907664949503088 -0.0012293359064750359 0 -0.019071595514513467 -0.0011282600336683601 0 -0.018907664949503088 -0.0012293359064750359 0 -0.019270071480939573 -0.0013757950197309881 0 -0.019071595514513467 -0.0011282600336683601 0 -0.01968218772120536 -0.0013808820663164111 0 -0.019270071480939573 -0.0013757950197309881 0 -0.019071595514513467 -0.0011282600336683601 0 -0.019534009750472141 -0.0016376759739755197 0 -0.018852984558028741 -0.0013823100144956539 0 -0.019270071480939573 -0.0013757950197309881 0 -0.01968218772120536 -0.0013808820663164111 0 -0.019534009750472141 -0.0016376759739755197 0 -0.019270071480939573 -0.0013757950197309881 0 -0.017787407321436698 -0.001465782909587502 0 -0.019321894563057995 -0.00088112221393026188 0 -0.019071595514513467 -0.0011282600336683601 0 -0.02001421924070584 -0.0011202208300061585 0 -0.019321894563057995 -0.00088112221393026188 0 -0.019071595514513467 -0.0011282600336683601 0 -0.02001421924070584 -0.0011202208300061585 0 -0.019321894563057995 -0.00088112221393026188 0 -0.020655705615804935 -0.00089757474510327535 0 -0.019321894563057995 -0.00088112221393026188 0 -0.020655705615804935 -0.00089757474510327535 0 -0.020737926354610903 -0.00023787263707450321 0 -0.019321894563057995 -0.00088112221393026188 0 -0.020737926354610903 -0.00023787263707450321 0 -0.019363190352987069 -0.00042566445510764213 0 -0.020694108613300857 -0.00017329547345372757 0 -0.020973901086022838 0.00084483435207476803 0 -0.022007829232134582 -0.0010531081771526078 0 -0.020655705615804935 -0.00089757474510327535 0 -0.020737926354610903 -0.00023787263707450321 0 -0.022007829232134582 -0.0010531081771526078 0 -0.020737926354610903 -0.00023787263707450321 0 -0.02312105810885158 -0.00028133157434894097 0 -0.02312105810885158 -0.00028133157434894097 0 -0.022993712884393624 0.0010801710526963488 0 -0.02446310183858675 0.0015805503262992971 0 -0.02312105810885158 -0.00028133157434894097 0 -0.025075982743453337 0.00067404367722175484 0 -0.02446310183858675 0.0015805503262992971 0 -0.020737926354610903 -0.00023787263707450321 0 -0.022993712884393624 0.0010801710526963488 0 -0.021993525191538195 0.0021432191233960638 0 -0.020737926354610903 -0.00023787263707450321 0 -0.02312105810885158 -0.00028133157434894097 0 -0.022993712884393624 0.0010801710526963488 0 -0.022993712884393624 0.0010801710526963488 0 -0.023984289379899982 0.0027293783641218644 0 -0.021993525191538195 0.0021432191233960638 0 -0.022993712884393624 0.0010801710526963488 0 -0.023984289379899982 0.0027293783641218644 0 -0.02446310183858675 0.0015805503262992971 0 -0.023984289379899982 0.0027293783641218644 0 -0.023129562301815156 0.0036464374589725572 0 -0.024059778967163582 0.0040662685826138283 0 -0.023984289379899982 0.0027293783641218644 0 -0.024825356482062237 0.0035608182821935119 0 -0.024059778967163582 0.0040662685826138283 0 -0.023984289379899982 0.0027293783641218644 0 -0.021993525191538195 0.0021432191233960638 0 -0.023129562301815156 0.0036464374589725572 0 -0.020973901086022838 0.00084483435207476803 0 -0.021737425281476711 0.0022543565478259728 0 -0.019250194774234976 0.00030174595325595845 0 -0.019936953609121934 -0.00028762945489995133 0 -0.020224581215941572 0.00064816682861073638 0 -0.017801337428834895 0.00018334996753194697 0 -0.019250194774234976 0.00030174595325595845 0 -0.019363190352987069 -0.00042566445510764213 0 -0.020737926354610903 -0.00023787263707450321 0 -0.019363190352987069 -0.00042566445510764213 0 -0.019936953609121934 -0.00028762945489995133 0 -0.019250194774234976 0.00030174595325595845 0 -0.019363190352987069 -0.00042566445510764213 0 -0.019936953609121934 -0.00028762945489995133 0 -0.027806944875627012 0.0011959410178491395 0 -0.027281038907388495 0.0019862391643068536 0 -0.028304945626055258 0.0019879548786066428 0 -0.027806944875627012 0.0011959410178491395 0 -0.028304945626055258 0.0019879548786066428 0 -0.028519424042881606 0.0010592778005391597 0 -0.028267169258435143 0.00075702677685457063 0 -0.027806944875627012 0.0011959410178491395 0 -0.028519424042881606 0.0010592778005391597 0 -0.028267169258435143 0.00075702677685457063 0 -0.027806944875627012 0.0011959410178491395 0 -0.027584915338846883 0.00079448262019686012 0 -0.027377456264380019 0.00063547282347530269 0 -0.027584915338846883 0.00079448262019686012 0 -0.026761271387368151 0.00089232179626068896 0 -0.027806944875627012 0.0011959410178491395 0 -0.027584915338846883 0.00079448262019686012 0 -0.026761271387368151 0.00089232179626068896 0 -0.026761271387368151 0.00089232179626068896 0 -0.026157425571508124 0.0024677664586003792 0 -0.027281038907388495 0.0019862391643068536 0 -0.027806944875627012 0.0011959410178491395 0 -0.026761271387368151 0.00089232179626068896 0 -0.027281038907388495 0.0019862391643068536 0 -0.026761271387368151 0.00089232179626068896 0 -0.025075982743453337 0.00067404367722175484 0 -0.026157425571508124 0.0024677664586003792 0 -0.025752659560172107 0.00011946714660110433 0 -0.026697012880204207 0.00085420172474028055 0 -0.024956943406737885 -0.00083471626533126303 0 -0.026761271387368151 0.00089232179626068896 0 -0.025075982743453337 0.00067404367722175484 0 -0.024956943406737885 -0.00083471626533126303 0 -0.02312105810885158 -0.00028133157434894097 0 -0.025075982743453337 0.00067404367722175484 0 -0.025075982743453337 0.00067404367722175484 0 -0.02446310183858675 0.0015805503262992971 0 -0.026157425571508124 0.0024677664586003792 0 -0.02446310183858675 0.0015805503262992971 0 -0.025094099891088944 0.0028055132558314141 0 -0.026157425571508124 0.0024677664586003792 0 -0.023984289379899982 0.0027293783641218644 0 -0.02446310183858675 0.0015805503262992971 0 -0.025094099891088944 0.0028055132558314141 0 -0.025094099891088944 0.0028055132558314141 0 -0.025915185737153051 0.003771382586902359 0 -0.024825356482062237 0.0035608182821935119 0 -0.023984289379899982 0.0027293783641218644 0 -0.025094099891088944 0.0028055132558314141 0 -0.024825356482062237 0.0035608182821935119 0 -0.026157425571508124 0.0024677664586003792 0 -0.026598354352454372 0.003109326457936316 0 -0.025915185737153051 0.003771382586902359 0 -0.025094099891088944 0.0028055132558314141 0 -0.026157425571508124 0.0024677664586003792 0 -0.025915185737153051 0.003771382586902359 0 -0.026157425571508124 0.0024677664586003792 0 -0.027281038907388495 0.0019862391643068536 0 -0.026598354352454372 0.003109326457936316 0 -0.026598354352454372 0.003109326457936316 0 -0.02747918855403508 0.002828238266025226 0 -0.026849244903033434 0.0039093607159974963 0 -0.027281038907388495 0.0019862391643068536 0 -0.026598354352454372 0.003109326457936316 0 -0.02747918855403508 0.002828238266025226 0 -0.02747918855403508 0.002828238266025226 0 -0.026849244903033434 0.0039093607159974963 0 -0.028478755063727962 0.00314853834546899 0 -0.02747918855403508 0.002828238266025226 0 -0.028424571274544067 0.0012882886213445837 0 -0.028478755063727962 0.00314853834546899 0 -0.027550138866869568 0.0027354559256611956 0 -0.028368473098836448 0.0016513320121774675 0 -0.027281038907388495 0.0019862391643068536 0 -0.02747918855403508 0.002828238266025226 0 -0.028304945626055258 0.0019879548786066428 0 -0.026675763467221249 0.0040698357923767961 0 -0.026460493738035835 0.0037706784616034308 0 -0.026301819316959393 0.0042071001992425583 0 -0.026469768219246882 0.0038206376520702884 0 -0.026617819638287382 0.0039478492614956383 0 -0.026675763467221249 0.0040698357923767961 0 -0.026460493738035835 0.0037706784616034308 0 -0.026625863229691377 0.0044133375907918207 0 -0.026460493738035835 0.0037706784616034308 0 -0.026920520582722592 0.0035234300036890635 0 -0.026698415239901369 0.0034605726001825225 0 -0.026849244903033434 0.0039093607159974963 0 -0.028380621693334138 0.0042115359907179215 0 -0.028478755063727962 0.00314853834546899 0 -0.026871406332487417 0.0039587545997166722 0 -0.027256073298004269 0.0041534115375395225 0 -0.026675763467221249 0.0040698357923767961 0 -0.026849244903033434 0.0039093607159974963 0 -0.026301819316959393 0.0042071001992425583 0 -0.026598354352454372 0.003109326457936316 0 -0.026849244903033434 0.0039093607159974963 0 -0.025915185737153051 0.003771382586902359 0 -0.026849244903033434 0.0039093607159974963 0 -0.026625863229691377 0.0044133375907918207 0 -0.025915185737153051 0.003771382586902359 0 -0.026675763467221249 0.0040698357923767961 0 -0.026849244903033434 0.0039093607159974963 0 -0.026625863229691377 0.0044133375907918207 0 -0.026617819638287382 0.0039478492614956383 0 -0.026645616088213992 0.0041360792332559787 0 -0.026920520582722592 0.0035234300036890635 0 -0.0270886021854106 0.0033800404791946236 0 -0.027024346988802742 0.0033904916301381463 0 -0.026625863229691377 0.0044133375907918207 0 -0.025915185737153051 0.003771382586902359 0 -0.025527648977319694 0.0047562428548433757 0 -0.0270886021854106 0.0033800404791946236 0 -0.027106913462180707 0.003361555005806515 0 -0.027024346988802742 0.0033904916301381463 0 -0.025915185737153051 0.003771382586902359 0 -0.024885580346683488 0.0043601498542798905 0 -0.025527648977319694 0.0047562428548433757 0 -0.025915185737153051 0.003771382586902359 0 -0.024825356482062237 0.0035608182821935119 0 -0.024885580346683488 0.0043601498542798905 0 -0.024825356482062237 0.0035608182821935119 0 -0.024885580346683488 0.0043601498542798905 0 -0.024059778967163582 0.0040662685826138283 0 -0.024885580346683488 0.0043601498542798905 0 -0.025527648977319694 0.0047562428548433757 0 -0.024201966848995424 0.0049234874305958999 0 -0.026645616088213992 0.0041360792332559787 0 -0.023782781681552779 0.0031273499168639144 0 -0.0270886021854106 0.0033800404791946236 0 -0.027106913462180707 0.003361555005806515 0 -0.026963605155738913 0.0033713341427724901 0 -0.02412703571022997 0.0029755880006305346 0 -0.023782781681552779 0.0031273499168639144 0 -0.021252546808802463 0.0027432515216337223 0 -0.020534055330757049 0.0022172766447439312 0 -0.020657737413654391 0.0027169882720939104 0 -0.021252546808802463 0.0027432515216337223 0 -0.021008113378518666 0.0029515166393675046 0 -0.020657737413654391 0.0027169882720939104 0 -0.021252546808802463 0.0027432515216337223 0 -0.021008113378518666 0.0029515166393675046 0 -0.021196642869568537 0.0026882389269803526 0 -0.020689960549668384 0.0033417721611811186 0 -0.021271552613279645 0.003460318459507024 0 -0.020964028230745738 0.0038050908744768656 0 -0.021008113378518666 0.0029515166393675046 0 -0.020689960549668384 0.0033417721611811186 0 -0.021271552613279645 0.003460318459507024 0 -0.021008113378518666 0.0029515166393675046 0 -0.020689960549668384 0.0033417721611811186 0 -0.020657737413654391 0.0027169882720939104 0 -0.021299956281245185 0.0028169214530621746 0 -0.021220738619155532 0.0026642439980319472 0 -0.021305390672189933 0.0020634418338553472 0 -0.021196642869568537 0.0026882389269803526 0 -0.02071202050855879 0.0024310677357734451 0 -0.021008113378518666 0.0029515166393675046 0 -0.021271552613279645 0.003460318459507024 0 -0.021196642869568537 0.0026882389269803526 0 -0.021305390672189933 0.0020634418338553472 0 -0.02071202050855879 0.0024310677357734451 0 -0.020755430442219603 0.0016826637224614063 0 -0.027106913462180707 0.003361555005806515 0 -0.027024346988802742 0.0033904916301381463 0 -0.026927431156109689 0.003293664477612113 0 -0.02412703571022997 0.0029755880006305346 0 -0.023821152544365062 0.0027127544945073213 0 -0.027106913462180707 0.003361555005806515 0 -0.026927431156109689 0.003293664477612113 0 -0.026932787644843532 0.0029820044235086122 0 -0.021252546808802463 0.0027432515216337223 0 -0.021196642869568537 0.0026882389269803526 0 -0.02071202050855879 0.0024310677357734451 0 -0.026927431156109689 0.003293664477612113 0 -0.026698415239901369 0.0034605726001825225 0 -0.026522729731746544 0.0031460769019515098 0 -0.026927431156109689 0.003293664477612113 0 -0.026932787644843532 0.0029820044235086122 0 -0.026522729731746544 0.0031460769019515098 0 -0.026920520582722592 0.0035234300036890635 0 -0.027024346988802742 0.0033904916301381463 0 -0.026927431156109689 0.003293664477612113 0 -0.026920520582722592 0.0035234300036890635 0 -0.026927431156109689 0.003293664477612113 0 -0.026698415239901369 0.0034605726001825225 0 -0.02071202050855879 0.0024310677357734451 0 -0.01975005808126485 0.0018768265448458497 0 -0.020755430442219603 0.0016826637224614063 0 -0.023821152544365062 0.0027127544945073213 0 -0.022980223971788876 0.0020753226028866778 0 -0.026932787644843532 0.0029820044235086122 0 -0.026522729731746544 0.0031460769019515098 0 -0.026340784650715852 0.002361024591949847 0 -0.026522729731746544 0.0031460769019515098 0 -0.026340784650715852 0.002361024591949847 0 -0.02594292464516499 0.0028657800318351032 0 -0.026460493738035835 0.0037706784616034308 0 -0.026522729731746544 0.0031460769019515098 0 -0.026026508048064806 0.0033701848925702569 0 -0.026460493738035835 0.0037706784616034308 0 -0.026698415239901369 0.0034605726001825225 0 -0.026522729731746544 0.0031460769019515098 0 -0.01921560110986862 0.0022466562425061394 0 -0.018581739580210251 0.0018337296852349364 0 -0.019422747356393068 0.0012898146644566835 0 -0.01921560110986862 0.0022466562425061394 0 -0.019422747356393068 0.0012898146644566835 0 -0.019718170870810656 0.0018410622241075401 0 -0.01921560110986862 0.0022466562425061394 0 -0.018581739580210251 0.0018337296852349364 0 -0.018536253406007785 0.0024998192985711408 0 -0.018581739580210251 0.0018337296852349364 0 -0.017818805756215132 0.0023829109894627954 0 -0.018536253406007785 0.0024998192985711408 0 -0.01735656091705225 0.0014644287488281376 0 -0.018581739580210251 0.0018337296852349364 0 -0.018456788706551413 0.0010012947936642454 0 -0.018581739580210251 0.0018337296852349364 0 -0.018456788706551413 0.0010012947936642454 0 -0.019422747356393068 0.0012898146644566835 0 -0.01735656091705225 0.0014644287488281376 0 -0.018581739580210251 0.0018337296852349364 0 -0.017818805756215132 0.0023829109894627954 0 -0.017801337428834895 0.00018334996753194697 0 -0.019250194774234976 0.00030174595325595845 0 -0.018456788706551413 0.0010012947936642454 0 -0.019250194774234976 0.00030174595325595845 0 -0.018456788706551413 0.0010012947936642454 0 -0.019422747356393068 0.0012898146644566835 0 -0.019250194774234976 0.00030174595325595845 0 -0.019422747356393068 0.0012898146644566835 0 -0.020224581215941572 0.00064816682861073638 0 -0.019422747356393068 0.0012898146644566835 0 -0.020224581215941572 0.00064816682861073638 0 -0.020012720336282906 0.0013931867330639806 0 -0.020224581215941572 0.00064816682861073638 0 -0.020012720336282906 0.0013931867330639806 0 -0.020730282332617138 0.0019355194747532685 0 -0.023129562301815156 0.0036464374589725572 0 -0.024059778967163582 0.0040662685826138283 0 -0.024016538947763202 0.004923034060905886 0 -0.021737425281476711 0.0022543565478259728 0 -0.02196285621996677 0.0029096582276237361 0 -0.024885580346683488 0.0043601498542798905 0 -0.024059778967163582 0.0040662685826138283 0 -0.024287499227720052 0.0045686799486700704 0 -0.024885580346683488 0.0043601498542798905 0 -0.024287499227720052 0.0045686799486700704 0 -0.024201966848995424 0.0049234874305958999 0 -0.024059778967163582 0.0040662685826138283 0 -0.024287499227720052 0.0045686799486700704 0 -0.024016538947763202 0.004923034060905886 0 -0.024287499227720052 0.0045686799486700704 0 -0.024016538947763202 0.004923034060905886 0 -0.024201966848995424 0.0049234874305958999 0 -0.02196285621996677 0.0029096582276237361 0 -0.020140592196883963 0.0023165264774266218 0 -0.020467068392227863 0.0020262604837468319 0 -0.020162479387599908 0.0019357441173028581 0 -0.020192654145466043 0.0021904349427375974 0 -0.020467068392227863 0.0020262604837468319 0 -0.020192654145466043 0.0021904349427375974 0 -0.020229622221765671 0.0024765584905402233 0 -0.020436937093022134 0.0022173701855062893 0 -0.020534055330757049 0.0022172766447439312 0 -0.020657737413654391 0.0027169882720939104 0 -0.02196285621996677 0.0029096582276237361 0 -0.023782781681552779 0.0031273499168639144 0 -0.019422747356393068 0.0012898146644566835 0 -0.020012720336282906 0.0013931867330639806 0 -0.019718170870810656 0.0018410622241075401 0 -0.020012720336282906 0.0013931867330639806 0 -0.020730282332617138 0.0019355194747532685 0 -0.020162479387599908 0.0019357441173028581 0 -0.020012720336282906 0.0013931867330639806 0 -0.019718170870810656 0.0018410622241075401 0 -0.020162479387599908 0.0019357441173028581 0 -0.020162479387599908 0.0019357441173028581 0 -0.020192654145466043 0.0021904349427375974 0 -0.019849685431963193 0.0023532943237044575 0 -0.019718170870810656 0.0018410622241075401 0 -0.020162479387599908 0.0019357441173028581 0 -0.019849685431963193 0.0023532943237044575 0 -0.01921560110986862 0.0022466562425061394 0 -0.019718170870810656 0.0018410622241075401 0 -0.019849685431963193 0.0023532943237044575 0 -0.01921560110986862 0.0022466562425061394 0 -0.019849685431963193 0.0023532943237044575 0 -0.019404396508256379 0.0028721138081994305 0 -0.019849685431963193 0.0023532943237044575 0 -0.019872017669883304 0.0028410423836759549 0 -0.020229622221765671 0.0024765584905402233 0 -0.020192654145466043 0.0021904349427375974 0 -0.019849685431963193 0.0023532943237044575 0 -0.020229622221765671 0.0024765584905402233 0 -0.019849685431963193 0.0023532943237044575 0 -0.019872017669883304 0.0028410423836759549 0 -0.019404396508256379 0.0028721138081994305 0 -0.019872017669883304 0.0028410423836759549 0 -0.01970648335963952 0.0032831426773633132 0 -0.019404396508256379 0.0028721138081994305 0 -0.02196285621996677 0.0029096582276237361 0 -0.020465069067479188 0.0022200933740512824 0 -0.020467068392227863 0.0020262604837468319 0 -0.020229622221765671 0.0024765584905402233 0 -0.020657737413654391 0.0027169882720939104 0 -0.019872017669883304 0.0028410423836759549 0 -0.020229622221765671 0.0024765584905402233 0 -0.020202092747105223 0.0030625754707720725 0 -0.020229622221765671 0.0024765584905402233 0 -0.020657737413654391 0.0027169882720939104 0 -0.020202092747105223 0.0030625754707720725 0 -0.020689960549668384 0.0033417721611811186 0 -0.020657737413654391 0.0027169882720939104 0 -0.020202092747105223 0.0030625754707720725 0 -0.020202092747105223 0.0030625754707720725 0 -0.01970648335963952 0.0032831426773633132 0 -0.020133567601856663 0.0036751107172309457 0 -0.020689960549668384 0.0033417721611811186 0 -0.020202092747105223 0.0030625754707720725 0 -0.020133567601856663 0.0036751107172309457 0 -0.01970648335963952 0.0032831426773633132 0 -0.01948529205775084 0.0037749350216691223 0 -0.020133567601856663 0.0036751107172309457 0 -0.01970648335963952 0.0032831426773633132 0 -0.019059229935012603 0.0034260328088100553 0 -0.019404396508256379 0.0028721138081994305 0 -0.019872017669883304 0.0028410423836759549 0 -0.020202092747105223 0.0030625754707720725 0 -0.01970648335963952 0.0032831426773633132 0 -0.01970648335963952 0.0032831426773633132 0 -0.019059229935012603 0.0034260328088100553 0 -0.01948529205775084 0.0037749350216691223 0 -0.019059229935012603 0.0034260328088100553 0 -0.018952026804661914 0.0039356375948863759 0 -0.01948529205775084 0.0037749350216691223 0 -0.018638661199491993 0.0037345477269962982 0 -0.019059229935012603 0.0034260328088100553 0 -0.018467815887555774 0.0034079446173154713 0 -0.018638661199491993 0.0037345477269962982 0 -0.019059229935012603 0.0034260328088100553 0 -0.018952026804661914 0.0039356375948863759 0 -0.019059229935012603 0.0034260328088100553 0 -0.018849965836656515 0.0028783045231835233 0 -0.018467815887555774 0.0034079446173154713 0 -0.019059229935012603 0.0034260328088100553 0 -0.019404396508256379 0.0028721138081994305 0 -0.018849965836656515 0.0028783045231835233 0 -0.01921560110986862 0.0022466562425061394 0 -0.018849965836656515 0.0028783045231835233 0 -0.018536253406007785 0.0024998192985711408 0 -0.01921560110986862 0.0022466562425061394 0 -0.019404396508256379 0.0028721138081994305 0 -0.018849965836656515 0.0028783045231835233 0 -0.01742231175882971 0.0031266467442117849 0 -0.017818805756215132 0.0023829109894627954 0 -0.018146829579329941 0.0029796492748619882 0 -0.017818805756215132 0.0023829109894627954 0 -0.018536253406007785 0.0024998192985711408 0 -0.018146829579329941 0.0029796492748619882 0 -0.018849965836656515 0.0028783045231835233 0 -0.018536253406007785 0.0024998192985711408 0 -0.018146829579329941 0.0029796492748619882 0 -0.018849965836656515 0.0028783045231835233 0 -0.018146829579329941 0.0029796492748619882 0 -0.018467815887555774 0.0034079446173154713 0 -0.01742231175882971 0.0031266467442117849 0 -0.018146829579329941 0.0029796492748619882 0 -0.017902579064786043 0.0034534623947707599 0 -0.018146829579329941 0.0029796492748619882 0 -0.017902579064786043 0.0034534623947707599 0 -0.018467815887555774 0.0034079446173154713 0 -0.018638661199491993 0.0037345477269962982 0 -0.018467815887555774 0.0034079446173154713 0 -0.018131749702578231 0.0038584488541997418 0 -0.017902579064786043 0.0034534623947707599 0 -0.018467815887555774 0.0034079446173154713 0 -0.018131749702578231 0.0038584488541997418 0 -0.017333599200015766 0.0037628642778163484 0 -0.017902579064786043 0.0034534623947707599 0 -0.018131749702578231 0.0038584488541997418 0 -0.018131749702578231 0.0038584488541997418 0 -0.018456981426819695 0.0041718287873574881 0 -0.018095149908856162 0.0044279274527993994 0 -0.017333599200015766 0.0037628642778163484 0 -0.018131749702578231 0.0038584488541997418 0 -0.018095149908856162 0.0044279274527993994 0 -0.018638661199491993 0.0037345477269962982 0 -0.018131749702578231 0.0038584488541997418 0 -0.018456981426819695 0.0041718287873574881 0 -0.010374173404108889 0.00026762755374724884 0 -0.010514558395592481 0.00078930192715920961 0 -0.010478930007459005 5.5244137489212047e-05 0 -0.010374173404108889 0.00026762755374724884 0 -0.010514558395592481 0.00078930192715920961 0 -0.011229889693344111 0.0010905365473354459 0 -0.014057547161408831 0.002168633198898773 0 -0.016472929164775756 0.0037911736986482401 0 -0.018095149908856162 0.0044279274527993994 0 -0.01845237946240065 0.0046153620517330055 0 -0.018520140875686767 0.005210538838889789 0 -0.018456981426819695 0.0041718287873574881 0 -0.018095149908856162 0.0044279274527993994 0 -0.01845237946240065 0.0046153620517330055 0 -0.018891232569415755 0.0047784902362829115 0 -0.019380079237114885 0.0044990775612944473 0 -0.018959458705686133 0.0054226164424167785 0 -0.01845237946240065 0.0046153620517330055 0 -0.018637368766686271 0.0048230674856088781 0 -0.018520140875686767 0.005210538838889789 0 -0.018891232569415755 0.0047784902362829115 0 -0.018637368766686271 0.0048230674856088781 0 -0.018681158878764297 0.0050451027532094463 0 -0.018891232569415755 0.0047784902362829115 0 -0.018637368766686271 0.0048230674856088781 0 -0.018812109351155636 0.0044145612286866772 0 -0.018456981426819695 0.0041718287873574881 0 -0.01845237946240065 0.0046153620517330055 0 -0.018812109351155636 0.0044145612286866772 0 -0.01845237946240065 0.0046153620517330055 0 -0.018637368766686271 0.0048230674856088781 0 -0.018812109351155636 0.0044145612286866772 0 -0.018812109351155636 0.0044145612286866772 0 -0.019280880199697387 0.0041589177416021849 0 -0.019380079237114885 0.0044990775612944473 0 -0.018891232569415755 0.0047784902362829115 0 -0.018812109351155636 0.0044145612286866772 0 -0.019380079237114885 0.0044990775612944473 0 -0.018812109351155636 0.0044145612286866772 0 -0.018952026804661914 0.0039356375948863759 0 -0.019280880199697387 0.0041589177416021849 0 -0.018456981426819695 0.0041718287873574881 0 -0.018812109351155636 0.0044145612286866772 0 -0.018952026804661914 0.0039356375948863759 0 -0.018638661199491993 0.0037345477269962982 0 -0.018456981426819695 0.0041718287873574881 0 -0.018952026804661914 0.0039356375948863759 0 -0.018952026804661914 0.0039356375948863759 0 -0.01948529205775084 0.0037749350216691223 0 -0.019280880199697387 0.0041589177416021849 0 -0.01948529205775084 0.0037749350216691223 0 -0.019745677282708152 0.0041605082728099424 0 -0.020133567601856663 0.0036751107172309457 0 -0.019745677282708152 0.0041605082728099424 0 -0.019280880199697387 0.0041589177416021849 0 -0.019380079237114885 0.0044990775612944473 0 -0.01948529205775084 0.0037749350216691223 0 -0.019745677282708152 0.0041605082728099424 0 -0.019280880199697387 0.0041589177416021849 0 -0.020133567601856663 0.0036751107172309457 0 -0.020325605824243437 0.0042482098495401346 0 -0.020574341440893325 0.0038177830018061008 0 -0.019745677282708152 0.0041605082728099424 0 -0.020133567601856663 0.0036751107172309457 0 -0.020325605824243437 0.0042482098495401346 0 -0.020689960549668384 0.0033417721611811186 0 -0.020133567601856663 0.0036751107172309457 0 -0.020574341440893325 0.0038177830018061008 0 -0.020325605824243437 0.0042482098495401346 0 -0.019830173785801722 0.0045536678593762888 0 -0.020126040473925848 0.00487379053662804 0 -0.020325605824243437 0.0042482098495401346 0 -0.020126040473925848 0.00487379053662804 0 -0.02060094881198821 0.0044823852296555595 0 -0.019745677282708152 0.0041605082728099424 0 -0.020325605824243437 0.0042482098495401346 0 -0.019830173785801722 0.0045536678593762888 0 -0.019745677282708152 0.0041605082728099424 0 -0.019830173785801722 0.0045536678593762888 0 -0.019380079237114885 0.0044990775612944473 0 -0.019830173785801722 0.0045536678593762888 0 -0.019380079237114885 0.0044990775612944473 0 -0.0195779044961902 0.004952177520444293 0 -0.019380079237114885 0.0044990775612944473 0 -0.0195779044961902 0.004952177520444293 0 -0.019101342681117239 0.0050919030183342448 0 -0.019325997637472427 0.0044315340170231667 0 -0.019362578561968654 0.0056743812545916187 0 -0.0195779044961902 0.004952177520444293 0 -0.019329733114270605 0.0053869717853808957 0 -0.019716388797162011 0.0052803900201402118 0 -0.0195779044961902 0.004952177520444293 0 -0.019329733114270605 0.0053869717853808957 0 -0.019101342681117239 0.0050919030183342448 0 -0.019830173785801722 0.0045536678593762888 0 -0.0195779044961902 0.004952177520444293 0 -0.020126040473925848 0.00487379053662804 0 -0.0195779044961902 0.004952177520444293 0 -0.020126040473925848 0.00487379053662804 0 -0.019716388797162011 0.0052803900201402118 0 -0.020126040473925848 0.00487379053662804 0 -0.020265083369951316 0.0056215233033040275 0 -0.019716388797162011 0.0052803900201402118 0 -0.010846147681889472 -0.0027805402690950238 0 -0.010831460760422778 -0.0027290303766895419 0 -0.010878890368268621 -0.0025255835950272819 0 -0.0092157372912212467 -0.0030874017058655366 0 -0.012539953667592687 -0.00015570837769645463 0 -0.020265083369951316 0.0056215233033040275 0 -0.019716388797162011 0.0052803900201402118 0 -0.01938544311989502 0.0057674358560762468 0 -0.015977298848136874 0.0016703136819582562 0 -0.012539953667592687 -0.00015570837769645463 0 -0.019329733114270605 0.0053869717853808957 0 -0.019716388797162011 0.0052803900201402118 0 -0.01938544311989502 0.0057674358560762468 0 -0.019329733114270605 0.0053869717853808957 0 -0.01938544311989502 0.0057674358560762468 0 -0.01875032083731545 0.0057552333382411419 0 -0.019329733114270605 0.0053869717853808957 0 -0.01875032083731545 0.0057552333382411419 0 -0.019101342681117239 0.0050919030183342448 0 -0.012539953667592687 -0.00015570837769645463 0 -0.01261131093311149 0.0030070311951686502 0 -0.01261131093311149 0.0030070311951686502 0 -0.019362578561968654 0.0056743812545916187 0 -0.018199220501440093 0.0073923274296579296 0 -0.018959458705686133 0.0054226164424167785 0 -0.018207954624799752 0.0056311168820537445 0 -0.01261131093311149 0.0030070311951686502 0 -0.0099215713734729909 0.0040346406524088283 0 -0.018199220501440093 0.0073923274296579296 0 -0.016740500088751671 0.0062748259029391769 0 -0.018207954624799752 0.0056311168820537445 0 -0.018199220501440093 0.0073923274296579296 0 -0.016740500088751671 0.0062748259029391769 0 -0.015502343956673064 0.0074015740337333349 0 -0.013700735556665195 0.0040013502338054558 0 -0.0099215713734729909 0.0040346406524088283 0 -0.010648353564161722 0.0018517827729517575 0 -0.010514558395592481 0.00078930192715920961 0 -0.011229889693344111 0.0010905365473354459 0 -0.010648353564161722 0.0018517827729517575 0 -0.010514558395592481 0.00078930192715920961 0 -0.010114181907296835 0.0015210614105160007 0 -0.013700735556665195 0.0040013502338054558 0 -0.016472929164775756 0.0037911736986482401 0 -0.016740500088751671 0.0062748259029391769 0 -0.018207954624799752 0.0056311168820537445 0 -0.017978830991812821 0.0051914574855583201 0 -0.018637368766686271 0.0048230674856088781 0 -0.018681158878764297 0.0050451027532094463 0 -0.018520140875686767 0.005210538838889789 0 -0.017536564216882076 0.0041744045502209214 0 -0.016472929164775756 0.0037911736986482401 0 -0.018681158878764297 0.0050451027532094463 0 -0.018136472383675765 0.0053289488792311514 0 -0.018561401332010237 0.0053324861617480871 0 -0.018891232569415755 0.0047784902362829115 0 -0.018681158878764297 0.0050451027532094463 0 -0.018959458705686133 0.0054226164424167785 0 -0.018681158878764297 0.0050451027532094463 0 -0.018959458705686133 0.0054226164424167785 0 -0.018561401332010237 0.0053324861617480871 0 -0.018959458705686133 0.0054226164424167785 0 -0.018207954624799752 0.0056311168820537445 0 -0.018561401332010237 0.0053324861617480871 0 -0.017163427366013635 0.0048419532276956171 0 -0.016472929164775756 0.0037911736986482401 0 -0.018207954624799752 0.0056311168820537445 0 -0.018136472383675765 0.0053289488792311514 0 -0.018561401332010237 0.0053324861617480871 0 -0.019157220749919397 0.00042329205869931957 0 -0.018525731483502138 0.0004192722244934194 0 -0.018256583003152145 0.0002051058638994604 0 -0.018032796131481274 -9.6978644272228211e-05 0 -0.01793730489169823 0.00011296540669460621 0 -0.01975005808126485 0.0018768265448458497 0 -0.020311366126347288 0.0010098227539463403 0 -0.019105340306920921 0.0006782800011621643 0 -0.01975005808126485 0.0018768265448458497 0 -0.020755430442219603 0.0016826637224614063 0 -0.020311366126347288 0.0010098227539463403 0 -0.020755430442219603 0.0016826637224614063 0 -0.020311366126347288 0.0010098227539463403 0 -0.021323503874883493 0.0012723173598873574 0 -0.018256583003152145 0.0002051058638994604 0 -0.018492568158543936 9.6281508429567607e-05 0 -0.018690067610812169 0.00032263668774571932 0 -0.019157220749919397 0.00042329205869931957 0 -0.020465931529143441 0.0024110581016374864 0 -0.018256583003152145 0.0002051058638994604 0 -0.018492568158543936 9.6281508429567607e-05 0 -0.018349826699383062 -7.7446166364543388e-05 0 -0.018492568158543936 9.6281508429567607e-05 0 -0.018690067610812169 0.00032263668774571932 0 -0.018659746113305644 -2.4845025114899615e-05 0 -0.020465931529143441 0.0024110581016374864 0 -0.019989435764365585 0.0028615543387786441 0 -0.021126713060874696 0.0042068974549610318 0 -0.020900320870223348 0.0045183507302932486 0 -0.021099299822969604 0.0048299105415016046 0 -0.021126713060874696 0.0042068974549610318 0 -0.020932156359017601 0.0041718755696036631 0 -0.020900320870223348 0.0045183507302932486 0 -0.021271552613279645 0.003460318459507024 0 -0.021246045064907442 0.0042107962926673714 0 -0.020964028230745738 0.0038050908744768656 0 -0.021299956281245185 0.0028169214530621746 0 -0.020465931529143441 0.0024110581016374864 0 -0.021305390672189933 0.0020634418338553472 0 -0.020755430442219603 0.0016826637224614063 0 -0.021323503874883493 0.0012723173598873574 0 -0.020465931529143441 0.0024110581016374864 0 -0.021080485305403646 0.0031889538327134594 0 -0.020932156359017601 0.0041718755696036631 0 -0.020964028230745738 0.0038050908744768656 0 -0.020645366028802258 0.0041098881223860977 0 -0.021246045064907442 0.0042107962926673714 0 -0.020932156359017601 0.0041718755696036631 0 -0.020964028230745738 0.0038050908744768656 0 -0.020689960549668384 0.0033417721611811186 0 -0.020964028230745738 0.0038050908744768656 0 -0.020574341440893325 0.0038177830018061008 0 -0.020964028230745738 0.0038050908744768656 0 -0.020574341440893325 0.0038177830018061008 0 -0.020645366028802258 0.0041098881223860977 0 -0.020325605824243437 0.0042482098495401346 0 -0.020574341440893325 0.0038177830018061008 0 -0.020645366028802258 0.0041098881223860977 0 -0.020325605824243437 0.0042482098495401346 0 -0.020645366028802258 0.0041098881223860977 0 -0.02060094881198821 0.0044823852296555595 0 -0.020932156359017601 0.0041718755696036631 0 -0.020900320870223348 0.0045183507302932486 0 -0.02060094881198821 0.0044823852296555595 0 -0.020932156359017601 0.0041718755696036631 0 -0.020645366028802258 0.0041098881223860977 0 -0.02060094881198821 0.0044823852296555595 0 -0.020900320870223348 0.0045183507302932486 0 -0.02060094881198821 0.0044823852296555595 0 -0.020682922328103356 0.0049640552753128248 0 -0.020126040473925848 0.00487379053662804 0 -0.02060094881198821 0.0044823852296555595 0 -0.020682922328103356 0.0049640552753128248 0 -0.020126040473925848 0.00487379053662804 0 -0.020265083369951316 0.0056215233033040275 0 -0.020682922328103356 0.0049640552753128248 0 -0.020900320870223348 0.0045183507302932486 0 -0.020682922328103356 0.0049640552753128248 0 -0.021099299822969604 0.0048299105415016046 0 -0.0092157372912212467 -0.0030874017058655366 0 -0.011487362286618095 -0.0028028252173393506 0 -0.015977298848136874 0.0016703136819582562 0 -0.016698564445010118 -5.6404363984653301e-05 0 -0.010846147681889472 -0.0027805402690950238 0 -0.011487956807498763 -0.0032335558203527644 0 -0.011308598794399712 -0.0028060750765024505 0 -0.020265083369951316 0.0056215233033040275 0 -0.020682922328103356 0.0049640552753128248 0 -0.021089086911433769 0.005447663334046917 0 -0.010846147681889472 -0.0027805402690950238 0 -0.010831460760422778 -0.0027290303766895419 0 -0.011308598794399712 -0.0028060750765024505 0 -0.018492568158543936 9.6281508429567607e-05 0 -0.018659746113305644 -2.4845025114899615e-05 0 -0.018349826699383062 -7.7446166364543388e-05 0 -0.016698564445010118 -5.6404363984653301e-05 0 -0.019989435764365585 0.0028615543387786441 0 -0.018627096384241617 -0.00037761854552879003 0 -0.018659746113305644 -2.4845025114899615e-05 0 -0.018349826699383062 -7.7446166364543388e-05 0 -0.020682922328103356 0.0049640552753128248 0 -0.021089086911433769 0.005447663334046917 0 -0.021099299822969604 0.0048299105415016046 0 -0.016698564445010118 -5.6404363984653301e-05 0 -0.018870559707481291 -0.00044793840022834281 0 -0.018627096384241617 -0.00037761854552879003 0 -0.018349826699383062 -7.7446166364543388e-05 0 -0.018131135191649519 -0.00030905931510325939 0 -0.018190709701783641 -0.00040093530698718236 0 -0.018131135191649519 -0.00030905931510325939 0 -0.018097567884253769 -0.00049375099338693103 0 -0.018131135191649519 -0.00030905931510325939 0 -0.018032796131481274 -9.6978644272228211e-05 0 -0.017893336762863459 -0.00029867414183892398 0 -0.018256583003152145 0.0002051058638994604 0 -0.018349826699383062 -7.7446166364543388e-05 0 -0.018032796131481274 -9.6978644272228211e-05 0 -0.018349826699383062 -7.7446166364543388e-05 0 -0.018131135191649519 -0.00030905931510325939 0 -0.018032796131481274 -9.6978644272228211e-05 0 -0.018131135191649519 -0.00030905931510325939 0 -0.018097567884253769 -0.00049375099338693103 0 -0.017961231932729842 -0.00053565985702850043 0 -0.017995970651786646 -0.00063304185340575935 0 -0.018097567884253769 -0.00049375099338693103 0 -0.017961231932729842 -0.00053565985702850043 0 -0.017995970651786646 -0.00063304185340575935 0 -0.018097567884253769 -0.00049375099338693103 0 -0.018064549440473116 -0.00060659827710824875 0 -0.018097567884253769 -0.00049375099338693103 0 -0.018064549440473116 -0.00060659827710824875 0 -0.018150030460935156 -0.00053981623300719474 0 -0.014734947321828635 -0.001533806301393902 0 -0.015352589920737512 0.00018750564741463465 0 -0.018064549440473116 -0.00060659827710824875 0 -0.018150030460935156 -0.00053981623300719474 0 -0.018062316981642294 -0.00066173366463126676 0 -0.011712270357342826 -0.0017327069595647253 0 -0.010818226307995784 -0.0008554233312594461 0 -0.011844491752965022 0.00044991285645188761 0 -0.011712270357342826 -0.0017327069595647253 0 -0.010932568516356328 -0.0020130048682723933 0 -0.010818226307995784 -0.0008554233312594461 0 -0.018190709701783641 -0.00040093530698718236 0 -0.018097567884253769 -0.00049375099338693103 0 -0.018150030460935156 -0.00053981623300719474 0 -0.011487956807498763 -0.0032335558203527644 0 -0.011308598794399712 -0.0028060750765024505 0 -0.011712270357342826 -0.0017327069595647253 0 -0.016698564445010118 -5.6404363984653301e-05 0 -0.014734947321828635 -0.001533806301393902 0 -0.011308598794399712 -0.0028060750765024505 0 -0.011712270357342826 -0.0017327069595647253 0 -0.010932568516356328 -0.0020130048682723933 0 -0.010932568516356328 -0.0020130048682723933 0 -0.010282079770054965 -0.0024366985207533174 0 -0.010168971641879174 -0.0018193130069948217 0 -0.0091349444356690849 -0.0030902997619827607 0 -0.011308598794399712 -0.0028060750765024505 0 -0.010282079770054965 -0.0024366985207533174 0 -0.010932568516356328 -0.0020130048682723933 0 -0.010168971641879174 -0.0018193130069948217 0 -0.010818226307995784 -0.0008554233312594461 0 -0.011308598794399712 -0.0028060750765024505 0 -0.010932568516356328 -0.0020130048682723933 0 -0.010282079770054965 -0.0024366985207533174 0 -0.0091349444356690849 -0.0030902997619827607 0 -0.010282079770054965 -0.0024366985207533174 0 -0.0096491427756130923 -0.0023621342153134911 0 -0.0096491427756130923 -0.0023621342153134911 0 -0.010168971641879174 -0.0018193130069948217 0 -0.0089445882803852756 -0.0018557280326482949 0 -0.010282079770054965 -0.0024366985207533174 0 -0.0096491427756130923 -0.0023621342153134911 0 -0.010168971641879174 -0.0018193130069948217 0 -0.010168971641879174 -0.0018193130069948217 0 -0.0095690591774103655 -0.00023165264914350216 0 -0.0089445882803852756 -0.0018557280326482949 0 -0.010168971641879174 -0.0018193130069948217 0 -0.0095690591774103655 -0.00023165264914350216 0 -0.010818226307995784 -0.0008554233312594461 0 -0.0095690591774103655 -0.00023165264914350216 0 -0.010818226307995784 -0.0008554233312594461 0 -0.011844491752965022 0.00044991285645188761 0 -0.0095690591774103655 -0.00023165264914350216 0 -0.011844491752965022 0.00044991285645188761 0 -0.0091621103418532707 0.0020978774664354633 0 -0.0073754456259499529 -0.0026013982678361153 0 -0.0030371813558158923 -0.0034523206000930898 0 -0.0029307484685573357 -0.0014256451734944778 0 -0.01002228324383694 3.9641335817996026e-05 0 -0.0059482521585289749 -0.00067330084096451032 0 -0.011935253655165659 0.0025821981720965379 0 -0.011844491752965022 0.00044991285645188761 0 -0.0091621103418532707 0.0020978774664354633 0 -0.01002228324383694 3.9641335817996026e-05 0 -0.015352589920737512 0.00018750564741463465 0 -0.018064549440473116 -0.00060659827710824875 0 -0.018062316981642294 -0.00066173366463126676 0 -0.017983057015926555 -0.00069725527897285082 0 -0.017995970651786646 -0.00063304185340575935 0 -0.018064549440473116 -0.00060659827710824875 0 -0.017983057015926555 -0.00069725527897285082 0 -0.017971327657781967 -0.00073636983424288859 0 -0.018062316981642294 -0.00066173366463126676 0 -0.017983057015926555 -0.00069725527897285082 0 -0.017971327657781967 -0.00073636983424288859 0 -0.017983057015926555 -0.00069725527897285082 0 -0.017902057855129754 -0.00074989195800375253 0 -0.01002228324383694 3.9641335817996026e-05 0 -0.011558029681402144 -0.0015419616291879618 0 -0.017983057015926555 -0.00069725527897285082 0 -0.017937288314205064 -0.00071314229552777418 0 -0.017902057855129754 -0.00074989195800375253 0 -0.017995970651786646 -0.00063304185340575935 0 -0.017983057015926555 -0.00069725527897285082 0 -0.017937288314205064 -0.00071314229552777418 0 -0.017995970651786646 -0.00063304185340575935 0 -0.017937288314205064 -0.00071314229552777418 0 -0.017931924842756696 -0.00067359281036057247 0 -0.0041987863496408678 -0.00089264788027780724 0 -0.0062338782773179802 -0.0016724187719654394 0 -0.0055883555639876497 9.8739627320372587e-05 0 0.0050268901759776257 -0.0017512819332485424 0 0.0058366586327353916 -0.0011210603397475516 0 0.0059175249074455653 -0.0018336433383094105 0 0.0050268901759776257 -0.0017512819332485424 0 0.0059175249074455653 -0.0018336433383094105 0 0.0058025440032130867 -0.0023707766749135862 0 0.0050268901759776257 -0.0017512819332485424 0 0.0054501078065711207 -0.0028756339126175083 0 0.0058025440032130867 -0.0023707766749135862 0 0.00072797298148211944 -0.0013928577710868285 0 -0.006242900877627796 -0.00053550041732666547 0 0.0050268901759776257 -0.0017512819332485424 0 0.0054501078065711207 -0.0028756339126175083 0 0.0043809158999810922 -0.0030383642630023473 0 -0.0088981205457310079 0.0011848496328599068 0 -0.0060626154702992088 0.0021293507419437503 0 -0.0086891234419311757 0.0017095222093290968 0 -0.0088981205457310079 0.0011848496328599068 0 -0.0060626154702992088 0.0021293507419437503 0 -0.0045425272941769868 0.0011717811335054326 0 0.00058403658959352582 -0.0001627854315820317 0 -0.006242900877627796 -0.00053550041732666547 0 -0.012539953667592687 -0.00015570837769645463 0 -0.006242900877627796 -0.00053550041732666547 0 -0.0069107826727751558 -0.0031457049209091359 0 -0.0062338782773179802 -0.0016724187719654394 0 -0.0050206012811280397 -0.0028597625712984795 0 -0.0041987863496408678 -0.00089264788027780724 0 -0.0062338782773179802 -0.0016724187719654394 0 -0.0050206012811280397 -0.0028597625712984795 0 -0.012571295307740517 -0.00024952991164614357 0 -0.0091811795383325515 -0.00025255339775538373 0 -0.0089494474787361472 0.00033877676752126968 0 -0.01261131093311149 0.0030070311951686502 0 -0.006242900877627796 -0.00053550041732666547 0 -0.0069107826727751558 -0.0031457049209091359 0 -0.0062338782773179802 -0.0016724187719654394 0 -0.0078284514773777313 -0.0021513851615093944 0 -0.0062338782773179802 -0.0016724187719654394 0 -0.0078284514773777313 -0.0021513851615093944 0 -0.0079067365858175899 -0.00099496716001595494 0 -0.0091349444356690849 -0.0030902997619827607 0 -0.0069107826727751558 -0.0031457049209091359 0 -0.0078284514773777313 -0.0021513851615093944 0 -0.0091349444356690849 -0.0030902997619827607 0 -0.0096491427756130923 -0.0023621342153134911 0 -0.0089445882803852756 -0.0018557280326482949 0 -0.0091349444356690849 -0.0030902997619827607 0 -0.0078284514773777313 -0.0021513851615093944 0 -0.0089445882803852756 -0.0018557280326482949 0 -0.0078284514773777313 -0.0021513851615093944 0 -0.0089445882803852756 -0.0018557280326482949 0 -0.0079067365858175899 -0.00099496716001595494 0 -0.0095690591774103655 -0.00023165264914350216 0 -0.0079067365858175899 -0.00099496716001595494 0 -0.007933637256480653 0.00067992356339414571 0 -0.0095690591774103655 -0.00023165264914350216 0 -0.0089445882803852756 -0.0018557280326482949 0 -0.0079067365858175899 -0.00099496716001595494 0 -0.0062338782773179802 -0.0016724187719654394 0 -0.0079067365858175899 -0.00099496716001595494 0 -0.0055883555639876497 9.8739627320372587e-05 0 -0.0079067365858175899 -0.00099496716001595494 0 -0.007933637256480653 0.00067992356339414571 0 -0.0055883555639876497 9.8739627320372587e-05 0 -0.007933637256480653 0.00067992356339414571 0 -0.0062985275423099148 0.0016219288915424487 0 -0.0055883555639876497 9.8739627320372587e-05 0 -0.007933637256480653 0.00067992356339414571 0 -0.0091621103418532707 0.0020978774664354633 0 -0.0062985275423099148 0.0016219288915424487 0 -0.0095690591774103655 -0.00023165264914350216 0 -0.007933637256480653 0.00067992356339414571 0 -0.0091621103418532707 0.0020978774664354633 0 -0.0030371813558158923 -0.0034523206000930898 0 -0.00075452997587029732 -0.0026853624510173061 0 -0.0029307484685573357 -0.0014256451734944778 0 0.0013384356112697584 -0.0043080703152248937 0 -0.00075452997587029732 -0.0026853624510173061 0 0.0016053024451182204 -0.0015564980807093942 0 -0.0059482521585289749 -0.00067330084096451032 0 -0.0027930126676835305 -0.0014931775692531553 0 -0.0030371813558158923 -0.0034523206000930898 0 0.0013384356112697584 -0.0043080703152248937 0 -0.00075452997587029732 -0.0026853624510173061 0 0.0013384356112697584 -0.0043080703152248937 0 0.0037908765278841512 -0.0031658188252480833 0 0.0016053024451182204 -0.0015564980807093942 0 0.0013384356112697584 -0.0043080703152248937 0 0.0055634141829882201 -0.0050222451389987498 0 0.0037908765278841512 -0.0031658188252480833 0 -0.0027930126676835305 -0.0014931775692531553 0 0.0024880074852696339 -0.00071349448898704764 0 -0.0062985275423099148 0.0016219288915424487 0 -0.0055883555639876497 9.8739627320372587e-05 0 -0.0033673873250455949 0.0010961352000724844 0 0.0050268901759776257 -0.0017512819332485424 0 0.005713793772542922 -0.00060324918267109031 0 0.0058366586327353916 -0.0011210603397475516 0 0.00072797298148211944 -0.0013928577710868285 0 0.0024880074852696339 -0.00071349448898704764 0 -0.0041987863496408678 -0.00089264788027780724 0 -0.0055883555639876497 9.8739627320372587e-05 0 -0.0033673873250455949 0.0010961352000724844 0 0.005713793772542922 -0.00060324918267109031 0 0.0058194612321283458 -0.00062339651283180948 0 0.0058366586327353916 -0.0011210603397475516 0 0.0024880074852696339 -0.00071349448898704764 0 0.0027795466127543958 -0.00075143061989540484 0 0.0055634141829882201 -0.0050222451389987498 0 0.0055207388063140605 -0.0031786342891886774 0 0.0066980205477997204 -0.0019018581986315073 0 0.0055634141829882201 -0.0050222451389987498 0 0.0037908765278841512 -0.0031658188252480833 0 0.0055207388063140605 -0.0031786342891886774 0 0.0037908765278841512 -0.0031658188252480833 0 0.0055207388063140605 -0.0031786342891886774 0 0.0060240409533394634 -0.0018502249126176652 0 0.0055207388063140605 -0.0031786342891886774 0 0.0066980205477997204 -0.0019018581986315073 0 0.0060240409533394634 -0.0018502249126176652 0 0.005729911673571903 -0.00060391682919189215 0 0.0058194612321283458 -0.00062339651283180948 0 0.0067676211174090969 0.00039255666417248758 0 0.005729911673571903 -0.00060391682919189215 0 0.0067676211174090969 0.00039255666417248758 0 0.0066879349654393131 0.00050787642530959471 0 0.0024880074852696339 -0.00071349448898704764 0 0.0069399666537729937 -0.0010720078285830542 0 0.0064767220924770962 0.00054943541941685273 0 0.0075340140528629088 -0.00066930009124660744 0 0.0067676211174090969 0.00039255666417248758 0 0.0067579013416161531 0.00041561547066713291 0 0.0066866441822215463 0.00043471582646472962 0 0.0058194612321283458 -0.00062339651283180948 0 0.0067676211174090969 0.00039255666417248758 0 0.0061014343947231875 -0.00082374703265210595 0 0.0067676211174090969 0.00039255666417248758 0 0.0067907550988465827 0.00041126210526228367 0 0.0067579013416161531 0.00041561547066713291 0 0.0068198828674879749 0.00043498312615912368 0 0.0067866298017469654 0.00044127005333213971 0 0.0068300825562026971 0.0004446600400791996 0 0.0068198828674879749 0.00043498312615912368 0 0.0068107417124704693 0.00042454549495795014 0 0.0067866298017469654 0.00044127005333213971 0 0.0067907550988465827 0.00041126210526228367 0 0.0068107417124704693 0.00042454549495795014 0 0.0068198174821225794 0.00041782459955008131 0 0.0067907550988465827 0.00041126210526228367 0 0.0067579013416161531 0.00041561547066713291 0 0.0068107417124704693 0.00042454549495795014 0 0.0068107417124704693 0.00042454549495795014 0 0.0067524199814347355 0.00043291385785219357 0 0.0067866298017469654 0.00044127005333213971 0 0.0067579013416161531 0.00041561547066713291 0 0.0068107417124704693 0.00042454549495795014 0 0.0067524199814347355 0.00043291385785219357 0 0.0067524199814347355 0.00043291385785219357 0 0.0067866298017469654 0.00044127005333213971 0 0.0067476933571490889 0.00044996187863823029 0 0.0067866298017469654 0.00044127005333213971 0 0.0067476933571490889 0.00044996187863823029 0 0.006746908151291098 0.00045840875252443252 0 0.0067524199814347355 0.00043291385785219357 0 0.0067231366045394092 0.00045022503890941069 0 0.0066866441822215463 0.00043471582646472962 0 0.0067231366045394092 0.00045022503890941069 0 0.0066866441822215463 0.00043471582646472962 0 0.0066497419390464142 0.00038077257423587449 0 0.0067476933571490889 0.00044996187863823029 0 0.0067231366045394092 0.00045022503890941069 0 0.0067181431303300985 0.00047054492053165398 0 0.0067524199814347355 0.00043291385785219357 0 0.0067476933571490889 0.00044996187863823029 0 0.0067231366045394092 0.00045022503890941069 0 0.0067231366045394092 0.00045022503890941069 0 0.0067374185802485933 0.00041468664055083454 0 0.0067181431303300985 0.00047054492053165398 0 0.0067579013416161531 0.00041561547066713291 0 0.0067524199814347355 0.00043291385785219357 0 0.0066866441822215463 0.00043471582646472962 0 0.0067676211174090969 0.00039255666417248758 0 0.0064227850974496094 -0.0010263500137465845 0 0.0061014343947231875 -0.00082374703265210595 0 0.0064227850974496094 -0.0010263500137465845 0 0.0061014343947231875 -0.00082374703265210595 0 0.0058366586327353916 -0.0011210603397475516 0 0.0058194612321283458 -0.00062339651283180948 0 0.0061014343947231875 -0.00082374703265210595 0 0.0058366586327353916 -0.0011210603397475516 0 0.0064227850974496094 -0.0010263500137465845 0 0.0058366586327353916 -0.0011210603397475516 0 0.0059175249074455653 -0.0018336433383094105 0 0.0075340140528629088 -0.00066930009124660744 0 -0.00086445408292076494 0.00025257089039695916 0 0.0064227850974496094 -0.0010263500137465845 0 0.0059175249074455653 -0.0018336433383094105 0 0.006398383331085061 -0.0026880171962183038 0 0.0066866441822215463 0.00043471582646472962 0 0.0066497419390464142 0.00038077257423587449 0 0.0065462365662256284 0.00029582538332698099 0 -0.0024948777364482044 0.00086191362675979517 0 0.00013471243009527642 0.00045325682687388281 0 0.0066497419390464142 0.00038077257423587449 0 0.0065667309117641848 0.00029464323595992665 0 0.0067374185802485933 0.00041468664055083454 0 0.0067231366045394092 0.00045022503890941069 0 0.0066497419390464142 0.00038077257423587449 0 0.0067374185802485933 0.00041468664055083454 0 -0.0076462338422069401 0.0002398692331923972 0 -0.0073758918471607589 0.00011714207297699174 0 -0.0069937338384578468 0.00053295309553927567 0 -0.0076462338422069401 0.0002398692331923972 0 -0.00780497875522444 0.00024949974927985569 0 -0.0069937338384578468 0.00053295309553927567 0 -0.005316249478948723 0.00044979023629910603 0 -0.0024948777364482044 0.00086191362675979517 0 -0.0076462338422069401 0.0002398692331923972 0 -0.0073758918471607589 0.00011714207297699174 0 -0.0077415462487268544 0.00013523363213808597 0 -0.0076462338422069401 0.0002398692331923972 0 -0.0077415462487268544 0.00013523363213808597 0 -0.007728683088285301 0.00021751049393487398 0 -0.0034437405028462519 0.0025449196220262262 0 -0.0034306203642080657 0.0022375224789163333 0 -0.0045425272941769868 0.0011717811335054326 0 -0.0077415462487268544 0.00013523363213808597 0 -0.0077555262517078035 0.00018732903878093359 0 -0.007728683088285301 0.00021751049393487398 0 -0.0036913152031028055 0.0013123166919236345 0 -0.0024948777364482044 0.00086191362675979517 0 -0.0040576732321064716 0.0021978891868365425 0 -0.0039916827918157552 0.00088770357244031823 0 -0.002369493654498323 0.0024679948281475144 0 -0.00086445408292076494 0.00025257089039695916 0 -0.0024948777364482044 0.00086191362675979517 0 -0.00086445408292076494 0.00025257089039695916 0 -0.0036913152031028055 0.0013123166919236345 0 -0.0094993401158286594 0.0029532832522010692 0 -0.0096824006492675554 0.00257747279776098 0 -0.0098976235998649974 0.002579388884022087 0 -0.0036913152031028055 0.0013123166919236345 0 -0.0099215713734729909 0.0040346406524088283 0 0.00058403658959352582 -0.0001627854315820317 0 -0.00086445408292076494 0.00025257089039695916 0 -0.0060626154702992088 0.0021293507419437503 0 -0.0034437405028462519 0.0025449196220262262 0 -0.0045425272941769868 0.0011717811335054326 0 0.0054501078065711207 -0.0028756339126175083 0 0.006398383331085061 -0.0026880171962183038 0 0.0058025440032130867 -0.0023707766749135862 0 0.0059175249074455653 -0.0018336433383094105 0 0.006398383331085061 -0.0026880171962183038 0 0.0058025440032130867 -0.0023707766749135862 0 0.0066497419390464142 0.00038077257423587449 0 0.0065462365662256284 0.00029582538332698099 0 0.0065667309117641848 0.00029464323595992665 0 -0.0062596830808586837 6.0800695749301129e-05 0 -0.006884121485421133 5.6452758670256061e-05 0 -0.0064960250995017227 0.00024601511647532313 0 -0.0062596830808586837 6.0800695749301129e-05 0 -0.006884121485421133 5.6452758670256061e-05 0 -0.0068372313933438861 -4.816062053911731e-05 0 -0.0073758918471607589 0.00011714207297699174 0 -0.006884121485421133 5.6452758670256061e-05 0 -0.0064960250995017227 0.00024601511647532313 0 -0.0073758918471607589 0.00011714207297699174 0 -0.0064960250995017227 0.00024601511647532313 0 -0.0069937338384578468 0.00053295309553927567 0 -0.0064960250995017227 0.00024601511647532313 0 -0.0069937338384578468 0.00053295309553927567 0 -0.0057678943604735147 0.00077195868400033076 0 -0.0062596830808586837 6.0800695749301129e-05 0 -0.0064960250995017227 0.00024601511647532313 0 -0.0054586571433014458 0.00017091920218156921 0 -0.0064960250995017227 0.00024601511647532313 0 -0.0057678943604735147 0.00077195868400033076 0 -0.0054586571433014458 0.00017091920218156921 0 0.0067374185802485933 0.00041468664055083454 0 0.0065142002868793002 0.00058447542779674724 0 0.0065901194989329889 0.00052762853579424874 0 0.00013471243009527642 0.00045325682687388281 0 0.00028113687103982292 0.00062168409007680578 0 0.0067374185802485933 0.00041468664055083454 0 0.0065901194989329889 0.00052762853579424874 0 0.0067181431303300985 0.00047054492053165398 0 0.0065901194989329889 0.00052762853579424874 0 0.0067181431303300985 0.00047054492053165398 0 0.006717423227379231 0.00047132387896000645 0 0.0067181431303300985 0.00047054492053165398 0 0.006746908151291098 0.00045840875252443252 0 0.006717423227379231 0.00047132387896000645 0 0.0067476933571490889 0.00044996187863823029 0 0.0067181431303300985 0.00047054492053165398 0 0.006746908151291098 0.00045840875252443252 0 0.0067866298017469654 0.00044127005333213971 0 0.006746908151291098 0.00045840875252443252 0 0.0067763946268326073 0.0004579998833794797 0 0.006746908151291098 0.00045840875252443252 0 0.006717423227379231 0.00047132387896000645 0 0.0067763946268326073 0.0004579998833794797 0 0.0065901194989329889 0.00052762853579424874 0 0.0067542211890658154 0.00047849851446380174 0 0.006717423227379231 0.00047132387896000645 0 0.0067542211890658154 0.00047849851446380174 0 0.006717423227379231 0.00047132387896000645 0 0.0067763946268326073 0.0004579998833794797 0 0.0067542211890658154 0.00047849851446380174 0 0.0068258640809723851 0.00046961715865518786 0 0.0068315808295636871 0.00049206021629585438 0 0.0067542211890658154 0.00047849851446380174 0 0.0067763946268326073 0.0004579998833794797 0 0.0068258640809723851 0.00046961715865518786 0 0.0067866298017469654 0.00044127005333213971 0 0.0067763946268326073 0.0004579998833794797 0 0.0068300825562026971 0.0004446600400791996 0 0.0067763946268326073 0.0004579998833794797 0 0.0068300825562026971 0.0004446600400791996 0 0.0068258640809723851 0.00046961715865518786 0 0.0065142002868793002 0.00058447542779674724 0 0.0062082405799094367 0.00081831030737456627 0 0.0060504626499078952 0.00090867082717988588 0 0.0065968312174422093 0.00058443400757473424 0 0.0065408686807166506 0.00067440933618951552 0 0.00028113687103982292 0.00062168409007680578 0 0.00093597309635060359 0.00086455751327197913 0 0.0065901194989329889 0.00052762853579424874 0 0.0067542211890658154 0.00047849851446380174 0 0.0068624761682282336 0.00048757824474726126 0 0.0065142002868793002 0.00058447542779674724 0 0.0065901194989329889 0.00052762853579424874 0 0.0062082405799094367 0.00081831030737456627 0 0.0067542211890658154 0.00047849851446380174 0 0.0068624761682282336 0.00048757824474726126 0 0.0068315808295636871 0.00049206021629585438 0 -0.0057678943604735147 0.00077195868400033076 0 -0.0041193627744818759 0.00096718983363930605 0 -0.004476265401358915 0.00036018324547612156 0 -0.0041193627744818759 0.00096718983363930605 0 -0.004476265401358915 0.00036018324547612156 0 -0.0024952486667083862 0.00017201326795819748 0 -0.004476265401358915 0.00036018324547612156 0 -0.0024952486667083862 0.00017201326795819748 0 -0.0045456220877613147 8.906150140722367e-06 0 -0.0057678943604735147 0.00077195868400033076 0 -0.004476265401358915 0.00036018324547612156 0 -0.0054586571433014458 0.00017091920218156921 0 -0.00017451802928669007 2.4587438822092255e-07 0 -0.0024952486667083862 0.00017201326795819748 0 -0.0021389984214414755 -1.6409043895418874e-07 0 -0.00017451802928669007 2.4587438822092255e-07 0 -0.0024952486667083862 0.00017201326795819748 0 -0.00043560996108403863 0.00033088090441103335 0 -0.0024952486667083862 0.00017201326795819748 0 -0.003562236803536943 -3.9103116990963475e-05 0 -0.0045456220877613147 8.906150140722367e-06 0 -0.0024952486667083862 0.00017201326795819748 0 -0.0021389984214414755 -1.6409043895418874e-07 0 -0.003562236803536943 -3.9103116990963475e-05 0 -0.0021389984214414755 -1.6409043895418874e-07 0 -0.003562236803536943 -3.9103116990963475e-05 0 -0.0041037555964897211 -1.3914661566102732e-07 0 -0.003562236803536943 -3.9103116990963475e-05 0 -0.0049226877178754321 -0.00013027841462177433 0 -0.0045456220877613147 8.906150140722367e-06 0 -0.003562236803536943 -3.9103116990963475e-05 0 -0.0049226877178754321 -0.00013027841462177433 0 -0.0041037555964897211 -1.3914661566102732e-07 0 -0.004476265401358915 0.00036018324547612156 0 -0.0054586571433014458 0.00017091920218156921 0 -0.0045456220877613147 8.906150140722367e-06 0 -0.0049226877178754321 -0.00013027841462177433 0 -0.0045456220877613147 8.906150140722367e-06 0 -0.0058992189564092464 -0.00010589921458790751 0 -0.0062596830808586837 6.0800695749301129e-05 0 -0.0054586571433014458 0.00017091920218156921 0 -0.0058992189564092464 -0.00010589921458790751 0 -0.0062596830808586837 6.0800695749301129e-05 0 -0.0058992189564092464 -0.00010589921458790751 0 -0.0068372313933438861 -4.816062053911731e-05 0 -0.0054586571433014458 0.00017091920218156921 0 -0.0045456220877613147 8.906150140722367e-06 0 -0.0058992189564092464 -0.00010589921458790751 0 -0.0058992189564092464 -0.00010589921458790751 0 -0.006786747463078115 -0.0001212229930724618 0 -0.0068372313933438861 -4.816062053911731e-05 0 -0.0058992189564092464 -0.00010589921458790751 0 -0.006786747463078115 -0.0001212229930724618 0 -0.0068632771279008931 -0.00013970235274208946 0 -0.0049226877178754321 -0.00013027841462177433 0 -0.0058992189564092464 -0.00010589921458790751 0 -0.0060576979643828348 -0.00012733398622049785 0 -0.0068632771279008931 -0.00013970235274208946 0 -0.0060576979643828348 -0.00012733398622049785 0 -0.0070217468056360133 -9.5894995637850404e-05 0 -0.0058992189564092464 -0.00010589921458790751 0 -0.0068632771279008931 -0.00013970235274208946 0 -0.0060576979643828348 -0.00012733398622049785 0 -0.006786747463078115 -0.0001212229930724618 0 -0.0068632771279008931 -0.00013970235274208946 0 -0.0075246673641192387 -0.00014513821517999975 0 -0.0049226877178754321 -0.00013027841462177433 0 -0.0041037555964897211 -1.3914661566102732e-07 0 -0.0060693848812735478 -5.6257958589428444e-07 0 -0.0049226877178754321 -0.00013027841462177433 0 -0.0060576979643828348 -0.00012733398622049785 0 -0.0060693848812735478 -5.6257958589428444e-07 0 -0.0060576979643828348 -0.00012733398622049785 0 -0.0060693848812735478 -5.6257958589428444e-07 0 -0.0070217468056360133 -9.5894995637850404e-05 0 -0.0060693848812735478 -5.6257958589428444e-07 0 -0.0070217468056360133 -9.5894995637850404e-05 0 -0.008029989670816343 2.5029493396575589e-07 0 -0.0075360591676633688 0.00012240750431324006 0 -0.0070217468056360133 -9.5894995637850404e-05 0 -0.0077624807889127576 3.7518709927286766e-05 0 -0.0075360591676633688 0.00012240750431324006 0 -0.0070217468056360133 -9.5894995637850404e-05 0 -0.008029989670816343 2.5029493396575589e-07 0 -0.0087059177503249624 1.7266716536811429e-05 0 -0.0080339031793056244 -3.4569497394828745e-08 0 -0.0068632771279008931 -0.00013970235274208946 0 -0.0075246673641192387 -0.00014513821517999975 0 -0.0076352743518393667 -6.0369716657447129e-05 0 -0.0075246673641192387 -0.00014513821517999975 0 -0.0076352743518393667 -6.0369716657447129e-05 0 -0.0082906712985683362 -0.00011475136927896439 0 -0.0068632771279008931 -0.00013970235274208946 0 -0.0070217468056360133 -9.5894995637850404e-05 0 -0.0076352743518393667 -6.0369716657447129e-05 0 -0.0085596348167331481 3.1891896368647178e-05 0 -0.0077624807889127576 3.7518709927286766e-05 0 -0.0076352743518393667 -6.0369716657447129e-05 0 -0.0070217468056360133 -9.5894995637850404e-05 0 -0.0077624807889127576 3.7518709927286766e-05 0 -0.0076352743518393667 -6.0369716657447129e-05 0 -0.0085596348167331481 3.1891896368647178e-05 0 -0.0076352743518393667 -6.0369716657447129e-05 0 -0.0082906712985683362 -0.00011475136927896439 0 -0.0082906712985683362 -0.00011475136927896439 0 -0.0087140454550734339 -0.00020760513886082383 0 -0.0080944219906446766 -0.00018821328152726616 0 -0.0092790609897706322 6.2296486382705637e-05 0 -0.0082906712985683362 -0.00011475136927896439 0 -0.0087140454550734339 -0.00020760513886082383 0 -0.0075246673641192387 -0.00014513821517999975 0 -0.0082906712985683362 -0.00011475136927896439 0 -0.0080944219906446766 -0.00018821328152726616 0 -0.0075246673641192387 -0.00014513821517999975 0 -0.0080944219906446766 -0.00018821328152726616 0 -0.0074985789713729652 -0.00010200252348707958 0 -0.0080944219906446766 -0.00018821328152726616 0 -0.0074985789713729652 -0.00010200252348707958 0 -0.0080768736168785483 -6.1611046714277334e-05 0 -0.0080944219906446766 -0.00018821328152726616 0 -0.0085128837770669617 -0.00028566656197138052 0 -0.0080768736168785483 -6.1611046714277334e-05 0 -0.0087140454550734339 -0.00020760513886082383 0 -0.0080944219906446766 -0.00018821328152726616 0 -0.0085128837770669617 -0.00028566656197138052 0 -0.0088524946478879991 -0.00029398384298915623 0 -0.0087140454550734339 -0.00020760513886082383 0 -0.0085128837770669617 -0.00028566656197138052 0 -0.0088524946478879991 -0.00029398384298915623 0 -0.0086950587886051017 -0.0006017777809569179 0 -0.0085128837770669617 -0.00028566656197138052 0 -0.0086950587886051017 -0.0006017777809569179 0 -0.0085128837770669617 -0.00028566656197138052 0 -0.0088754331654426026 -0.00019728312612135671 0 -0.013233666372188115 0.0027302111834489502 0 -0.010374173404108889 0.00026762755374724884 0 -0.0137957784439537 0.0020191175257296824 0 -0.011253270363644825 0.00080532460242875126 0 -0.010633148345368939 0.00017573684381034306 0 -0.015248053043142282 0.0031244652305940407 0 -0.014057547161408831 0.002168633198898773 0 -0.010374173404108889 0.00026762755374724884 0 -0.0137957784439537 0.0020191175257296824 0 -0.010478930007459005 5.5244137489212047e-05 0 -0.0086950587886051017 -0.0006017777809569179 0 -0.010478930007459005 5.5244137489212047e-05 0 -0.0088754331654426026 -0.00019728312612135671 0 -0.010478930007459005 5.5244137489212047e-05 0 -0.0090823043985432412 0.00014991411393527383 0 -0.0088754331654426026 -0.00019728312612135671 0 -0.010478930007459005 5.5244137489212047e-05 0 -0.0090823043985432412 0.00014991411393527383 0 -0.0099289751569007195 0.00085628861821955072 0 -0.010514558395592481 0.00078930192715920961 0 -0.010478930007459005 5.5244137489212047e-05 0 -0.0099289751569007195 0.00085628861821955072 0 -0.0085128837770669617 -0.00028566656197138052 0 -0.0085380052900619133 -5.6597617262687246e-05 0 -0.0080768736168785483 -6.1611046714277334e-05 0 -0.0085128837770669617 -0.00028566656197138052 0 -0.0088754331654426026 -0.00019728312612135671 0 -0.0085380052900619133 -5.6597617262687246e-05 0 -0.0090823043985432412 0.00014991411393527383 0 -0.0088754331654426026 -0.00019728312612135671 0 -0.0085380052900619133 -5.6597617262687246e-05 0 -0.0090823043985432412 0.00014991411393527383 0 -0.0085380052900619133 -5.6597617262687246e-05 0 -0.0083415031995784893 7.4610828522530482e-05 0 -0.0085380052900619133 -5.6597617262687246e-05 0 -0.0083415031995784893 7.4610828522530482e-05 0 -0.0080768736168785483 -6.1611046714277334e-05 0 -0.0083415031995784893 7.4610828522530482e-05 0 -0.0079288545799783353 3.3028819173069787e-05 0 -0.0080768736168785483 -6.1611046714277334e-05 0 -0.0090823043985432412 0.00014991411393527383 0 -0.0083415031995784893 7.4610828522530482e-05 0 -0.0080562858500761014 5.9459788333787993e-05 0 -0.0083415031995784893 7.4610828522530482e-05 0 -0.0079288545799783353 3.3028819173069787e-05 0 -0.0080562858500761014 5.9459788333787993e-05 0 -0.0090823043985432412 0.00014991411393527383 0 -0.0099289751569007195 0.00085628861821955072 0 -0.0094556376841489122 0.0016301326335120723 0 -0.0089393065124892604 8.1468231200982648e-05 0 -0.0091343814784454729 0.00087721765540052824 0 -0.010514558395592481 0.00078930192715920961 0 -0.0099289751569007195 0.00085628861821955072 0 -0.010114181907296835 0.0015210614105160007 0 -0.0099289751569007195 0.00085628861821955072 0 -0.0094556376841489122 0.0016301326335120723 0 -0.010114181907296835 0.0015210614105160007 0 -0.010648353564161722 0.0018517827729517575 0 -0.010114181907296835 0.0015210614105160007 0 -0.0099121699851823335 0.0025775609245965716 0 -0.0094993401158286594 0.0029532832522010692 0 -0.0094556376841489122 0.0016301326335120723 0 -0.0096824006492675554 0.00257747279776098 0 -0.0077415462487268544 0.00013523363213808597 0 -0.0077555262517078035 0.00018732903878093359 0 -0.0080562858500761014 5.9459788333787993e-05 0 -0.0094556376841489122 0.0016301326335120723 0 -0.010114181907296835 0.0015210614105160007 0 -0.0099121699851823335 0.0025775609245965716 0 -0.0036913152031028055 0.0013123166919236345 0 -0.0091343814784454729 0.00087721765540052824 0 -0.0094556376841489122 0.0016301326335120723 0 -0.0096824006492675554 0.00257747279776098 0 -0.0099121699851823335 0.0025775609245965716 0 -0.009857087535800212 0.0038640102609859154 0 -0.0099215713734729909 0.0040346406524088283 0 -0.0077415462487268544 0.00013523363213808597 0 -0.0080562858500761014 5.9459788333787993e-05 0 -0.0077646536032339756 6.8512188944118053e-05 0 -0.0079288545799783353 3.3028819173069787e-05 0 -0.0077646536032339756 6.8512188944118053e-05 0 -0.0076241440155966622 4.7284367962985998e-05 0 -0.0079288545799783353 3.3028819173069787e-05 0 -0.0080562858500761014 5.9459788333787993e-05 0 -0.0077646536032339756 6.8512188944118053e-05 0 -0.0073758918471607589 0.00011714207297699174 0 -0.0077415462487268544 0.00013523363213808597 0 -0.0077646536032339756 6.8512188944118053e-05 0 -0.0073758918471607589 0.00011714207297699174 0 -0.0077646536032339756 6.8512188944118053e-05 0 -0.0076241440155966622 4.7284367962985998e-05 0 -0.0073758918471607589 0.00011714207297699174 0 -0.006884121485421133 5.6452758670256061e-05 0 -0.0074127271388631025 -6.9563957061836667e-06 0 -0.0073758918471607589 0.00011714207297699174 0 -0.0076241440155966622 4.7284367962985998e-05 0 -0.0074127271388631025 -6.9563957061836667e-06 0 -0.0079288545799783353 3.3028819173069787e-05 0 -0.0076241440155966622 4.7284367962985998e-05 0 -0.0074127271388631025 -6.9563957061836667e-06 0 -0.0079288545799783353 3.3028819173069787e-05 0 -0.0074127271388631025 -6.9563957061836667e-06 0 -0.0077261629515017697 -3.4650455245841203e-05 0 -0.006884121485421133 5.6452758670256061e-05 0 -0.0074127271388631025 -6.9563957061836667e-06 0 -0.0068372313933438861 -4.816062053911731e-05 0 -0.006786747463078115 -0.0001212229930724618 0 -0.0068372313933438861 -4.816062053911731e-05 0 -0.0074985789713729652 -0.00010200252348707958 0 -0.0074127271388631025 -6.9563957061836667e-06 0 -0.0068372313933438861 -4.816062053911731e-05 0 -0.0074985789713729652 -0.00010200252348707958 0 -0.006786747463078115 -0.0001212229930724618 0 -0.0075246673641192387 -0.00014513821517999975 0 -0.0074985789713729652 -0.00010200252348707958 0 -0.0074985789713729652 -0.00010200252348707958 0 -0.0080768736168785483 -6.1611046714277334e-05 0 -0.0077261629515017697 -3.4650455245841203e-05 0 -0.0079288545799783353 3.3028819173069787e-05 0 -0.0080768736168785483 -6.1611046714277334e-05 0 -0.0077261629515017697 -3.4650455245841203e-05 0 -0.0074127271388631025 -6.9563957061836667e-06 0 -0.0074985789713729652 -0.00010200252348707958 0 -0.0077261629515017697 -3.4650455245841203e-05 0 -0.020465999010057932 -0.0014543875957837738 0 -0.020953131514127064 -0.0013536150919563896 0 -0.020727378006594088 -0.0015732990590301193 0 -0.019644805948980042 -0.0011278749432683793 0 -0.019735690027284449 -0.00082642171237692463 0 -0.020465999010057932 -0.0014543875957837738 0 -0.020953131514127064 -0.0013536150919563896 0 -0.020177356567015449 -0.0010014580231480664 0 -0.019053255401748456 -0.00058422153515101161 0 -0.019090933782005843 -0.00064820553861964325 0 -0.01917228951816214 -0.00065750717897345855 0 -0.020942581575607893 -0.0014022531014918199 0 -0.020953131514127064 -0.0013536150919563896 0 -0.020727378006594088 -0.0015732990590301193 0 -0.020942581575607893 -0.0014022531014918199 0 -0.020921589609631308 -0.0016158901787816985 0 -0.020727378006594088 -0.0015732990590301193 0 -0.020942581575607893 -0.0014022531014918199 0 -0.02114110327607778 -0.0016460795987513406 0 -0.020921589609631308 -0.0016158901787816985 0 -0.020942581575607893 -0.0014022531014918199 0 -0.020948823459079748 -0.001356608566891524 0 -0.02114110327607778 -0.0016460795987513406 0 -0.019681615296473311 -0.0011370720070483736 0 -0.019644805948980042 -0.0011278749432683793 0 -0.018162114810627988 -0.0014630875760719042 0 -0.01805614475312578 -0.0019835222079419312 0 -0.017795770356155271 -0.0016921464447578599 0 -0.019644805948980042 -0.0011278749432683793 0 -0.018475901943688665 -0.0013497011954159966 0 -0.019053255401748456 -0.00058422153515101161 0 -0.019012304202322337 -0.00067036243492406777 0 -0.019090933782005843 -0.00064820553861964325 0 -0.019012304202322337 -0.00067036243492406777 0 -0.019090933782005843 -0.00064820553861964325 0 -0.019107499621605524 -0.00068655483332209267 0 -0.019090933782005843 -0.00064820553861964325 0 -0.01917228951816214 -0.00065750717897345855 0 -0.019107499621605524 -0.00068655483332209267 0 -0.01917228951816214 -0.00065750717897345855 0 -0.019170861026529262 -0.00070728801802447171 0 -0.019107499621605524 -0.00068655483332209267 0 -0.01917228951816214 -0.00065750717897345855 0 -0.019159879171084835 -0.0007607604330533282 0 -0.019177292859166709 -0.00069488482496638123 0 -0.019735690027284449 -0.00082642171237692463 0 -0.019165335857311203 -0.00074943153796795529 0 -0.020177356567015449 -0.0010014580231480664 0 -0.019159879171084835 -0.0007607604330533282 0 -0.019316997929155373 -0.0012993314920506308 0 -0.020465999010057932 -0.0014543875957837738 0 -0.020177356567015449 -0.0010014580231480664 0 -0.020014126304729565 -0.0016653553819021929 0 -0.020177356567015449 -0.0010014580231480664 0 -0.019316997929155373 -0.0012993314920506308 0 -0.020014126304729565 -0.0016653553819021929 0 -0.019316997929155373 -0.0012993314920506308 0 -0.020014126304729565 -0.0016653553819021929 0 -0.019252925826771416 -0.0018776218260994997 0 -0.020211793034322141 -0.0022298512428104273 0 -0.019852336998916781 -0.0017384455563332259 0 -0.019729188537636271 -0.0022010854726859665 0 -0.020150732390905462 -0.00219651671641215 0 -0.01955712736775575 -0.0018002059416327456 0 -0.020014126304729565 -0.0016653553819021929 0 -0.020211793034322141 -0.0022298512428104273 0 -0.019252925826771416 -0.0018776218260994997 0 -0.020014126304729565 -0.0016653553819021929 0 -0.020211793034322141 -0.0022298512428104273 0 -0.020528222625678074 -0.001956854208239215 0 -0.020528222625678074 -0.001956854208239215 0 -0.020773642433965959 -0.0022070133762840901 0 -0.020596142628587048 -0.0023918615982941225 0 -0.020211793034322141 -0.0022298512428104273 0 -0.020528222625678074 -0.001956854208239215 0 -0.020596142628587048 -0.0023918615982941225 0 -0.020465999010057932 -0.0014543875957837738 0 -0.020528222625678074 -0.001956854208239215 0 -0.020727378006594088 -0.0015732990590301193 0 -0.020465999010057932 -0.0014543875957837738 0 -0.020014126304729565 -0.0016653553819021929 0 -0.020528222625678074 -0.001956854208239215 0 -0.020528222625678074 -0.001956854208239215 0 -0.020727378006594088 -0.0015732990590301193 0 -0.020876219934369635 -0.0018432860132448028 0 -0.02114110327607778 -0.0016460795987513406 0 -0.020921589609631308 -0.0016158901787816985 0 -0.020876219934369635 -0.0018432860132448028 0 -0.020921589609631308 -0.0016158901787816985 0 -0.020727378006594088 -0.0015732990590301193 0 -0.020876219934369635 -0.0018432860132448028 0 -0.020528222625678074 -0.001956854208239215 0 -0.020876219934369635 -0.0018432860132448028 0 -0.020773642433965959 -0.0022070133762840901 0 -0.02114110327607778 -0.0016460795987513406 0 -0.020876219934369635 -0.0018432860132448028 0 -0.021199436295145313 -0.0020685037456809642 0 -0.020773642433965959 -0.0022070133762840901 0 -0.02083062143697903 -0.0026498674635404319 0 -0.020596142628587048 -0.0023918615982941225 0 -0.020876219934369635 -0.0018432860132448028 0 -0.020773642433965959 -0.0022070133762840901 0 -0.021199436295145313 -0.0020685037456809642 0 -0.020973311874587126 -0.0026301900484774665 0 -0.020826928771599224 -0.0026873564911527028 0 -0.020773642433965959 -0.0022070133762840901 0 -0.021199436295145313 -0.0020685037456809642 0 -0.02083062143697903 -0.0026498674635404319 0 -0.020565954771993186 -0.0033135287606429666 0 -0.02083062143697903 -0.0026498674635404319 0 -0.020406085272119737 -0.0028927820276875328 0 -0.020565954771993186 -0.0033135287606429666 0 -0.020077477747145901 -0.0032742887738999391 0 -0.020406085272119737 -0.0028927820276875328 0 -0.020077477747145901 -0.0032742887738999391 0 -0.019980748377467088 -0.0028981730652606489 0 -0.020406085272119737 -0.0028927820276875328 0 -0.019546815017608511 -0.0031519217446752848 0 -0.019404082844102038 -0.0029469855630313152 0 -0.019980748377467088 -0.0028981730652606489 0 -0.019546815017608511 -0.0031519217446752848 0 -0.020077477747145901 -0.0032742887738999391 0 -0.019980748377467088 -0.0028981730652606489 0 -0.020077477747145901 -0.0032742887738999391 0 -0.019666415079772136 -0.0037099001112760061 0 -0.020251572599196882 -0.003924365716810924 0 -0.01901313063923667 -0.0034252155257917527 0 -0.019241148796803772 -0.0024948100580518893 0 -0.019546815017608511 -0.0031519217446752848 0 -0.020077477747145901 -0.0032742887738999391 0 -0.019666415079772136 -0.0037099001112760061 0 -0.02114110327607778 -0.0016460795987513406 0 -0.021199436295145313 -0.0020685037456809642 0 -0.021431563126807929 -0.0015642292775316466 0 -0.020973311874587126 -0.0026301900484774665 0 -0.019241148796803772 -0.0024948100580518893 0 -0.020565954771993186 -0.0033135287606429666 0 -0.020077477747145901 -0.0032742887738999391 0 -0.020251572599196882 -0.003924365716810924 0 -0.018542919590592264 -0.0019666429055907107 0 -0.018613157554268782 -0.0030447311886819062 0 -0.018309146809674486 -0.0024778487960519079 0 -0.018777101362864677 -0.0025180881846650249 0 -0.018662526200148171 -0.0030271651765145873 0 -0.019546815017608511 -0.0031519217446752848 0 -0.018829825453603212 -0.0032320085757071792 0 -0.019404082844102038 -0.0029469855630313152 0 -0.019054598753101972 -0.0030222859622253263 0 -0.018829825453603212 -0.0032320085757071792 0 -0.019404082844102038 -0.0029469855630313152 0 -0.01901313063923667 -0.0034252155257917527 0 -0.018815259151457146 -0.0032794816343265599 0 -0.01823989291972776 -0.0031649889574204069 0 -0.018829825453603212 -0.0032320085757071792 0 -0.018408902849236488 -0.0030347538981938035 0 -0.018829825453603212 -0.0032320085757071792 0 -0.018613157554268782 -0.0030447311886819062 0 -0.018408902849236488 -0.0030347538981938035 0 -0.019546815017608511 -0.0031519217446752848 0 -0.019666415079772136 -0.0037099001112760061 0 -0.018829825453603212 -0.0032320085757071792 0 -0.019054598753101972 -0.0030222859622253263 0 -0.018829825453603212 -0.0032320085757071792 0 -0.018613157554268782 -0.0030447311886819062 0 -0.018613157554268782 -0.0030447311886819062 0 -0.018346842962227411 -0.0030431774549322752 0 -0.018265861792810926 -0.0027752768853574806 0 -0.018613157554268782 -0.0030447311886819062 0 -0.018265861792810926 -0.0027752768853574806 0 -0.018309146809674486 -0.0024778487960519079 0 -0.018613157554268782 -0.0030447311886819062 0 -0.018219697294924668 -0.0030510090454213745 0 -0.018408902849236488 -0.0030347538981938035 0 -0.018613157554268782 -0.0030447311886819062 0 -0.018346842962227411 -0.0030431774549322752 0 -0.018219697294924668 -0.0030510090454213745 0 -0.018232265493805098 -0.0030641843397020874 0 -0.018346842962227411 -0.0030431774549322752 0 -0.018219697294924668 -0.0030510090454213745 0 -0.018219697294924668 -0.0030510090454213745 0 -0.018408902849236488 -0.0030347538981938035 0 -0.018073552418538356 -0.0029867468166118231 0 -0.018408902849236488 -0.0030347538981938035 0 -0.018073552418538356 -0.0029867468166118231 0 -0.018196526632781918 -0.0030133628017337813 0 -0.018219697294924668 -0.0030510090454213745 0 -0.018073552418538356 -0.0029867468166118231 0 -0.017883484317879995 -0.0029981889696624746 0 -0.018219697294924668 -0.0030510090454213745 0 -0.017883484317879995 -0.0029981889696624746 0 -0.018137207391044942 -0.0030449921206081717 0 -0.018232265493805098 -0.0030641843397020874 0 -0.018219697294924668 -0.0030510090454213745 0 -0.018137207391044942 -0.0030449921206081717 0 -0.018162114810627988 -0.0014630875760719042 0 -0.017689268097360957 -0.0012842239549848166 0 -0.017795770356155271 -0.0016921464447578599 0 -0.019644805948980042 -0.0011278749432683793 0 -0.019241148796803772 -0.0024948100580518893 0 -0.017689268097360957 -0.0012842239549848166 0 -0.017389235925527595 -0.0018402965364763724 0 -0.017795770356155271 -0.0016921464447578599 0 -0.020948823459079748 -0.001356608566891524 0 -0.02114110327607778 -0.0016460795987513406 0 -0.021431563126807929 -0.0015642292775316466 0 -0.01823989291972776 -0.0031649889574204069 0 -0.018093928242823052 -0.0030772495638998277 0 -0.018196526632781918 -0.0030133628017337813 0 -0.018093928242823052 -0.0030772495638998277 0 -0.018196526632781918 -0.0030133628017337813 0 -0.018118119748905141 -0.0029725335580768086 0 -0.019241148796803772 -0.0024948100580518893 0 -0.017603199359344381 -0.0024067772780818806 0 -0.01823989291972776 -0.0031649889574204069 0 -0.018408902849236488 -0.0030347538981938035 0 -0.018196526632781918 -0.0030133628017337813 0 -0.018073552418538356 -0.0029867468166118231 0 -0.018196526632781918 -0.0030133628017337813 0 -0.018118119748905141 -0.0029725335580768086 0 -0.018073552418538356 -0.0029867468166118231 0 -0.018118119748905141 -0.0029725335580768086 0 -0.017809795683806234 -0.0029861911278728191 0 -0.01805614475312578 -0.0019835222079419312 0 -0.017795770356155271 -0.0016921464447578599 0 -0.017623473357248322 -0.0022002290343634138 0 -0.017389235925527595 -0.0018402965364763724 0 -0.017795770356155271 -0.0016921464447578599 0 -0.017623473357248322 -0.0022002290343634138 0 -0.01805614475312578 -0.0019835222079419312 0 -0.017623473357248322 -0.0022002290343634138 0 -0.017949713132720996 -0.0025023257809982948 0 -0.017690727270487875 -0.0024703110697567683 0 -0.017623473357248322 -0.0022002290343634138 0 -0.017949713132720996 -0.0025023257809982948 0 -0.017690727270487875 -0.0024703110697567683 0 -0.017623473357248322 -0.0022002290343634138 0 -0.017433727390787575 -0.0025449269882587876 0 -0.017623473357248322 -0.0022002290343634138 0 -0.017433727390787575 -0.0025449269882587876 0 -0.017089655761505826 -0.0024169680523950824 0 -0.017389235925527595 -0.0018402965364763724 0 -0.017623473357248322 -0.0022002290343634138 0 -0.017089655761505826 -0.0024169680523950824 0 -0.017603199359344381 -0.0024067772780818806 0 -0.017447921314958072 -0.0026579299410922413 0 -0.017433727390787575 -0.0025449269882587876 0 -0.017183561036871929 -0.0027072415628516099 0 -0.017425821325111442 -0.002781755828949507 0 -0.017433727390787575 -0.0025449269882587876 0 -0.017425821325111442 -0.002781755828949507 0 -0.01759700566328232 -0.0026905390237177184 0 -0.017433727390787575 -0.0025449269882587876 0 -0.017183561036871929 -0.0027072415628516099 0 -0.017089655761505826 -0.0024169680523950824 0 -0.017183561036871929 -0.0027072415628516099 0 -0.017056502834080636 -0.0029159468705219835 0 -0.017174767405568853 -0.0029165738469511416 0 -0.017183561036871929 -0.0027072415628516099 0 -0.017310451871713043 -0.0029227008624908967 0 -0.017174767405568853 -0.0029165738469511416 0 -0.017183561036871929 -0.0027072415628516099 0 -0.017425821325111442 -0.002781755828949507 0 -0.017310451871713043 -0.0029227008624908967 0 -0.017425821325111442 -0.002781755828949507 0 -0.017466277448612864 -0.0029287051296280789 0 -0.017310451871713043 -0.0029227008624908967 0 -0.017425821325111442 -0.002781755828949507 0 -0.017553749247066562 -0.002858613362503191 0 -0.017466277448612864 -0.0029287051296280789 0 -0.017843316587337101 -0.0027951685816603885 0 -0.017852977173740788 -0.0030389588052916741 0 -0.017949713132720996 -0.0025023257809982948 0 -0.017114679878745483 -0.0021292816217719471 0 -0.018520327228504021 -0.0015891368022665463 0 -0.017553749247066562 -0.002858613362503191 0 -0.017568634038086596 -0.0029488596715727508 0 -0.017466277448612864 -0.0029287051296280789 0 -0.017553749247066562 -0.002858613362503191 0 -0.017642935923594547 -0.002905055520555447 0 -0.017568634038086596 -0.0029488596715727508 0 -0.017553749247066562 -0.002858613362503191 0 -0.017654615095109443 -0.0028076453721298214 0 -0.017642935923594547 -0.002905055520555447 0 -0.017425821325111442 -0.002781755828949507 0 -0.017553749247066562 -0.002858613362503191 0 -0.01759700566328232 -0.0026905390237177184 0 -0.017553749247066562 -0.002858613362503191 0 -0.017654615095109443 -0.0028076453721298214 0 -0.01759700566328232 -0.0026905390237177184 0 -0.017654615095109443 -0.0028076453721298214 0 -0.017744436515989996 -0.0028728302701389904 0 -0.017729434671196292 -0.0027394096988773205 0 -0.017654615095109443 -0.0028076453721298214 0 -0.017729434671196292 -0.0027394096988773205 0 -0.01759700566328232 -0.0026905390237177184 0 -0.017654615095109443 -0.0028076453721298214 0 -0.017642935923594547 -0.002905055520555447 0 -0.017744436515989996 -0.0028728302701389904 0 -0.017642935923594547 -0.002905055520555447 0 -0.017744436515989996 -0.0028728302701389904 0 -0.017700529243283039 -0.0029364511472987336 0 -0.017843316587337101 -0.0027951685816603885 0 -0.017813144034087805 -0.0029838998339965046 0 -0.017783674509635049 -0.0029431489253278543 0 -0.017744436515989996 -0.0028728302701389904 0 -0.017843316587337101 -0.0027951685816603885 0 -0.017783674509635049 -0.0029431489253278543 0 -0.017843316587337101 -0.0027951685816603885 0 -0.017729434671196292 -0.0027394096988773205 0 -0.017814946911844518 -0.0026432547274972953 0 -0.017744436515989996 -0.0028728302701389904 0 -0.017843316587337101 -0.0027951685816603885 0 -0.017729434671196292 -0.0027394096988773205 0 -0.017729434671196292 -0.0027394096988773205 0 -0.017814946911844518 -0.0026432547274972953 0 -0.017730975567343803 -0.0026171886600736939 0 -0.017843316587337101 -0.0027951685816603885 0 -0.017814946911844518 -0.0026432547274972953 0 -0.017949713132720996 -0.0025023257809982948 0 -0.017690727270487875 -0.0024703110697567683 0 -0.017804122404137427 -0.0025541025847161951 0 -0.017949713132720996 -0.0025023257809982948 0 -0.017814946911844518 -0.0026432547274972953 0 -0.017730975567343803 -0.0026171886600736939 0 -0.017804122404137427 -0.0025541025847161951 0 -0.017814946911844518 -0.0026432547274972953 0 -0.017804122404137427 -0.0025541025847161951 0 -0.017949713132720996 -0.0025023257809982948 0 -0.017690727270487875 -0.0024703110697567683 0 -0.017730975567343803 -0.0026171886600736939 0 -0.017804122404137427 -0.0025541025847161951 0 -0.017690727270487875 -0.0024703110697567683 0 -0.017730975567343803 -0.0026171886600736939 0 -0.01759700566328232 -0.0026905390237177184 0 -0.017690727270487875 -0.0024703110697567683 0 -0.017433727390787575 -0.0025449269882587876 0 -0.01759700566328232 -0.0026905390237177184 0 -0.017729434671196292 -0.0027394096988773205 0 -0.017730975567343803 -0.0026171886600736939 0 -0.01759700566328232 -0.0026905390237177184 0 -0.017883484317879995 -0.0029981889696624746 0 -0.017730876470653655 -0.0029357710251309982 0 -0.018137207391044942 -0.0030449921206081717 0 -0.016633081777222308 -0.0025062813217432826 0 -0.016316970383009066 -0.0019961192050820826 0 -0.017883484317879995 -0.0029981889696624746 0 -0.017532625157069919 -0.0029775705742848763 0 -0.017730876470653655 -0.0029357710251309982 0 -0.017883484317879995 -0.0029981889696624746 0 -0.017809795683806234 -0.0029861911278728191 0 -0.017532625157069919 -0.0029775705742848763 0 -0.018073552418538356 -0.0029867468166118231 0 -0.017883484317879995 -0.0029981889696624746 0 -0.017809795683806234 -0.0029861911278728191 0 -0.017809795683806234 -0.0029861911278728191 0 -0.017532625157069919 -0.0029775705742848763 0 -0.016898220971036191 -0.0029469771704730241 0 -0.017183561036871929 -0.0027072415628516099 0 -0.017089655761505826 -0.0024169680523950824 0 -0.016898220971036191 -0.0029469771704730241 0 -0.017447921314958072 -0.0026579299410922413 0 -0.017009862393324877 -0.0029130416288456629 0 -0.017183561036871929 -0.0027072415628516099 0 -0.016898220971036191 -0.0029469771704730241 0 -0.017056502834080636 -0.0029159468705219835 0 -0.017532625157069919 -0.0029775705742848763 0 -0.017730876470653655 -0.0029357710251309982 0 -0.016898220971036191 -0.0029469771704730241 0 -0.016633081777222308 -0.0025062813217432826 0 -0.016672900367582132 -0.0030068480110411037 0 -0.017730876470653655 -0.0029357710251309982 0 -0.016599433534785032 -0.002992628448741705 0 -0.016898220971036191 -0.0029469771704730241 0 -0.015589938097527045 -0.0026355369514656645 0 -0.015516482053458031 -0.0018869594478243452 0 -0.016599433534785032 -0.002992628448741705 0 -0.01589469352274956 -0.0031519488512778428 0 -0.015935107510905017 -0.0035961202095881536 0 -0.01543456272374734 -0.0033058347152846606 0 -0.015589938097527045 -0.0026355369514656645 0 -0.01589469352274956 -0.0031519488512778428 0 -0.01543456272374734 -0.0033058347152846606 0 -0.015589938097527045 -0.0026355369514656645 0 -0.01589469352274956 -0.0031519488512778428 0 -0.016599433534785032 -0.002992628448741705 0 -0.01589469352274956 -0.0031519488512778428 0 -0.016316419864550721 -0.0033665397548923595 0 -0.016599433534785032 -0.002992628448741705 0 -0.01589469352274956 -0.0031519488512778428 0 -0.016316419864550721 -0.0033665397548923595 0 -0.015935107510905017 -0.0035961202095881536 0 -0.016599433534785032 -0.002992628448741705 0 -0.01691501089605392 -0.0030317526772206697 0 -0.016747052643628319 -0.0032657170804188374 0 -0.016316419864550721 -0.0033665397548923595 0 -0.016599433534785032 -0.002992628448741705 0 -0.016747052643628319 -0.0032657170804188374 0 -0.016599433534785032 -0.002992628448741705 0 -0.016898220971036191 -0.0029469771704730241 0 -0.01691501089605392 -0.0030317526772206697 0 -0.01691501089605392 -0.0030317526772206697 0 -0.017003483589965888 -0.003185702924031958 0 -0.017155397131373026 -0.0030356156572533756 0 -0.01691501089605392 -0.0030317526772206697 0 -0.017056502834080636 -0.0029159468705219835 0 -0.017155397131373026 -0.0030356156572533756 0 -0.016898220971036191 -0.0029469771704730241 0 -0.01691501089605392 -0.0030317526772206697 0 -0.017056502834080636 -0.0029159468705219835 0 -0.017003483589965888 -0.003185702924031958 0 -0.016747052643628319 -0.0032657170804188374 0 -0.017022186706829884 -0.0034551433709839687 0 -0.01691501089605392 -0.0030317526772206697 0 -0.017003483589965888 -0.003185702924031958 0 -0.016747052643628319 -0.0032657170804188374 0 -0.016747052643628319 -0.0032657170804188374 0 -0.016625777587798783 -0.0036840351684474947 0 -0.017022186706829884 -0.0034551433709839687 0 -0.016625777587798783 -0.0036840351684474947 0 -0.017022186706829884 -0.0034551433709839687 0 -0.017099953970331823 -0.0040028163830588045 0 -0.016625777587798783 -0.0036840351684474947 0 -0.017099953970331823 -0.0040028163830588045 0 -0.016629596009452498 -0.0043177383068613183 0 -0.016625777587798783 -0.0036840351684474947 0 -0.016183758034215658 -0.0038441457425374996 0 -0.016629596009452498 -0.0043177383068613183 0 -0.016316419864550721 -0.0033665397548923595 0 -0.016625777587798783 -0.0036840351684474947 0 -0.016183758034215658 -0.0038441457425374996 0 -0.016316419864550721 -0.0033665397548923595 0 -0.016747052643628319 -0.0032657170804188374 0 -0.016625777587798783 -0.0036840351684474947 0 -0.015935107510905017 -0.0035961202095881536 0 -0.01543456272374734 -0.0033058347152846606 0 -0.015744425898893025 -0.0042370296988858674 0 -0.014916619075013628 -0.0038660763772410353 0 -0.014586908814593113 -0.0028333478111228815 0 -0.015744425898893025 -0.0042370296988858674 0 -0.015009651376249334 -0.0031029384673326148 0 -0.01571698802601524 -0.0041969445894662052 0 -0.016316419864550721 -0.0033665397548923595 0 -0.016183758034215658 -0.0038441457425374996 0 -0.015935107510905017 -0.0035961202095881536 0 -0.016183758034215658 -0.0038441457425374996 0 -0.015935107510905017 -0.0035961202095881536 0 -0.015744425898893025 -0.0042370296988858674 0 -0.017718245912669343 -0.0031575235089271758 0 -0.01759397353871715 -0.0031920589977713072 0 -0.017667437445185102 -0.0033240267537507631 0 -0.017718245912669343 -0.0031575235089271758 0 -0.01759397353871715 -0.0031920589977713072 0 -0.017644396302933907 -0.0030936520204343137 0 -0.01759397353871715 -0.0031920589977713072 0 -0.017538402088266403 -0.0030461205645885172 0 -0.017438581999585666 -0.0031500530786275492 0 -0.01759397353871715 -0.0031920589977713072 0 -0.017667437445185102 -0.0033240267537507631 0 -0.017507756823584374 -0.003332392172078999 0 -0.017718245912669343 -0.0031575235089271758 0 -0.017667437445185102 -0.0033240267537507631 0 -0.017852977173740788 -0.0030389588052916741 0 -0.017718245912669343 -0.0031575235089271758 0 -0.017783551332827805 -0.0030667041720544739 0 -0.01772577868379056 -0.003049685620570571 0 -0.017718245912669343 -0.0031575235089271758 0 -0.017783551332827805 -0.0030667041720544739 0 -0.017852977173740788 -0.0030389588052916741 0 -0.017843316587337101 -0.0027951685816603885 0 -0.017852977173740788 -0.0030389588052916741 0 -0.017813144034087805 -0.0029838998339965046 0 -0.017783551332827805 -0.0030667041720544739 0 -0.017852977173740788 -0.0030389588052916741 0 -0.017769577497057026 -0.0030051563526339174 0 -0.017783551332827805 -0.0030667041720544739 0 -0.017769577497057026 -0.0030051563526339174 0 -0.01772577868379056 -0.003049685620570571 0 -0.017769577497057026 -0.0030051563526339174 0 -0.017711425030292473 -0.0029921525838764234 0 -0.01772577868379056 -0.003049685620570571 0 -0.017769577497057026 -0.0030051563526339174 0 -0.017741926720288008 -0.0029498790820485067 0 -0.017711425030292473 -0.0029921525838764234 0 -0.017769577497057026 -0.0030051563526339174 0 -0.017813144034087805 -0.0029838998339965046 0 -0.017783674509635049 -0.0029431489253278543 0 -0.017852977173740788 -0.0030389588052916741 0 -0.017769577497057026 -0.0030051563526339174 0 -0.017813144034087805 -0.0029838998339965046 0 -0.017744436515989996 -0.0028728302701389904 0 -0.017741926720288008 -0.0029498790820485067 0 -0.017700529243283039 -0.0029364511472987336 0 -0.017744436515989996 -0.0028728302701389904 0 -0.017783674509635049 -0.0029431489253278543 0 -0.017741926720288008 -0.0029498790820485067 0 -0.017769577497057026 -0.0030051563526339174 0 -0.017783674509635049 -0.0029431489253278543 0 -0.017741926720288008 -0.0029498790820485067 0 -0.017741926720288008 -0.0029498790820485067 0 -0.017700529243283039 -0.0029364511472987336 0 -0.017711425030292473 -0.0029921525838764234 0 -0.017642935923594547 -0.002905055520555447 0 -0.017646459515809853 -0.0029960864289061326 0 -0.017568634038086596 -0.0029488596715727508 0 -0.017642935923594547 -0.002905055520555447 0 -0.017700529243283039 -0.0029364511472987336 0 -0.017646459515809853 -0.0029960864289061326 0 -0.017646459515809853 -0.0029960864289061326 0 -0.017711425030292473 -0.0029921525838764234 0 -0.01772577868379056 -0.003049685620570571 0 -0.017700529243283039 -0.0029364511472987336 0 -0.017646459515809853 -0.0029960864289061326 0 -0.017711425030292473 -0.0029921525838764234 0 -0.017646459515809853 -0.0029960864289061326 0 -0.01772577868379056 -0.003049685620570571 0 -0.017644396302933907 -0.0030936520204343137 0 -0.017718245912669343 -0.0031575235089271758 0 -0.01772577868379056 -0.003049685620570571 0 -0.017644396302933907 -0.0030936520204343137 0 -0.01759397353871715 -0.0031920589977713072 0 -0.017644396302933907 -0.0030936520204343137 0 -0.017538402088266403 -0.0030461205645885172 0 -0.017646459515809853 -0.0029960864289061326 0 -0.017644396302933907 -0.0030936520204343137 0 -0.017538402088266403 -0.0030461205645885172 0 -0.017646459515809853 -0.0029960864289061326 0 -0.017538402088266403 -0.0030461205645885172 0 -0.017568634038086596 -0.0029488596715727508 0 -0.017538402088266403 -0.0030461205645885172 0 -0.017568634038086596 -0.0029488596715727508 0 -0.017466277448612864 -0.0029287051296280789 0 -0.017538402088266403 -0.0030461205645885172 0 -0.017466277448612864 -0.0029287051296280789 0 -0.017410053078767088 -0.0030192906565444885 0 -0.017466277448612864 -0.0029287051296280789 0 -0.017310451871713043 -0.0029227008624908967 0 -0.017410053078767088 -0.0030192906565444885 0 -0.017310451871713043 -0.0029227008624908967 0 -0.017306610359324837 -0.0030635485185262772 0 -0.017410053078767088 -0.0030192906565444885 0 -0.017306610359324837 -0.0030635485185262772 0 -0.017410053078767088 -0.0030192906565444885 0 -0.017438581999585666 -0.0031500530786275492 0 -0.017538402088266403 -0.0030461205645885172 0 -0.017410053078767088 -0.0030192906565444885 0 -0.017438581999585666 -0.0031500530786275492 0 -0.017056502834080636 -0.0029159468705219835 0 -0.017174767405568853 -0.0029165738469511416 0 -0.017155397131373026 -0.0030356156572533756 0 -0.017310451871713043 -0.0029227008624908967 0 -0.017174767405568853 -0.0029165738469511416 0 -0.017155397131373026 -0.0030356156572533756 0 -0.017310451871713043 -0.0029227008624908967 0 -0.017306610359324837 -0.0030635485185262772 0 -0.017155397131373026 -0.0030356156572533756 0 -0.017003483589965888 -0.003185702924031958 0 -0.017155397131373026 -0.0030356156572533756 0 -0.017240008797801104 -0.0032362683438212757 0 -0.017306610359324837 -0.0030635485185262772 0 -0.017155397131373026 -0.0030356156572533756 0 -0.017240008797801104 -0.0032362683438212757 0 -0.017003483589965888 -0.003185702924031958 0 -0.017240008797801104 -0.0032362683438212757 0 -0.017022186706829884 -0.0034551433709839687 0 -0.017240008797801104 -0.0032362683438212757 0 -0.017438581999585666 -0.0031500530786275492 0 -0.017507756823584374 -0.003332392172078999 0 -0.01759397353871715 -0.0031920589977713072 0 -0.017438581999585666 -0.0031500530786275492 0 -0.017507756823584374 -0.003332392172078999 0 -0.017306610359324837 -0.0030635485185262772 0 -0.017240008797801104 -0.0032362683438212757 0 -0.017438581999585666 -0.0031500530786275492 0 -0.017507756823584374 -0.003332392172078999 0 -0.017415209158529368 -0.0035045386074053345 0 -0.017588007448070694 -0.0035300541784306911 0 -0.017415209158529368 -0.0035045386074053345 0 -0.017099953970331823 -0.0040028163830588045 0 -0.017667721225147419 -0.0043230339913954167 0 -0.017415209158529368 -0.0035045386074053345 0 -0.017588007448070694 -0.0035300541784306911 0 -0.017505162223048477 -0.0038374438086964499 0 -0.017415390711485752 -0.003501585560699716 0 -0.017590267348445422 -0.0043404627697541144 0 -0.017240008797801104 -0.0032362683438212757 0 -0.017507756823584374 -0.003332392172078999 0 -0.017415209158529368 -0.0035045386074053345 0 -0.017415209158529368 -0.0035045386074053345 0 -0.017022186706829884 -0.0034551433709839687 0 -0.017099953970331823 -0.0040028163830588045 0 -0.017240008797801104 -0.0032362683438212757 0 -0.017415209158529368 -0.0035045386074053345 0 -0.017022186706829884 -0.0034551433709839687 0 -0.017588007448070694 -0.0035300541784306911 0 -0.017706995727116433 -0.0036720886073927676 0 -0.017505162223048477 -0.0038374438086964499 0 -0.014938433528688665 -0.0013912085523473889 0 -0.014865346906257949 -0.0016639235288226949 0 -0.015021778736999808 -0.0015528770638925612 0 -0.017114679878745483 -0.0021292816217719471 0 -0.016385668892774128 -0.0025058818674989413 0 -0.017667437445185102 -0.0033240267537507631 0 -0.017852977173740788 -0.0030389588052916741 0 -0.017706995727116433 -0.0036720886073927676 0 -0.017667437445185102 -0.0033240267537507631 0 -0.017588007448070694 -0.0035300541784306911 0 -0.017706995727116433 -0.0036720886073927676 0 -0.017667437445185102 -0.0033240267537507631 0 -0.017507756823584374 -0.003332392172078999 0 -0.017588007448070694 -0.0035300541784306911 0 -0.015021778736999808 -0.0015528770638925612 0 -0.015143929383904794 -0.0016540944033192398 0 -0.015218418693559149 -0.0014123243212129522 0 -0.014865346906257949 -0.0016639235288226949 0 -0.015021778736999808 -0.0015528770638925612 0 -0.015003348590004923 -0.0017178534637163709 0 -0.015021778736999808 -0.0015528770638925612 0 -0.015143929383904794 -0.0016540944033192398 0 -0.015003348590004923 -0.0017178534637163709 0 -0.015029131444943328 -0.0015657609311690436 0 -0.016541849147264205 -0.00079436806990653298 0 -0.015107929767623292 -0.0013009999158183556 0 -0.015525761004300503 -0.0010142636199297111 0 -0.015674840947373855 -0.0014445027866629284 0 -0.015107929767623292 -0.0013009999158183556 0 -0.015200501749967574 -0.00074385677154424732 0 -0.015525761004300503 -0.0010142636199297111 0 -0.014938433528688665 -0.0013912085523473889 0 -0.015021778736999808 -0.0015528770638925612 0 -0.015218418693559149 -0.0014123243212129522 0 -0.018915010472336541 -0.00087030443850206769 0 -0.018900065241008328 -0.00083355179931490298 0 -0.01892001107978435 -0.00085042589559563599 0 -0.017114679878745483 -0.0021292816217719471 0 -0.016541849147264205 -0.00079436806990653298 0 -0.018900065241008328 -0.00083355179931490298 0 -0.01892001107978435 -0.00085042589559563599 0 -0.018912249720473687 -0.00084739627776503497 0 -0.018915010472336541 -0.00087030443850206769 0 -0.018944243794852274 -0.00084121820942848011 0 -0.018939044559517847 -0.00080958841100526745 0 -0.018944243794852274 -0.00084121820942848011 0 -0.018917846258798259 -0.00084898963708187789 0 -0.018887113774954282 -0.00086645826548977152 0 -0.018944243794852274 -0.00084121820942848011 0 -0.018997286544147368 -0.00079356504284720992 0 -0.01915127412235932 -0.00083139792370202491 0 -0.019151208045257009 -0.00084433837260624407 0 -0.018496811761898838 -0.0008020999355179382 0 -0.018915010472336541 -0.00087030443850206769 0 -0.018944243794852274 -0.00084121820942848011 0 -0.01892001107978435 -0.00085042589559563599 0 -0.018944243794852274 -0.00084121820942848011 0 -0.018939044559517847 -0.00080958841100526745 0 -0.018997286544147368 -0.00079356504284720992 0 -0.018944243794852274 -0.00084121820942848011 0 -0.018917846258798259 -0.00084898963708187789 0 -0.01892001107978435 -0.00085042589559563599 0 -0.018917846258798259 -0.00084898963708187789 0 -0.01892001107978435 -0.00085042589559563599 0 -0.018912249720473687 -0.00084739627776503497 0 -0.018917846258798259 -0.00084898963708187789 0 -0.018912249720473687 -0.00084739627776503497 0 -0.018887113774954282 -0.00086645826548977152 0 -0.016541849147264205 -0.00079436806990653298 0 -0.018496811761898838 -0.0008020999355179382 0 -0.018900065241008328 -0.00083355179931490298 0 -0.018912249720473687 -0.00084739627776503497 0 -0.018887113774954282 -0.00086645826548977152 0 -0.016837636280473117 -0.00067949895613473059 0 -0.016885213466720631 -0.00050099158788390681 0 -0.016987796733165587 -0.0005955009566984403 0 -0.018997286544147368 -0.00079356504284720992 0 -0.01915127412235932 -0.00083139792370202491 0 -0.019056782992689356 -0.00076030958636724624 0 -0.018496811761898838 -0.0008020999355179382 0 -0.018976420509733232 -0.00064079977435101988 0 -0.01911890406307137 -0.00074388924996762436 0 -0.019170861026529262 -0.00070728801802447171 0 -0.019107499621605524 -0.00068655483332209267 0 -0.01915127412235932 -0.00083139792370202491 0 -0.01911890406307137 -0.00074388924996762436 0 -0.019056782992689356 -0.00076030958636724624 0 -0.01911890406307137 -0.00074388924996762436 0 -0.019107499621605524 -0.00068655483332209267 0 -0.019056782992689356 -0.00076030958636724624 0 -0.01915127412235932 -0.00083139792370202491 0 -0.01911890406307137 -0.00074388924996762436 0 -0.019170861026529262 -0.00070728801802447171 0 -0.019012304202322337 -0.00067036243492406777 0 -0.019107499621605524 -0.00068655483332209267 0 -0.019056782992689356 -0.00076030958636724624 0 -0.019012304202322337 -0.00067036243492406777 0 -0.018997286544147368 -0.00079356504284720992 0 -0.019056782992689356 -0.00076030958636724624 0 -0.019012304202322337 -0.00067036243492406777 0 -0.018939044559517847 -0.00080958841100526745 0 -0.018997286544147368 -0.00079356504284720992 0 -0.018475901943688665 -0.0013497011954159966 0 -0.018520327228504021 -0.0015891368022665463 0 -0.019159879171084835 -0.0007607604330533282 0 -0.01916001292932196 -0.00058905687706633624 0 -0.018919182172690469 -0.0004590279857548588 0 -0.019159879171084835 -0.0007607604330533282 0 -0.019177292859166709 -0.00069488482496638123 0 -0.01916001292932196 -0.00058905687706633624 0 -0.019170861026529262 -0.00070728801802447171 0 -0.019177292859166709 -0.00069488482496638123 0 -0.01916001292932196 -0.00058905687706633624 0 -0.01917228951816214 -0.00065750717897345855 0 -0.019170861026529262 -0.00070728801802447171 0 -0.019177292859166709 -0.00069488482496638123 0 -0.018496811761898838 -0.0008020999355179382 0 -0.018033778118882036 -0.00051875625721160173 0 -0.016987796733165587 -0.0005955009566984403 0 -0.017112117371974007 -0.00047848784957886509 0 -0.017122878601420834 -0.0007210381420611607 0 -0.019179612963861989 -0.00066538828725198082 0 -0.019170861026529262 -0.00070728801802447171 0 -0.01916001292932196 -0.00058905687706633624 0 -0.016885213466720631 -0.00050099158788390681 0 -0.016987796733165587 -0.0005955009566984403 0 -0.017112117371974007 -0.00047848784957886509 0 -0.017112117371974007 -0.00047848784957886509 0 -0.017122878601420834 -0.0007210381420611607 0 -0.017374264878350348 -0.00045739232297315916 0 -0.018033778118882036 -0.00051875625721160173 0 -0.018161850943674732 -0.00047528712689851 0 -0.016420841616615795 -0.00070971799057066305 0 -0.017335472739096573 -0.00079667573620177527 0 -0.016541849147264205 -0.00079436806990653298 0 -0.016420841616615795 -0.00070971799057066305 0 -0.015200501749967574 -0.00074385677154424732 0 -0.015921194623366441 -0.00072173932509000678 0 -0.015525761004300503 -0.0010142636199297111 0 -0.016837636280473117 -0.00067949895613473059 0 -0.016987796733165587 -0.0005955009566984403 0 -0.017122878601420834 -0.0007210381420611607 0 -0.015921194623366441 -0.00072173932509000678 0 -0.015525761004300503 -0.0010142636199297111 0 -0.015674840947373855 -0.0014445027866629284 0 -0.015921194623366441 -0.00072173932509000678 0 -0.016270459419420038 -0.0013199400679090065 0 -0.017321833333057715 -0.00079329601944063766 0 -0.015921194623366441 -0.00072173932509000678 0 -0.016270459419420038 -0.0013199400679090065 0 -0.015674840947373855 -0.0014445027866629284 0 -0.016270459419420038 -0.0013199400679090065 0 -0.016902662310818481 -0.0012534409900346293 0 -0.017321833333057715 -0.00079329601944063766 0 -0.016902662310818481 -0.0012534409900346293 0 -0.017321833333057715 -0.00079329601944063766 0 -0.01744177559018123 -0.0011296103889256082 0 -0.017122878601420834 -0.0007210381420611607 0 -0.017321833333057715 -0.00079329601944063766 0 -0.017374264878350348 -0.00045739232297315916 0 -0.017321833333057715 -0.00079329601944063766 0 -0.017725736774207735 -0.00089212663649641875 0 -0.018025619240170525 -0.00067952065670485204 0 -0.017321833333057715 -0.00079329601944063766 0 -0.018025619240170525 -0.00067952065670485204 0 -0.018178220476033409 -0.00050636747850203213 0 -0.017725736774207735 -0.00089212663649641875 0 -0.01744177559018123 -0.0011296103889256082 0 -0.017815806370755 -0.0010739564739598304 0 -0.017321833333057715 -0.00079329601944063766 0 -0.017725736774207735 -0.00089212663649641875 0 -0.01744177559018123 -0.0011296103889256082 0 -0.01744177559018123 -0.0011296103889256082 0 -0.017660313214969012 -0.0013607879097278575 0 -0.017196784916679815 -0.0014507580181949513 0 -0.016902662310818481 -0.0012534409900346293 0 -0.01744177559018123 -0.0011296103889256082 0 -0.017196784916679815 -0.0014507580181949513 0 -0.01744177559018123 -0.0011296103889256082 0 -0.017815806370755 -0.0010739564739598304 0 -0.017660313214969012 -0.0013607879097278575 0 -0.017815806370755 -0.0010739564739598304 0 -0.017901123013359208 -0.0012542207059494058 0 -0.018063041110745328 -0.0010269603807052906 0 -0.017815806370755 -0.0010739564739598304 0 -0.017901123013359208 -0.0012542207059494058 0 -0.017660313214969012 -0.0013607879097278575 0 -0.017901123013359208 -0.0012542207059494058 0 -0.018063041110745328 -0.0010269603807052906 0 -0.018057480346165927 -0.0012404024630370031 0 -0.018063041110745328 -0.0010269603807052906 0 -0.018203417355094783 -0.0010018862601255992 0 -0.018057480346165927 -0.0012404024630370031 0 -0.018063041110745328 -0.0010269603807052906 0 -0.018158145723787454 -0.00087525684319262503 0 -0.018020772713269864 -0.0008531151117567113 0 -0.017725736774207735 -0.00089212663649641875 0 -0.017815806370755 -0.0010739564739598304 0 -0.018020772713269864 -0.0008531151117567113 0 -0.017815806370755 -0.0010739564739598304 0 -0.018063041110745328 -0.0010269603807052906 0 -0.018020772713269864 -0.0008531151117567113 0 -0.018112926809653096 -0.00083971214214735774 0 -0.018203417355094783 -0.0010018862601255992 0 -0.018119478694816369 -0.00084533212006306373 0 -0.018203417355094783 -0.0010018862601255992 0 -0.018158145723787454 -0.00087525684319262503 0 -0.018119478694816369 -0.00084533212006306373 0 -0.018063041110745328 -0.0010269603807052906 0 -0.018203417355094783 -0.0010018862601255992 0 -0.018158145723787454 -0.00087525684319262503 0 -0.018158145723787454 -0.00087525684319262503 0 -0.018140304726697559 -0.00079258420038283352 0 -0.018119478694816369 -0.00084533212006306373 0 -0.018158145723787454 -0.00087525684319262503 0 -0.018140304726697559 -0.00079258420038283352 0 -0.018148453217764027 -0.00073923225091292936 0 -0.018140304726697559 -0.00079258420038283352 0 -0.018148453217764027 -0.00073923225091292936 0 -0.018169710624716368 -0.00073652579370178412 0 -0.018148453217764027 -0.00073923225091292936 0 -0.018020772713269864 -0.0008531151117567113 0 -0.018025619240170525 -0.00067952065670485204 0 -0.017725736774207735 -0.00089212663649641875 0 -0.018020772713269864 -0.0008531151117567113 0 -0.018025619240170525 -0.00067952065670485204 0 -0.018158145723787454 -0.00087525684319262503 0 -0.018148453217764027 -0.00073923225091292936 0 -0.018020772713269864 -0.0008531151117567113 0 -0.018025619240170525 -0.00067952065670485204 0 -0.018236893178639735 -0.0006579369757035385 0 -0.018178220476033409 -0.00050636747850203213 0 -0.018148453217764027 -0.00073923225091292936 0 -0.018025619240170525 -0.00067952065670485204 0 -0.018236893178639735 -0.0006579369757035385 0 -0.018148453217764027 -0.00073923225091292936 0 -0.018169710624716368 -0.00073652579370178412 0 -0.018236893178639735 -0.0006579369757035385 0 -0.018169710624716368 -0.00073652579370178412 0 -0.018236893178639735 -0.0006579369757035385 0 -0.018220625922548594 -0.00078787253540639013 0 -0.018236893178639735 -0.0006579369757035385 0 -0.018220625922548594 -0.00078787253540639013 0 -0.018521342624042734 -0.00098478419758369577 0 -0.018919182172690469 -0.0004590279857548588 0 -0.018178220476033409 -0.00050636747850203213 0 -0.018570234582760713 -0.00083709260499595524 0 -0.018236893178639735 -0.0006579369757035385 0 -0.018178220476033409 -0.00050636747850203213 0 -0.018570234582760713 -0.00083709260499595524 0 -0.019159879171084835 -0.0007607604330533282 0 -0.018919182172690469 -0.0004590279857548588 0 -0.018570234582760713 -0.00083709260499595524 0 -0.018161850943674732 -0.00047528712689851 0 -0.018163837267723439 -0.00049238106870967669 0 -0.017321833333057715 -0.00079329601944063766 0 -0.017374264878350348 -0.00045739232297315916 0 -0.018178220476033409 -0.00050636747850203213 0 -0.017937288314205064 -0.00071314229552777418 0 -0.017904439742629445 -0.00072530725118646108 0 -0.017931924842756696 -0.00067359281036057247 0 -0.017937288314205064 -0.00071314229552777418 0 -0.017924096139602837 -0.00074323664647955238 0 -0.017902057855129754 -0.00074989195800375253 0 -0.017937288314205064 -0.00071314229552777418 0 -0.017924096139602837 -0.00074323664647955238 0 -0.017904439742629445 -0.00072530725118646108 0 -0.017924096139602837 -0.00074323664647955238 0 -0.017896367398770815 -0.00073357301881360709 0 -0.017904439742629445 -0.00072530725118646108 0 -0.017924096139602837 -0.00074323664647955238 0 -0.017896367398770815 -0.00073357301881360709 0 -0.017946185434621214 -0.00077467525662324181 0 -0.017896367398770815 -0.00073357301881360709 0 -0.017895827414011162 -0.00075298716111256881 0 -0.017756562087462197 -0.00075673816464134815 0 -0.017896367398770815 -0.00073357301881360709 0 -0.017904439742629445 -0.00072530725118646108 0 -0.017895827414011162 -0.00075298716111256881 0 -0.017904439742629445 -0.00072530725118646108 0 -0.017972957568046347 -0.00074234670834801703 0 -0.017883014446060504 -0.00069976991657387565 0 -0.017904439742629445 -0.00072530725118646108 0 -0.017883014446060504 -0.00069976991657387565 0 -0.017931924842756696 -0.00067359281036057247 0 -0.017904439742629445 -0.00072530725118646108 0 -0.017972957568046347 -0.00074234670834801703 0 -0.017895827414011162 -0.00075298716111256881 0 -0.017972957568046347 -0.00074234670834801703 0 -0.018083809414148087 -0.00076136420784722635 0 -0.018068158738246218 -0.00076102671037068604 0 -0.017972957568046347 -0.00074234670834801703 0 -0.018058229892248149 -0.00079048909542959295 0 -0.018083809414148087 -0.00076136420784722635 0 -0.017972957568046347 -0.00074234670834801703 0 -0.017966815309874089 -0.00077470899403860028 0 -0.018058229892248149 -0.00079048909542959295 0 -0.017972957568046347 -0.00074234670834801703 0 -0.017895827414011162 -0.00075298716111256881 0 -0.017966815309874089 -0.00077470899403860028 0 -0.017895827414011162 -0.00075298716111256881 0 -0.017928277400900819 -0.00077609360714141391 0 -0.017756562087462197 -0.00075673816464134815 0 -0.017895827414011162 -0.00075298716111256881 0 -0.017928277400900819 -0.00077609360714141391 0 -0.017966815309874089 -0.00077470899403860028 0 -0.017928277400900819 -0.00077609360714141391 0 -0.017966815309874089 -0.00077470899403860028 0 -0.018039496130873661 -0.00080193839961991299 0 -0.017966815309874089 -0.00077470899403860028 0 -0.018039496130873661 -0.00080193839961991299 0 -0.018058229892248149 -0.00079048909542959295 0 -0.018112926809653096 -0.00083971214214735774 0 -0.018039496130873661 -0.00080193839961991299 0 -0.018119478694816369 -0.00084533212006306373 0 -0.018039496130873661 -0.00080193839961991299 0 -0.018119478694816369 -0.00084533212006306373 0 -0.018058229892248149 -0.00079048909542959295 0 -0.018140304726697559 -0.00079258420038283352 0 -0.018119478694816369 -0.00084533212006306373 0 -0.018058229892248149 -0.00079048909542959295 0 -0.018140304726697559 -0.00079258420038283352 0 -0.018058229892248149 -0.00079048909542959295 0 -0.018083809414148087 -0.00076136420784722635 0 -0.018140304726697559 -0.00079258420038283352 0 -0.018169710624716368 -0.00073652579370178412 0 -0.018083809414148087 -0.00076136420784722635 0 -0.018169710624716368 -0.00073652579370178412 0 -0.018083809414148087 -0.00076136420784722635 0 -0.018068158738246218 -0.00076102671037068604 0 -0.018169710624716368 -0.00073652579370178412 0 -0.018220625922548594 -0.00078787253540639013 0 -0.018068158738246218 -0.00076102671037068604 0 -0.018220625922548594 -0.00078787253540639013 0 -0.018068158738246218 -0.00076102671037068604 0 -0.018119188693869491 -0.00089646165912525251 0 -0.018068158738246218 -0.00076102671037068604 0 -0.017955098157175581 -0.00085024574676817314 0 -0.018119188693869491 -0.00089646165912525251 0 -0.017972957568046347 -0.00074234670834801703 0 -0.018068158738246218 -0.00076102671037068604 0 -0.017883014446060504 -0.00069976991657387565 0 -0.018068158738246218 -0.00076102671037068604 0 -0.017883014446060504 -0.00069976991657387565 0 -0.017955098157175581 -0.00085024574676817314 0 -0.017883014446060504 -0.00069976991657387565 0 -0.017738200128181163 -0.00048118969295432828 0 -0.017961231932729842 -0.00053565985702850043 0 -0.017870486217400932 -0.00068292470430463535 0 -0.017857901020327534 -0.00067951529453299825 0 -0.017738200128181163 -0.00048118969295432828 0 -0.017961231932729842 -0.00053565985702850043 0 -0.017893336762863459 -0.00029867414183892398 0 -0.017883014446060504 -0.00069976991657387565 0 -0.017961231932729842 -0.00053565985702850043 0 -0.017931924842756696 -0.00067359281036057247 0 -0.017995970651786646 -0.00063304185340575935 0 -0.017961231932729842 -0.00053565985702850043 0 -0.017931924842756696 -0.00067359281036057247 0 -0.018032796131481274 -9.6978644272228211e-05 0 -0.017829440197668842 -7.2337452598692257e-05 0 -0.01793730489169823 0.00011296540669460621 0 -0.018032796131481274 -9.6978644272228211e-05 0 -0.017893336762863459 -0.00029867414183892398 0 -0.017829440197668842 -7.2337452598692257e-05 0 -0.018131135191649519 -0.00030905931510325939 0 -0.017961231932729842 -0.00053565985702850043 0 -0.017893336762863459 -0.00029867414183892398 0 -0.017857901020327534 -0.00067951529453299825 0 -0.017676719794979059 -0.00056119898484661859 0 -0.017738200128181163 -0.00048118969295432828 0 -0.017893336762863459 -0.00029867414183892398 0 -0.017627405027900944 -0.00023595203904258418 0 -0.017893336762863459 -0.00029867414183892398 0 -0.017829440197668842 -7.2337452598692257e-05 0 -0.017627405027900944 -0.00023595203904258418 0 -0.017829440197668842 -7.2337452598692257e-05 0 -0.017682646331079462 2.6074203842428415e-05 0 -0.017627405027900944 -0.00023595203904258418 0 -0.017829440197668842 -7.2337452598692257e-05 0 -0.017682646331079462 2.6074203842428415e-05 0 -0.017783948100983084 7.7281630118076567e-05 0 -0.018200379019767725 -0.0012571173547878925 0 -0.018011665370319483 -0.0010290772356858996 0 -0.018113561521151553 -0.0013120514575004555 0 -0.017676719794979059 -0.00056119898484661859 0 -0.020152521831935725 -0.00044783291298441615 0 -0.017682646331079462 2.6074203842428415e-05 0 -0.017627405027900944 -0.00023595203904258418 0 -0.017379098567779132 0.00016422402702524362 0 -0.018200379019767725 -0.0012571173547878925 0 -0.018177799630009199 -0.0010673988124406102 0 -0.018011665370319483 -0.0010290772356858996 0 -0.018200379019767725 -0.0012571173547878925 0 -0.018177799630009199 -0.0010673988124406102 0 -0.018290411131360637 -0.001169245919882606 0 -0.017955098157175581 -0.00085024574676817314 0 -0.018011665370319483 -0.0010290772356858996 0 -0.018119188693869491 -0.00089646165912525251 0 -0.018177799630009199 -0.0010673988124406102 0 -0.018011665370319483 -0.0010290772356858996 0 -0.018119188693869491 -0.00089646165912525251 0 -0.018220625922548594 -0.00078787253540639013 0 -0.018119188693869491 -0.00089646165912525251 0 -0.018286197340768025 -0.0009998121024833548 0 -0.018177799630009199 -0.0010673988124406102 0 -0.018119188693869491 -0.00089646165912525251 0 -0.018286197340768025 -0.0009998121024833548 0 -0.018286197340768025 -0.0009998121024833548 0 -0.018290411131360637 -0.001169245919882606 0 -0.01842990724069539 -0.0011812900625623637 0 -0.018177799630009199 -0.0010673988124406102 0 -0.018286197340768025 -0.0009998121024833548 0 -0.018290411131360637 -0.001169245919882606 0 -0.018200379019767725 -0.0012571173547878925 0 -0.018290411131360637 -0.001169245919882606 0 -0.018412480615631721 -0.0013648855423543016 0 -0.018290411131360637 -0.001169245919882606 0 -0.01842990724069539 -0.0011812900625623637 0 -0.018412480615631721 -0.0013648855423543016 0 -0.018412480615631721 -0.0013648855423543016 0 -0.018318863749879361 -0.001476625284055365 0 -0.018582075210496967 -0.0016544719626924969 0 -0.018412480615631721 -0.0013648855423543016 0 -0.018582075210496967 -0.0016544719626924969 0 -0.018693777017045343 -0.0014722193505131275 0 -0.01842990724069539 -0.0011812900625623637 0 -0.018412480615631721 -0.0013648855423543016 0 -0.018693777017045343 -0.0014722193505131275 0 -0.018200379019767725 -0.0012571173547878925 0 -0.018412480615631721 -0.0013648855423543016 0 -0.018318863749879361 -0.001476625284055365 0 -0.018582075210496967 -0.0016544719626924969 0 -0.018263518676317276 -0.0017189183447856291 0 -0.018475834564245473 -0.0022644600448148795 0 -0.018318863749879361 -0.001476625284055365 0 -0.018582075210496967 -0.0016544719626924969 0 -0.018263518676317276 -0.0017189183447856291 0 -0.02441725753558785 0.002013398090634601 0 -0.024935307486522076 0.0017797863142775254 0 -0.025214001572181809 0.0022636840931706194 0 -0.02441725753558785 0.002013398090634601 0 -0.025214001572181809 0.0022636840931706194 0 -0.024761307049542592 0.0025206763030594802 0 -0.021432644460798279 0.00015360843527230256 0 -0.020152521831935725 -0.00044783291298441615 0 -0.018318863749879361 -0.001476625284055365 0 -0.018263518676317276 -0.0017189183447856291 0 -0.018115477504168143 -0.0013142403547025127 0 -0.02441725753558785 0.002013398090634601 0 -0.024596630412197989 0.0011181178289574527 0 -0.024935307486522076 0.0017797863142775254 0 -0.018200379019767725 -0.0012571173547878925 0 -0.018318863749879361 -0.001476625284055365 0 -0.018115477504168143 -0.0013142403547025127 0 -0.018513700237632068 -0.0013173375771796674 0 -0.020152521831935725 -0.00044783291298441615 0 -0.017682646331079462 2.6074203842428415e-05 0 -0.017659840707564965 0.00023024297627253544 0 -0.017379098567779132 0.00016422402702524362 0 -0.017678798375391002 0.0002349173386368581 0 -0.018525731483502138 0.0004192722244934194 0 -0.024596630412197989 0.0011181178289574527 0 -0.024935307486522076 0.0017797863142775254 0 -0.02551288378333242 0.0017150025255943376 0 -0.017659840707564965 0.00023024297627253544 0 -0.017783948100983084 7.7281630118076567e-05 0 -0.01793730489169823 0.00011296540669460621 0 -0.017659840707564965 0.00023024297627253544 0 -0.01859524748741935 0.0011537147442815541 0 -0.019105340306920921 0.0006782800011621643 0 -0.017659840707564965 0.00023024297627253544 0 -0.017379098567779132 0.00016422402702524362 0 -0.01859524748741935 0.0011537147442815541 0 -0.020152521831935725 -0.00044783291298441615 0 -0.022268725722664098 0.0016224660911834765 0 -0.017682646331079462 2.6074203842428415e-05 0 -0.017659840707564965 0.00023024297627253544 0 -0.017783948100983084 7.7281630118076567e-05 0 -0.025214001572181809 0.0022636840931706194 0 -0.02551288378333242 0.0017150025255943376 0 -0.025684523757294041 0.0024137891387499247 0 -0.024935307486522076 0.0017797863142775254 0 -0.025214001572181809 0.0022636840931706194 0 -0.02551288378333242 0.0017150025255943376 0 -0.01975005808126485 0.0018768265448458497 0 -0.01859524748741935 0.0011537147442815541 0 -0.019105340306920921 0.0006782800011621643 0 -0.022980223971788876 0.0020753226028866778 0 -0.022268725722664098 0.0016224660911834765 0 -0.026340784650715852 0.002361024591949847 0 -0.02551288378333242 0.0017150025255943376 0 -0.025684523757294041 0.0024137891387499247 0 -0.017829440197668842 -7.2337452598692257e-05 0 -0.017783948100983084 7.7281630118076567e-05 0 -0.01793730489169823 0.00011296540669460621 0 -0.019316997929155373 -0.0012993314920506308 0 -0.018607373881258306 -0.0013319818264779031 0 -0.018570234582760713 -0.00083709260499595524 0 -0.019159879171084835 -0.0007607604330533282 0 -0.019316997929155373 -0.0012993314920506308 0 -0.018570234582760713 -0.00083709260499595524 0 -0.018607373881258306 -0.0013319818264779031 0 -0.018570234582760713 -0.00083709260499595524 0 -0.018521342624042734 -0.00098478419758369577 0 -0.018236893178639735 -0.0006579369757035385 0 -0.018570234582760713 -0.00083709260499595524 0 -0.018521342624042734 -0.00098478419758369577 0 -0.018220625922548594 -0.00078787253540639013 0 -0.018286197340768025 -0.0009998121024833548 0 -0.018521342624042734 -0.00098478419758369577 0 -0.01842990724069539 -0.0011812900625623637 0 -0.018521342624042734 -0.00098478419758369577 0 -0.018693777017045343 -0.0014722193505131275 0 -0.018286197340768025 -0.0009998121024833548 0 -0.01842990724069539 -0.0011812900625623637 0 -0.018521342624042734 -0.00098478419758369577 0 -0.018965314114876165 -0.0013320889979986062 0 -0.018561000650740449 -0.0010173448730024736 0 -0.019310843641598369 -0.0013157668193725727 0 -0.018521342624042734 -0.00098478419758369577 0 -0.018693777017045343 -0.0014722193505131275 0 -0.019310843641598369 -0.0013157668193725727 0 -0.018693777017045343 -0.0014722193505131275 0 -0.019219070362235916 -0.0018313278127213481 0 -0.018693777017045343 -0.0014722193505131275 0 -0.019219070362235916 -0.0018313278127213481 0 -0.019021121437762595 -0.0019331770645331047 0 -0.018582075210496967 -0.0016544719626924969 0 -0.018693777017045343 -0.0014722193505131275 0 -0.019021121437762595 -0.0019331770645331047 0 -0.019219070362235916 -0.0018313278127213481 0 -0.019852336998916781 -0.0017384455563332259 0 -0.019729188537636271 -0.0022010854726859665 0 -0.019310843641598369 -0.0013157668193725727 0 -0.019219070362235916 -0.0018313278127213481 0 -0.019852336998916781 -0.0017384455563332259 0 -0.018965314114876165 -0.0013320889979986062 0 -0.01955712736775575 -0.0018002059416327456 0 -0.019316997929155373 -0.0012993314920506308 0 -0.018607373881258306 -0.0013319818264779031 0 -0.019252925826771416 -0.0018776218260994997 0 -0.019729188537636271 -0.0022010854726859665 0 -0.019714420308256781 -0.002724163926833347 0 -0.020239890830854812 -0.0025679467325507139 0 -0.020012430526685384 -0.0023721509906298589 0 -0.020904075754612686 -0.0030119533482496023 0 -0.020779104285177718 -0.0023512186886093384 0 -0.021069865446166011 -0.0036155817251315816 0 -0.022173020619583834 -0.0032965151496985963 0 -0.019729188537636271 -0.0022010854726859665 0 -0.019246371834012441 -0.0023336191139747531 0 -0.019714420308256781 -0.002724163926833347 0 -0.019219070362235916 -0.0018313278127213481 0 -0.019729188537636271 -0.0022010854726859665 0 -0.019246371834012441 -0.0023336191139747531 0 -0.019219070362235916 -0.0018313278127213481 0 -0.019021121437762595 -0.0019331770645331047 0 -0.019246371834012441 -0.0023336191139747531 0 -0.019132320017312639 -0.0019563881525760563 0 -0.020012430526685384 -0.0023721509906298589 0 -0.019021121437762595 -0.0019331770645331047 0 -0.019572781578827275 -0.0025846163398934576 0 -0.020779104285177718 -0.0023512186886093384 0 -0.019021121437762595 -0.0019331770645331047 0 -0.019572781578827275 -0.0025846163398934576 0 -0.019039014607521932 -0.0026396891304438278 0 -0.019572781578827275 -0.0025846163398934576 0 -0.020259277600707795 -0.0030302850561729848 0 -0.019755584085774155 -0.0031514698358033636 0 -0.019572781578827275 -0.0025846163398934576 0 -0.019230950962520959 -0.0029777678051618444 0 -0.019039014607521932 -0.0026396891304438278 0 -0.019230950962520959 -0.0029777678051618444 0 -0.019039014607521932 -0.0026396891304438278 0 -0.019163158268793792 -0.003063365659049759 0 -0.019572781578827275 -0.0025846163398934576 0 -0.019230950962520959 -0.0029777678051618444 0 -0.019755584085774155 -0.0031514698358033636 0 -0.020779104285177718 -0.0023512186886093384 0 -0.020259277600707795 -0.0030302850561729848 0 -0.021069865446166011 -0.0036155817251315816 0 -0.019572781578827275 -0.0025846163398934576 0 -0.020779104285177718 -0.0023512186886093384 0 -0.020259277600707795 -0.0030302850561729848 0 -0.020259277600707795 -0.0030302850561729848 0 -0.020250499558251072 -0.0035523612087726537 0 -0.021069865446166011 -0.0036155817251315816 0 -0.020250499558251072 -0.0035523612087726537 0 -0.021069865446166011 -0.0036155817251315816 0 -0.020135377119986666 -0.0041982976052152409 0 -0.019647537322218356 -0.0035424485766250625 0 -0.020135377119986666 -0.0041982976052152409 0 -0.018885479857653365 -0.0037870266698501929 0 -0.023259043978626312 -0.00478082119278243 0 -0.023915587341453135 -0.0022339894556723016 0 -0.019230950962520959 -0.0029777678051618444 0 -0.019647537322218356 -0.0035424485766250625 0 -0.018885479857653365 -0.0037870266698501929 0 -0.019230950962520959 -0.0029777678051618444 0 -0.019647537322218356 -0.0035424485766250625 0 -0.019755584085774155 -0.0031514698358033636 0 -0.020250499558251072 -0.0035523612087726537 0 -0.019647537322218356 -0.0035424485766250625 0 -0.019755584085774155 -0.0031514698358033636 0 -0.020259277600707795 -0.0030302850561729848 0 -0.020250499558251072 -0.0035523612087726537 0 -0.019755584085774155 -0.0031514698358033636 0 -0.020250499558251072 -0.0035523612087726537 0 -0.019647537322218356 -0.0035424485766250625 0 -0.020135377119986666 -0.0041982976052152409 0 -0.026367487349624328 -0.005117083654797642 0 -0.02784331704936489 -0.0055738967981061524 0 -0.027847295252883129 -0.0049160065740337447 0 -0.026367487349624328 -0.005117083654797642 0 -0.027066830722094194 -0.0043077077777841054 0 -0.027847295252883129 -0.0049160065740337447 0 -0.026367487349624328 -0.005117083654797642 0 -0.027066830722094194 -0.0043077077777841054 0 -0.026176516515745148 -0.0042248856786953996 0 -0.026367487349624328 -0.005117083654797642 0 -0.026176516515745148 -0.0042248856786953996 0 -0.024739187955940895 -0.0046654670027538514 0 -0.023259043978626312 -0.00478082119278243 0 -0.023057589182435192 -0.0044280722405455617 0 -0.021069865446166011 -0.0036155817251315816 0 -0.020135377119986666 -0.0041982976052152409 0 -0.021494955944731862 -0.0043462505177110054 0 -0.021069865446166011 -0.0036155817251315816 0 -0.021494955944731862 -0.0043462505177110054 0 -0.022216040623363277 -0.0038447086243441563 0 -0.021494955944731862 -0.0043462505177110054 0 -0.022216040623363277 -0.0038447086243441563 0 -0.022723818175217025 -0.0039306030536598643 0 -0.023057589182435192 -0.0044280722405455617 0 -0.022691896121382102 -0.0040382817665383028 0 -0.022216040623363277 -0.0038447086243441563 0 -0.022723818175217025 -0.0039306030536598643 0 -0.022166546160598648 -0.0039985973010553139 0 -0.020904075754612686 -0.0030119533482496023 0 -0.021191839355394291 -0.0034593121281501866 0 -0.022216040623363277 -0.0038447086243441563 0 -0.022173020619583834 -0.0032965151496985963 0 -0.022166546160598648 -0.0039985973010553139 0 -0.021069865446166011 -0.0036155817251315816 0 -0.022216040623363277 -0.0038447086243441563 0 -0.022173020619583834 -0.0032965151496985963 0 -0.026522729731746544 0.0031460769019515098 0 -0.026026508048064806 0.0033701848925702569 0 -0.02594292464516499 0.0028657800318351032 0 -0.026026508048064806 0.0033701848925702569 0 -0.025644661010345429 0.0031834936620843061 0 -0.025565790825519869 0.0035380570346267865 0 -0.026026508048064806 0.0033701848925702569 0 -0.025644661010345429 0.0031834936620843061 0 -0.02594292464516499 0.0028657800318351032 0 -0.025644661010345429 0.0031834936620843061 0 -0.02594292464516499 0.0028657800318351032 0 -0.025385430265574216 0.0028353802957582636 0 -0.026340784650715852 0.002361024591949847 0 -0.02594292464516499 0.0028657800318351032 0 -0.025684523757294041 0.0024137891387499247 0 -0.02594292464516499 0.0028657800318351032 0 -0.025684523757294041 0.0024137891387499247 0 -0.025385430265574216 0.0028353802957582636 0 -0.025214001572181809 0.0022636840931706194 0 -0.025684523757294041 0.0024137891387499247 0 -0.025385430265574216 0.0028353802957582636 0 -0.025214001572181809 0.0022636840931706194 0 -0.025385430265574216 0.0028353802957582636 0 -0.024761307049542592 0.0025206763030594802 0 -0.025385430265574216 0.0028353802957582636 0 -0.024807582656666129 0.0030163204867917669 0 -0.024761307049542592 0.0025206763030594802 0 -0.025385430265574216 0.0028353802957582636 0 -0.025222423515847855 0.003273793632243309 0 -0.024807582656666129 0.0030163204867917669 0 -0.025644661010345429 0.0031834936620843061 0 -0.025385430265574216 0.0028353802957582636 0 -0.025222423515847855 0.003273793632243309 0 -0.025565790825519869 0.0035380570346267865 0 -0.025222423515847855 0.003273793632243309 0 -0.025149419230029155 0.0035966815411458733 0 -0.025644661010345429 0.0031834936620843061 0 -0.025565790825519869 0.0035380570346267865 0 -0.025222423515847855 0.003273793632243309 0 -0.025222423515847855 0.003273793632243309 0 -0.024842111091473624 0.0033851465331060549 0 -0.025149419230029155 0.0035966815411458733 0 -0.024842111091473624 0.0033851465331060549 0 -0.024396349708329552 0.0033031933368846867 0 -0.024807582656666129 0.0030163204867917669 0 -0.024842111091473624 0.0033851465331060549 0 -0.024396349708329552 0.0033031933368846867 0 -0.024703196419497898 0.0037038174520560214 0 -0.024396349708329552 0.0033031933368846867 0 -0.024347537975834679 0.0035819525043786389 0 -0.024703196419497898 0.0037038174520560214 0 -0.024396349708329552 0.0033031933368846867 0 -0.024807582656666129 0.0030163204867917669 0 -0.024249950188904093 0.002843069346803537 0 -0.025222423515847855 0.003273793632243309 0 -0.024842111091473624 0.0033851465331060549 0 -0.024807582656666129 0.0030163204867917669 0 -0.02441725753558785 0.002013398090634601 0 -0.024761307049542592 0.0025206763030594802 0 -0.024249950188904093 0.002843069346803537 0 -0.021432644460798279 0.00015360843527230256 0 -0.021277155507300451 0.00037210494940882581 0 -0.024807582656666129 0.0030163204867917669 0 -0.024761307049542592 0.0025206763030594802 0 -0.024249950188904093 0.002843069346803537 0 -0.018582075210496967 -0.0016544719626924969 0 -0.019021121437762595 -0.0019331770645331047 0 -0.018475834564245473 -0.0022644600448148795 0 -0.019021121437762595 -0.0019331770645331047 0 -0.018475834564245473 -0.0022644600448148795 0 -0.019039014607521932 -0.0026396891304438278 0 -0.021277155507300451 0.00037210494940882581 0 -0.022290046972940594 -5.4438372264671267e-05 0 -0.024396349708329552 0.0033031933368846867 0 -0.024249950188904093 0.002843069346803537 0 -0.024048358533250661 0.00365950290268119 0 -0.018475834564245473 -0.0022644600448148795 0 -0.019039014607521932 -0.0026396891304438278 0 -0.018763783497757355 -0.0031429482153526342 0 -0.024396349708329552 0.0033031933368846867 0 -0.024048358533250661 0.00365950290268119 0 -0.024347537975834679 0.0035819525043786389 0 -0.019039014607521932 -0.0026396891304438278 0 -0.019163158268793792 -0.003063365659049759 0 -0.018763783497757355 -0.0031429482153526342 0 -0.019163158268793792 -0.003063365659049759 0 -0.019049286815011949 -0.0032122924962968524 0 -0.01896173235230517 -0.0031241318820566513 0 -0.019157421400872385 -0.0041055299896186155 0 -0.023915587341453135 -0.0022339894556723016 0 -0.019163158268793792 -0.003063365659049759 0 -0.019049286815011949 -0.0032122924962968524 0 -0.019066092497229958 -0.003345583784533453 0 -0.019230950962520959 -0.0029777678051618444 0 -0.019163158268793792 -0.003063365659049759 0 -0.019066092497229958 -0.003345583784533453 0 -0.018754744301910511 -0.0021247033640344236 0 -0.022290046972940594 -5.4438372264671267e-05 0 -0.022290046972940594 -5.4438372264671267e-05 0 -0.025133459230675441 -0.00077497242986905275 0 -0.019049286815011949 -0.0032122924962968524 0 -0.01896173235230517 -0.0031241318820566513 0 -0.019007619039261941 -0.0033162991449262082 0 -0.024048358533250661 0.00365950290268119 0 -0.024347537975834679 0.0035819525043786389 0 -0.024452258442869371 0.0037858297471285835 0 -0.024598715249259523 0.00070241327930267077 0 -0.024432550486026904 0.0013401712145460379 0 -0.025501148082019337 0.00095822371386317237 0 -0.022290046972940594 -5.4438372264671267e-05 0 -0.026924855637154289 0.0027348908522253782 0 -0.031276904075162648 0.0041972981761709462 0 -0.031727927529127779 0.0044170606664199457 0 -0.031067128640702515 0.0046938136349171196 0 -0.031276904075162648 0.0041972981761709462 0 -0.031787422726317884 0.0042105537274858117 0 -0.031727927529127779 0.0044170606664199457 0 -0.025133459230675441 -0.00077497242986905275 0 -0.026924855637154289 0.0027348908522253782 0 -0.027953045382055265 -0.0053604597294841655 0 -0.02784331704936489 -0.0055738967981061524 0 -0.027847295252883129 -0.0049160065740337447 0 -0.026473139462088027 -0.0011826849231474335 0 -0.023915587341453135 -0.0022339894556723016 0 -0.026203849414438814 -0.0019978612107655123 0 -0.025889114413871848 -0.00080747308256155022 0 -0.026652766409670958 -0.0010937262512567508 0 -0.026473139462088027 -0.0011826849231474335 0 -0.025133459230675441 -0.00077497242986905275 0 -0.019049286815011949 -0.0032122924962968524 0 -0.019007619039261941 -0.0033162991449262082 0 -0.019066092497229958 -0.003345583784533453 0 -0.025133459230675441 -0.00077497242986905275 0 -0.023915587341453135 -0.0022339894556723016 0 -0.027968473850737002 -0.0053754319938270874 0 -0.027847295252883129 -0.0049160065740337447 0 -0.028855969345307472 -0.0035581211469325434 0 -0.027847295252883129 -0.0049160065740337447 0 -0.028855969345307472 -0.0035581211469325434 0 -0.027819331204016955 -0.0037933481713167856 0 -0.031787422726317884 0.0042105537274858117 0 -0.030957075109756281 0.003573730040136963 0 -0.031229795380530778 0.00284906813269812 0 -0.026473139462088027 -0.0011826849231474335 0 -0.030508250149135097 -9.897621356587116e-05 0 -0.026473139462088027 -0.0011826849231474335 0 -0.027361495445515985 -0.0041231233905075189 0 -0.027066830722094194 -0.0043077077777841054 0 -0.027847295252883129 -0.0049160065740337447 0 -0.027819331204016955 -0.0037933481713167856 0 -0.031276904075162648 0.0041972981761709462 0 -0.031787422726317884 0.0042105537274858117 0 -0.030957075109756281 0.003573730040136963 0 -0.031276904075162648 0.0041972981761709462 0 -0.030957075109756281 0.003573730040136963 0 -0.030658890023219375 0.0040763654126591258 0 -0.030957075109756281 0.003573730040136963 0 -0.030658890023219375 0.0040763654126591258 0 -0.030169592596559096 0.0034438109236873903 0 -0.026924855637154289 0.0027348908522253782 0 -0.027780156793490902 0.0043997452446744604 0 -0.024458614024411296 0.0037929911153305219 0 -0.024703196419497898 0.0037038174520560214 0 -0.025351735093240183 0.0040479196239001361 0 -0.030658890023219375 0.0040763654126591258 0 -0.031067128640702515 0.0046938136349171196 0 -0.029789880182416469 0.0044467492686176497 0 -0.031276904075162648 0.0041972981761709462 0 -0.030658890023219375 0.0040763654126591258 0 -0.031067128640702515 0.0046938136349171196 0 -0.026924855637154289 0.0027348908522253782 0 -0.025094592100652034 0.0034629189650982081 0 -0.024347537975834679 0.0035819525043786389 0 -0.024452258442869371 0.0037858297471285835 0 -0.024703196419497898 0.0037038174520560214 0 -0.024842111091473624 0.0033851465331060549 0 -0.024703196419497898 0.0037038174520560214 0 -0.025149419230029155 0.0035966815411458733 0 -0.024703196419497898 0.0037038174520560214 0 -0.025149419230029155 0.0035966815411458733 0 -0.025351735093240183 0.0040479196239001361 0 -0.025565790825519869 0.0035380570346267865 0 -0.025149419230029155 0.0035966815411458733 0 -0.025351735093240183 0.0040479196239001361 0 -0.025565790825519869 0.0035380570346267865 0 -0.025351735093240183 0.0040479196239001361 0 -0.025966929596831511 0.003797406570279438 0 -0.030658890023219375 0.0040763654126591258 0 -0.029789880182416469 0.0044467492686176497 0 -0.030169592596559096 0.0034438109236873903 0 -0.029789880182416469 0.0044467492686176497 0 -0.030169592596559096 0.0034438109236873903 0 -0.029252186971973654 0.0035711082849045786 0 -0.029252186971973654 0.0035711082849045786 0 -0.028380621693334138 0.0042115359907179215 0 -0.028478755063727962 0.00314853834546899 0 -0.029789880182416469 0.0044467492686176497 0 -0.029252186971973654 0.0035711082849045786 0 -0.028380621693334138 0.0042115359907179215 0 -0.027780156793490902 0.0043997452446744604 0 -0.027256073298004269 0.0041534115375395225 0 -0.025351735093240183 0.0040479196239001361 0 -0.026301819316959393 0.0042071001992425583 0 -0.025966929596831511 0.003797406570279438 0 -0.026460493738035835 0.0037706784616034308 0 -0.026301819316959393 0.0042071001992425583 0 -0.025966929596831511 0.003797406570279438 0 -0.026026508048064806 0.0033701848925702569 0 -0.025565790825519869 0.0035380570346267865 0 -0.025966929596831511 0.003797406570279438 0 -0.026460493738035835 0.0037706784616034308 0 -0.026026508048064806 0.0033701848925702569 0 -0.025966929596831511 0.003797406570279438 0 -0.028424571274544067 0.0012882886213445837 0 -0.029412692832898237 0.002560682129029239 0 -0.029612570570973454 0.0010188990190028746 0 -0.028424571274544067 0.0012882886213445837 0 -0.028478755063727962 0.00314853834546899 0 -0.029412692832898237 0.002560682129029239 0 -0.029252186971973654 0.0035711082849045786 0 -0.028478755063727962 0.00314853834546899 0 -0.029412692832898237 0.002560682129029239 0 -0.030169592596559096 0.0034438109236873903 0 -0.029252186971973654 0.0035711082849045786 0 -0.029412692832898237 0.002560682129029239 0 -0.030169592596559096 0.0034438109236873903 0 -0.029412692832898237 0.002560682129029239 0 -0.030366149135471567 0.0025019816663092919 0 -0.030366149135471567 0.0025019816663092919 0 -0.030614320225991427 0.0012887612040920911 0 -0.029612570570973454 0.0010188990190028746 0 -0.029412692832898237 0.002560682129029239 0 -0.030366149135471567 0.0025019816663092919 0 -0.029612570570973454 0.0010188990190028746 0 -0.029971174405777914 -0.00032404847832250851 0 -0.030508250149135097 -9.897621356587116e-05 0 -0.029554920859806825 -0.0017629547449397279 0 -0.028855969345307472 -0.0035581211469325434 0 -0.028011791972520673 -0.0023656794985413812 0 -0.030366149135471567 0.0025019816663092919 0 -0.030614320225991427 0.0012887612040920911 0 -0.031229795380530778 0.00284906813269812 0 -0.030957075109756281 0.003573730040136963 0 -0.030366149135471567 0.0025019816663092919 0 -0.031229795380530778 0.00284906813269812 0 -0.030957075109756281 0.003573730040136963 0 -0.030169592596559096 0.0034438109236873903 0 -0.030366149135471567 0.0025019816663092919 0 -0.028855969345307472 -0.0035581211469325434 0 -0.027819331204016955 -0.0037933481713167856 0 -0.028011791972520673 -0.0023656794985413812 0 -0.027819331204016955 -0.0037933481713167856 0 -0.028011791972520673 -0.0023656794985413812 0 -0.026928981843590459 -0.0034686016079543201 0 -0.028011791972520673 -0.0023656794985413812 0 -0.02859220753508877 -0.00045699268170223799 0 -0.027001803319582959 -0.0005202836790416317 0 -0.029554920859806825 -0.0017629547449397279 0 -0.028011791972520673 -0.0023656794985413812 0 -0.02859220753508877 -0.00045699268170223799 0 -0.02859220753508877 -0.00045699268170223799 0 -0.027001803319582959 -0.0005202836790416317 0 -0.028409990867231415 0.00077493134432523409 0 -0.02859220753508877 -0.00045699268170223799 0 -0.029371232827998441 -0.00013564145418425082 0 -0.029176387480763646 0.00059273447792971526 0 -0.029554920859806825 -0.0017629547449397279 0 -0.02859220753508877 -0.00045699268170223799 0 -0.029371232827998441 -0.00013564145418425082 0 -0.030614320225991427 0.0012887612040920911 0 -0.029612570570973454 0.0010188990190028746 0 -0.029816580480549186 -0.00019191256960247332 0 -0.029554920859806825 -0.0017629547449397279 0 -0.029371232827998441 -0.00013564145418425082 0 -0.029816580480549186 -0.00019191256960247332 0 -0.029612570570973454 0.0010188990190028746 0 -0.029816580480549186 -0.00019191256960247332 0 -0.029646212496146188 -0.00015775638786537027 0 -0.029971174405777914 -0.00032404847832250851 0 -0.029885641424530356 -0.00019388653691068284 0 -0.029371232827998441 -0.00013564145418425082 0 -0.029816580480549186 -0.00019191256960247332 0 -0.029721540396635045 0.00029174151879207065 0 -0.029816580480549186 -0.00019191256960247332 0 -0.029646212496146188 -0.00015775638786537027 0 -0.029721540396635045 0.00029174151879207065 0 -0.028938233513163852 0.0013162804863354129 0 -0.028924213331093265 0.00097355030290648191 0 -0.029428465911614177 0.00071351208138620173 0 -0.02927384692531845 0.00061096563726537663 0 -0.029553101920537492 0.00053930483231461697 0 -0.028938233513163852 0.0013162804863354129 0 -0.028924213331093265 0.00097355030290648191 0 -0.028519424042881606 0.0010592778005391597 0 -0.028924213331093265 0.00097355030290648191 0 -0.028519424042881606 0.0010592778005391597 0 -0.028786746244065145 0.00076436152690153572 0 -0.028304945626055258 0.0019879548786066428 0 -0.028938233513163852 0.0013162804863354129 0 -0.028519424042881606 0.0010592778005391597 0 -0.028424571274544067 0.0012882886213445837 0 -0.029612570570973454 0.0010188990190028746 0 -0.029646212496146188 -0.00015775638786537027 0 -0.028368473098836448 0.0016513320121774675 0 -0.02927384692531845 0.00061096563726537663 0 -0.024610897298631289 -0.0027497156818421173 0 -0.022975826405581847 -0.0027527137712385443 0 -0.023353482796075697 -0.0011407222033654777 0 -0.024395093846320815 -0.00095114534289371627 0 -0.023165687138538175 -0.0020026035475952868 0 -0.022975826405581847 -0.0027527137712385443 0 -0.023353482796075697 -0.0011407222033654777 0 -0.021973554090488883 -0.0025463056964225295 0 -0.022975826405581847 -0.0027527137712385443 0 -0.022723818175217025 -0.0039306030536598643 0 -0.021984205645131347 -0.0036260262381757492 0 -0.024610897298631289 -0.0027497156818421173 0 -0.022975826405581847 -0.0027527137712385443 0 -0.022723818175217025 -0.0039306030536598643 0 -0.024739187955940895 -0.0046654670027538514 0 -0.024610897298631289 -0.0027497156818421173 0 -0.022723818175217025 -0.0039306030536598643 0 -0.026176516515745148 -0.0042248856786953996 0 -0.024739187955940895 -0.0046654670027538514 0 -0.025696131644206442 -0.0035884811272606006 0 -0.024739187955940895 -0.0046654670027538514 0 -0.024610897298631289 -0.0027497156818421173 0 -0.025696131644206442 -0.0035884811272606006 0 -0.025696131644206442 -0.0035884811272606006 0 -0.026928981843590459 -0.0034686016079543201 0 -0.026302476857516799 -0.002328816806335256 0 -0.026176516515745148 -0.0042248856786953996 0 -0.025696131644206442 -0.0035884811272606006 0 -0.026928981843590459 -0.0034686016079543201 0 -0.027066830722094194 -0.0043077077777841054 0 -0.027819331204016955 -0.0037933481713167856 0 -0.026928981843590459 -0.0034686016079543201 0 -0.027066830722094194 -0.0043077077777841054 0 -0.026176516515745148 -0.0042248856786953996 0 -0.026928981843590459 -0.0034686016079543201 0 -0.028011791972520673 -0.0023656794985413812 0 -0.026928981843590459 -0.0034686016079543201 0 -0.026302476857516799 -0.002328816806335256 0 -0.024610897298631289 -0.0027497156818421173 0 -0.026302476857516799 -0.002328816806335256 0 -0.025271255352865368 -0.0013158837554652794 0 -0.024610897298631289 -0.0027497156818421173 0 -0.025696131644206442 -0.0035884811272606006 0 -0.026302476857516799 -0.002328816806335256 0 -0.026302476857516799 -0.002328816806335256 0 -0.025271255352865368 -0.0013158837554652794 0 -0.027001803319582959 -0.0005202836790416317 0 -0.028011791972520673 -0.0023656794985413812 0 -0.026302476857516799 -0.002328816806335256 0 -0.027001803319582959 -0.0005202836790416317 0 -0.025271255352865368 -0.0013158837554652794 0 -0.027001803319582959 -0.0005202836790416317 0 -0.025213102803015357 0.00014065329312781412 0 -0.027001803319582959 -0.0005202836790416317 0 -0.025213102803015357 0.00014065329312781412 0 -0.02698999546749583 0.001046242063631202 0 -0.026471380596717147 -0.00012123168257681692 0 -0.025395606388545655 -0.00073705359525470208 0 -0.025480173190999062 1.6068857675645067e-05 0 -0.02583922188707205 -2.7950132077710139e-06 0 -0.024395093846320815 -0.00095114534289371627 0 -0.024610897298631289 -0.0027497156818421173 0 -0.025271255352865368 -0.0013158837554652794 0 -0.023353482796075697 -0.0011407222033654777 0 -0.025271255352865368 -0.0013158837554652794 0 -0.025213102803015357 0.00014065329312781412 0 -0.023353482796075697 -0.0011407222033654777 0 -0.025395606388545655 -0.00073705359525470208 0 -0.025480173190999062 1.6068857675645067e-05 0 -0.024159359118975071 -0.00033249281291246406 0 -0.025480173190999062 1.6068857675645067e-05 0 -0.024159359118975071 -0.00033249281291246406 0 -0.024722557776152111 0.0004453403956456301 0 -0.024159359118975071 -0.00033249281291246406 0 -0.024722557776152111 0.0004453403956456301 0 -0.023952403082915297 0.00055094534497908756 0 -0.024159359118975071 -0.00033249281291246406 0 -0.023299453558263301 0.0003002710826994802 0 -0.023952403082915297 0.00055094534497908756 0 -0.024159359118975071 -0.00033249281291246406 0 -0.023299453558263301 0.0003002710826994802 0 -0.02289181284821587 -0.00066174090734862794 0 -0.024159359118975071 -0.00033249281291246406 0 -0.02289181284821587 -0.00066174090734862794 0 -0.023230201803958919 -0.0011778802396778805 0 -0.025395606388545655 -0.00073705359525470208 0 -0.024159359118975071 -0.00033249281291246406 0 -0.024327058542292734 -0.0014858297661404993 0 -0.021386024272978615 0.00012482508392860228 0 -0.023299453558263301 0.0003002710826994802 0 -0.022257257121433258 -0.00041668233846576131 0 -0.022202144415942999 0.00023010180238973346 0 -0.023233115073223471 0.00031675271028427785 0 -0.022975179698426385 0.00038058065082604241 0 -0.023160022972748991 0.00058852572041416214 0 -0.023299453558263301 0.0003002710826994802 0 -0.023299453558263301 0.0003002710826994802 0 -0.02289181284821587 -0.00066174090734862794 0 -0.022257257121433258 -0.00041668233846576131 0 -0.02289181284821587 -0.00066174090734862794 0 -0.022257257121433258 -0.00041668233846576131 0 -0.022009542910017672 -0.00092292450490769626 0 -0.021386024272978615 0.00012482508392860228 0 -0.022257257121433258 -0.00041668233846576131 0 -0.021577154327049156 -0.00066151935995981842 0 -0.022257257121433258 -0.00041668233846576131 0 -0.022009542910017672 -0.00092292450490769626 0 -0.021577154327049156 -0.00066151935995981842 0 -0.022009542910017672 -0.00092292450490769626 0 -0.021577154327049156 -0.00066151935995981842 0 -0.021310326000223458 -0.001117120617404963 0 -0.021386024272978615 0.00012482508392860228 0 -0.021577154327049156 -0.00066151935995981842 0 -0.021116804400633599 -0.00048717613108007255 0 -0.021730966958368406 -0.0013631817006025369 0 -0.021368124206811258 -0.00185208107331343 0 -0.021060712221011423 -0.0015346504497750824 0 -0.021310326000223458 -0.001117120617404963 0 -0.021730966958368406 -0.0013631817006025369 0 -0.021060712221011423 -0.0015346504497750824 0 -0.022009542910017672 -0.00092292450490769626 0 -0.021310326000223458 -0.001117120617404963 0 -0.021730966958368406 -0.0013631817006025369 0 -0.022009542910017672 -0.00092292450490769626 0 -0.021730966958368406 -0.0013631817006025369 0 -0.022404091860463968 -0.001230058867365098 0 -0.021730966958368406 -0.0013631817006025369 0 -0.022404091860463968 -0.001230058867365098 0 -0.021975467647314891 -0.0017215608322109042 0 -0.022404091860463968 -0.001230058867365098 0 -0.022598800178973706 -0.0016020123407250488 0 -0.021975467647314891 -0.0017215608322109042 0 -0.02289181284821587 -0.00066174090734862794 0 -0.022009542910017672 -0.00092292450490769626 0 -0.022404091860463968 -0.001230058867365098 0 -0.02289181284821587 -0.00066174090734862794 0 -0.022404091860463968 -0.001230058867365098 0 -0.023230201803958919 -0.0011778802396778805 0 -0.022404091860463968 -0.001230058867365098 0 -0.022598800178973706 -0.0016020123407250488 0 -0.023230201803958919 -0.0011778802396778805 0 -0.022598800178973706 -0.0016020123407250488 0 -0.022240618927346193 -0.0021027428208490509 0 -0.023099412309386027 -0.0017366252271430209 0 -0.022240618927346193 -0.0021027428208490509 0 -0.021975467647314891 -0.0017215608322109042 0 -0.021570401082762449 -0.0021796674901459604 0 -0.022598800178973706 -0.0016020123407250488 0 -0.022240618927346193 -0.0021027428208490509 0 -0.021975467647314891 -0.0017215608322109042 0 -0.021975467647314891 -0.0017215608322109042 0 -0.021570401082762449 -0.0021796674901459604 0 -0.021368124206811258 -0.00185208107331343 0 -0.021730966958368406 -0.0013631817006025369 0 -0.021975467647314891 -0.0017215608322109042 0 -0.021368124206811258 -0.00185208107331343 0 -0.021570401082762449 -0.0021796674901459604 0 -0.021368124206811258 -0.00185208107331343 0 -0.020927722184504286 -0.0023243104635427953 0 -0.021368124206811258 -0.00185208107331343 0 -0.020927722184504286 -0.0023243104635427953 0 -0.020859883637805127 -0.0019499893424559328 0 -0.024327058542292734 -0.0014858297661404993 0 -0.023230201803958919 -0.0011778802396778805 0 -0.023099412309386027 -0.0017366252271430209 0 -0.024159359118975071 -0.00033249281291246406 0 -0.024327058542292734 -0.0014858297661404993 0 -0.023230201803958919 -0.0011778802396778805 0 -0.022598800178973706 -0.0016020123407250488 0 -0.023230201803958919 -0.0011778802396778805 0 -0.023099412309386027 -0.0017366252271430209 0 -0.024327058542292734 -0.0014858297661404993 0 -0.023099412309386027 -0.0017366252271430209 0 -0.023026083805830558 -0.0023133083597508689 0 -0.021166955420880474 -0.0034655026492631763 0 -0.021984205645131347 -0.0036260262381757492 0 -0.021126631763568104 -0.0033459408905380413 0 -0.023165687138538175 -0.0020026035475952868 0 -0.022085267939460949 -0.0028236916206865201 0 -0.022240618927346193 -0.0021027428208490509 0 -0.023099412309386027 -0.0017366252271430209 0 -0.023026083805830558 -0.0023133083597508689 0 -0.021973554090488883 -0.0025463056964225295 0 -0.021166955420880474 -0.0034655026492631763 0 -0.021984205645131347 -0.0036260262381757492 0 -0.022975826405581847 -0.0027527137712385443 0 -0.021973554090488883 -0.0025463056964225295 0 -0.021984205645131347 -0.0036260262381757492 0 -0.021984205645131347 -0.0036260262381757492 0 -0.022166546160598648 -0.0039985973010553139 0 -0.021126631763568104 -0.0033459408905380413 0 -0.022723818175217025 -0.0039306030536598643 0 -0.021984205645131347 -0.0036260262381757492 0 -0.022166546160598648 -0.0039985973010553139 0 -0.020242732647453032 -0.0030361375175790946 0 -0.020785712765019435 -0.0028193769567889434 0 -0.020239890830854812 -0.0025679467325507139 0 -0.019714420308256781 -0.002724163926833347 0 -0.020242732647453032 -0.0030361375175790946 0 -0.020239890830854812 -0.0025679467325507139 0 -0.020242732647453032 -0.0030361375175790946 0 -0.020785712765019435 -0.0028193769567889434 0 -0.021126631763568104 -0.0033459408905380413 0 -0.021191839355394291 -0.0034593121281501866 0 -0.021120937765715789 -0.0033761485661862383 0 -0.022240618927346193 -0.0021027428208490509 0 -0.023026083805830558 -0.0023133083597508689 0 -0.021298794982072024 -0.002874755410713276 0 -0.021166955420880474 -0.0034655026492631763 0 -0.021126631763568104 -0.0033459408905380413 0 -0.021298794982072024 -0.002874755410713276 0 -0.022085267939460949 -0.0028236916206865201 0 -0.021414769349914788 -0.0029247211473555292 0 -0.020785712765019435 -0.0028193769567889434 0 -0.021126631763568104 -0.0033459408905380413 0 -0.021298794982072024 -0.002874755410713276 0 -0.022240618927346193 -0.0021027428208490509 0 -0.021570401082762449 -0.0021796674901459604 0 -0.021298794982072024 -0.002874755410713276 0 -0.021570401082762449 -0.0021796674901459604 0 -0.021298794982072024 -0.002874755410713276 0 -0.020927722184504286 -0.0023243104635427953 0 -0.021298794982072024 -0.002874755410713276 0 -0.020768339329358058 -0.0025692994073461682 0 -0.020927722184504286 -0.0023243104635427953 0 -0.021298794982072024 -0.002874755410713276 0 -0.02094910057850367 -0.0027241118094022986 0 -0.020871338518510814 -0.0026753134504476435 0 -0.021298794982072024 -0.002874755410713276 0 -0.020871338518510814 -0.0026753134504476435 0 -0.020768339329358058 -0.0025692994073461682 0 -0.020785712765019435 -0.0028193769567889434 0 -0.021298794982072024 -0.002874755410713276 0 -0.02094910057850367 -0.0027241118094022986 0 -0.02094910057850367 -0.0027241118094022986 0 -0.020733369697503026 -0.0026027628169526689 0 -0.020871338518510814 -0.0026753134504476435 0 -0.020785712765019435 -0.0028193769567889434 0 -0.02094910057850367 -0.0027241118094022986 0 -0.020733369697503026 -0.0026027628169526689 0 -0.020733369697503026 -0.0026027628169526689 0 -0.020871338518510814 -0.0026753134504476435 0 -0.02083062143697903 -0.0026498674635404319 0 -0.020871338518510814 -0.0026753134504476435 0 -0.02083062143697903 -0.0026498674635404319 0 -0.020443733441151427 -0.0027050342197257092 0 -0.020733369697503026 -0.0026027628169526689 0 -0.02083062143697903 -0.0026498674635404319 0 -0.020596142628587048 -0.0023918615982941225 0 -0.020211793034322141 -0.0022298512428104273 0 -0.020733369697503026 -0.0026027628169526689 0 -0.020596142628587048 -0.0023918615982941225 0 -0.020211793034322141 -0.0022298512428104273 0 -0.020733369697503026 -0.0026027628169526689 0 -0.020239890830854812 -0.0025679467325507139 0 -0.020211793034322141 -0.0022298512428104273 0 -0.019729188537636271 -0.0022010854726859665 0 -0.020239890830854812 -0.0025679467325507139 0 -0.020785712765019435 -0.0028193769567889434 0 -0.020733369697503026 -0.0026027628169526689 0 -0.020239890830854812 -0.0025679467325507139 0 -0.019490909999231851 -0.0026807807398025966 0 -0.019936721649196174 -0.0026982684448976714 0 -0.019900453282829005 -0.002445340557337256 0 -0.019490909999231851 -0.0026807807398025966 0 -0.019199616358230948 -0.0026092697068174743 0 -0.01950524021367097 -0.0023468164812062539 0 -0.018777101362864677 -0.0025180881846650249 0 -0.01876001911918173 -0.0019434062117207819 0 -0.019054598753101972 -0.0030222859622253263 0 -0.019490909999231851 -0.0026807807398025966 0 -0.019199616358230948 -0.0026092697068174743 0 -0.019490909999231851 -0.0026807807398025966 0 -0.019404082844102038 -0.0029469855630313152 0 -0.019936721649196174 -0.0026982684448976714 0 -0.019054598753101972 -0.0030222859622253263 0 -0.019490909999231851 -0.0026807807398025966 0 -0.019404082844102038 -0.0029469855630313152 0 -0.019404082844102038 -0.0029469855630313152 0 -0.019980748377467088 -0.0028981730652606489 0 -0.019936721649196174 -0.0026982684448976714 0 -0.019980748377467088 -0.0028981730652606489 0 -0.020443733441151427 -0.0027050342197257092 0 -0.019936721649196174 -0.0026982684448976714 0 -0.02083062143697903 -0.0026498674635404319 0 -0.020406085272119737 -0.0028927820276875328 0 -0.020443733441151427 -0.0027050342197257092 0 -0.019980748377467088 -0.0028981730652606489 0 -0.020406085272119737 -0.0028927820276875328 0 -0.020443733441151427 -0.0027050342197257092 0 -0.020871338518510814 -0.0026753134504476435 0 -0.020443733441151427 -0.0027050342197257092 0 -0.020362706023766847 -0.0025699990457779707 0 -0.019936721649196174 -0.0026982684448976714 0 -0.020362706023766847 -0.0025699990457779707 0 -0.019900453282829005 -0.002445340557337256 0 -0.020443733441151427 -0.0027050342197257092 0 -0.019936721649196174 -0.0026982684448976714 0 -0.020362706023766847 -0.0025699990457779707 0 -0.020362706023766847 -0.0025699990457779707 0 -0.020412627376339573 -0.002251403251074141 0 -0.019900453282829005 -0.002445340557337256 0 -0.020362706023766847 -0.0025699990457779707 0 -0.020768339329358058 -0.0025692994073461682 0 -0.020412627376339573 -0.002251403251074141 0 -0.020871338518510814 -0.0026753134504476435 0 -0.020362706023766847 -0.0025699990457779707 0 -0.020768339329358058 -0.0025692994073461682 0 -0.020927722184504286 -0.0023243104635427953 0 -0.020412627376339573 -0.002251403251074141 0 -0.020859883637805127 -0.0019499893424559328 0 -0.020768339329358058 -0.0025692994073461682 0 -0.020927722184504286 -0.0023243104635427953 0 -0.020412627376339573 -0.002251403251074141 0 -0.020412627376339573 -0.002251403251074141 0 -0.019843248863858999 -0.0021300713100520078 0 -0.019900453282829005 -0.002445340557337256 0 -0.020412627376339573 -0.002251403251074141 0 -0.019843248863858999 -0.0021300713100520078 0 -0.020122456598971297 -0.0018997934115025583 0 -0.019843248863858999 -0.0021300713100520078 0 -0.019771810522995738 -0.001713873897778669 0 -0.020122456598971297 -0.0018997934115025583 0 -0.019843248863858999 -0.0021300713100520078 0 -0.01950524021367097 -0.0023468164812062539 0 -0.019493084418392301 -0.0019837655128060526 0 -0.019843248863858999 -0.0021300713100520078 0 -0.019493084418392301 -0.0019837655128060526 0 -0.019771810522995738 -0.001713873897778669 0 -0.019843248863858999 -0.0021300713100520078 0 -0.019900453282829005 -0.002445340557337256 0 -0.01950524021367097 -0.0023468164812062539 0 -0.019490909999231851 -0.0026807807398025966 0 -0.019900453282829005 -0.002445340557337256 0 -0.01950524021367097 -0.0023468164812062539 0 -0.019199616358230948 -0.0026092697068174743 0 -0.01950524021367097 -0.0023468164812062539 0 -0.01912541341875049 -0.0021108838036321088 0 -0.01950524021367097 -0.0023468164812062539 0 -0.019493084418392301 -0.0019837655128060526 0 -0.01912541341875049 -0.0021108838036321088 0 -0.019493084418392301 -0.0019837655128060526 0 -0.019302487671810545 -0.0016187902468742259 0 -0.01912541341875049 -0.0021108838036321088 0 -0.019493084418392301 -0.0019837655128060526 0 -0.019302487671810545 -0.0016187902468742259 0 -0.019771810522995738 -0.001713873897778669 0 -0.019302487671810545 -0.0016187902468742259 0 -0.019233171021027586 -0.0012292712354590497 0 -0.01894239703935496 -0.0013824827373978396 0 -0.01936589422769576 -0.0016151345097775406 0 -0.018679254749988203 -0.0010199588777246374 0 -0.019302487671810545 -0.0016187902468742259 0 -0.019771810522995738 -0.001713873897778669 0 -0.01962234303125529 -0.0013328522441175962 0 -0.019771810522995738 -0.001713873897778669 0 -0.020122456598971297 -0.0018997934115025583 0 -0.020052647959206967 -0.001473817739717799 0 -0.019771810522995738 -0.001713873897778669 0 -0.01962234303125529 -0.0013328522441175962 0 -0.020052647959206967 -0.001473817739717799 0 -0.01962234303125529 -0.0013328522441175962 0 -0.0199125374088545 -0.0011629137159509897 0 -0.020052647959206967 -0.001473817739717799 0 -0.0199125374088545 -0.0011629137159509897 0 -0.019711595918724539 -0.0010014083868931383 0 -0.020013498710200237 -0.0008831995979598897 0 -0.01962234303125529 -0.0013328522441175962 0 -0.019711595918724539 -0.0010014083868931383 0 -0.019442902226764421 -0.0010420680180810099 0 -0.019711595918724539 -0.0010014083868931383 0 -0.019442902226764421 -0.0010420680180810099 0 -0.019578036330827671 -0.00078947118903683678 0 -0.01962234303125529 -0.0013328522441175962 0 -0.0199125374088545 -0.0011629137159509897 0 -0.019711595918724539 -0.0010014083868931383 0 -0.019442902226764421 -0.0010420680180810099 0 -0.019174033492579005 -0.00094587930907197499 0 -0.01935174709287216 -0.00080515453102491673 0 -0.019442902226764421 -0.0010420680180810099 0 -0.019174033492579005 -0.00094587930907197499 0 -0.019233171021027586 -0.0012292712354590497 0 -0.019302487671810545 -0.0016187902468742259 0 -0.01962234303125529 -0.0013328522441175962 0 -0.019233171021027586 -0.0012292712354590497 0 -0.01962234303125529 -0.0013328522441175962 0 -0.019442902226764421 -0.0010420680180810099 0 -0.019233171021027586 -0.0012292712354590497 0 -0.020412627376339573 -0.002251403251074141 0 -0.020859883637805127 -0.0019499893424559328 0 -0.020493880689125318 -0.0016968859215157396 0 -0.021368124206811258 -0.00185208107331343 0 -0.020859883637805127 -0.0019499893424559328 0 -0.021060712221011423 -0.0015346504497750824 0 -0.020859883637805127 -0.0019499893424559328 0 -0.020493880689125318 -0.0016968859215157396 0 -0.021060712221011423 -0.0015346504497750824 0 -0.020412627376339573 -0.002251403251074141 0 -0.020493880689125318 -0.0016968859215157396 0 -0.020122456598971297 -0.0018997934115025583 0 -0.020493880689125318 -0.0016968859215157396 0 -0.020052647959206967 -0.001473817739717799 0 -0.020390022473512976 -0.0013102309864701938 0 -0.020493880689125318 -0.0016968859215157396 0 -0.020122456598971297 -0.0018997934115025583 0 -0.020052647959206967 -0.001473817739717799 0 -0.020052647959206967 -0.001473817739717799 0 -0.020179185940827172 -0.0010772985996812022 0 -0.020390022473512976 -0.0013102309864701938 0 -0.0199125374088545 -0.0011629137159509897 0 -0.020052647959206967 -0.001473817739717799 0 -0.020179185940827172 -0.0010772985996812022 0 -0.020179185940827172 -0.0010772985996812022 0 -0.020290606410166195 -0.00081208821992080637 0 -0.020013498710200237 -0.0008831995979598897 0 -0.0199125374088545 -0.0011629137159509897 0 -0.020179185940827172 -0.0010772985996812022 0 -0.020013498710200237 -0.0008831995979598897 0 -0.020545486264601055 -0.00099269994835320119 0 -0.020390022473512976 -0.0013102309864701938 0 -0.020731666430887436 -0.0012694371561001189 0 -0.020179185940827172 -0.0010772985996812022 0 -0.020545486264601055 -0.00099269994835320119 0 -0.020390022473512976 -0.0013102309864701938 0 -0.020179185940827172 -0.0010772985996812022 0 -0.020545486264601055 -0.00099269994835320119 0 -0.020290606410166195 -0.00081208821992080637 0 -0.020493880689125318 -0.0016968859215157396 0 -0.020390022473512976 -0.0013102309864701938 0 -0.020731666430887436 -0.0012694371561001189 0 -0.020493880689125318 -0.0016968859215157396 0 -0.020731666430887436 -0.0012694371561001189 0 -0.021060712221011423 -0.0015346504497750824 0 -0.020545486264601055 -0.00099269994835320119 0 -0.020731666430887436 -0.0012694371561001189 0 -0.020910263079819431 -0.00086750487076696088 0 -0.021310326000223458 -0.001117120617404963 0 -0.020731666430887436 -0.0012694371561001189 0 -0.020910263079819431 -0.00086750487076696088 0 -0.021310326000223458 -0.001117120617404963 0 -0.020731666430887436 -0.0012694371561001189 0 -0.021060712221011423 -0.0015346504497750824 0 -0.021386024272978615 0.00012482508392860228 0 -0.020631857446549849 -0.00053097827498453578 0 -0.020248032039907524 -0.0002777981473360018 0 -0.021386024272978615 0.00012482508392860228 0 -0.021116804400633599 -0.00048717613108007255 0 -0.020631857446549849 -0.00053097827498453578 0 -0.021577154327049156 -0.00066151935995981842 0 -0.021310326000223458 -0.001117120617404963 0 -0.020910263079819431 -0.00086750487076696088 0 -0.021577154327049156 -0.00066151935995981842 0 -0.021116804400633599 -0.00048717613108007255 0 -0.020910263079819431 -0.00086750487076696088 0 -0.021116804400633599 -0.00048717613108007255 0 -0.020910263079819431 -0.00086750487076696088 0 -0.020631857446549849 -0.00053097827498453578 0 -0.020545486264601055 -0.00099269994835320119 0 -0.020910263079819431 -0.00086750487076696088 0 -0.020631857446549849 -0.00053097827498453578 0 -0.020631857446549849 -0.00053097827498453578 0 -0.020160370980364131 -0.00059454018558064261 0 -0.020248032039907524 -0.0002777981473360018 0 -0.020545486264601055 -0.00099269994835320119 0 -0.020631857446549849 -0.00053097827498453578 0 -0.020290606410166195 -0.00081208821992080637 0 -0.020631857446549849 -0.00053097827498453578 0 -0.020290606410166195 -0.00081208821992080637 0 -0.020160370980364131 -0.00059454018558064261 0 -0.020290606410166195 -0.00081208821992080637 0 -0.020013498710200237 -0.0008831995979598897 0 -0.020160370980364131 -0.00059454018558064261 0 -0.020013498710200237 -0.0008831995979598897 0 -0.020160370980364131 -0.00059454018558064261 0 -0.01986897078286556 -0.00063564358300453178 0 -0.020160370980364131 -0.00059454018558064261 0 -0.020248032039907524 -0.0002777981473360018 0 -0.01986897078286556 -0.00063564358300453178 0 -0.022290899054026054 0.00025339338035614895 0 -0.022473143114395674 0.00049381894268563532 0 -0.021599480317384588 0.00030589617127591581 0 -0.022838458780456504 0.00069278282116298903 0 -0.022566509806166472 0.00077609316086614912 0 -0.022741954391265546 0.0008564262100550739 0 -0.022975179698426385 0.00038058065082604241 0 -0.022290899054026054 0.00025339338035614895 0 -0.022473143114395674 0.00049381894268563532 0 -0.022975179698426385 0.00038058065082604241 0 -0.023160022972748991 0.00058852572041416214 0 -0.022473143114395674 0.00049381894268563532 0 -0.022202144415942999 0.00023010180238973346 0 -0.021305629072178488 -2.3721302458824038e-06 0 -0.023140659750938816 0.00060651425021202292 0 -0.022662600870490754 0.00057750151122138045 0 -0.019444510117012728 -0.0005537730322465453 0 -0.019135672730787326 -0.0007206788832686997 0 -0.018817047598108719 -0.00074220090756419832 0 -0.021487296389143651 0.00013006004827798137 0 -0.021599480317384588 0.00030589617127591581 0 -0.020704787502541896 9.2032970254355431e-05 0 -0.021996921244226572 0.00048052308900262358 0 -0.021377583465799724 2.7791460594702707e-05 0 -0.019444510117012728 -0.0005537730322465453 0 -0.019135672730787326 -0.0007206788832686997 0 -0.01935174709287216 -0.00080515453102491673 0 -0.019174033492579005 -0.00094587930907197499 0 -0.019135672730787326 -0.0007206788832686997 0 -0.01935174709287216 -0.00080515453102491673 0 -0.019442902226764421 -0.0010420680180810099 0 -0.01935174709287216 -0.00080515453102491673 0 -0.019578036330827671 -0.00078947118903683678 0 -0.019444510117012728 -0.0005537730322465453 0 -0.01935174709287216 -0.00080515453102491673 0 -0.019578036330827671 -0.00078947118903683678 0 -0.021305629072178488 -2.3721302458824038e-06 0 -0.02034156197983341 -0.00020570199623390161 0 -0.019711595918724539 -0.0010014083868931383 0 -0.019578036330827671 -0.00078947118903683678 0 -0.01986897078286556 -0.00063564358300453178 0 -0.020248032039907524 -0.0002777981473360018 0 -0.019444510117012728 -0.0005537730322465453 0 -0.01986897078286556 -0.00063564358300453178 0 -0.019711595918724539 -0.0010014083868931383 0 -0.020013498710200237 -0.0008831995979598897 0 -0.01986897078286556 -0.00063564358300453178 0 -0.019444510117012728 -0.0005537730322465453 0 -0.019578036330827671 -0.00078947118903683678 0 -0.01986897078286556 -0.00063564358300453178 0 -0.022290899054026054 0.00025339338035614895 0 -0.021487296389143651 0.00013006004827798137 0 -0.021599480317384588 0.00030589617127591581 0 -0.022838458780456504 0.00069278282116298903 0 -0.022416676955788379 0.00058439234648170215 0 -0.022566509806166472 0.00077609316086614912 0 -0.022662600870490754 0.00057750151122138045 0 -0.021996921244226572 0.00048052308900262358 0 -0.022416676955788379 0.00058439234648170215 0 -0.022566509806166472 0.00077609316086614912 0 -0.022429357521186032 0.00072602284561959756 0 -0.022566509806166472 0.00077609316086614912 0 -0.022429357521186032 0.00072602284561959756 0 -0.022348858325271087 0.0008457580420580291 0 -0.022187257750450159 0.00066016862112622536 0 -0.022348858325271087 0.0008457580420580291 0 -0.022068929279483149 0.0008735648158101993 0 -0.022416676955788379 0.00058439234648170215 0 -0.022187257750450159 0.00066016862112622536 0 -0.021931013357719235 0.00046159821849444267 0 -0.022345964372137747 0.00070379156327171047 0 -0.022187257750450159 0.00066016862112622536 0 -0.022348858325271087 0.0008457580420580291 0 -0.022429357521186032 0.00072602284561959756 0 -0.022345964372137747 0.00070379156327171047 0 -0.022348858325271087 0.0008457580420580291 0 -0.022416676955788379 0.00058439234648170215 0 -0.022429357521186032 0.00072602284561959756 0 -0.022345964372137747 0.00070379156327171047 0 -0.022416676955788379 0.00058439234648170215 0 -0.022345964372137747 0.00070379156327171047 0 -0.022187257750450159 0.00066016862112622536 0 -0.022348858325271087 0.0008457580420580291 0 -0.022217540507452904 0.0012893942004133269 0 -0.022068929279483149 0.0008735648158101993 0 -0.022348858325271087 0.0008457580420580291 0 -0.022629400928375201 0.0010391105390154002 0 -0.022491454947415061 0.001235208512486223 0 -0.022566509806166472 0.00077609316086614912 0 -0.022348858325271087 0.0008457580420580291 0 -0.022629400928375201 0.0010391105390154002 0 -0.022629400928375201 0.0010391105390154002 0 -0.022491454947415061 0.001235208512486223 0 -0.022691660225456222 0.0013916497253801561 0 -0.022348858325271087 0.0008457580420580291 0 -0.022491454947415061 0.001235208512486223 0 -0.022217540507452904 0.0012893942004133269 0 -0.022491454947415061 0.001235208512486223 0 -0.022217540507452904 0.0012893942004133269 0 -0.022605696591730725 0.0015536085958069005 0 -0.022510970261734067 0.0012339198834580298 0 -0.022654240084649356 0.0017402583460909393 0 -0.022832138804655983 0.0012177791216697984 0 -0.022876394939800451 0.0017781251497100358 0 -0.022638317719144919 0.0018468985849173611 0 -0.022217540507452904 0.0012893942004133269 0 -0.022605696591730725 0.0015536085958069005 0 -0.022429761655874736 0.001724859643476155 0 -0.022491454947415061 0.001235208512486223 0 -0.022605696591730725 0.0015536085958069005 0 -0.022691660225456222 0.0013916497253801561 0 -0.022429761655874736 0.001724859643476155 0 -0.022811332846120677 0.0017810485819192219 0 -0.022842509970849894 0.0019961854560353464 0 -0.022605696591730725 0.0015536085958069005 0 -0.022429761655874736 0.001724859643476155 0 -0.022811332846120677 0.0017810485819192219 0 -0.022876394939800451 0.0017781251497100358 0 -0.02270038522192553 0.0021375923606753275 0 -0.022638317719144919 0.0018468985849173611 0 -0.022956463683980907 0.0017718113063126201 0 -0.023038157221559379 0.0017102611222499292 0 -0.0228701059990183 0.0016039068185507014 0 -0.022956463683980907 0.0017718113063126201 0 -0.023038157221559379 0.0017102611222499292 0 -0.02305607491538959 0.0018582585018675278 0 -0.023038157221559379 0.0017102611222499292 0 -0.02320845292200004 0.0018270316664192707 0 -0.023159833168577799 0.0018606762981928128 0 -0.023038157221559379 0.0017102611222499292 0 -0.02312147556093613 0.0015928801012338597 0 -0.02320845292200004 0.0018270316664192707 0 -0.023038157221559379 0.0017102611222499292 0 -0.02305607491538959 0.0018582585018675278 0 -0.023159833168577799 0.0018606762981928128 0 -0.022956463683980907 0.0017718113063126201 0 -0.02305607491538959 0.0018582585018675278 0 -0.022987998292118089 0.0019673753630532614 0 -0.022956463683980907 0.0017718113063126201 0 -0.022811332846120677 0.0017810485819192219 0 -0.022987998292118089 0.0019673753630532614 0 -0.022605696591730725 0.0015536085958069005 0 -0.022811332846120677 0.0017810485819192219 0 -0.0228701059990183 0.0016039068185507014 0 -0.022921794004326472 0.0018419415114449993 0 -0.022825701931446726 0.0018831751344477381 0 -0.022956463683980907 0.0017718113063126201 0 -0.022811332846120677 0.0017810485819192219 0 -0.0228701059990183 0.0016039068185507014 0 -0.022605696591730725 0.0015536085958069005 0 -0.0228701059990183 0.0016039068185507014 0 -0.022691660225456222 0.0013916497253801561 0 -0.0228701059990183 0.0016039068185507014 0 -0.022859490761559052 0.0013844700135550981 0 -0.022982275157653199 0.0014905279449894671 0 -0.0228701059990183 0.0016039068185507014 0 -0.022691660225456222 0.0013916497253801561 0 -0.022859490761559052 0.0013844700135550981 0 -0.022859490761559052 0.0013844700135550981 0 -0.022982275157653199 0.0014905279449894671 0 -0.022955316882680377 0.001243088361679346 0 -0.023038157221559379 0.0017102611222499292 0 -0.0228701059990183 0.0016039068185507014 0 -0.022982275157653199 0.0014905279449894671 0 -0.023038157221559379 0.0017102611222499292 0 -0.022982275157653199 0.0014905279449894671 0 -0.02312147556093613 0.0015928801012338597 0 -0.022982275157653199 0.0014905279449894671 0 -0.02312147556093613 0.0015928801012338597 0 -0.023099123735046169 0.001331232814113451 0 -0.022982275157653199 0.0014905279449894671 0 -0.023099123735046169 0.001331232814113451 0 -0.022955316882680377 0.001243088361679346 0 -0.023099123735046169 0.001331232814113451 0 -0.022955316882680377 0.001243088361679346 0 -0.02306156562023718 0.0010583330748793296 0 -0.022955316882680377 0.001243088361679346 0 -0.022923993115645063 0.0010260051293414479 0 -0.022803465845499304 0.001186099315450005 0 -0.022955316882680377 0.001243088361679346 0 -0.022923993115645063 0.0010260051293414479 0 -0.02306156562023718 0.0010583330748793296 0 -0.022629400928375201 0.0010391105390154002 0 -0.022691660225456222 0.0013916497253801561 0 -0.022803465845499304 0.001186099315450005 0 -0.022859490761559052 0.0013844700135550981 0 -0.022955316882680377 0.001243088361679346 0 -0.022803465845499304 0.001186099315450005 0 -0.022691660225456222 0.0013916497253801561 0 -0.022859490761559052 0.0013844700135550981 0 -0.022803465845499304 0.001186099315450005 0 -0.022923993115645063 0.0010260051293414479 0 -0.022803465845499304 0.001186099315450005 0 -0.022790964639045008 0.00098194054294872997 0 -0.022629400928375201 0.0010391105390154002 0 -0.022803465845499304 0.001186099315450005 0 -0.022790964639045008 0.00098194054294872997 0 -0.022566509806166472 0.00077609316086614912 0 -0.022629400928375201 0.0010391105390154002 0 -0.022741954391265546 0.0008564262100550739 0 -0.022629400928375201 0.0010391105390154002 0 -0.022790964639045008 0.00098194054294872997 0 -0.022741954391265546 0.0008564262100550739 0 -0.022923993115645063 0.0010260051293414479 0 -0.022790964639045008 0.00098194054294872997 0 -0.022859311086543897 0.0008639838142644197 0 -0.022790964639045008 0.00098194054294872997 0 -0.022741954391265546 0.0008564262100550739 0 -0.022859311086543897 0.0008639838142644197 0 -0.022838458780456504 0.00069278282116298903 0 -0.022741954391265546 0.0008564262100550739 0 -0.022859311086543897 0.0008639838142644197 0 -0.023160022972748991 0.00058852572041416214 0 -0.022838458780456504 0.00069278282116298903 0 -0.022991506794530388 0.00081435367195292492 0 -0.022923993115645063 0.0010260051293414479 0 -0.02306156562023718 0.0010583330748793296 0 -0.022991506794530388 0.00081435367195292492 0 -0.022923993115645063 0.0010260051293414479 0 -0.022859311086543897 0.0008639838142644197 0 -0.022991506794530388 0.00081435367195292492 0 -0.022838458780456504 0.00069278282116298903 0 -0.022859311086543897 0.0008639838142644197 0 -0.022991506794530388 0.00081435367195292492 0 -0.023160022972748991 0.00058852572041416214 0 -0.023191302845900819 0.00088096251977380028 0 -0.023535417501768286 0.00080790026246528081 0 -0.023160022972748991 0.00058852572041416214 0 -0.022991506794530388 0.00081435367195292492 0 -0.023191302845900819 0.00088096251977380028 0 -0.02306156562023718 0.0010583330748793296 0 -0.022991506794530388 0.00081435367195292492 0 -0.023191302845900819 0.00088096251977380028 0 -0.023160022972748991 0.00058852572041416214 0 -0.023299453558263301 0.0003002710826994802 0 -0.023535417501768286 0.00080790026246528081 0 -0.023535417501768286 0.00080790026246528081 0 -0.023634080771984551 0.0012904272373074892 0 -0.023297881222227868 0.001158938536461165 0 -0.023535417501768286 0.00080790026246528081 0 -0.023634080771984551 0.0012904272373074892 0 -0.024146237861969899 0.0013204192991244927 0 -0.023191302845900819 0.00088096251977380028 0 -0.023535417501768286 0.00080790026246528081 0 -0.023297881222227868 0.001158938536461165 0 -0.023099123735046169 0.001331232814113451 0 -0.023297881222227868 0.001158938536461165 0 -0.023222405928273522 0.0014798901568533983 0 -0.023099123735046169 0.001331232814113451 0 -0.02306156562023718 0.0010583330748793296 0 -0.023297881222227868 0.001158938536461165 0 -0.02306156562023718 0.0010583330748793296 0 -0.023191302845900819 0.00088096251977380028 0 -0.023297881222227868 0.001158938536461165 0 -0.024722557776152111 0.0004453403956456301 0 -0.024348413578313369 0.0010363967546319049 0 -0.025909887450370331 0.00087813136266463952 0 -0.024722557776152111 0.0004453403956456301 0 -0.023952403082915297 0.00055094534497908756 0 -0.024348413578313369 0.0010363967546319049 0 -0.023299453558263301 0.0003002710826994802 0 -0.023535417501768286 0.00080790026246528081 0 -0.023952403082915297 0.00055094534497908756 0 -0.023535417501768286 0.00080790026246528081 0 -0.023952403082915297 0.00055094534497908756 0 -0.024348413578313369 0.0010363967546319049 0 -0.023535417501768286 0.00080790026246528081 0 -0.024348413578313369 0.0010363967546319049 0 -0.024146237861969899 0.0013204192991244927 0 -0.024348413578313369 0.0010363967546319049 0 -0.024146237861969899 0.0013204192991244927 0 -0.025105443638432697 0.0017560345820726666 0 -0.024267000311732515 0.0013174890430450502 0 -0.025604078057509094 0.0013921393896801683 0 -0.025478143288949977 0.0018039407176284605 0 -0.024146237861969899 0.0013204192991244927 0 -0.02608077107171608 0.00099238592539999809 0 -0.024146237861969899 0.0013204192991244927 0 -0.024617612406757094 0.0021822822445570805 0 -0.023818508194520149 0.0017409281000707567 0 -0.025478143288949977 0.0018039407176284605 0 -0.024146237861969899 0.0013204192991244927 0 -0.024617612406757094 0.0021822822445570805 0 -0.024617612406757094 0.0021822822445570805 0 -0.02384632184602151 0.0022444025854636072 0 -0.024243143731655318 0.0028748544367800245 0 -0.024617612406757094 0.0021822822445570805 0 -0.023818508194520149 0.0017409281000707567 0 -0.02384632184602151 0.0022444025854636072 0 -0.024617612406757094 0.0021822822445570805 0 -0.02561049660040781 0.0025853992043506162 0 -0.025614129739595468 0.0027922503697741801 0 -0.024617612406757094 0.0021822822445570805 0 -0.025614129739595468 0.0027922503697741801 0 -0.024787039062211712 0.0028540340167199354 0 -0.025478143288949977 0.0018039407176284605 0 -0.024617612406757094 0.0021822822445570805 0 -0.02561049660040781 0.0025853992043506162 0 -0.02561049660040781 0.0025853992043506162 0 -0.02579954869380988 0.0022816591190206103 0 -0.025631062755303583 0.0028608062232437221 0 -0.026935010054040122 0.0025855115946268707 0 -0.02713136470526397 0.0025602005366475041 0 -0.025478143288949977 0.0018039407176284605 0 -0.02561049660040781 0.0025853992043506162 0 -0.02579954869380988 0.0022816591190206103 0 -0.023429111150399071 0.0015494499791381265 0 -0.023262791135955439 0.0017037558787142014 0 -0.023364173134159928 0.0019710937001671219 0 -0.023429111150399071 0.0015494499791381265 0 -0.023262791135955439 0.0017037558787142014 0 -0.023222405928273522 0.0014798901568533983 0 -0.02312147556093613 0.0015928801012338597 0 -0.023262791135955439 0.0017037558787142014 0 -0.023222405928273522 0.0014798901568533983 0 -0.02312147556093613 0.0015928801012338597 0 -0.023262791135955439 0.0017037558787142014 0 -0.02320845292200004 0.0018270316664192707 0 -0.02312147556093613 0.0015928801012338597 0 -0.023099123735046169 0.001331232814113451 0 -0.023222405928273522 0.0014798901568533983 0 -0.023297881222227868 0.001158938536461165 0 -0.023429111150399071 0.0015494499791381265 0 -0.023222405928273522 0.0014798901568533983 0 -0.023634080771984551 0.0012904272373074892 0 -0.023429111150399071 0.0015494499791381265 0 -0.023818508194520149 0.0017409281000707567 0 -0.023634080771984551 0.0012904272373074892 0 -0.023297881222227868 0.001158938536461165 0 -0.023429111150399071 0.0015494499791381265 0 -0.023634080771984551 0.0012904272373074892 0 -0.024146237861969899 0.0013204192991244927 0 -0.023818508194520149 0.0017409281000707567 0 -0.023429111150399071 0.0015494499791381265 0 -0.023818508194520149 0.0017409281000707567 0 -0.023364173134159928 0.0019710937001671219 0 -0.023818508194520149 0.0017409281000707567 0 -0.02384632184602151 0.0022444025854636072 0 -0.023364173134159928 0.0019710937001671219 0 -0.02384632184602151 0.0022444025854636072 0 -0.023364173134159928 0.0019710937001671219 0 -0.023217430047587934 0.002514094525155604 0 -0.02305607491538959 0.0018582585018675278 0 -0.023159833168577799 0.0018606762981928128 0 -0.023324863300042183 0.0020339799724490197 0 -0.023364173134159928 0.0019710937001671219 0 -0.02320845292200004 0.0018270316664192707 0 -0.023324863300042183 0.0020339799724490197 0 -0.022767494055357038 0.0018326035171413529 0 -0.024407517640339566 0.0019095663831433483 0 -0.023663157609192586 0.0022077495502913305 0 -0.024407517640339566 0.0019095663831433483 0 -0.023262791135955439 0.0017037558787142014 0 -0.023364173134159928 0.0019710937001671219 0 -0.02320845292200004 0.0018270316664192707 0 -0.02320845292200004 0.0018270316664192707 0 -0.023159833168577799 0.0018606762981928128 0 -0.023324863300042183 0.0020339799724490197 0 -0.02305607491538959 0.0018582585018675278 0 -0.023446632696978952 0.0020374647202731928 0 -0.023631200829469616 0.0019157112827192602 0 -0.023446632696978952 0.0020374647202731928 0 -0.023444154773881804 0.0022346381939668675 0 -0.023250725848553228 0.002030675992407251 0 -0.023446632696978952 0.0020374647202731928 0 -0.023444154773881804 0.0022346381939668675 0 -0.023564886682170563 0.0022095572324955588 0 -0.025426177647542559 0.0011905212388485856 0 -0.028726814828943171 0.00097576986099542364 0 -0.025426177647542559 0.0011905212388485856 0 -0.029668494492169593 0.0010931091278961866 0 -0.02840928572932121 0.0010400040000068782 0 -0.028300371474413926 0.00097761557628718229 0 -0.028277444140799156 0.0010701686725211777 0 -0.029668494492169593 0.0010931091278961866 0 -0.028726814828943171 0.00097576986099542364 0 -0.023446632696978952 0.0020374647202731928 0 -0.023564886682170563 0.0022095572324955588 0 -0.023631200829469616 0.0019157112827192602 0 -0.028726814828943171 0.00097576986099542364 0 -0.024407517640339566 0.0019095663831433483 0 -0.028738446880564292 0.0011319186743492589 0 -0.02942760823030811 0.0011087572268544089 0 -0.029369302862921907 0.0010888192559627193 0 -0.02384632184602151 0.0022444025854636072 0 -0.023217430047587934 0.002514094525155604 0 -0.024243143731655318 0.0028748544367800245 0 -0.026787013169907323 0.0016565494639733892 0 -0.026847204643029449 0.0013895556228201084 0 -0.027430287257705771 0.0015138870281110545 0 -0.028726814828943171 0.00097576986099542364 0 -0.02779405759033593 0.0013978038041710938 0 -0.024407517640339566 0.0019095663831433483 0 -0.02779405759033593 0.0013978038041710938 0 -0.028726814828943171 0.00097576986099542364 0 -0.031125531331753782 0.0011294431470019906 0 -0.033326819008912253 -5.2390013074430019e-05 0 -0.033805515681241675 0.00022714108483649968 0 -0.033995465300652318 -0.00014448166857720718 0 -0.029668494492169593 0.0010931091278961866 0 -0.034750398314569615 0.00043666836262268652 0 -0.034368739387702692 0.00036436744584344852 0 -0.034352620038124081 0.00033525478681408865 0 -0.0343866484167272 0.00031298796514709796 0 -0.033309422914910701 1.2864015020789219e-05 0 -0.033326819008912253 -5.2390013074430019e-05 0 -0.033805515681241675 0.00022714108483649968 0 -0.034368739387702692 0.00036436744584344852 0 -0.0343866484167272 0.00031298796514709796 0 -0.034426266921533541 0.0002805858330110233 0 -0.023796127621674917 0.0021558684341920729 0 -0.023778311127947344 0.0026494843863727408 0 -0.023659607490264301 0.0022998124391123693 0 -0.02401056942298456 0.0019089955131893351 0 -0.023796127621674917 0.0021558684341920729 0 -0.023778311127947344 0.0026494843863727408 0 -0.029668494492169593 0.0010931091278961866 0 -0.029481173930746774 0.0014241501459252676 0 -0.023906018698523133 0.0018469632979830886 0 -0.02401056942298456 0.0019089955131893351 0 -0.023796127621674917 0.0021558684341920729 0 -0.023906018698523133 0.0018469632979830886 0 -0.023796127621674917 0.0021558684341920729 0 -0.023629106592591188 0.0020817071434198874 0 -0.033018798276275893 0.0016055338493594093 0 -0.031125531331753782 0.0011294431470019906 0 -0.031258707846883317 0.0015043266434622974 0 -0.030942212709745981 0.0012956051390321701 0 -0.03060111293764356 0.0013566417567116786 0 -0.034348343528809978 4.8690076081058655e-06 0 -0.033995465300652318 -0.00014448166857720718 0 -0.034183726574503991 0.00012234386287499356 0 -0.033018798276275893 0.0016055338493594093 0 -0.030182197651133592 0.001836210796473446 0 -0.029141887517294223 0.0017904443171596778 0 -0.029136096450299777 0.0016725194208326677 0 -0.028803015074659089 0.0017348032584839129 0 -0.031258707846883317 0.0015043266434622974 0 -0.031249779957058476 0.0013482303477351477 0 -0.030942212709745981 0.0012956051390321701 0 -0.027595701654194362 0.0021827999051156417 0 -0.02759682991337007 0.002222263708884716 0 -0.027821877838362187 0.0021313096573813209 0 -0.030182197651133592 0.001836210796473446 0 -0.027925364366752466 0.0024082644843801035 0 -0.026946855392677608 0.0026042944201439258 0 -0.026948421748003406 0.0025284114461335853 0 -0.027086168348705957 0.0025639817520084589 0 -0.027925364366752466 0.0024082644843801035 0 -0.02713136470526397 0.0025602005366475041 0 -0.027925364366752466 0.0024082644843801035 0 -0.028803836398271093 0.0019433388708902679 0 -0.02759682991337007 0.002222263708884716 0 -0.027821877838362187 0.0021313096573813209 0 -0.027891558911626566 0.0021444962317370437 0 -0.02713136470526397 0.0025602005366475041 0 -0.027118350883133496 0.0021097747795049237 0 -0.030182197651133592 0.001836210796473446 0 -0.028803836398271093 0.0019433388708902679 0 -0.028803836398271093 0.0019433388708902679 0 -0.027118350883133496 0.0021097747795049237 0 -0.027118350883133496 0.0021097747795049237 0 -0.02779405759033593 0.0013978038041710938 0 -0.02814153468364813 0.0017704097791927213 0 -0.028433951191939734 0.0018266870857127757 0 -0.029213146572915488 0.0015311463435773599 0 -0.024617612406757094 0.0021822822445570805 0 -0.024787039062211712 0.0028540340167199354 0 -0.024243143731655318 0.0028748544367800245 0 -0.028803836398271093 0.0019433388708902679 0 -0.031125531331753782 0.0011294431470019906 0 -0.028433951191939734 0.0018266870857127757 0 -0.029213146572915488 0.0015311463435773599 0 -0.029423569586331116 0.0015702334324717163 0 -0.031125531331753782 0.0011294431470019906 0 -0.02779405759033593 0.0013978038041710938 0 -0.033805515681241675 0.00022714108483649968 0 -0.034183726574503991 0.00012234386287499356 0 -0.034244803320300381 0.00028762253006266907 0 -0.033805515681241675 0.00022714108483649968 0 -0.033995465300652318 -0.00014448166857720718 0 -0.034183726574503991 0.00012234386287499356 0 -0.034750398314569615 0.00043666836262268652 0 -0.033978273274793372 0.00018971609463509448 0 -0.034348343528809978 4.8690076081058655e-06 0 -0.034183726574503991 0.00012234386287499356 0 -0.034312637398649988 0.00029950919257075475 0 -0.034617833123121375 0.0024596883172296226 0 -0.034565632542232855 0.0013042289037339544 0 -0.034289567522335807 0.0019028502478467531 0 -0.033018798276275893 0.0016055338493594093 0 -0.034621084210105811 0.0007194308519931521 0 -0.034183726574503991 0.00012234386287499356 0 -0.034312637398649988 0.00029950919257075475 0 -0.034244803320300381 0.00028762253006266907 0 -0.034312637398649988 0.00029950919257075475 0 -0.034244803320300381 0.00028762253006266907 0 -0.034324636909476264 0.00024406149892130705 0 -0.034352620038124081 0.00033525478681408865 0 -0.034244803320300381 0.00028762253006266907 0 -0.034339387823293155 0.00026661571535871632 0 -0.034244803320300381 0.00028762253006266907 0 -0.034339387823293155 0.00026661571535871632 0 -0.034324636909476264 0.00024406149892130705 0 -0.034339387823293155 0.00026661571535871632 0 -0.034324636909476264 0.00024406149892130705 0 -0.034386448136254473 0.00022161714054133138 0 -0.034324636909476264 0.00024406149892130705 0 -0.034386448136254473 0.00022161714054133138 0 -0.034399885406783286 0.00015476361932932614 0 -0.034621084210105811 0.0007194308519931521 0 -0.034374480387849043 0.00024037982105852088 0 -0.034312637398649988 0.00029950919257075475 0 -0.034324636909476264 0.00024406149892130705 0 -0.034319429506640298 0.00018031745947992366 0 -0.034324636909476264 0.00024406149892130705 0 -0.034319429506640298 0.00018031745947992366 0 -0.034399885406783286 0.00015476361932932614 0 -0.0343866484167272 0.00031298796514709796 0 -0.034426266921533541 0.0002805858330110233 0 -0.034387012050493243 0.00027482192696033517 0 -0.034426266921533541 0.0002805858330110233 0 -0.034387012050493243 0.00027482192696033517 0 -0.034430470351240423 0.00021329820884075917 0 -0.034352620038124081 0.00033525478681408865 0 -0.0343866484167272 0.00031298796514709796 0 -0.034387012050493243 0.00027482192696033517 0 -0.034352620038124081 0.00033525478681408865 0 -0.034339387823293155 0.00026661571535871632 0 -0.034387012050493243 0.00027482192696033517 0 -0.034339387823293155 0.00026661571535871632 0 -0.034387012050493243 0.00027482192696033517 0 -0.034386448136254473 0.00022161714054133138 0 -0.034387012050493243 0.00027482192696033517 0 -0.034386448136254473 0.00022161714054133138 0 -0.034430470351240423 0.00021329820884075917 0 -0.034386448136254473 0.00022161714054133138 0 -0.034430470351240423 0.00021329820884075917 0 -0.034440609965872948 0.00015364159671945259 0 -0.034426266921533541 0.0002805858330110233 0 -0.034430470351240423 0.00021329820884075917 0 -0.034476764831663169 0.0001713486096186132 0 -0.029481173930746774 0.0014241501459252676 0 -0.025665330952739783 0.001597737826946218 0 -0.023778311127947344 0.0026494843863727408 0 -0.023461610968585969 0.002718682329133222 0 -0.023655681744436097 0.0031848945923528627 0 -0.022938552438798714 0.002361121382786927 0 -0.022903306858628261 0.0023290942169539672 0 -0.022833017558190304 0.0022711316495290525 0 -0.022968111749377126 0.0026754099834745268 0 -0.025665330952739783 0.001597737826946218 0 -0.023778311127947344 0.0026494843863727408 0 -0.023461610968585969 0.002718682329133222 0 -0.023604372321827941 0.0024728349270054114 0 -0.023461610968585969 0.002718682329133222 0 -0.023604372321827941 0.0024728349270054114 0 -0.02347168524764686 0.002286384480871549 0 -0.022968111749377126 0.0026754099834745268 0 -0.023165463315765099 0.0020908697774683046 0 -0.023778311127947344 0.0026494843863727408 0 -0.023604372321827941 0.0024728349270054114 0 -0.023659607490264301 0.0022998124391123693 0 -0.022938552438798714 0.002361121382786927 0 -0.022998988170551325 0.002245055717493278 0 -0.023134623202291461 0.002133024243855241 0 -0.02294829048117969 0.0023069270944242196 0 -0.022901494107442067 0.0023327455405528679 0 -0.022912923441708699 0.0022518165703148216 0 -0.02294829048117969 0.0023069270944242196 0 -0.022998988170551325 0.002245055717493278 0 -0.022912923441708699 0.0022518165703148216 0 -0.022938552438798714 0.002361121382786927 0 -0.02294829048117969 0.0023069270944242196 0 -0.022998988170551325 0.002245055717493278 0 -0.022938552438798714 0.002361121382786927 0 -0.02294829048117969 0.0023069270944242196 0 -0.022924174413487389 0.002342112210258024 0 -0.02294829048117969 0.0023069270944242196 0 -0.022924174413487389 0.002342112210258024 0 -0.022901494107442067 0.0023327455405528679 0 -0.022924174413487389 0.002342112210258024 0 -0.022901494107442067 0.0023327455405528679 0 -0.022893356615375452 0.0023480294285838183 0 -0.022893356615375452 0.0023480294285838183 0 -0.022869142520198792 0.0023316504031274986 0 -0.022887240969912789 0.0022899474843098735 0 -0.022938552438798714 0.002361121382786927 0 -0.022924174413487389 0.002342112210258024 0 -0.022903306858628261 0.0023290942169539672 0 -0.022924174413487389 0.002342112210258024 0 -0.022893356615375452 0.0023480294285838183 0 -0.022903306858628261 0.0023290942169539672 0 -0.022893356615375452 0.0023480294285838183 0 -0.022903306858628261 0.0023290942169539672 0 -0.022887240969912789 0.0022899474843098735 0 -0.022851594374851306 0.002441746229232814 0 -0.022854981808002769 0.0023885921771116115 0 -0.022869142520198792 0.0023316504031274986 0 -0.022893356615375452 0.0023480294285838183 0 -0.022854981808002769 0.0023885921771116115 0 -0.022869142520198792 0.0023316504031274986 0 -0.022851594374851306 0.002441746229232814 0 -0.022799711931707631 0.0024505988855824763 0 -0.022854981808002769 0.0023885921771116115 0 -0.022799711931707631 0.0024505988855824763 0 -0.022854981808002769 0.0023885921771116115 0 -0.02279159081730325 0.0023074944723938105 0 -0.022799711931707631 0.0024505988855824763 0 -0.02279159081730325 0.0023074944723938105 0 -0.022725870719611251 0.0023779984771857723 0 -0.022854981808002769 0.0023885921771116115 0 -0.022850678065678649 0.0022734633302350011 0 -0.02279159081730325 0.0023074944723938105 0 -0.022901494107442067 0.0023327455405528679 0 -0.022854981808002769 0.0023885921771116115 0 -0.022850678065678649 0.0022734633302350011 0 -0.022901494107442067 0.0023327455405528679 0 -0.022893356615375452 0.0023480294285838183 0 -0.022854981808002769 0.0023885921771116115 0 -0.022901494107442067 0.0023327455405528679 0 -0.022850678065678649 0.0022734633302350011 0 -0.022912923441708699 0.0022518165703148216 0 -0.022850678065678649 0.0022734633302350011 0 -0.022864611634297378 0.0021409889054667679 0 -0.022912923441708699 0.0022518165703148216 0 -0.022850678065678649 0.0022734633302350011 0 -0.02279159081730325 0.0023074944723938105 0 -0.022778915292667051 0.0021206448441454945 0 -0.022850678065678649 0.0022734633302350011 0 -0.022864611634297378 0.0021409889054667679 0 -0.022778915292667051 0.0021206448441454945 0 -0.02279159081730325 0.0023074944723938105 0 -0.02270038522192553 0.0021375923606753275 0 -0.022725870719611251 0.0023779984771857723 0 -0.02279159081730325 0.0023074944723938105 0 -0.02270038522192553 0.0021375923606753275 0 -0.022778915292667051 0.0021206448441454945 0 -0.022876394939800451 0.0017781251497100358 0 -0.02270038522192553 0.0021375923606753275 0 -0.022778915292667051 0.0021206448441454945 0 -0.022654240084649356 0.0017402583460909393 0 -0.0227626751887442 0.0020775076432334215 0 -0.022429761655874736 0.001724859643476155 0 -0.022778915292667051 0.0021206448441454945 0 -0.022842509970849894 0.0019961854560353464 0 -0.022864611634297378 0.0021409889054667679 0 -0.022778915292667051 0.0021206448441454945 0 -0.022842509970849894 0.0019961854560353464 0 -0.022811332846120677 0.0017810485819192219 0 -0.022842509970849894 0.0019961854560353464 0 -0.022976715500591931 0.0019970460900854748 0 -0.022811332846120677 0.0017810485819192219 0 -0.022976715500591931 0.0019970460900854748 0 -0.023149488332300645 0.0019177525265960372 0 -0.022842509970849894 0.0019961854560353464 0 -0.022920128961481712 0.0020892242417554657 0 -0.022976715500591931 0.0019970460900854748 0 -0.022864611634297378 0.0021409889054667679 0 -0.022842509970849894 0.0019961854560353464 0 -0.022920128961481712 0.0020892242417554657 0 -0.022976715500591931 0.0019970460900854748 0 -0.023149488332300645 0.0019177525265960372 0 -0.022980906305271467 0.00214127855089145 0 -0.022920128961481712 0.0020892242417554657 0 -0.022976715500591931 0.0019970460900854748 0 -0.022980906305271467 0.00214127855089145 0 -0.025426177647542559 0.0011905212388485856 0 -0.022825701931446726 0.0018831751344477381 0 -0.023444154773881804 0.0022346381939668675 0 -0.022987998292118089 0.0019673753630532614 0 -0.023250725848553228 0.002030675992407251 0 -0.023469953064474598 0.0020629019876845199 0 -0.023149488332300645 0.0019177525265960372 0 -0.023181136772131669 0.0021195697960805699 0 -0.02305607491538959 0.0018582585018675278 0 -0.023446632696978952 0.0020374647202731928 0 -0.023250725848553228 0.002030675992407251 0 -0.02305607491538959 0.0018582585018675278 0 -0.022987998292118089 0.0019673753630532614 0 -0.023250725848553228 0.002030675992407251 0 -0.025426177647542559 0.0011905212388485856 0 -0.023012338555469448 0.0021018666419238561 0 -0.023149488332300645 0.0019177525265960372 0 -0.023181136772131669 0.0021195697960805699 0 -0.022980906305271467 0.00214127855089145 0 -0.023461610968585969 0.002718682329133222 0 -0.02347168524764686 0.002286384480871549 0 -0.023134623202291461 0.002133024243855241 0 -0.023383929762389059 0.0019455746038815206 0 -0.02347168524764686 0.002286384480871549 0 -0.023134623202291461 0.002133024243855241 0 -0.023012338555469448 0.0021018666419238561 0 -0.023029746291310157 0.0021290617115570561 0 -0.023906018698523133 0.0018469632979830886 0 -0.023383929762389059 0.0019455746038815206 0 -0.023629106592591188 0.0020817071434198874 0 -0.023383929762389059 0.0019455746038815206 0 -0.023629106592591188 0.0020817071434198874 0 -0.02347168524764686 0.002286384480871549 0 -0.023796127621674917 0.0021558684341920729 0 -0.023629106592591188 0.0020817071434198874 0 -0.023659607490264301 0.0022998124391123693 0 -0.023629106592591188 0.0020817071434198874 0 -0.023659607490264301 0.0022998124391123693 0 -0.02347168524764686 0.002286384480871549 0 -0.023604372321827941 0.0024728349270054114 0 -0.023659607490264301 0.0022998124391123693 0 -0.02347168524764686 0.002286384480871549 0 -0.022998988170551325 0.002245055717493278 0 -0.022912923441708699 0.0022518165703148216 0 -0.022943411691270902 0.0021426694388482462 0 -0.022864611634297378 0.0021409889054667679 0 -0.022920128961481712 0.0020892242417554657 0 -0.022943411691270902 0.0021426694388482462 0 -0.022864611634297378 0.0021409889054667679 0 -0.022912923441708699 0.0022518165703148216 0 -0.022943411691270902 0.0021426694388482462 0 -0.022920128961481712 0.0020892242417554657 0 -0.022943411691270902 0.0021426694388482462 0 -0.022980906305271467 0.00214127855089145 0 -0.022998988170551325 0.002245055717493278 0 -0.022943411691270902 0.0021426694388482462 0 -0.023134623202291461 0.002133024243855241 0 -0.023383929762389059 0.0019455746038815206 0 -0.022943411691270902 0.0021426694388482462 0 -0.023134623202291461 0.002133024243855241 0 -0.023091736264447091 0.0021604510997752062 0 -0.022943411691270902 0.0021426694388482462 0 -0.022980906305271467 0.00214127855089145 0 -0.023012338555469448 0.0021018666419238561 0 -0.023061706653413151 0.0021060755942653429 0 -0.028636808831044299 -0.0003417763839030231 0 -0.02940882341293128 -0.00032322713893327562 0 -0.028828979547890255 -4.4499013856106106e-06 0 -0.028919533349951336 -0.00058476254366679286 0 -0.028636808831044299 -0.0003417763839030231 0 -0.02940882341293128 -0.00032322713893327562 0 -0.029784951779098987 0.00088539259926561232 0 -0.030072160753366394 0.00079660791013817279 0 -0.02940882341293128 -0.00032322713893327562 0 -0.029697684339238875 -5.7935105835846672e-05 0 -0.029988699818242499 -0.00064892428343180737 0 -0.02940882341293128 -0.00032322713893327562 0 -0.029257244854707733 3.1154128358455646e-05 0 -0.029697684339238875 -5.7935105835846672e-05 0 -0.029257244854707733 3.1154128358455646e-05 0 -0.029309965297310829 0.0003733492710825456 0 -0.029697684339238875 -5.7935105835846672e-05 0 -0.029257244854707733 3.1154128358455646e-05 0 -0.029071840949065775 0.000310433158584525 0 -0.029309965297310829 0.0003733492710825456 0 -0.02940882341293128 -0.00032322713893327562 0 -0.029257244854707733 3.1154128358455646e-05 0 -0.028828979547890255 -4.4499013856106106e-06 0 -0.029257244854707733 3.1154128358455646e-05 0 -0.028828979547890255 -4.4499013856106106e-06 0 -0.029071840949065775 0.000310433158584525 0 -0.028828979547890255 -4.4499013856106106e-06 0 -0.029071840949065775 0.000310433158584525 0 -0.028726872328333111 0.00048066666022279368 0 -0.029071840949065775 0.000310433158584525 0 -0.028726872328333111 0.00048066666022279368 0 -0.029183186323251068 0.00064918068676771492 0 -0.028267169258435143 0.00075702677685457063 0 -0.028726872328333111 0.00048066666022279368 0 -0.028786746244065145 0.00076436152690153572 0 -0.028726872328333111 0.00048066666022279368 0 -0.028786746244065145 0.00076436152690153572 0 -0.029183186323251068 0.00064918068676771492 0 -0.028786746244065145 0.00076436152690153572 0 -0.029085614189706309 0.00076635516938796072 0 -0.029183186323251068 0.00064918068676771492 0 -0.028924213331093265 0.00097355030290648191 0 -0.028786746244065145 0.00076436152690153572 0 -0.029085614189706309 0.00076635516938796072 0 -0.028267169258435143 0.00075702677685457063 0 -0.028519424042881606 0.0010592778005391597 0 -0.028786746244065145 0.00076436152690153572 0 -0.028924213331093265 0.00097355030290648191 0 -0.029428465911614177 0.00071351208138620173 0 -0.029085614189706309 0.00076635516938796072 0 -0.029428465911614177 0.00071351208138620173 0 -0.029085614189706309 0.00076635516938796072 0 -0.029183186323251068 0.00064918068676771492 0 -0.029428465911614177 0.00071351208138620173 0 -0.029183186323251068 0.00064918068676771492 0 -0.0294671068466026 0.00087853199364706285 0 -0.029309965297310829 0.0003733492710825456 0 -0.0294671068466026 0.00087853199364706285 0 -0.029697684339238875 -5.7935105835846672e-05 0 -0.029183186323251068 0.00064918068676771492 0 -0.029309965297310829 0.0003733492710825456 0 -0.0294671068466026 0.00087853199364706285 0 -0.029071840949065775 0.000310433158584525 0 -0.029183186323251068 0.00064918068676771492 0 -0.029309965297310829 0.0003733492710825456 0 -0.029428465911614177 0.00071351208138620173 0 -0.029329856352261825 0.0011662149612549414 0 -0.0294671068466026 0.00087853199364706285 0 -0.029526516825134394 0.00087879965992919569 0 -0.029784951779098987 0.00088539259926561232 0 -0.029329856352261825 0.0011662149612549414 0 -0.0294671068466026 0.00087853199364706285 0 -0.029895702134790876 0.0018201999529299721 0 -0.029329856352261825 0.0011662149612549414 0 -0.029176387480763646 0.00059273447792971526 0 -0.028932302457234649 0.0011632977718483736 0 -0.029721540396635045 0.00029174151879207065 0 -0.029329856352261825 0.0011662149612549414 0 -0.029176387480763646 0.00059273447792971526 0 -0.029371232827998441 -0.00013564145418425082 0 -0.029721540396635045 0.00029174151879207065 0 -0.029176387480763646 0.00059273447792971526 0 -0.029553101920537492 0.00053930483231461697 0 -0.029332031368201145 0.001095813536703585 0 -0.02859220753508877 -0.00045699268170223799 0 -0.029176387480763646 0.00059273447792971526 0 -0.028409990867231415 0.00077493134432523409 0 -0.029176387480763646 0.00059273447792971526 0 -0.028409990867231415 0.00077493134432523409 0 -0.028932302457234649 0.0011632977718483736 0 -0.028409990867231415 0.00077493134432523409 0 -0.028932302457234649 0.0011632977718483736 0 -0.028836545166921169 0.0015351604560235152 0 -0.029329856352261825 0.0011662149612549414 0 -0.028932302457234649 0.0011632977718483736 0 -0.029373159086671388 0.0016596490773479939 0 -0.028932302457234649 0.0011632977718483736 0 -0.028836545166921169 0.0015351604560235152 0 -0.029373159086671388 0.0016596490773479939 0 -0.029074146354570479 0.0017838032130838538 0 -0.029373159086671388 0.0016596490773479939 0 -0.029626467852866236 0.0020548617936331456 0 -0.028836545166921169 0.0015351604560235152 0 -0.029074146354570479 0.0017838032130838538 0 -0.029373159086671388 0.0016596490773479939 0 -0.029329856352261825 0.0011662149612549414 0 -0.029373159086671388 0.0016596490773479939 0 -0.029895702134790876 0.0018201999529299721 0 -0.029373159086671388 0.0016596490773479939 0 -0.029895702134790876 0.0018201999529299721 0 -0.029626467852866236 0.0020548617936331456 0 -0.029895702134790876 0.0018201999529299721 0 -0.029626467852866236 0.0020548617936331456 0 -0.030153464352692179 0.0023085776482365057 0 -0.029074146354570479 0.0017838032130838538 0 -0.029626467852866236 0.0020548617936331456 0 -0.028893429972931706 0.0019185849706469646 0 -0.029626467852866236 0.0020548617936331456 0 -0.028893429972931706 0.0019185849706469646 0 -0.029397260783699367 0.0022126631856364243 0 -0.028893429972931706 0.0019185849706469646 0 -0.028767742205307641 0.0022538302851740056 0 -0.029397260783699367 0.0022126631856364243 0 -0.028893429972931706 0.0019185849706469646 0 -0.028450066340470304 0.0020640478784338286 0 -0.028767742205307641 0.0022538302851740056 0 -0.028450066340470304 0.0020640478784338286 0 -0.02831912343516885 0.0024638864277752607 0 -0.028767742205307641 0.0022538302851740056 0 -0.028450066340470304 0.0020640478784338286 0 -0.028101494251609106 0.002251083978055496 0 -0.02831912343516885 0.0024638864277752607 0 -0.028450066340470304 0.0020640478784338286 0 -0.028101494251609106 0.002251083978055496 0 -0.028020378088666829 0.0018831494988852059 0 -0.028450066340470304 0.0020640478784338286 0 -0.028020378088666829 0.0018831494988852059 0 -0.028415242641873052 0.0017462409027389982 0 -0.028893429972931706 0.0019185849706469646 0 -0.028450066340470304 0.0020640478784338286 0 -0.028415242641873052 0.0017462409027389982 0 -0.028511663633726796 0.0017165072230106028 0 -0.027310294345175505 0.0016049096711651405 0 -0.028415242641873052 0.0017462409027389982 0 -0.028621036929944371 0.0017253738065235483 0 -0.027968796368114477 0.0012526925406858734 0 -0.028621036929944371 0.0017253738065235483 0 -0.027634649895654805 0.0013410009705362097 0 -0.026685122880651026 0.0019811882339396923 0 -0.028020378088666829 0.0018831494988852059 0 -0.028415242641873052 0.0017462409027389982 0 -0.027968796368114477 0.0012526925406858734 0 -0.028836545166921169 0.0015351604560235152 0 -0.028621036929944371 0.0017253738065235483 0 -0.027634649895654805 0.0013410009705362097 0 -0.028893429972931706 0.0019185849706469646 0 -0.028415242641873052 0.0017462409027389982 0 -0.028621036929944371 0.0017253738065235483 0 -0.029074146354570479 0.0017838032130838538 0 -0.028893429972931706 0.0019185849706469646 0 -0.028621036929944371 0.0017253738065235483 0 -0.028836545166921169 0.0015351604560235152 0 -0.029074146354570479 0.0017838032130838538 0 -0.028621036929944371 0.0017253738065235483 0 -0.02867004565843969 0.0015154172351415094 0 -0.027381445633211734 0.00083380420690815592 0 -0.028836545166921169 0.0015351604560235152 0 -0.027765687837226417 0.00066048700354051149 0 -0.027634649895654805 0.0013410009705362097 0 -0.028409990867231415 0.00077493134432523409 0 -0.028836545166921169 0.0015351604560235152 0 -0.02698999546749583 0.001046242063631202 0 -0.027001803319582959 -0.0005202836790416317 0 -0.028409990867231415 0.00077493134432523409 0 -0.02698999546749583 0.001046242063631202 0 -0.02583922188707205 -2.7950132077710139e-06 0 -0.027381445633211734 0.00083380420690815592 0 -0.027765687837226417 0.00066048700354051149 0 -0.027634649895654805 0.0013410009705362097 0 -0.025909887450370331 0.00087813136266463952 0 -0.027634649895654805 0.0013410009705362097 0 -0.025909887450370331 0.00087813136266463952 0 -0.026685122880651026 0.0019811882339396923 0 -0.024348413578313369 0.0010363967546319049 0 -0.025909887450370331 0.00087813136266463952 0 -0.025105443638432697 0.0017560345820726666 0 -0.025909887450370331 0.00087813136266463952 0 -0.025105443638432697 0.0017560345820726666 0 -0.026685122880651026 0.0019811882339396923 0 -0.026471380596717147 -0.00012123168257681692 0 -0.025480173190999062 1.6068857675645067e-05 0 -0.025909887450370331 0.00087813136266463952 0 -0.026471380596717147 -0.00012123168257681692 0 -0.027765687837226417 0.00066048700354051149 0 -0.025909887450370331 0.00087813136266463952 0 -0.025480173190999062 1.6068857675645067e-05 0 -0.024722557776152111 0.0004453403956456301 0 -0.025909887450370331 0.00087813136266463952 0 -0.02608077107171608 0.00099238592539999809 0 -0.027319757098561399 0.0017866275047776388 0 -0.026493276034525094 0.0019201737950572731 0 -0.025478143288949977 0.0018039407176284605 0 -0.02608077107171608 0.00099238592539999809 0 -0.026493276034525094 0.0019201737950572731 0 -0.025604078057509094 0.0013921393896801683 0 -0.027310294345175505 0.0016049096711651405 0 -0.02608077107171608 0.00099238592539999809 0 -0.027968796368114477 0.0012526925406858734 0 -0.027319757098561399 0.0017866275047776388 0 -0.028020378088666829 0.0018831494988852059 0 -0.027968796368114477 0.0012526925406858734 0 -0.027319757098561399 0.0017866275047776388 0 -0.027319757098561399 0.0017866275047776388 0 -0.027765881848773429 0.0022397556484150174 0 -0.027481135937488702 0.0023521809834793962 0 -0.027319757098561399 0.0017866275047776388 0 -0.027481135937488702 0.0023521809834793962 0 -0.027063731521783235 0.0020373793132551924 0 -0.028020378088666829 0.0018831494988852059 0 -0.027319757098561399 0.0017866275047776388 0 -0.027765881848773429 0.0022397556484150174 0 -0.028101494251609106 0.002251083978055496 0 -0.028020378088666829 0.0018831494988852059 0 -0.027765881848773429 0.0022397556484150174 0 -0.027765881848773429 0.0022397556484150174 0 -0.027576680168690602 0.0024220751963270177 0 -0.027840982023446929 0.0024623351804945524 0 -0.028101494251609106 0.002251083978055496 0 -0.027765881848773429 0.0022397556484150174 0 -0.027840982023446929 0.0024623351804945524 0 -0.027765881848773429 0.0022397556484150174 0 -0.027481135937488702 0.0023521809834793962 0 -0.027576680168690602 0.0024220751963270177 0 -0.027481135937488702 0.0023521809834793962 0 -0.027576680168690602 0.0024220751963270177 0 -0.027473978347296861 0.0023980792199674141 0 -0.027576680168690602 0.0024220751963270177 0 -0.027473978347296861 0.0023980792199674141 0 -0.027494017699522557 0.0024819748538985127 0 -0.027925364366752466 0.0024082644843801035 0 -0.027129260841920549 0.0024623472600793809 0 -0.027282797766897727 0.0024607393340118195 0 -0.027481135937488702 0.0023521809834793962 0 -0.027473978347296861 0.0023980792199674141 0 -0.025631062755303583 0.0028608062232437221 0 -0.027481135937488702 0.0023521809834793962 0 -0.027063731521783235 0.0020373793132551924 0 -0.025631062755303583 0.0028608062232437221 0 -0.027063731521783235 0.0020373793132551924 0 -0.026493276034525094 0.0019201737950572731 0 -0.02713136470526397 0.0025602005366475041 0 -0.027146441735287082 0.0024313411501876887 0 -0.02579954869380988 0.0022816591190206103 0 -0.025631062755303583 0.0028608062232437221 0 -0.026493276034525094 0.0019201737950572731 0 -0.025478143288949977 0.0018039407176284605 0 -0.02579954869380988 0.0022816591190206103 0 -0.026493276034525094 0.0019201737950572731 0 -0.027319757098561399 0.0017866275047776388 0 -0.027063731521783235 0.0020373793132551924 0 -0.026493276034525094 0.0019201737950572731 0 -0.033018798276275893 0.0016055338493594093 0 -0.033898781104046961 0.0023963778186637569 0 -0.027283651680647156 0.0024765202121377035 0 -0.027282797766897727 0.0024607393340118195 0 -0.027473978347296861 0.0023980792199674141 0 -0.033616425631847698 0.0024457130701287843 0 -0.033500071009573813 0.0023954015916674391 0 -0.033405075833240851 0.0024674026275588352 0 -0.026948421748003406 0.0025284114461335853 0 -0.027473978347296861 0.0023980792199674141 0 -0.027086168348705957 0.0025639817520084589 0 -0.026946855392677608 0.0026042944201439258 0 -0.027232987557074324 0.002562212025252023 0 -0.02757084693298913 0.0027728161852669953 0 -0.027473978347296861 0.0023980792199674141 0 -0.027086168348705957 0.0025639817520084589 0 -0.027232987557074324 0.002562212025252023 0 -0.030182197651133592 0.001836210796473446 0 -0.030515730202310552 0.0027034795396103737 0 -0.033613892625690256 0.0024100642067694197 0 -0.033616425631847698 0.0024457130701287843 0 -0.033500071009573813 0.0023954015916674391 0 -0.026946855392677608 0.0026042944201439258 0 -0.027086168348705957 0.0025639817520084589 0 -0.027232987557074324 0.002562212025252023 0 -0.027232987557074324 0.002562212025252023 0 -0.027403206537277573 0.0025315417644850165 0 -0.02757084693298913 0.0027728161852669953 0 -0.027473978347296861 0.0023980792199674141 0 -0.027232987557074324 0.002562212025252023 0 -0.027403206537277573 0.0025315417644850165 0 -0.033500071009573813 0.0023954015916674391 0 -0.033405075833240851 0.0024674026275588352 0 -0.033152690998315644 0.0022374305939133797 0 -0.027473978347296861 0.0023980792199674141 0 -0.027403206537277573 0.0025315417644850165 0 -0.027494017699522557 0.0024819748538985127 0 -0.027840982023446929 0.0024623351804945524 0 -0.02757084693298913 0.0027728161852669953 0 -0.02831912343516885 0.0024638864277752607 0 -0.027403206537277573 0.0025315417644850165 0 -0.027494017699522557 0.0024819748538985127 0 -0.02753247688007671 0.0025730453469083731 0 -0.02753247688007671 0.0025730453469083731 0 -0.027840982023446929 0.0024623351804945524 0 -0.02757084693298913 0.0027728161852669953 0 -0.027576680168690602 0.0024220751963270177 0 -0.02753247688007671 0.0025730453469083731 0 -0.027840982023446929 0.0024623351804945524 0 -0.027576680168690602 0.0024220751963270177 0 -0.027494017699522557 0.0024819748538985127 0 -0.02753247688007671 0.0025730453469083731 0 -0.027403206537277573 0.0025315417644850165 0 -0.02753247688007671 0.0025730453469083731 0 -0.02757084693298913 0.0027728161852669953 0 -0.03392161628664609 0.0023288750492236961 0 -0.033152690998315644 0.0022374305939133797 0 -0.033623129132768804 0.001950079204680926 0 -0.033898781104046961 0.0023963778186637569 0 -0.033139348558312874 0.002237022994711227 0 -0.033152690998315644 0.0022374305939133797 0 -0.033245125381219542 0.0017381909277444745 0 -0.033623129132768804 0.001950079204680926 0 -0.033623129132768804 0.001950079204680926 0 -0.033949995862362511 0.0018263805188439115 0 -0.033738156397041183 0.0014592996617462334 0 -0.033245125381219542 0.0017381909277444745 0 -0.033623129132768804 0.001950079204680926 0 -0.033738156397041183 0.0014592996617462334 0 -0.034617833123121375 0.0024596883172296226 0 -0.03392161628664609 0.0023288750492236961 0 -0.034289567522335807 0.0019028502478467531 0 -0.033949995862362511 0.0018263805188439115 0 -0.034289567522335807 0.0019028502478467531 0 -0.034156806399209726 0.0014860879657606783 0 -0.03392161628664609 0.0023288750492236961 0 -0.033623129132768804 0.001950079204680926 0 -0.033949995862362511 0.0018263805188439115 0 -0.03392161628664609 0.0023288750492236961 0 -0.033949995862362511 0.0018263805188439115 0 -0.034289567522335807 0.0019028502478467531 0 -0.034565632542232855 0.0013042289037339544 0 -0.034289567522335807 0.0019028502478467531 0 -0.034156806399209726 0.0014860879657606783 0 -0.033949995862362511 0.0018263805188439115 0 -0.034156806399209726 0.0014860879657606783 0 -0.033738156397041183 0.0014592996617462334 0 -0.034156806399209726 0.0014860879657606783 0 -0.034033556197558483 0.00087952935365933726 0 -0.033738156397041183 0.0014592996617462334 0 -0.034565632542232855 0.0013042289037339544 0 -0.034156806399209726 0.0014860879657606783 0 -0.034033556197558483 0.00087952935365933726 0 -0.034565632542232855 0.0013042289037339544 0 -0.034033556197558483 0.00087952935365933726 0 -0.034466819755563927 0.00025296454540974818 0 -0.034033556197558483 0.00087952935365933726 0 -0.033564716831072712 0.00037038580600254773 0 -0.034466819755563927 0.00025296454540974818 0 -0.034033556197558483 0.00087952935365933726 0 -0.033564716831072712 0.00037038580600254773 0 -0.033363122400033286 0.0010526093545385831 0 -0.034033556197558483 0.00087952935365933726 0 -0.033363122400033286 0.0010526093545385831 0 -0.033738156397041183 0.0014592996617462334 0 -0.033245125381219542 0.0017381909277444745 0 -0.033363122400033286 0.0010526093545385831 0 -0.033738156397041183 0.0014592996617462334 0 -0.033245125381219542 0.0017381909277444745 0 -0.033363122400033286 0.0010526093545385831 0 -0.032820973570134644 0.0013843562430550444 0 -0.033363122400033286 0.0010526093545385831 0 -0.032820973570134644 0.0013843562430550444 0 -0.032631703932265638 0.00073941828215782406 0 -0.032820973570134644 0.0013843562430550444 0 -0.032631703932265638 0.00073941828215782406 0 -0.031978605419401965 0.0015518578675511566 0 -0.033564716831072712 0.00037038580600254773 0 -0.032631703932265638 0.00073941828215782406 0 -0.032862917568787314 0.00011431380025849611 0 -0.033564716831072712 0.00037038580600254773 0 -0.033363122400033286 0.0010526093545385831 0 -0.032631703932265638 0.00073941828215782406 0 -0.032631703932265638 0.00073941828215782406 0 -0.032208447049997917 0.00015435726343847157 0 -0.032862917568787314 0.00011431380025849611 0 -0.032631703932265638 0.00073941828215782406 0 -0.031563879582365666 0.00058244719453473016 0 -0.032208447049997917 0.00015435726343847157 0 -0.032631703932265638 0.00073941828215782406 0 -0.031978605419401965 0.0015518578675511566 0 -0.031563879582365666 0.00058244719453473016 0 -0.030563203258305156 0.0026493800514033319 0 -0.030500376106403815 0.0024263633330512731 0 -0.031978605419401965 0.0015518578675511566 0 -0.032492125694544502 0.0025537034896879877 0 -0.030548840533081382 0.0023549084724125359 0 -0.031978605419401965 0.0015518578675511566 0 -0.032756636358941688 0.0019391203588338898 0 -0.032492125694544502 0.0025537034896879877 0 -0.032820973570134644 0.0013843562430550444 0 -0.031978605419401965 0.0015518578675511566 0 -0.032756636358941688 0.0019391203588338898 0 -0.033152690998315644 0.0022374305939133797 0 -0.032756636358941688 0.0019391203588338898 0 -0.032492125694544502 0.0025537034896879877 0 -0.033152690998315644 0.0022374305939133797 0 -0.033245125381219542 0.0017381909277444745 0 -0.032756636358941688 0.0019391203588338898 0 -0.033245125381219542 0.0017381909277444745 0 -0.032820973570134644 0.0013843562430550444 0 -0.032756636358941688 0.0019391203588338898 0 -0.02757084693298913 0.0027728161852669953 0 -0.028715692998590298 0.0028728527431971557 0 -0.02831912343516885 0.0024638864277752607 0 -0.030515730202310552 0.0027034795396103737 0 -0.030563203258305156 0.0026493800514033319 0 -0.033405075833240851 0.0024674026275588352 0 -0.033152690998315644 0.0022374305939133797 0 -0.032492125694544502 0.0025537034896879877 0 -0.028101494251609106 0.002251083978055496 0 -0.027840982023446929 0.0024623351804945524 0 -0.02831912343516885 0.0024638864277752607 0 -0.028715692998590298 0.0028728527431971557 0 -0.02831912343516885 0.0024638864277752607 0 -0.028767742205307641 0.0022538302851740056 0 -0.028715692998590298 0.0028728527431971557 0 -0.029397260783699367 0.0022126631856364243 0 -0.030548840533081382 0.0023549084724125359 0 -0.028715692998590298 0.0028728527431971557 0 -0.028767742205307641 0.0022538302851740056 0 -0.029397260783699367 0.0022126631856364243 0 -0.029626467852866236 0.0020548617936331456 0 -0.029397260783699367 0.0022126631856364243 0 -0.030548840533081382 0.0023549084724125359 0 -0.029626467852866236 0.0020548617936331456 0 -0.030548840533081382 0.0023549084724125359 0 -0.030153464352692179 0.0023085776482365057 0 -0.030548840533081382 0.0023549084724125359 0 -0.030797990344886936 0.0015418354034254299 0 -0.030153464352692179 0.0023085776482365057 0 -0.030797990344886936 0.0015418354034254299 0 -0.030334348804869713 0.0013657292929496387 0 -0.030153464352692179 0.0023085776482365057 0 -0.031978605419401965 0.0015518578675511566 0 -0.030548840533081382 0.0023549084724125359 0 -0.030797990344886936 0.0015418354034254299 0 -0.031978605419401965 0.0015518578675511566 0 -0.031563879582365666 0.00058244719453473016 0 -0.030797990344886936 0.0015418354034254299 0 -0.031563879582365666 0.00058244719453473016 0 -0.030962060397319337 0.00082527599482874726 0 -0.031123736780513944 -0.00020062364971117129 0 -0.030797990344886936 0.0015418354034254299 0 -0.030962060397319337 0.00082527599482874726 0 -0.030334348804869713 0.0013657292929496387 0 -0.031563879582365666 0.00058244719453473016 0 -0.030797990344886936 0.0015418354034254299 0 -0.030962060397319337 0.00082527599482874726 0 -0.030444683601732185 -0.001215868088214924 0 -0.030413731997002046 -0.0012485072078946781 0 -0.031041256883822921 -0.00072715389275837745 0 -0.030444683601732185 -0.001215868088214924 0 -0.031123736780513944 -0.00020062364971117129 0 -0.031041256883822921 -0.00072715389275837745 0 -0.030962060397319337 0.00082527599482874726 0 -0.030334348804869713 0.0013657292929496387 0 -0.031123736780513944 -0.00020062364971117129 0 -0.031123736780513944 -0.00020062364971117129 0 -0.031041256883822921 -0.00072715389275837745 0 -0.031773952788175006 -0.00051835248500680829 0 -0.03043991538241856 8.7310668374813831e-05 0 -0.030984854023780598 -0.00016773425491696292 0 -0.03196610444984678 -0.00097380980277618446 0 -0.031041256883822921 -0.00072715389275837745 0 -0.031773952788175006 -0.00051835248500680829 0 -0.030362625282546813 -0.0010052927538805134 0 -0.030415003840536289 -0.0012244387799400201 0 -0.03196610444984678 -0.00097380980277618446 0 -0.030413731997002046 -0.0012485072078946781 0 -0.031041256883822921 -0.00072715389275837745 0 -0.028717773493859681 -0.0011092885359714835 0 -0.030413731997002046 -0.0012485072078946781 0 -0.029521356428295013 -0.00091015078121424507 0 -0.02901772931046236 -0.00081059487698458281 0 -0.029521356428295013 -0.00091015078121424507 0 -0.029380382675860628 -0.00068232897326176204 0 -0.029521356428295013 -0.00091015078121424507 0 -0.029988020144845622 -0.00088785627889710714 0 -0.029380382675860628 -0.00068232897326176204 0 -0.030413731997002046 -0.0012485072078946781 0 -0.029521356428295013 -0.00091015078121424507 0 -0.029988020144845622 -0.00088785627889710714 0 -0.030444683601732185 -0.001215868088214924 0 -0.029988020144845622 -0.00088785627889710714 0 -0.029988699818242499 -0.00064892428343180737 0 -0.03043991538241856 8.7310668374813831e-05 0 -0.030072160753366394 0.00079660791013817279 0 -0.030444683601732185 -0.001215868088214924 0 -0.030413731997002046 -0.0012485072078946781 0 -0.029988020144845622 -0.00088785627889710714 0 -0.029988020144845622 -0.00088785627889710714 0 -0.029988699818242499 -0.00064892428343180737 0 -0.029672196467426415 -0.00058831087539853674 0 -0.02940882341293128 -0.00032322713893327562 0 -0.029988699818242499 -0.00064892428343180737 0 -0.029672196467426415 -0.00058831087539853674 0 -0.028919533349951336 -0.00058476254366679286 0 -0.02940882341293128 -0.00032322713893327562 0 -0.029380382675860628 -0.00068232897326176204 0 -0.02940882341293128 -0.00032322713893327562 0 -0.029672196467426415 -0.00058831087539853674 0 -0.029380382675860628 -0.00068232897326176204 0 -0.029988020144845622 -0.00088785627889710714 0 -0.029672196467426415 -0.00058831087539853674 0 -0.029380382675860628 -0.00068232897326176204 0 -0.032729720376240598 -0.0005563592749679619 0 -0.032526728762490707 -0.00056736723525451578 0 -0.033134237746035355 -0.00040911581201731378 0 -0.032729720376240598 -0.0005563592749679619 0 -0.032526728762490707 -0.00056736723525451578 0 -0.032281259534336929 -0.00056310598616375574 0 -0.032526728762490707 -0.00056736723525451578 0 -0.032027771956257584 -0.00053404208821212346 0 -0.032281259534336929 -0.00056310598616375574 0 -0.032607428749611471 -0.00065081900625558813 0 -0.032729720376240598 -0.0005563592749679619 0 -0.032281259534336929 -0.00056310598616375574 0 -0.032281259534336929 -0.00056310598616375574 0 -0.032109325793510203 -0.0005649289621622092 0 -0.031699416946459356 -0.00041909904589102382 0 -0.032109325793510203 -0.0005649289621622092 0 -0.031773952788175006 -0.00051835248500680829 0 -0.031699416946459356 -0.00041909904589102382 0 -0.031123736780513944 -0.00020062364971117129 0 -0.031699416946459356 -0.00041909904589102382 0 -0.031763469880698753 -0.00027425838548883073 0 -0.031123736780513944 -0.00020062364971117129 0 -0.031773952788175006 -0.00051835248500680829 0 -0.031699416946459356 -0.00041909904589102382 0 -0.032027771956257584 -0.00053404208821212346 0 -0.032281259534336929 -0.00056310598616375574 0 -0.031699416946459356 -0.00041909904589102382 0 -0.032027771956257584 -0.00053404208821212346 0 -0.031699416946459356 -0.00041909904589102382 0 -0.031763469880698753 -0.00027425838548883073 0 -0.032027771956257584 -0.00053404208821212346 0 -0.031763469880698753 -0.00027425838548883073 0 -0.032136648380350165 -0.00060438627734475203 0 -0.031563879582365666 0.00058244719453473016 0 -0.031123736780513944 -0.00020062364971117129 0 -0.031763469880698753 -0.00027425838548883073 0 -0.031563879582365666 0.00058244719453473016 0 -0.031763469880698753 -0.00027425838548883073 0 -0.032208447049997917 0.00015435726343847157 0 -0.031763469880698753 -0.00027425838548883073 0 -0.032435800684682131 -0.00034162923977187784 0 -0.032208447049997917 0.00015435726343847157 0 -0.031763469880698753 -0.00027425838548883073 0 -0.032136648380350165 -0.00060438627734475203 0 -0.032435800684682131 -0.00034162923977187784 0 -0.032136648380350165 -0.00060438627734475203 0 -0.032312329277301224 -0.00061339366520425035 0 -0.032435800684682131 -0.00034162923977187784 0 -0.032526728762490707 -0.00056736723525451578 0 -0.032027771956257584 -0.00053404208821212346 0 -0.032136648380350165 -0.00060438627734475203 0 -0.032526728762490707 -0.00056736723525451578 0 -0.032136648380350165 -0.00060438627734475203 0 -0.032317962658364167 -0.0005635950868084959 0 -0.032526728762490707 -0.00056736723525451578 0 -0.032317962658364167 -0.0005635950868084959 0 -0.03258526269361061 -0.0004802502364579635 0 -0.032272112376686292 -0.00059661966591201244 0 -0.032312329277301224 -0.00061339366520425035 0 -0.032276423452827198 -0.00057753853430737043 0 -0.032136648380350165 -0.00060438627734475203 0 -0.032317962658364167 -0.0005635950868084959 0 -0.032272112376686292 -0.00059661966591201244 0 -0.032136648380350165 -0.00060438627734475203 0 -0.032272112376686292 -0.00059661966591201244 0 -0.032312329277301224 -0.00061339366520425035 0 -0.032602287322826433 -0.0011037337774261571 0 -0.033345314697530735 -0.0016599392752486752 0 -0.032594127604622984 -0.0019242659676940105 0 -0.032469431162884824 -0.00080710532514027757 0 -0.032309667341963423 -0.0013722331606062644 0 -0.032602287322826433 -0.0011037337774261571 0 -0.033180367633104745 -0.00084065268047068349 0 -0.033345314697530735 -0.0016599392752486752 0 -0.033180367633104745 -0.00084065268047068349 0 -0.034047036397711339 -0.00090841572919754228 0 -0.033345314697530735 -0.0016599392752486752 0 -0.033180367633104745 -0.00084065268047068349 0 -0.033488610617430872 -0.00032282761460674384 0 -0.034047036397711339 -0.00090841572919754228 0 -0.032602287322826433 -0.0011037337774261571 0 -0.033180367633104745 -0.00084065268047068349 0 -0.032435800684682131 -0.00034162923977187784 0 -0.032469431162884824 -0.00080710532514027757 0 -0.032445326076501718 -0.00036824304069651769 0 -0.032435800684682131 -0.00034162923977187784 0 -0.032208447049997917 0.00015435726343847157 0 -0.032862917568787314 0.00011431380025849611 0 -0.033564716831072712 0.00037038580600254773 0 -0.032862917568787314 0.00011431380025849611 0 -0.033488610617430872 -0.00032282761460674384 0 -0.032435800684682131 -0.00034162923977187784 0 -0.032862917568787314 0.00011431380025849611 0 -0.033488610617430872 -0.00032282761460674384 0 -0.033180367633104745 -0.00084065268047068349 0 -0.032435800684682131 -0.00034162923977187784 0 -0.033488610617430872 -0.00032282761460674384 0 -0.033564716831072712 0.00037038580600254773 0 -0.033488610617430872 -0.00032282761460674384 0 -0.033970857752367752 -8.8231697725258377e-05 0 -0.033564716831072712 0.00037038580600254773 0 -0.033970857752367752 -8.8231697725258377e-05 0 -0.034466819755563927 0.00025296454540974818 0 -0.033970857752367752 -8.8231697725258377e-05 0 -0.034466819755563927 0.00025296454540974818 0 -0.034376379768576618 -0.00058828440330437395 0 -0.033488610617430872 -0.00032282761460674384 0 -0.033970857752367752 -8.8231697725258377e-05 0 -0.034376379768576618 -0.00058828440330437395 0 -0.034047036397711339 -0.00090841572919754228 0 -0.034272780622544484 -0.00074964466162957615 0 -0.034376379768576618 -0.00058828440330437395 0 -0.034405301347408726 -0.00037756426262370197 0 -0.034387746995957452 -0.00025231995947908769 0 -0.033488610617430872 -0.00032282761460674384 0 -0.034047036397711339 -0.00090841572919754228 0 -0.034376379768576618 -0.00058828440330437395 0 -0.034047036397711339 -0.00090841572919754228 0 -0.034468068416781281 -0.0005396581803943024 0 -0.034739986179967194 -0.00059065381808792467 0 -0.034082378216489177 -0.00091555510047795785 0 -0.03403870813200649 -0.0010941735750175836 0 -0.034047036397711339 -0.00090841572919754228 0 -0.034272780622544484 -0.00074964466162957615 0 -0.034468068416781281 -0.0005396581803943024 0 -0.034272780622544484 -0.00074964466162957615 0 -0.034468068416781281 -0.0005396581803943024 0 -0.03457558871406425 -0.00019419610183563142 0 -0.034405301347408726 -0.00037756426262370197 0 -0.034538740636211915 -0.00022014755031928661 0 -0.034468068416781281 -0.0005396581803943024 0 -0.034764603749293931 -0.00030963267912969763 0 -0.034739986179967194 -0.00059065381808792467 0 -0.034468068416781281 -0.0005396581803943024 0 -0.03457558871406425 -0.00019419610183563142 0 -0.034764603749293931 -0.00030963267912969763 0 -0.03457558871406425 -0.00019419610183563142 0 -0.034848499015098205 -0.00011160749705390717 0 -0.034764603749293931 -0.00030963267912969763 0 -0.03457558871406425 -0.00019419610183563142 0 -0.03481524318872025 -7.8878859473514141e-05 0 -0.034848499015098205 -0.00011160749705390717 0 -0.03481524318872025 -7.8878859473514141e-05 0 -0.034999669896020061 -3.1890212979023469e-08 0 -0.034848499015098205 -0.00011160749705390717 0 -0.034999669896020061 -3.1890212979023469e-08 0 -0.034848499015098205 -0.00011160749705390717 0 -0.034999981976862188 -2.6945718588893752e-08 0 -0.034848499015098205 -0.00011160749705390717 0 -0.034957423218033176 -0.00013786074395879871 0 -0.034999981976862188 -2.6945718588893752e-08 0 -0.034957423218033176 -0.00013786074395879871 0 -0.034999981976862188 -2.6945718588893752e-08 0 -0.035031828337961722 -9.5337631017624463e-05 0 -0.035000452656615201 -4.2031853573831501e-08 0 -0.034665078158638146 -0.00020550063570338753 0 -0.034999998876814598 6.8978436063657902e-10 0 -0.034998586879906972 -1.3214170323078096e-06 0 -0.034999996727998008 -2.7459406486859846e-09 0 -0.034999981976862188 -2.6945718588893752e-08 0 -0.035031828337961722 -9.5337631017624463e-05 0 -0.035082443946279927 -7.1522957833866134e-05 0 -0.034957423218033176 -0.00013786074395879871 0 -0.035031828337961722 -9.5337631017624463e-05 0 -0.035091769088616769 -0.0001487802223389872 0 -0.035031828337961722 -9.5337631017624463e-05 0 -0.035091769088616769 -0.0001487802223389872 0 -0.035082443946279927 -7.1522957833866134e-05 0 -0.033973505400987043 -0.0012598344812269255 0 -0.033461541742692939 -0.0010278858914051338 0 -0.032902531323013184 -0.0021397645409999356 0 -0.032594127604622984 -0.0019242659676940105 0 -0.032570984420204403 -0.0025650216137193525 0 -0.034957423218033176 -0.00013786074395879871 0 -0.034992723621039272 -0.00031549629640390437 0 -0.035091769088616769 -0.0001487802223389872 0 -0.034848499015098205 -0.00011160749705390717 0 -0.034957423218033176 -0.00013786074395879871 0 -0.034764603749293931 -0.00030963267912969763 0 -0.034957423218033176 -0.00013786074395879871 0 -0.034992723621039272 -0.00031549629640390437 0 -0.034764603749293931 -0.00030963267912969763 0 -0.033973505400987043 -0.0012598344812269255 0 -0.03403870813200649 -0.0010941735750175836 0 -0.034992723621039272 -0.00031549629640390437 0 -0.034764603749293931 -0.00030963267912969763 0 -0.034739986179967194 -0.00059065381808792467 0 -0.032902531323013184 -0.0021397645409999356 0 -0.033345314697530735 -0.0016599392752486752 0 -0.032594127604622984 -0.0019242659676940105 0 -0.032276423452827198 -0.00057753853430737043 0 -0.032307529844237758 -0.00056480405209642756 0 -0.032317517290431128 -0.00053889854674563098 0 -0.032272112376686292 -0.00059661966591201244 0 -0.032276423452827198 -0.00057753853430737043 0 -0.032307529844237758 -0.00056480405209642756 0 -0.032317962658364167 -0.0005635950868084959 0 -0.032272112376686292 -0.00059661966591201244 0 -0.032307529844237758 -0.00056480405209642756 0 -0.032317962658364167 -0.0005635950868084959 0 -0.032553406378491766 -0.00025820469986721268 0 -0.03258526269361061 -0.0004802502364579635 0 -0.03235111350754856 -0.00053569440841994725 0 -0.032386792594991387 -0.00046998858606749343 0 -0.032317962658364167 -0.0005635950868084959 0 -0.032307529844237758 -0.00056480405209642756 0 -0.032339545567493022 -0.00055591130135607104 0 -0.032339545567493022 -0.00055591130135607104 0 -0.03234017652633131 -0.0005240693152704076 0 -0.032372314769491498 -0.0005155298619251334 0 -0.032307529844237758 -0.00056480405209642756 0 -0.032339545567493022 -0.00055591130135607104 0 -0.032317517290431128 -0.00053889854674563098 0 -0.032386792594991387 -0.00046998858606749343 0 -0.033697767034741408 -8.9143334978383584e-05 0 -0.032339545567493022 -0.00055591130135607104 0 -0.03234017652633131 -0.0005240693152704076 0 -0.032317517290431128 -0.00053889854674563098 0 -0.032276423452827198 -0.00057753853430737043 0 -0.032317517290431128 -0.00053889854674563098 0 -0.03230060801049589 -0.00051337133660042699 0 -0.032309667341963423 -0.0013722331606062644 0 -0.033461541742692939 -0.0010278858914051338 0 -0.03234017652633131 -0.0005240693152704076 0 -0.032317517290431128 -0.00053889854674563098 0 -0.0323244927743703 -0.0005130088645046105 0 -0.032317517290431128 -0.00053889854674563098 0 -0.03230060801049589 -0.00051337133660042699 0 -0.0323244927743703 -0.0005130088645046105 0 -0.033675895743459153 -0.00039147466736850947 0 -0.033661793614902263 -0.00027324174926585538 0 -0.0323244927743703 -0.0005130088645046105 0 -0.032322216172962992 -0.00049087102547164653 0 -0.032338735230798991 -0.0005006475079715059 0 -0.03230060801049589 -0.00051337133660042699 0 -0.0323244927743703 -0.0005130088645046105 0 -0.032322216172962992 -0.00049087102547164653 0 -0.033461541742692939 -0.0010278858914051338 0 -0.034665078158638146 -0.00020550063570338753 0 -0.033830154974862928 -0.00090209273975259269 0 -0.034206201830754381 -0.0003994363909338874 0 -0.033905534579481617 -0.00023950844619966089 0 -0.033461541742692939 -0.0010278858914051338 0 -0.033675895743459153 -0.00039147466736850947 0 -0.034995998226503421 -5.2610050209740704e-07 0 -0.034999988640472483 -1.2922470820180239e-09 0 -0.03499998980017148 -3.1772463201594985e-10 0 -0.033675895743459153 -0.00039147466736850947 0 -0.034665078158638146 -0.00020550063570338753 0 -0.034992043785931473 -1.0260014976819575e-06 0 -0.034993330564291603 -1.5349660764889446e-06 0 -0.034995998226503421 -5.2610050209740704e-07 0 -0.034992043785931473 -1.0260014976819575e-06 0 -0.034995998226503421 -5.2610050209740704e-07 0 -0.034989435079430302 -4.714770617388218e-07 0 -0.034665078158638146 -0.00020550063570338753 0 -0.034999904970836646 1.2238084056102906e-07 0 -0.034993330564291603 -1.5349660764889446e-06 0 -0.034995998226503421 -5.2610050209740704e-07 0 -0.034999988640472483 -1.2922470820180239e-09 0 -0.03499998980017148 -3.1772463201594985e-10 0 -0.034989435079430302 -4.714770617388218e-07 0 -0.034993358059066705 -6.9677274719127282e-07 0 -0.034995998226503421 -5.2610050209740704e-07 0 -0.03499998980017148 -3.1772463201594985e-10 0 -0.034989435079430302 -4.714770617388218e-07 0 -0.034989435079430302 -4.714770617388218e-07 0 -0.034985205602546469 -7.6664651202481621e-07 0 -0.034993358059066705 -6.9677274719127282e-07 0 -0.03234017652633131 -0.0005240693152704076 0 -0.0323244927743703 -0.0005130088645046105 0 -0.032338735230798991 -0.0005006475079715059 0 -0.03234017652633131 -0.0005240693152704076 0 -0.032338735230798991 -0.0005006475079715059 0 -0.032372314769491498 -0.0005155298619251334 0 -0.033661793614902263 -0.00027324174926585538 0 -0.033697767034741408 -8.9143334978383584e-05 0 -0.034068892907103736 -8.4704381940164806e-05 0 -0.03433672262505022 -9.1810746691767299e-05 0 -0.034454796740113952 -4.8400063044701645e-05 0 -0.034152479876624772 -3.786115734141571e-05 0 -0.034068892907103736 -8.4704381940164806e-05 0 -0.033607782903153617 -4.672505756274995e-06 0 -0.034152479876624772 -3.786115734141571e-05 0 -0.034068892907103736 -8.4704381940164806e-05 0 -0.03433672262505022 -9.1810746691767299e-05 0 -0.033697767034741408 -8.9143334978383584e-05 0 -0.034676165310025292 -2.6073909941546268e-05 0 -0.03433672262505022 -9.1810746691767299e-05 0 -0.034998295597968521 1.5998491630485288e-08 0 -0.034454796740113952 -4.8400063044701645e-05 0 -0.03499998980017148 -3.1772463201594985e-10 0 -0.034993358059066705 -6.9677274719127282e-07 0 -0.034999995001866679 -5.1582216751419966e-10 0 -0.034676165310025292 -2.6073909941546268e-05 0 -0.0349997421426275 -1.3422865264799668e-07 0 -0.034999155655214581 -4.6814745791905264e-08 0 -0.034998295597968521 1.5998491630485288e-08 0 -0.034454796740113952 -4.8400063044701645e-05 0 -0.034282311196507473 -9.4536796420618328e-05 0 -0.034454796740113952 -4.8400063044701645e-05 0 -0.033971547657953252 -9.1891088997308483e-05 0 -0.034068892907103736 -8.4704381940164806e-05 0 -0.034454796740113952 -4.8400063044701645e-05 0 -0.033971547657953252 -9.1891088997308483e-05 0 -0.034068892907103736 -8.4704381940164806e-05 0 -0.033971547657953252 -9.1891088997308483e-05 0 -0.033607782903153617 -4.672505756274995e-06 0 -0.033607782903153617 -4.672505756274995e-06 0 -0.033013761838014452 -0.00034549418395355097 0 -0.033134237746035355 -0.00040911581201731378 0 -0.033971547657953252 -9.1891088997308483e-05 0 -0.033603204630691184 -0.00021393402385884051 0 -0.033607782903153617 -4.672505756274995e-06 0 -0.033603204630691184 -0.00021393402385884051 0 -0.033607782903153617 -4.672505756274995e-06 0 -0.033134237746035355 -0.00040911581201731378 0 -0.032553406378491766 -0.00025820469986721268 0 -0.032932066343447836 0.00029642897943778858 0 -0.033013761838014452 -0.00034549418395355097 0 -0.032932066343447836 0.00029642897943778858 0 -0.033607782903153617 -4.672505756274995e-06 0 -0.033013761838014452 -0.00034549418395355097 0 -0.033697767034741408 -8.9143334978383584e-05 0 -0.033569252232245141 4.1440901930726817e-05 0 -0.032526728762490707 -0.00056736723525451578 0 -0.033013761838014452 -0.00034549418395355097 0 -0.033134237746035355 -0.00040911581201731378 0 -0.032526728762490707 -0.00056736723525451578 0 -0.033013761838014452 -0.00034549418395355097 0 -0.03258526269361061 -0.0004802502364579635 0 -0.032553406378491766 -0.00025820469986721268 0 -0.033013761838014452 -0.00034549418395355097 0 -0.03258526269361061 -0.0004802502364579635 0 -0.033169313005664273 -0.00045068036288706801 0 -0.032729720376240598 -0.0005563592749679619 0 -0.033134237746035355 -0.00040911581201731378 0 -0.033169313005664273 -0.00045068036288706801 0 -0.033603204630691184 -0.00021393402385884051 0 -0.033134237746035355 -0.00040911581201731378 0 -0.034471537358168443 -8.8551721927951907e-05 0 -0.034429490596444061 -9.3068981060231219e-05 0 -0.034342436064642941 -0.0001306163135472169 0 -0.022855916575686232 0.0020768565438359044 0 -0.022853950608231345 0.0021864423909886219 0 -0.022861647646297601 0.0019075176260597211 0 -0.028313501587610264 0.0011186389274097193 0 -0.028984204275158486 0.00078509294163581894 0 -0.034471537358168443 -8.8551721927951907e-05 0 -0.034429490596444061 -9.3068981060231219e-05 0 -0.034472615634970907 -7.9470973710890139e-05 0 -0.022855916575686232 0.0020768565438359044 0 -0.022857860759229621 0.0021223101362280966 0 -0.022855792275602436 0.0021321148543242277 0 -0.022855916575686232 0.0020768565438359044 0 -0.022867152351980086 0.0020418294598718795 0 -0.02286662374327059 0.002100814682448078 0 -0.022855916575686232 0.0020768565438359044 0 -0.022857860759229621 0.0021223101362280966 0 -0.02286662374327059 0.002100814682448078 0 -0.022853950608231345 0.0021864423909886219 0 -0.022855792275602436 0.0021321148543242277 0 -0.022871900169553434 0.0021324655487586124 0 -0.022855916575686232 0.0020768565438359044 0 -0.022853950608231345 0.0021864423909886219 0 -0.022855792275602436 0.0021321148543242277 0 -0.022857860759229621 0.0021223101362280966 0 -0.022855792275602436 0.0021321148543242277 0 -0.022871900169553434 0.0021324655487586124 0 -0.022853950608231345 0.0021864423909886219 0 -0.022957017476352138 0.0021017232806994869 0 -0.022871900169553434 0.0021324655487586124 0 -0.028313501587610264 0.0011186389274097193 0 -0.030814172206366817 0.0014202025471400279 0 -0.034471537358168443 -8.8551721927951907e-05 0 -0.034517262058241668 -3.7573632424506082e-05 0 -0.034525545173854109 -8.9644858231751031e-06 0 -0.022853950608231345 0.0021864423909886219 0 -0.022957017476352138 0.0021017232806994869 0 -0.023393259558370034 0.0020386051330547584 0 -0.034517262058241668 -3.7573632424506082e-05 0 -0.034528294567528248 -3.8301672126551936e-05 0 -0.034530158011765871 -2.3784728684986481e-05 0 -0.034471537358168443 -8.8551721927951907e-05 0 -0.034517262058241668 -3.7573632424506082e-05 0 -0.03451637276813066 -5.2857106815304369e-05 0 -0.034517262058241668 -3.7573632424506082e-05 0 -0.034528294567528248 -3.8301672126551936e-05 0 -0.03451637276813066 -5.2857106815304369e-05 0 -0.03451637276813066 -5.2857106815304369e-05 0 -0.034497233579919552 -6.9842279315952054e-05 0 -0.034525446023898704 -5.6966683392622673e-05 0 -0.034528294567528248 -3.8301672126551936e-05 0 -0.03451637276813066 -5.2857106815304369e-05 0 -0.034541080383131452 -4.5065034853669873e-05 0 -0.03451637276813066 -5.2857106815304369e-05 0 -0.034525446023898704 -5.6966683392622673e-05 0 -0.034541080383131452 -4.5065034853669873e-05 0 -0.034471537358168443 -8.8551721927951907e-05 0 -0.03451637276813066 -5.2857106815304369e-05 0 -0.034497233579919552 -6.9842279315952054e-05 0 -0.034471537358168443 -8.8551721927951907e-05 0 -0.034497233579919552 -6.9842279315952054e-05 0 -0.034472615634970907 -7.9470973710890139e-05 0 -0.034497233579919552 -6.9842279315952054e-05 0 -0.034499439902870424 -6.6864443611938865e-05 0 -0.034472615634970907 -7.9470973710890139e-05 0 -0.034499439902870424 -6.6864443611938865e-05 0 -0.034530867397505563 -5.4736750947309299e-05 0 -0.03447258841503574 -6.5619489343416004e-05 0 -0.034497233579919552 -6.9842279315952054e-05 0 -0.034499439902870424 -6.6864443611938865e-05 0 -0.034525446023898704 -5.6966683392622673e-05 0 -0.034499439902870424 -6.6864443611938865e-05 0 -0.034525446023898704 -5.6966683392622673e-05 0 -0.034530867397505563 -5.4736750947309299e-05 0 -0.034525446023898704 -5.6966683392622673e-05 0 -0.034556414441763675 -4.8341481149259144e-05 0 -0.034530867397505563 -5.4736750947309299e-05 0 -0.034525446023898704 -5.6966683392622673e-05 0 -0.034556414441763675 -4.8341481149259144e-05 0 -0.034541080383131452 -4.5065034853669873e-05 0 -0.034574855566037122 -4.5076582168954164e-05 0 -0.034530867397505563 -5.4736750947309299e-05 0 -0.034536813822141077 -4.103267634771834e-05 0 -0.034556414441763675 -4.8341481149259144e-05 0 -0.034574855566037122 -4.5076582168954164e-05 0 -0.034530867397505563 -5.4736750947309299e-05 0 -0.034530867397505563 -5.4736750947309299e-05 0 -0.03447258841503574 -6.5619489343416004e-05 0 -0.034536813822141077 -4.103267634771834e-05 0 -0.03447258841503574 -6.5619489343416004e-05 0 -0.034403599720583114 -5.4209478052174997e-05 0 -0.034478163417387159 -2.8011721879649881e-05 0 -0.034499439902870424 -6.6864443611938865e-05 0 -0.03447258841503574 -6.5619489343416004e-05 0 -0.034472615634970907 -7.9470973710890139e-05 0 -0.03447258841503574 -6.5619489343416004e-05 0 -0.034429490596444061 -9.3068981060231219e-05 0 -0.034472615634970907 -7.9470973710890139e-05 0 -0.03447258841503574 -6.5619489343416004e-05 0 -0.034429490596444061 -9.3068981060231219e-05 0 -0.034395139122668103 -8.7633371981177583e-05 0 -0.034429490596444061 -9.3068981060231219e-05 0 -0.034395139122668103 -8.7633371981177583e-05 0 -0.034342436064642941 -0.0001306163135472169 0 -0.03447258841503574 -6.5619489343416004e-05 0 -0.034395139122668103 -8.7633371981177583e-05 0 -0.034403599720583114 -5.4209478052174997e-05 0 -0.034303711745139083 -7.3530099634545279e-05 0 -0.034342436064642941 -0.0001306163135472169 0 -0.034163441939304443 -0.00011158892027567377 0 -0.028984204275158486 0.00078509294163581894 0 -0.027039877440623847 0.00082340805782904242 0 -0.034395139122668103 -8.7633371981177583e-05 0 -0.034403599720583114 -5.4209478052174997e-05 0 -0.034303711745139083 -7.3530099634545279e-05 0 -0.027039877440623847 0.00082340805782904242 0 -0.021751845446292415 0.0026698898597614495 0 -0.022861647646297601 0.0019075176260597211 0 -0.023448790027416389 0.0016408308885230698 0 -0.022886125383298966 0.0020397626063951594 0 -0.034395139122668103 -8.7633371981177583e-05 0 -0.034303711745139083 -7.3530099634545279e-05 0 -0.034342436064642941 -0.0001306163135472169 0 -0.022916232289581152 0.0016399712384900706 0 -0.022932927416299115 0.0019618085064240986 0 -0.023094054370922466 0.0016237473926291063 0 -0.027039877440623847 0.00082340805782904242 0 -0.030729979166581555 0.00038523838675371883 0 -0.034303711745139083 -7.3530099634545279e-05 0 -0.034163441939304443 -0.00011158892027567377 0 -0.034231353478270804 -2.0370606481769292e-05 0 -0.022916232289581152 0.0016399712384900706 0 -0.022932927416299115 0.0019618085064240986 0 -0.022886125383298966 0.0020397626063951594 0 -0.022932927416299115 0.0019618085064240986 0 -0.022886125383298966 0.0020397626063951594 0 -0.022888902447156037 0.0020693167776640311 0 -0.022855916575686232 0.0020768565438359044 0 -0.022861647646297601 0.0019075176260597211 0 -0.022867152351980086 0.0020418294598718795 0 -0.022861647646297601 0.0019075176260597211 0 -0.022886125383298966 0.0020397626063951594 0 -0.022867152351980086 0.0020418294598718795 0 -0.022886125383298966 0.0020397626063951594 0 -0.022888902447156037 0.0020693167776640311 0 -0.02286662374327059 0.002100814682448078 0 -0.022886125383298966 0.0020397626063951594 0 -0.022867152351980086 0.0020418294598718795 0 -0.02286662374327059 0.002100814682448078 0 -0.02286662374327059 0.002100814682448078 0 -0.022872666670190792 0.0021600355922362846 0 -0.022864806843770305 0.0021705625171369019 0 -0.022888902447156037 0.0020693167776640311 0 -0.022872666670190792 0.0021600355922362846 0 -0.022887292455597865 0.0022405821679603189 0 -0.022888902447156037 0.0020693167776640311 0 -0.02286662374327059 0.002100814682448078 0 -0.022872666670190792 0.0021600355922362846 0 -0.022872666670190792 0.0021600355922362846 0 -0.022870068599662879 0.0022294746347922105 0 -0.022887292455597865 0.0022405821679603189 0 -0.022872666670190792 0.0021600355922362846 0 -0.022870068599662879 0.0022294746347922105 0 -0.022864806843770305 0.0021705625171369019 0 -0.022932927416299115 0.0019618085064240986 0 -0.022887292455597865 0.0022405821679603189 0 -0.023045559289861312 0.0021297279433271539 0 -0.022932927416299115 0.0019618085064240986 0 -0.022888902447156037 0.0020693167776640311 0 -0.022887292455597865 0.0022405821679603189 0 -0.022851594374851306 0.002441746229232814 0 -0.022887292455597865 0.0022405821679603189 0 -0.022869142520198792 0.0023316504031274986 0 -0.022851594374851306 0.002441746229232814 0 -0.022887292455597865 0.0022405821679603189 0 -0.022949949536573096 0.002426944406062388 0 -0.022870068599662879 0.0022294746347922105 0 -0.022887292455597865 0.0022405821679603189 0 -0.022869142520198792 0.0023316504031274986 0 -0.022870068599662879 0.0022294746347922105 0 -0.022869142520198792 0.0023316504031274986 0 -0.02287461177838784 0.0022372136259214146 0 -0.022869142520198792 0.0023316504031274986 0 -0.022887240969912789 0.0022899474843098735 0 -0.02287461177838784 0.0022372136259214146 0 -0.022887240969912789 0.0022899474843098735 0 -0.02287461177838784 0.0022372136259214146 0 -0.022883353953125882 0.0021889041500567407 0 -0.02287461177838784 0.0022372136259214146 0 -0.022883353953125882 0.0021889041500567407 0 -0.022864806843770305 0.0021705625171369019 0 -0.022870068599662879 0.0022294746347922105 0 -0.02287461177838784 0.0022372136259214146 0 -0.022864806843770305 0.0021705625171369019 0 -0.022957017476352138 0.0021017232806994869 0 -0.022883353953125882 0.0021889041500567407 0 -0.022871900169553434 0.0021324655487586124 0 -0.022883353953125882 0.0021889041500567407 0 -0.022871900169553434 0.0021324655487586124 0 -0.022864806843770305 0.0021705625171369019 0 -0.022857860759229621 0.0021223101362280966 0 -0.02286662374327059 0.002100814682448078 0 -0.022864806843770305 0.0021705625171369019 0 -0.022857860759229621 0.0021223101362280966 0 -0.022871900169553434 0.0021324655487586124 0 -0.022864806843770305 0.0021705625171369019 0 -0.022957017476352138 0.0021017232806994869 0 -0.023234862540416259 0.001309936534346062 0 -0.023393259558370034 0.0020386051330547584 0 -0.022190614391385945 0.0022783129984869791 0 -0.025665330952739783 0.001597737826946218 0 -0.022957017476352138 0.0021017232806994869 0 -0.022883353953125882 0.0021889041500567407 0 -0.022833017558190304 0.0022711316495290525 0 -0.025665330952739783 0.001597737826946218 0 -0.030814172206366817 0.0014202025471400279 0 -0.022887240969912789 0.0022899474843098735 0 -0.022883353953125882 0.0021889041500567407 0 -0.022833017558190304 0.0022711316495290525 0 -0.022903306858628261 0.0023290942169539672 0 -0.022887240969912789 0.0022899474843098735 0 -0.022833017558190304 0.0022711316495290525 0 -0.034476764831663169 0.0001713486096186132 0 -0.034440609965872948 0.00015364159671945259 0 -0.034480702654041927 9.2033068063887268e-05 0 -0.034430470351240423 0.00021329820884075917 0 -0.034476764831663169 0.0001713486096186132 0 -0.034440609965872948 0.00015364159671945259 0 -0.034440609965872948 0.00015364159671945259 0 -0.034469166033370281 7.646880044284776e-05 0 -0.034399885406783286 0.00015476361932932614 0 -0.034386448136254473 0.00022161714054133138 0 -0.034440609965872948 0.00015364159671945259 0 -0.034399885406783286 0.00015476361932932614 0 -0.034440609965872948 0.00015364159671945259 0 -0.034469166033370281 7.646880044284776e-05 0 -0.034480702654041927 9.2033068063887268e-05 0 -0.034469166033370281 7.646880044284776e-05 0 -0.03449196518190429 5.6467796701779039e-05 0 -0.034480702654041927 9.2033068063887268e-05 0 -0.034469166033370281 7.646880044284776e-05 0 -0.03449196518190429 5.6467796701779039e-05 0 -0.034513042424527747 2.4556233628094e-05 0 -0.034476764831663169 0.0001713486096186132 0 -0.034515220559562375 4.5491502553836072e-05 0 -0.034480702654041927 9.2033068063887268e-05 0 -0.03449196518190429 5.6467796701779039e-05 0 -0.034499041402531454 5.826393960515511e-05 0 -0.034511947295238342 2.6468025820357664e-05 0 -0.034476764831663169 0.0001713486096186132 0 -0.034515220559562375 4.5491502553836072e-05 0 -0.034518240314598499 4.3517937577940155e-05 0 -0.034499041402531454 5.826393960515511e-05 0 -0.034515220559562375 4.5491502553836072e-05 0 -0.034480702654041927 9.2033068063887268e-05 0 -0.03449196518190429 5.6467796701779039e-05 0 -0.034499041402531454 5.826393960515511e-05 0 -0.034480702654041927 9.2033068063887268e-05 0 -0.034499041402531454 5.826393960515511e-05 0 -0.034509495562651218 3.6698404510409171e-05 0 -0.034515220559562375 4.5491502553836072e-05 0 -0.034499041402531454 5.826393960515511e-05 0 -0.034509495562651218 3.6698404510409171e-05 0 -0.034511947295238342 2.6468025820357664e-05 0 -0.034509495562651218 3.6698404510409171e-05 0 -0.034515220559562375 4.5491502553836072e-05 0 -0.034516921469758606 1.8208712527555298e-05 0 -0.034515220559562375 4.5491502553836072e-05 0 -0.03452351972447807 2.0883527371209995e-05 0 -0.034516921469758606 1.8208712527555298e-05 0 -0.034515220559562375 4.5491502553836072e-05 0 -0.034540020788387624 3.5900676039777326e-05 0 -0.03452351972447807 2.0883527371209995e-05 0 -0.031346500659261305 0.0011957244791021753 0 -0.030814172206366817 0.0014202025471400279 0 -0.034319429506640298 0.00018031745947992366 0 -0.034399885406783286 0.00015476361932932614 0 -0.034435189573168275 7.9819887740649101e-05 0 -0.034469166033370281 7.646880044284776e-05 0 -0.034435189573168275 7.9819887740649101e-05 0 -0.034510913597348154 2.038494481371045e-05 0 -0.034469166033370281 7.646880044284776e-05 0 -0.034399885406783286 0.00015476361932932614 0 -0.034435189573168275 7.9819887740649101e-05 0 -0.034374480387849043 0.00024037982105852088 0 -0.034387746995957452 -0.00025231995947908769 0 -0.034319429506640298 0.00018031745947992366 0 -0.034435189573168275 7.9819887740649101e-05 0 -0.034400301982524278 5.83575703432726e-05 0 -0.03449720502580559 -2.5930309027526554e-05 0 -0.034400301982524278 5.83575703432726e-05 0 -0.034499411223053694 9.7843068994884189e-06 0 -0.034435189573168275 7.9819887740649101e-05 0 -0.034400301982524278 5.83575703432726e-05 0 -0.034499411223053694 9.7843068994884189e-06 0 -0.034435189573168275 7.9819887740649101e-05 0 -0.034499411223053694 9.7843068994884189e-06 0 -0.034510913597348154 2.038494481371045e-05 0 -0.034499411223053694 9.7843068994884189e-06 0 -0.034510913597348154 2.038494481371045e-05 0 -0.03456697967123671 -2.1840970442041021e-05 0 -0.03456697967123671 -2.1840970442041021e-05 0 -0.034574857538885277 -3.6409381019333146e-05 0 -0.034634639295217436 -5.3412308330309129e-05 0 -0.034499411223053694 9.7843068994884189e-06 0 -0.03456697967123671 -2.1840970442041021e-05 0 -0.034574857538885277 -3.6409381019333146e-05 0 -0.03449720502580559 -2.5930309027526554e-05 0 -0.034499411223053694 9.7843068994884189e-06 0 -0.034574857538885277 -3.6409381019333146e-05 0 -0.034532187780565937 -1.9111166496866387e-06 0 -0.034551784302702317 -2.7480045511183575e-05 0 -0.034553054723071151 -1.4899511455883134e-05 0 -0.034532187780565937 -1.9111166496866387e-06 0 -0.034551784302702317 -2.7480045511183575e-05 0 -0.034530312492141196 -9.2461146559888006e-06 0 -0.034551784302702317 -2.7480045511183575e-05 0 -0.0345374619025378 -2.9555068629755498e-05 0 -0.034530312492141196 -9.2461146559888006e-06 0 -0.034551784302702317 -2.7480045511183575e-05 0 -0.034541080383131452 -4.5065034853669873e-05 0 -0.0345374619025378 -2.9555068629755498e-05 0 -0.034528294567528248 -3.8301672126551936e-05 0 -0.034541080383131452 -4.5065034853669873e-05 0 -0.0345374619025378 -2.9555068629755498e-05 0 -0.034528294567528248 -3.8301672126551936e-05 0 -0.0345374619025378 -2.9555068629755498e-05 0 -0.034530158011765871 -2.3784728684986481e-05 0 -0.034530158011765871 -2.3784728684986481e-05 0 -0.034528318961712837 -4.5063137142739279e-06 0 -0.034530312492141196 -9.2461146559888006e-06 0 -0.0345374619025378 -2.9555068629755498e-05 0 -0.034530158011765871 -2.3784728684986481e-05 0 -0.034530312492141196 -9.2461146559888006e-06 0 -0.034517262058241668 -3.7573632424506082e-05 0 -0.034530158011765871 -2.3784728684986481e-05 0 -0.034525928341936435 -1.8024553510910285e-05 0 -0.034530158011765871 -2.3784728684986481e-05 0 -0.034525928341936435 -1.8024553510910285e-05 0 -0.034528318961712837 -4.5063137142739279e-06 0 -0.034517262058241668 -3.7573632424506082e-05 0 -0.034525545173854109 -8.9644858231751031e-06 0 -0.034525928341936435 -1.8024553510910285e-05 0 -0.034525545173854109 -8.9644858231751031e-06 0 -0.034525928341936435 -1.8024553510910285e-05 0 -0.034528318961712837 -4.5063137142739279e-06 0 -0.030814172206366817 0.0014202025471400279 0 -0.031096696334515964 0.0012423651646814534 0 -0.034528318961712837 -4.5063137142739279e-06 0 -0.034516921469758606 1.8208712527555298e-05 0 -0.034530312492141196 -9.2461146559888006e-06 0 -0.034528318961712837 -4.5063137142739279e-06 0 -0.03452351972447807 2.0883527371209995e-05 0 -0.034516921469758606 1.8208712527555298e-05 0 -0.034540020788387624 3.5900676039777326e-05 0 -0.034528318961712837 -4.5063137142739279e-06 0 -0.03452351972447807 2.0883527371209995e-05 0 -0.034509495562651218 3.6698404510409171e-05 0 -0.034516921469758606 1.8208712527555298e-05 0 -0.034511947295238342 2.6468025820357664e-05 0 -0.034516921469758606 1.8208712527555298e-05 0 -0.034530312492141196 -9.2461146559888006e-06 0 -0.034511947295238342 2.6468025820357664e-05 0 -0.034532187780565937 -1.9111166496866387e-06 0 -0.034530312492141196 -9.2461146559888006e-06 0 -0.034511947295238342 2.6468025820357664e-05 0 -0.034532187780565937 -1.9111166496866387e-06 0 -0.034511947295238342 2.6468025820357664e-05 0 -0.034513042424527747 2.4556233628094e-05 0 -0.03449196518190429 5.6467796701779039e-05 0 -0.034511947295238342 2.6468025820357664e-05 0 -0.034513042424527747 2.4556233628094e-05 0 -0.034469166033370281 7.646880044284776e-05 0 -0.034510913597348154 2.038494481371045e-05 0 -0.034513042424527747 2.4556233628094e-05 0 -0.034510913597348154 2.038494481371045e-05 0 -0.034513042424527747 2.4556233628094e-05 0 -0.034553054723071151 -1.4899511455883134e-05 0 -0.034510913597348154 2.038494481371045e-05 0 -0.03456697967123671 -2.1840970442041021e-05 0 -0.034553054723071151 -1.4899511455883134e-05 0 -0.034532187780565937 -1.9111166496866387e-06 0 -0.034513042424527747 2.4556233628094e-05 0 -0.034553054723071151 -1.4899511455883134e-05 0 -0.034553054723071151 -1.4899511455883134e-05 0 -0.034600092106358414 -3.9569180469372702e-05 0 -0.034575450075662005 -3.5169112311674732e-05 0 -0.03456697967123671 -2.1840970442041021e-05 0 -0.034553054723071151 -1.4899511455883134e-05 0 -0.034600092106358414 -3.9569180469372702e-05 0 -0.03456697967123671 -2.1840970442041021e-05 0 -0.034600092106358414 -3.9569180469372702e-05 0 -0.034634639295217436 -5.3412308330309129e-05 0 -0.034600092106358414 -3.9569180469372702e-05 0 -0.034594337185383441 -4.3836669316650055e-05 0 -0.034575450075662005 -3.5169112311674732e-05 0 -0.034594337185383441 -4.3836669316650055e-05 0 -0.034575450075662005 -3.5169112311674732e-05 0 -0.034564891250703 -4.0860180067721535e-05 0 -0.034551784302702317 -2.7480045511183575e-05 0 -0.034553054723071151 -1.4899511455883134e-05 0 -0.034575450075662005 -3.5169112311674732e-05 0 -0.034551784302702317 -2.7480045511183575e-05 0 -0.034575450075662005 -3.5169112311674732e-05 0 -0.034564891250703 -4.0860180067721535e-05 0 -0.034551784302702317 -2.7480045511183575e-05 0 -0.034541080383131452 -4.5065034853669873e-05 0 -0.034564891250703 -4.0860180067721535e-05 0 -0.034556414441763675 -4.8341481149259144e-05 0 -0.034541080383131452 -4.5065034853669873e-05 0 -0.034564891250703 -4.0860180067721535e-05 0 -0.034556414441763675 -4.8341481149259144e-05 0 -0.034574855566037122 -4.5076582168954164e-05 0 -0.034594337185383441 -4.3836669316650055e-05 0 -0.034556414441763675 -4.8341481149259144e-05 0 -0.034594337185383441 -4.3836669316650055e-05 0 -0.034564891250703 -4.0860180067721535e-05 0 -0.034574855566037122 -4.5076582168954164e-05 0 -0.034623773819641421 -3.9829579731909458e-05 0 -0.034589345341290816 -3.3287829085646804e-05 0 -0.034574855566037122 -4.5076582168954164e-05 0 -0.034594337185383441 -4.3836669316650055e-05 0 -0.034623773819641421 -3.9829579731909458e-05 0 -0.034623773819641421 -3.9829579731909458e-05 0 -0.034639279254973579 -2.2998423554649452e-05 0 -0.034589345341290816 -3.3287829085646804e-05 0 -0.034623773819641421 -3.9829579731909458e-05 0 -0.034647456783570577 -4.7146046351303091e-05 0 -0.034685650209425142 -3.6758268132637956e-05 0 -0.034594337185383441 -4.3836669316650055e-05 0 -0.034623773819641421 -3.9829579731909458e-05 0 -0.034647456783570577 -4.7146046351303091e-05 0 -0.034634639295217436 -5.3412308330309129e-05 0 -0.034647456783570577 -4.7146046351303091e-05 0 -0.03472661968674072 -5.8516733552687011e-05 0 -0.034600092106358414 -3.9569180469372702e-05 0 -0.034594337185383441 -4.3836669316650055e-05 0 -0.034647456783570577 -4.7146046351303091e-05 0 -0.034600092106358414 -3.9569180469372702e-05 0 -0.034634639295217436 -5.3412308330309129e-05 0 -0.034647456783570577 -4.7146046351303091e-05 0 -0.034647456783570577 -4.7146046351303091e-05 0 -0.03472661968674072 -5.8516733552687011e-05 0 -0.034685650209425142 -3.6758268132637956e-05 0 -0.03472661968674072 -5.8516733552687011e-05 0 -0.034685650209425142 -3.6758268132637956e-05 0 -0.034745195897663603 -1.6833117258904775e-05 0 -0.034639279254973579 -2.2998423554649452e-05 0 -0.034685650209425142 -3.6758268132637956e-05 0 -0.034745195897663603 -1.6833117258904775e-05 0 -0.034639279254973579 -2.2998423554649452e-05 0 -0.034745195897663603 -1.6833117258904775e-05 0 -0.034631327082462873 1.9444844301290545e-05 0 -0.034623773819641421 -3.9829579731909458e-05 0 -0.034639279254973579 -2.2998423554649452e-05 0 -0.034685650209425142 -3.6758268132637956e-05 0 -0.03449720502580559 -2.5930309027526554e-05 0 -0.03457558871406425 -0.00019419610183563142 0 -0.034647442621555433 -9.0235918669159996e-05 0 -0.03449720502580559 -2.5930309027526554e-05 0 -0.034574857538885277 -3.6409381019333146e-05 0 -0.034647442621555433 -9.0235918669159996e-05 0 -0.034574857538885277 -3.6409381019333146e-05 0 -0.034634639295217436 -5.3412308330309129e-05 0 -0.034647442621555433 -9.0235918669159996e-05 0 -0.034634639295217436 -5.3412308330309129e-05 0 -0.03472661968674072 -5.8516733552687011e-05 0 -0.034647442621555433 -9.0235918669159996e-05 0 -0.03472661968674072 -5.8516733552687011e-05 0 -0.034647442621555433 -9.0235918669159996e-05 0 -0.03476839261536227 -9.1822132984665166e-05 0 -0.03457558871406425 -0.00019419610183563142 0 -0.034647442621555433 -9.0235918669159996e-05 0 -0.03476839261536227 -9.1822132984665166e-05 0 -0.03481524318872025 -7.8878859473514141e-05 0 -0.03476839261536227 -9.1822132984665166e-05 0 -0.034999839259268369 -1.1143631039533589e-07 0 -0.03457558871406425 -0.00019419610183563142 0 -0.03481524318872025 -7.8878859473514141e-05 0 -0.03476839261536227 -9.1822132984665166e-05 0 -0.03472661968674072 -5.8516733552687011e-05 0 -0.03476839261536227 -9.1822132984665166e-05 0 -0.034853854064323946 -2.5830993759305397e-05 0 -0.03476839261536227 -9.1822132984665166e-05 0 -0.034999839259268369 -1.1143631039533589e-07 0 -0.034853854064323946 -2.5830993759305397e-05 0 -0.03481524318872025 -7.8878859473514141e-05 0 -0.034999669896020061 -3.1890212979023469e-08 0 -0.034999839259268369 -1.1143631039533589e-07 0 -0.03480318258627374 8.8460010376014043e-06 0 -0.034745195897663603 -1.6833117258904775e-05 0 -0.034853854064323946 -2.5830993759305397e-05 0 -0.03480318258627374 8.8460010376014043e-06 0 -0.034745195897663603 -1.6833117258904775e-05 0 -0.034631327082462873 1.9444844301290545e-05 0 -0.03472661968674072 -5.8516733552687011e-05 0 -0.034745195897663603 -1.6833117258904775e-05 0 -0.034853854064323946 -2.5830993759305397e-05 0 -0.034999839259268369 -1.1143631039533589e-07 0 -0.034853854064323946 -2.5830993759305397e-05 0 -0.034999375644080802 2.0619002035045688e-07 0 -0.03480318258627374 8.8460010376014043e-06 0 -0.034853854064323946 -2.5830993759305397e-05 0 -0.034999375644080802 2.0619002035045688e-07 0 -0.03480318258627374 8.8460010376014043e-06 0 -0.034999375644080802 2.0619002035045688e-07 0 -0.034669759164108867 7.6658862105952243e-05 0 -0.034999878387981659 -1.7306826774306515e-08 0 -0.03485344011100331 3.9759045965098389e-05 0 -0.035000002790225498 -7.6321993716646026e-10 0 -0.034999719038325675 -9.6956164707696321e-07 0 -0.034999994059385017 8.0423140641528646e-10 0 -0.034999994059385017 8.0423140641528646e-10 0 -0.034997134467202047 -8.2198218485491151e-07 0 -0.034999999385462881 -4.3143885884424228e-09 0 -0.034999719038325675 -9.6956164707696321e-07 0 -0.034999994059385017 8.0423140641528646e-10 0 -0.034997134467202047 -8.2198218485491151e-07 0 -0.034999719038325675 -9.6956164707696321e-07 0 -0.034997134467202047 -8.2198218485491151e-07 0 -0.034994954938235345 -5.9094202271364988e-06 0 -0.03485344011100331 3.9759045965098389e-05 0 -0.034605769855393174 -1.2460460772056827e-05 0 -0.034997134467202047 -8.2198218485491151e-07 0 -0.034994954938235345 -5.9094202271364988e-06 0 -0.03499191436560449 -1.9282498633953248e-06 0 -0.034669759164108867 7.6658862105952243e-05 0 -0.034477007194029505 9.3832606123808905e-05 0 -0.034631327082462873 1.9444844301290545e-05 0 -0.03480318258627374 8.8460010376014043e-06 0 -0.034669759164108867 7.6658862105952243e-05 0 -0.034631327082462873 1.9444844301290545e-05 0 -0.034631327082462873 1.9444844301290545e-05 0 -0.034472885791751298 2.6207066063927646e-05 0 -0.034563343739890381 -1.3108625211732198e-05 0 -0.034639279254973579 -2.2998423554649452e-05 0 -0.034631327082462873 1.9444844301290545e-05 0 -0.034563343739890381 -1.3108625211732198e-05 0 -0.034477007194029505 9.3832606123808905e-05 0 -0.034631327082462873 1.9444844301290545e-05 0 -0.034472885791751298 2.6207066063927646e-05 0 -0.034472885791751298 2.6207066063927646e-05 0 -0.034478163417387159 -2.8011721879649881e-05 0 -0.034563343739890381 -1.3108625211732198e-05 0 -0.034472885791751298 2.6207066063927646e-05 0 -0.034478163417387159 -2.8011721879649881e-05 0 -0.034366028765238615 -6.3602747660415157e-06 0 -0.034403599720583114 -5.4209478052174997e-05 0 -0.034478163417387159 -2.8011721879649881e-05 0 -0.034366028765238615 -6.3602747660415157e-06 0 -0.03447258841503574 -6.5619489343416004e-05 0 -0.034478163417387159 -2.8011721879649881e-05 0 -0.034536813822141077 -4.103267634771834e-05 0 -0.034574855566037122 -4.5076582168954164e-05 0 -0.034536813822141077 -4.103267634771834e-05 0 -0.034589345341290816 -3.3287829085646804e-05 0 -0.034639279254973579 -2.2998423554649452e-05 0 -0.034589345341290816 -3.3287829085646804e-05 0 -0.034563343739890381 -1.3108625211732198e-05 0 -0.034536813822141077 -4.103267634771834e-05 0 -0.034589345341290816 -3.3287829085646804e-05 0 -0.034563343739890381 -1.3108625211732198e-05 0 -0.034478163417387159 -2.8011721879649881e-05 0 -0.034536813822141077 -4.103267634771834e-05 0 -0.034563343739890381 -1.3108625211732198e-05 0 -0.035276458789393506 0.00017700720369822308 0 -0.030729979166581555 0.00038523838675371883 0 -0.034163441939304443 -0.00011158892027567377 0 -0.034231353478270804 -2.0370606481769292e-05 0 -0.034022506699482501 2.0945082869756458e-06 0 -0.034231353478270804 -2.0370606481769292e-05 0 -0.034274323604417588 8.9157637084938651e-05 0 -0.034022506699482501 2.0945082869756458e-06 0 -0.034303711745139083 -7.3530099634545279e-05 0 -0.034231353478270804 -2.0370606481769292e-05 0 -0.034366028765238615 -6.3602747660415157e-06 0 -0.034403599720583114 -5.4209478052174997e-05 0 -0.034303711745139083 -7.3530099634545279e-05 0 -0.034366028765238615 -6.3602747660415157e-06 0 -0.034231353478270804 -2.0370606481769292e-05 0 -0.034366028765238615 -6.3602747660415157e-06 0 -0.034274323604417588 8.9157637084938651e-05 0 -0.034605769855393174 -1.2460460772056827e-05 0 -0.035276458789393506 0.00017700720369822308 0 -0.034472885791751298 2.6207066063927646e-05 0 -0.034366028765238615 -6.3602747660415157e-06 0 -0.034274323604417588 8.9157637084938651e-05 0 -0.034477007194029505 9.3832606123808905e-05 0 -0.034472885791751298 2.6207066063927646e-05 0 -0.034274323604417588 8.9157637084938651e-05 0 -0.034974744462593341 -1.0050565873243893e-05 0 -0.034983040639188667 -2.6252618697065281e-06 0 -0.034955522973488973 -4.6965928353262513e-06 0 -0.034974744462593341 -1.0050565873243893e-05 0 -0.034955522973488973 -4.6965928353262513e-06 0 -0.034929231566642245 -1.4493873836613954e-05 0 -0.034974744462593341 -1.0050565873243893e-05 0 -0.034983040639188667 -2.6252618697065281e-06 0 -0.03499191436560449 -1.9282498633953248e-06 0 -0.034994954938235345 -5.9094202271364988e-06 0 -0.034974744462593341 -1.0050565873243893e-05 0 -0.03499191436560449 -1.9282498633953248e-06 0 -0.034983040639188667 -2.6252618697065281e-06 0 -0.03499191436560449 -1.9282498633953248e-06 0 -0.034999999385462881 -4.3143885884424228e-09 0 -0.034997134467202047 -8.2198218485491151e-07 0 -0.03499191436560449 -1.9282498633953248e-06 0 -0.034999999385462881 -4.3143885884424228e-09 0 -0.034999999385462881 -4.3143885884424228e-09 0 -0.034999907214957646 1.8805518223999807e-08 0 -0.034986240774513795 -5.4831364040931139e-06 0 -0.034983040639188667 -2.6252618697065281e-06 0 -0.034999999385462881 -4.3143885884424228e-09 0 -0.034986240774513795 -5.4831364040931139e-06 0 -0.034999907214957646 1.8805518223999807e-08 0 -0.034986240774513795 -5.4831364040931139e-06 0 -0.034978778596525838 -2.2559433528217169e-05 0 -0.034999907214957646 1.8805518223999807e-08 0 -0.035003788241785273 -4.833518619670869e-05 0 -0.035000263960975414 -2.0291810852315586e-07 0 -0.034999907214957646 1.8805518223999807e-08 0 -0.034978778596525838 -2.2559433528217169e-05 0 -0.035003788241785273 -4.833518619670869e-05 0 -0.034978778596525838 -2.2559433528217169e-05 0 -0.035003788241785273 -4.833518619670869e-05 0 -0.035012245695777849 -2.4772687066091337e-05 0 -0.034966035160160572 -8.7454607609924756e-06 0 -0.035012245695777849 -2.4772687066091337e-05 0 -0.034960681440236882 8.4941523523259475e-06 0 -0.034978778596525838 -2.2559433528217169e-05 0 -0.034966035160160572 -8.7454607609924756e-06 0 -0.035012245695777849 -2.4772687066091337e-05 0 -0.034978778596525838 -2.2559433528217169e-05 0 -0.034966035160160572 -8.7454607609924756e-06 0 -0.034963212585357901 -6.7097900052346956e-06 0 -0.034986240774513795 -5.4831364040931139e-06 0 -0.034978778596525838 -2.2559433528217169e-05 0 -0.034963212585357901 -6.7097900052346956e-06 0 -0.034983040639188667 -2.6252618697065281e-06 0 -0.034963212585357901 -6.7097900052346956e-06 0 -0.034955522973488973 -4.6965928353262513e-06 0 -0.034983040639188667 -2.6252618697065281e-06 0 -0.034986240774513795 -5.4831364040931139e-06 0 -0.034963212585357901 -6.7097900052346956e-06 0 -0.035076841382296504 -0.00016058004685114919 0 -0.035002747657568792 -0.00032005075058197711 0 -0.03499966781412446 4.746154439646531e-08 0 -0.035076841382296504 -0.00016058004685114919 0 -0.035000263960975414 -2.0291810852315586e-07 0 -0.03499966781412446 4.746154439646531e-08 0 -0.035076841382296504 -0.00016058004685114919 0 -0.035003788241785273 -4.833518619670869e-05 0 -0.035000263960975414 -2.0291810852315586e-07 0 -0.035076841382296504 -0.00016058004685114919 0 -0.035003788241785273 -4.833518619670869e-05 0 -0.035012245695777849 -2.4772687066091337e-05 0 -0.035076841382296504 -0.00016058004685114919 0 -0.035210399584300889 -0.00039045783429746264 0 -0.035111923220194276 -0.00051537748976882361 0 -0.035490232404347823 -0.0005875782022872494 0 -0.031113900646641868 0.0001699177069639335 0 -0.034942427144415762 -3.7617817380042193e-05 0 -0.035490232404347823 -0.0005875782022872494 0 -0.035076841382296504 -0.00016058004685114919 0 -0.035111923220194276 -0.00051537748976882361 0 -0.035002747657568792 -0.00032005075058197711 0 -0.024943465965366531 -0.00060154835677091894 0 -0.024461795330547771 3.344490734765617e-05 0 -0.025080699817684488 3.5697552055703242e-05 0 -0.024943465965366531 -0.00060154835677091894 0 -0.025080699817684488 3.5697552055703242e-05 0 -0.026092985768218977 -0.0008534791935742947 0 -0.029694391338215172 -0.00062700737954261712 0 -0.031113900646641868 0.0001699177069639335 0 -0.024943465965366531 -0.00060154835677091894 0 -0.024461795330547771 3.344490734765617e-05 0 -0.023973881775002672 -0.00037855024987712839 0 -0.035210399584300889 -0.00039045783429746264 0 -0.035111923220194276 -0.00051537748976882361 0 -0.035230658816330425 -0.00043001332956977737 0 -0.024240298100626712 0.00045754629153455065 0 -0.024461795330547771 3.344490734765617e-05 0 -0.024626636749900076 0.00070849042887690425 0 -0.024240298100626712 0.00045754629153455065 0 -0.024461795330547771 3.344490734765617e-05 0 -0.023946144354215881 0.00024194890842808928 0 -0.024461795330547771 3.344490734765617e-05 0 -0.025080699817684488 3.5697552055703242e-05 0 -0.024626636749900076 0.00070849042887690425 0 -0.025080699817684488 3.5697552055703242e-05 0 -0.024626636749900076 0.00070849042887690425 0 -0.025671931991524972 0.00037825429128836784 0 -0.034937440055372249 -5.2315039406349623e-06 0 -0.034955522973488973 -4.6965928353262513e-06 0 -0.034929231566642245 -1.4493873836613954e-05 0 -0.031113900646641868 0.0001699177069639335 0 -0.030729979166581555 0.00038523838675371883 0 -0.034937440055372249 -5.2315039406349623e-06 0 -0.034934924676082092 5.8679805714676252e-06 0 -0.034929231566642245 -1.4493873836613954e-05 0 -0.034937440055372249 -5.2315039406349623e-06 0 -0.034955522973488973 -4.6965928353262513e-06 0 -0.034949283813279573 -1.6894609721262759e-06 0 -0.034937440055372249 -5.2315039406349623e-06 0 -0.034949283813279573 -1.6894609721262759e-06 0 -0.034941394121172281 9.0244570025976913e-07 0 -0.034963212585357901 -6.7097900052346956e-06 0 -0.034955522973488973 -4.6965928353262513e-06 0 -0.034949283813279573 -1.6894609721262759e-06 0 -0.034963212585357901 -6.7097900052346956e-06 0 -0.034949283813279573 -1.6894609721262759e-06 0 -0.03494275086916121 4.898733881520089e-06 0 -0.024461795330547771 3.344490734765617e-05 0 -0.023973881775002672 -0.00037855024987712839 0 -0.023946144354215881 0.00024194890842808928 0 -0.034966035160160572 -8.7454607609924756e-06 0 -0.034963212585357901 -6.7097900052346956e-06 0 -0.03494275086916121 4.898733881520089e-06 0 -0.034966035160160572 -8.7454607609924756e-06 0 -0.03494275086916121 4.898733881520089e-06 0 -0.034960681440236882 8.4941523523259475e-06 0 -0.034949283813279573 -1.6894609721262759e-06 0 -0.03494275086916121 4.898733881520089e-06 0 -0.034941394121172281 9.0244570025976913e-07 0 -0.03494275086916121 4.898733881520089e-06 0 -0.034934924676082092 5.8679805714676252e-06 0 -0.034941394121172281 9.0244570025976913e-07 0 -0.033202846183003808 -2.2438557824978176e-05 0 -0.031113900646641868 0.0001699177069639335 0 -0.034937440055372249 -5.2315039406349623e-06 0 -0.034934924676082092 5.8679805714676252e-06 0 -0.034941394121172281 9.0244570025976913e-07 0 -0.023946144354215881 0.00024194890842808928 0 -0.023511873537011094 0.00044655124268315542 0 -0.023955904990449223 0.00084175184351230673 0 -0.024240298100626712 0.00045754629153455065 0 -0.023946144354215881 0.00024194890842808928 0 -0.023955904990449223 0.00084175184351230673 0 -0.023973881775002672 -0.00037855024987712839 0 -0.023946144354215881 0.00024194890842808928 0 -0.023325501102677428 0.00030778382189709748 0 -0.023946144354215881 0.00024194890842808928 0 -0.023511873537011094 0.00044655124268315542 0 -0.023325501102677428 0.00030778382189709748 0 -0.027323469394810347 0.00065940966897780307 0 -0.027718969587465142 0.00046385579891744256 0 -0.027603265764821534 0.00038175394472214261 0 -0.024567785229969358 0.00025605150730606801 0 -0.030729979166581555 0.00038523838675371883 0 -0.027039877440623847 0.00082340805782904242 0 -0.024567785229969358 0.00025605150730606801 0 -0.022916232289581152 0.0016399712384900706 0 -0.023234104213269966 0.0013106555091741783 0 -0.023094054370922466 0.0016237473926291063 0 -0.023234104213269966 0.0013106555091741783 0 -0.023286510535873221 0.0015457543222114228 0 -0.023094054370922466 0.0016237473926291063 0 -0.023286510535873221 0.0015457543222114228 0 -0.023094054370922466 0.0016237473926291063 0 -0.023132359682598278 0.0017898026272729867 0 -0.022932927416299115 0.0019618085064240986 0 -0.023132359682598278 0.0017898026272729867 0 -0.023045559289861312 0.0021297279433271539 0 -0.022932927416299115 0.0019618085064240986 0 -0.023094054370922466 0.0016237473926291063 0 -0.023132359682598278 0.0017898026272729867 0 -0.023286510535873221 0.0015457543222114228 0 -0.023132359682598278 0.0017898026272729867 0 -0.023412429517071051 0.0017764568540691529 0 -0.023132359682598278 0.0017898026272729867 0 -0.023412429517071051 0.0017764568540691529 0 -0.023045559289861312 0.0021297279433271539 0 -0.023412429517071051 0.0017764568540691529 0 -0.024585548766490536 0.0015425476906802207 0 -0.023236578448160353 0.0023337856140891165 0 -0.023286510535873221 0.0015457543222114228 0 -0.023412429517071051 0.0017764568540691529 0 -0.023587198718640952 0.001351510999840509 0 -0.024567785229969358 0.00025605150730606801 0 -0.023715773281411362 0.0010782906802306717 0 -0.023234104213269966 0.0013106555091741783 0 -0.023286510535873221 0.0015457543222114228 0 -0.023587198718640952 0.001351510999840509 0 -0.024240298100626712 0.00045754629153455065 0 -0.023955904990449223 0.00084175184351230673 0 -0.024626636749900076 0.00070849042887690425 0 -0.023955904990449223 0.00084175184351230673 0 -0.024626636749900076 0.00070849042887690425 0 -0.024585548766490536 0.0015425476906802207 0 -0.023715773281411362 0.0010782906802306717 0 -0.024592949667717079 0.0015634092026584935 0 -0.024626636749900076 0.00070849042887690425 0 -0.024585548766490536 0.0015425476906802207 0 -0.02537750111270588 0.0012611436759494424 0 -0.024626636749900076 0.00070849042887690425 0 -0.02537750111270588 0.0012611436759494424 0 -0.025671931991524972 0.00037825429128836784 0 -0.024585548766490536 0.0015425476906802207 0 -0.025091602811156386 0.0021291815707217762 0 -0.02537750111270588 0.0012611436759494424 0 -0.023412429517071051 0.0017764568540691529 0 -0.023587198718640952 0.001351510999840509 0 -0.024585548766490536 0.0015425476906802207 0 -0.024585548766490536 0.0015425476906802207 0 -0.024475912522977268 0.0027215420187206882 0 -0.023236578448160353 0.0023337856140891165 0 -0.023792511289747659 0.0025071559636397193 0 -0.023258171196393587 0.0023410813089426441 0 -0.024585548766490536 0.0015425476906802207 0 -0.025091602811156386 0.0021291815707217762 0 -0.024475912522977268 0.0027215420187206882 0 -0.023792511289747659 0.0025071559636397193 0 -0.024710542559267655 0.0026504631391864684 0 -0.025091602811156386 0.0021291815707217762 0 -0.024475912522977268 0.0027215420187206882 0 -0.025451772049367778 0.0028943083516422921 0 -0.023107762389162644 0.0023411753080956237 0 -0.023236578448160353 0.0023337856140891165 0 -0.022935124109175507 0.0025707975086191859 0 -0.022949949536573096 0.002426944406062388 0 -0.023236578448160353 0.0023337856140891165 0 -0.022935124109175507 0.0025707975086191859 0 -0.022887292455597865 0.0022405821679603189 0 -0.022949949536573096 0.002426944406062388 0 -0.023045559289861312 0.0021297279433271539 0 -0.022949949536573096 0.002426944406062388 0 -0.023045559289861312 0.0021297279433271539 0 -0.023236578448160353 0.0023337856140891165 0 -0.023412429517071051 0.0017764568540691529 0 -0.023045559289861312 0.0021297279433271539 0 -0.023236578448160353 0.0023337856140891165 0 -0.026889338008933419 0.0025151685810389885 0 -0.02618419256484741 0.0024398227230925567 0 -0.02692757184369262 0.0017683024703685454 0 -0.027218382353036693 0.0027202135738970293 0 -0.027186019833140337 0.0017969354909777807 0 -0.028104881054130934 0.0022523245565613339 0 -0.027533009167579919 0.0028503695534660939 0 -0.027439533099309937 0.0019086360626776823 0 -0.028104881054130934 0.0022523245565613339 0 -0.027533009167579919 0.0028503695534660939 0 -0.028329912656654323 0.0027704587914492004 0 -0.026889338008933419 0.0025151685810389885 0 -0.02618419256484741 0.0024398227230925567 0 -0.025923140102378641 0.0030167280810742946 0 -0.02618419256484741 0.0024398227230925567 0 -0.025451772049367778 0.0028943083516422921 0 -0.025852075839917821 0.0019431093399424134 0 -0.02618419256484741 0.0024398227230925567 0 -0.025451772049367778 0.0028943083516422921 0 -0.025923140102378641 0.0030167280810742946 0 -0.025091602811156386 0.0021291815707217762 0 -0.025451772049367778 0.0028943083516422921 0 -0.025852075839917821 0.0019431093399424134 0 -0.02618419256484741 0.0024398227230925567 0 -0.025852075839917821 0.0019431093399424134 0 -0.02692757184369262 0.0017683024703685454 0 -0.025852075839917821 0.0019431093399424134 0 -0.026195320543766856 0.0011314798486176765 0 -0.02692757184369262 0.0017683024703685454 0 -0.025091602811156386 0.0021291815707217762 0 -0.025852075839917821 0.0019431093399424134 0 -0.02537750111270588 0.0012611436759494424 0 -0.025852075839917821 0.0019431093399424134 0 -0.02537750111270588 0.0012611436759494424 0 -0.026195320543766856 0.0011314798486176765 0 -0.02537750111270588 0.0012611436759494424 0 -0.026195320543766856 0.0011314798486176765 0 -0.025671931991524972 0.00037825429128836784 0 -0.026195320543766856 0.0011314798486176765 0 -0.027182097516192393 0.00076404885472814278 0 -0.02692757184369262 0.0017683024703685454 0 -0.027155601509968763 0.00080640753448949312 0 -0.027186019833140337 0.0017969354909777807 0 -0.028104881054130934 0.0022523245565613339 0 -0.027439533099309937 0.0019086360626776823 0 -0.028375574106266944 0.0014218280022939434 0 -0.027182097516192393 0.00076404885472814278 0 -0.027439533099309937 0.0019086360626776823 0 -0.028375574106266944 0.0014218280022939434 0 -0.027182097516192393 0.00076404885472814278 0 -0.028311373160032401 0.00056347911457238367 0 -0.028375574106266944 0.0014218280022939434 0 -0.027182097516192393 0.00076404885472814278 0 -0.028311373160032401 0.00056347911457238367 0 -0.028317926582196378 -0.00021960688437629589 0 -0.027182097516192393 0.00076404885472814278 0 -0.028317926582196378 -0.00021960688437629589 0 -0.026812251392554262 -9.679293335162791e-05 0 -0.028317926582196378 -0.00021960688437629589 0 -0.026812251392554262 -9.679293335162791e-05 0 -0.02750220383844126 -0.0011081399315249507 0 -0.028317926582196378 -0.00021960688437629589 0 -0.02750220383844126 -0.0011081399315249507 0 -0.029434065677381428 -0.0010704516562200445 0 -0.026195320543766856 0.0011314798486176765 0 -0.027182097516192393 0.00076404885472814278 0 -0.026812251392554262 -9.679293335162791e-05 0 -0.026195320543766856 0.0011314798486176765 0 -0.025671931991524972 0.00037825429128836784 0 -0.026812251392554262 -9.679293335162791e-05 0 -0.026812251392554262 -9.679293335162791e-05 0 -0.026092985768218977 -0.0008534791935742947 0 -0.02750220383844126 -0.0011081399315249507 0 -0.025671931991524972 0.00037825429128836784 0 -0.026812251392554262 -9.679293335162791e-05 0 -0.026092985768218977 -0.0008534791935742947 0 -0.025080699817684488 3.5697552055703242e-05 0 -0.025671931991524972 0.00037825429128836784 0 -0.026092985768218977 -0.0008534791935742947 0 -0.029694391338215172 -0.00062700737954261712 0 -0.030444224468877699 -0.0009269390319084906 0 -0.035111923220194276 -0.00051537748976882361 0 -0.035002747657568792 -0.00032005075058197711 0 -0.034751923949064026 -0.0009787539498964516 0 -0.035002747657568792 -0.00032005075058197711 0 -0.034751923949064026 -0.0009787539498964516 0 -0.034747276985131956 8.0778692228956059e-05 0 -0.034751923949064026 -0.0009787539498964516 0 -0.032573485526340762 -0.0015701791983592527 0 -0.033410501980679103 -0.00045973552450622032 0 -0.034751923949064026 -0.0009787539498964516 0 -0.034747276985131956 8.0778692228956059e-05 0 -0.033410501980679103 -0.00045973552450622032 0 -0.030444224468877699 -0.0009269390319084906 0 -0.02999451787990013 -0.0012698051963708449 0 -0.034747276985131956 8.0778692228956059e-05 0 -0.03499966781412446 4.746154439646531e-08 0 -0.0349994296627298 2.5653493540144059e-08 0 -0.035002747657568792 -0.00032005075058197711 0 -0.034747276985131956 8.0778692228956059e-05 0 -0.03499966781412446 4.746154439646531e-08 0 -0.032573485526340762 -0.0015701791983592527 0 -0.030485684302841605 -0.00032205807301268662 0 -0.029434065677381428 -0.0010704516562200445 0 -0.032573485526340762 -0.0015701791983592527 0 -0.031881586773694327 0.00050416095929286891 0 -0.030485684302841605 -0.00032205807301268662 0 -0.02999451787990013 -0.0012698051963708449 0 -0.029471908548320248 -0.0011244109414786233 0 -0.032573485526340762 -0.0015701791983592527 0 -0.033410501980679103 -0.00045973552450622032 0 -0.031881586773694327 0.00050416095929286891 0 -0.034747276985131956 8.0778692228956059e-05 0 -0.033410501980679103 -0.00045973552450622032 0 -0.031881586773694327 0.00050416095929286891 0 -0.034747276985131956 8.0778692228956059e-05 0 -0.0349994296627298 2.5653493540144059e-08 0 -0.035030531682946071 1.4635156174356804e-05 0 -0.034648658659669235 0.00011814345839212761 0 -0.033466305422052409 0.00020494515995437659 0 -0.031881586773694327 0.00050416095929286891 0 -0.030485684302841605 -0.00032205807301268662 0 -0.029564275713364192 -0.00017517714655290061 0 -0.033466305422052409 0.00020494515995437659 0 -0.032414519860970409 -9.2881784045491312e-05 0 -0.035030531682946071 1.4635156174356804e-05 0 -0.035000207045315042 1.9294529117339991e-08 0 -0.034991723725007931 -3.2967941931759897e-06 0 -0.0349994296627298 2.5653493540144059e-08 0 -0.035030531682946071 1.4635156174356804e-05 0 -0.035000207045315042 1.9294529117339991e-08 0 -0.035000207045315042 1.9294529117339991e-08 0 -0.034991723725007931 -3.2967941931759897e-06 0 -0.03499989275869874 -1.0467149472589283e-08 0 -0.029564275713364192 -0.00017517714655290061 0 -0.029526767682260733 -0.00063408287592052199 0 -0.029617326955590207 -0.00064803024720757317 0 -0.030485684302841605 -0.00032205807301268662 0 -0.029564275713364192 -0.00017517714655290061 0 -0.029526767682260733 -0.00063408287592052199 0 -0.030485684302841605 -0.00032205807301268662 0 -0.029526767682260733 -0.00063408287592052199 0 -0.029434065677381428 -0.0010704516562200445 0 -0.029434065677381428 -0.0010704516562200445 0 -0.029557797615841545 -0.00077183813090812012 0 -0.029365197694303995 -0.00025324327039688007 0 -0.029526767682260733 -0.00063408287592052199 0 -0.029434065677381428 -0.0010704516562200445 0 -0.029557797615841545 -0.00077183813090812012 0 -0.029557797615841545 -0.00077183813090812012 0 -0.029811326837471622 -0.00068446059365991161 0 -0.029760383696584913 -0.00048959914719540112 0 -0.029526767682260733 -0.00063408287592052199 0 -0.029557797615841545 -0.00077183813090812012 0 -0.029617326955590207 -0.00064803024720757317 0 -0.029674466339541621 -0.00071537348162220734 0 -0.029782402852252855 -0.00077569323825611659 0 -0.029811326837471622 -0.00068446059365991161 0 -0.029557797615841545 -0.00077183813090812012 0 -0.029674466339541621 -0.00071537348162220734 0 -0.029811326837471622 -0.00068446059365991161 0 -0.029557797615841545 -0.00077183813090812012 0 -0.029674466339541621 -0.00071537348162220734 0 -0.029617326955590207 -0.00064803024720757317 0 -0.032414519860970409 -9.2881784045491312e-05 0 -0.032186093070046114 -0.00046308532790488821 0 -0.029674466339541621 -0.00071537348162220734 0 -0.029617326955590207 -0.00064803024720757317 0 -0.029782402852252855 -0.00077569323825611659 0 -0.029564275713364192 -0.00017517714655290061 0 -0.029617326955590207 -0.00064803024720757317 0 -0.029815233503060239 -0.0010012517554492352 0 -0.034991723725007931 -3.2967941931759897e-06 0 -0.03499989275869874 -1.0467149472589283e-08 0 -0.034996735735121083 -2.8478649662013997e-07 0 -0.029617326955590207 -0.00064803024720757317 0 -0.029815233503060239 -0.0010012517554492352 0 -0.029782402852252855 -0.00077569323825611659 0 -0.029815233503060239 -0.0010012517554492352 0 -0.030159416989982344 -0.00097702964020328028 0 -0.030392575563683921 -0.0010525214274202642 0 -0.03499989275869874 -1.0467149472589283e-08 0 -0.034996735735121083 -2.8478649662013997e-07 0 -0.035000023482717683 -1.4851644528626515e-09 0 -0.029815233503060239 -0.0010012517554492352 0 -0.030056959462277523 -0.00093838137447495426 0 -0.029939866147820682 -0.00086290544030178079 0 -0.029815233503060239 -0.0010012517554492352 0 -0.030159416989982344 -0.00097702964020328028 0 -0.030056959462277523 -0.00093838137447495426 0 -0.030159416989982344 -0.00097702964020328028 0 -0.030056959462277523 -0.00093838137447495426 0 -0.03022335265303264 -0.00091699436728914232 0 -0.030056959462277523 -0.00093838137447495426 0 -0.030099593399011915 -0.00085662540648362114 0 -0.029939866147820682 -0.00086290544030178079 0 -0.030099593399011915 -0.00085662540648362114 0 -0.03022335265303264 -0.00091699436728914232 0 -0.030241716980310324 -0.00080444736937257226 0 -0.030056959462277523 -0.00093838137447495426 0 -0.030099593399011915 -0.00085662540648362114 0 -0.03022335265303264 -0.00091699436728914232 0 -0.030099593399011915 -0.00085662540648362114 0 -0.030241716980310324 -0.00080444736937257226 0 -0.030104092246363005 -0.00073473171389708616 0 -0.030099593399011915 -0.00085662540648362114 0 -0.029948990293010031 -0.00076273703059891184 0 -0.030104092246363005 -0.00073473171389708616 0 -0.030099593399011915 -0.00085662540648362114 0 -0.029948990293010031 -0.00076273703059891184 0 -0.029939866147820682 -0.00086290544030178079 0 -0.029948990293010031 -0.00076273703059891184 0 -0.029782402852252855 -0.00077569323825611659 0 -0.029939866147820682 -0.00086290544030178079 0 -0.029815233503060239 -0.0010012517554492352 0 -0.029782402852252855 -0.00077569323825611659 0 -0.029939866147820682 -0.00086290544030178079 0 -0.033924993624645704 -0.00055480534880328455 0 -0.03231231602606871 -0.00010236893315248801 0 -0.032186093070046114 -0.00046308532790488821 0 -0.033924993624645704 -0.00055480534880328455 0 -0.034996735735121083 -2.8478649662013997e-07 0 -0.035000023482717683 -1.4851644528626515e-09 0 -0.03499868251046772 -5.7815807794329136e-07 0 -0.034818089672058954 -3.2083875940055594e-05 0 -0.034280598421681886 0.00024555371831277414 0 -0.034597619044956299 0.00010382227261636143 0 -0.029815233503060239 -0.0010012517554492352 0 -0.030609621842620657 -0.0011426892268537852 0 -0.030392575563683921 -0.0010525214274202642 0 -0.030609621842620657 -0.0011426892268537852 0 -0.03056189778220594 -0.00087535821431425581 0 -0.030602771087199457 -0.0005544924330760883 0 -0.030609621842620657 -0.0011426892268537852 0 -0.03051416869811989 -0.0010097347650664141 0 -0.03056189778220594 -0.00087535821431425581 0 -0.034999300433019187 -9.3296419700540308e-08 0 -0.034997997829953775 -1.5922213471798531e-05 0 -0.03495641684529234 -5.6067111525718504e-06 0 -0.034994724471715151 -1.3053638848165634e-06 0 -0.033924993624645704 -0.00055480534880328455 0 -0.030609621842620657 -0.0011426892268537852 0 -0.03051611577394784 -0.0010642773558096246 0 -0.030392575563683921 -0.0010525214274202642 0 -0.03051611577394784 -0.0010642773558096246 0 -0.030453961466991426 -0.0010114681202775383 0 -0.030392575563683921 -0.0010525214274202642 0 -0.030609621842620657 -0.0011426892268537852 0 -0.03051611577394784 -0.0010642773558096246 0 -0.03051416869811989 -0.0010097347650664141 0 -0.03051611577394784 -0.0010642773558096246 0 -0.03051416869811989 -0.0010097347650664141 0 -0.030453961466991426 -0.0010114681202775383 0 -0.03051416869811989 -0.0010097347650664141 0 -0.030453961466991426 -0.0010114681202775383 0 -0.030484535123369749 -0.00096209914917739744 0 -0.030453961466991426 -0.0010114681202775383 0 -0.030381971775582307 -0.00098737443582396791 0 -0.030418565264044409 -0.00094830528027987449 0 -0.030453961466991426 -0.0010114681202775383 0 -0.030381971775582307 -0.00098737443582396791 0 -0.030392575563683921 -0.0010525214274202642 0 -0.030381971775582307 -0.00098737443582396791 0 -0.030306356755550844 -0.00097770861567603672 0 -0.03033762710158636 -0.00092980621342191592 0 -0.030381971775582307 -0.00098737443582396791 0 -0.030392575563683921 -0.0010525214274202642 0 -0.030306356755550844 -0.00097770861567603672 0 -0.030159416989982344 -0.00097702964020328028 0 -0.030392575563683921 -0.0010525214274202642 0 -0.030306356755550844 -0.00097770861567603672 0 -0.030159416989982344 -0.00097702964020328028 0 -0.030306356755550844 -0.00097770861567603672 0 -0.03022335265303264 -0.00091699436728914232 0 -0.030306356755550844 -0.00097770861567603672 0 -0.03022335265303264 -0.00091699436728914232 0 -0.03033762710158636 -0.00092980621342191592 0 -0.03022335265303264 -0.00091699436728914232 0 -0.030313682252878945 -0.00086455883775545634 0 -0.03033762710158636 -0.00092980621342191592 0 -0.030241716980310324 -0.00080444736937257226 0 -0.030313682252878945 -0.00086455883775545634 0 -0.030384210521383466 -0.00080487011425988048 0 -0.03022335265303264 -0.00091699436728914232 0 -0.030241716980310324 -0.00080444736937257226 0 -0.030313682252878945 -0.00086455883775545634 0 -0.030241716980310324 -0.00080444736937257226 0 -0.030384210521383466 -0.00080487011425988048 0 -0.030336119474698969 -0.00073093649973492755 0 -0.030313682252878945 -0.00086455883775545634 0 -0.030384210521383466 -0.00080487011425988048 0 -0.03040094500475744 -0.00087823801144563647 0 -0.030384210521383466 -0.00080487011425988048 0 -0.03040094500475744 -0.00087823801144563647 0 -0.030462407741354135 -0.00081422252399320611 0 -0.03040094500475744 -0.00087823801144563647 0 -0.03033762710158636 -0.00092980621342191592 0 -0.030418565264044409 -0.00094830528027987449 0 -0.030313682252878945 -0.00086455883775545634 0 -0.03040094500475744 -0.00087823801144563647 0 -0.03033762710158636 -0.00092980621342191592 0 -0.030381971775582307 -0.00098737443582396791 0 -0.03033762710158636 -0.00092980621342191592 0 -0.030418565264044409 -0.00094830528027987449 0 -0.03051416869811989 -0.0010097347650664141 0 -0.030484535123369749 -0.00096209914917739744 0 -0.03056189778220594 -0.00087535821431425581 0 -0.030418565264044409 -0.00094830528027987449 0 -0.030484535123369749 -0.00096209914917739744 0 -0.030483591650849726 -0.00090419489938027629 0 -0.030453961466991426 -0.0010114681202775383 0 -0.030418565264044409 -0.00094830528027987449 0 -0.030484535123369749 -0.00096209914917739744 0 -0.030484535123369749 -0.00096209914917739744 0 -0.030483591650849726 -0.00090419489938027629 0 -0.03056189778220594 -0.00087535821431425581 0 -0.03040094500475744 -0.00087823801144563647 0 -0.030418565264044409 -0.00094830528027987449 0 -0.030483591650849726 -0.00090419489938027629 0 -0.03040094500475744 -0.00087823801144563647 0 -0.030483591650849726 -0.00090419489938027629 0 -0.030462407741354135 -0.00081422252399320611 0 -0.030462407741354135 -0.00081422252399320611 0 -0.03056189778220594 -0.00087535821431425581 0 -0.030507673830716169 -0.0006866513479790228 0 -0.030483591650849726 -0.00090419489938027629 0 -0.030462407741354135 -0.00081422252399320611 0 -0.03056189778220594 -0.00087535821431425581 0 -0.03056189778220594 -0.00087535821431425581 0 -0.030507673830716169 -0.0006866513479790228 0 -0.030602771087199457 -0.0005544924330760883 0 -0.030462407741354135 -0.00081422252399320611 0 -0.030507673830716169 -0.0006866513479790228 0 -0.030430569405394799 -0.00073403774459752762 0 -0.030507673830716169 -0.0006866513479790228 0 -0.030392832286086149 -0.00063410449356474487 0 -0.030494611147638895 -0.00058528439985610411 0 -0.030507673830716169 -0.0006866513479790228 0 -0.030392832286086149 -0.00063410449356474487 0 -0.030430569405394799 -0.00073403774459752762 0 -0.030507673830716169 -0.0006866513479790228 0 -0.030494611147638895 -0.00058528439985610411 0 -0.030602771087199457 -0.0005544924330760883 0 -0.030392832286086149 -0.00063410449356474487 0 -0.030430569405394799 -0.00073403774459752762 0 -0.030336119474698969 -0.00073093649973492755 0 -0.030384210521383466 -0.00080487011425988048 0 -0.030462407741354135 -0.00081422252399320611 0 -0.030430569405394799 -0.00073403774459752762 0 -0.030384210521383466 -0.00080487011425988048 0 -0.030430569405394799 -0.00073403774459752762 0 -0.030336119474698969 -0.00073093649973492755 0 -0.030241716980310324 -0.00080444736937257226 0 -0.030336119474698969 -0.00073093649973492755 0 -0.030227687976254105 -0.00067703738131009484 0 -0.030392832286086149 -0.00063410449356474487 0 -0.030336119474698969 -0.00073093649973492755 0 -0.030227687976254105 -0.00067703738131009484 0 -0.030392832286086149 -0.00063410449356474487 0 -0.030227687976254105 -0.00067703738131009484 0 -0.030259924589448189 -0.00053747731511383278 0 -0.030259924589448189 -0.00053747731511383278 0 -0.030457609489290847 -0.0004976313088386941 0 -0.030263408665260751 -0.00038485175068624013 0 -0.030392832286086149 -0.00063410449356474487 0 -0.030457609489290847 -0.0004976313088386941 0 -0.030494611147638895 -0.00058528439985610411 0 -0.030392832286086149 -0.00063410449356474487 0 -0.030259924589448189 -0.00053747731511383278 0 -0.030457609489290847 -0.0004976313088386941 0 -0.030457609489290847 -0.0004976313088386941 0 -0.030602771087199457 -0.0005544924330760883 0 -0.030524038623335234 -0.0002761989463509277 0 -0.030457609489290847 -0.0004976313088386941 0 -0.030494611147638895 -0.00058528439985610411 0 -0.030602771087199457 -0.0005544924330760883 0 -0.029948990293010031 -0.00076273703059891184 0 -0.029782402852252855 -0.00077569323825611659 0 -0.029811326837471622 -0.00068446059365991161 0 -0.029948990293010031 -0.00076273703059891184 0 -0.029811326837471622 -0.00068446059365991161 0 -0.030014436576694236 -0.00059343673936385641 0 -0.029948990293010031 -0.00076273703059891184 0 -0.030104092246363005 -0.00073473171389708616 0 -0.030014436576694236 -0.00059343673936385641 0 -0.030227687976254105 -0.00067703738131009484 0 -0.030104092246363005 -0.00073473171389708616 0 -0.030014436576694236 -0.00059343673936385641 0 -0.030241716980310324 -0.00080444736937257226 0 -0.030227687976254105 -0.00067703738131009484 0 -0.030104092246363005 -0.00073473171389708616 0 -0.030259924589448189 -0.00053747731511383278 0 -0.030014436576694236 -0.00059343673936385641 0 -0.030263408665260751 -0.00038485175068624013 0 -0.030227687976254105 -0.00067703738131009484 0 -0.030259924589448189 -0.00053747731511383278 0 -0.030014436576694236 -0.00059343673936385641 0 -0.029811326837471622 -0.00068446059365991161 0 -0.030014436576694236 -0.00059343673936385641 0 -0.029760383696584913 -0.00048959914719540112 0 -0.030019347971042366 -0.00031135977855728921 0 -0.029807922628540172 -5.3132792348006446e-05 0 -0.029760383696584913 -0.00048959914719540112 0 -0.030014436576694236 -0.00059343673936385641 0 -0.030019347971042366 -0.00031135977855728921 0 -0.029760383696584913 -0.00048959914719540112 0 -0.030014436576694236 -0.00059343673936385641 0 -0.030019347971042366 -0.00031135977855728921 0 -0.030263408665260751 -0.00038485175068624013 0 -0.030019347971042366 -0.00031135977855728921 0 -0.030263408665260751 -0.00038485175068624013 0 -0.030309161480756824 -2.7464829199700927e-05 0 -0.030019347971042366 -0.00031135977855728921 0 -0.030309161480756824 -2.7464829199700927e-05 0 -0.029807922628540172 -5.3132792348006446e-05 0 -0.03231231602606871 -0.00010236893315248801 0 -0.032018998491176905 0.00042151545166570312 0 -0.030602771087199457 -0.0005544924330760883 0 -0.030524038623335234 -0.0002761989463509277 0 -0.030820720159492082 2.5859708117127764e-05 0 -0.034280598421681886 0.00024555371831277414 0 -0.033149365187939366 0.00067758797123517996 0 -0.034195120601892927 0.00030580201139461961 0 -0.030457609489290847 -0.0004976313088386941 0 -0.030263408665260751 -0.00038485175068624013 0 -0.030524038623335234 -0.0002761989463509277 0 -0.030309161480756824 -2.7464829199700927e-05 0 -0.030524038623335234 -0.0002761989463509277 0 -0.030820720159492082 2.5859708117127764e-05 0 -0.030263408665260751 -0.00038485175068624013 0 -0.030309161480756824 -2.7464829199700927e-05 0 -0.030524038623335234 -0.0002761989463509277 0 -0.032018998491176905 0.00042151545166570312 0 -0.031747133976453776 0.0011535956064505294 0 -0.030820720159492082 2.5859708117127764e-05 0 -0.030521517595957993 0.00042693802826956792 0 -0.031137258797996864 0.00091027960774263535 0 -0.030309161480756824 -2.7464829199700927e-05 0 -0.030820720159492082 2.5859708117127764e-05 0 -0.030521517595957993 0.00042693802826956792 0 -0.030309161480756824 -2.7464829199700927e-05 0 -0.030026168405109271 0.00041335680473702553 0 -0.029807922628540172 -5.3132792348006446e-05 0 -0.030309161480756824 -2.7464829199700927e-05 0 -0.030521517595957993 0.00042693802826956792 0 -0.030026168405109271 0.00041335680473702553 0 -0.030026168405109271 0.00041335680473702553 0 -0.029807922628540172 -5.3132792348006446e-05 0 -0.029333072518961591 0.00065736531276774587 0 -0.029807922628540172 -5.3132792348006446e-05 0 -0.029365197694303995 -0.00025324327039688007 0 -0.029333072518961591 0.00065736531276774587 0 -0.028311373160032401 0.00056347911457238367 0 -0.028317926582196378 -0.00021960688437629589 0 -0.029365197694303995 -0.00025324327039688007 0 -0.028311373160032401 0.00056347911457238367 0 -0.029365197694303995 -0.00025324327039688007 0 -0.029333072518961591 0.00065736531276774587 0 -0.028317926582196378 -0.00021960688437629589 0 -0.029434065677381428 -0.0010704516562200445 0 -0.029365197694303995 -0.00025324327039688007 0 -0.029557797615841545 -0.00077183813090812012 0 -0.029760383696584913 -0.00048959914719540112 0 -0.029365197694303995 -0.00025324327039688007 0 -0.029807922628540172 -5.3132792348006446e-05 0 -0.029760383696584913 -0.00048959914719540112 0 -0.029365197694303995 -0.00025324327039688007 0 -0.034867660545058549 0.00023080283855471449 0 -0.0347502668944496 0.00047532169140739148 0 -0.034715297578138592 0.00026139402362095147 0 -0.034746989672922036 0.00041068659462210763 0 -0.034855805047676755 0.00022916703303574139 0 -0.035014347101439906 0.00016928640774607959 0 -0.035000260050643245 2.9222728493926526e-08 0 -0.034904813840735578 0.00011742929711446312 0 -0.034715297578138592 0.00026139402362095147 0 -0.034999246965404331 2.9374744075483948e-08 0 -0.034855805047676755 0.00022916703303574139 0 -0.034867660545058549 0.00023080283855471449 0 -0.034999934530606257 9.9478023363750361e-08 0 -0.035000260050643245 2.9222728493926526e-08 0 -0.034904813840735578 0.00011742929711446312 0 -0.03499961918476667 7.7235768661649804e-08 0 -0.035014347101439906 0.00016928640774607959 0 -0.034904813840735578 0.00011742929711446312 0 -0.034815070621634282 0.00033198843836586826 0 -0.035014347101439906 0.00016928640774607959 0 -0.034815070621634282 0.00033198843836586826 0 -0.03490228309956294 0.0004782254813070381 0 -0.034904813840735578 0.00011742929711446312 0 -0.034725924163587073 0.00021817780959646361 0 -0.034815070621634282 0.00033198843836586826 0 -0.034725924163587073 0.00021817780959646361 0 -0.034843130197492418 8.388426864896272e-05 0 -0.03472429150658804 0.00011048506119863492 0 -0.034904813840735578 0.00011742929711446312 0 -0.034725924163587073 0.00021817780959646361 0 -0.034843130197492418 8.388426864896272e-05 0 -0.034904813840735578 0.00011742929711446312 0 -0.03499961918476667 7.7235768661649804e-08 0 -0.034843130197492418 8.388426864896272e-05 0 -0.03499961918476667 7.7235768661649804e-08 0 -0.034843130197492418 8.388426864896272e-05 0 -0.034852823708187458 2.5619715429524406e-05 0 -0.034852823708187458 2.5619715429524406e-05 0 -0.034739981461863467 6.1307400143886993e-05 0 -0.03472429150658804 0.00011048506119863492 0 -0.034999300433019187 -9.3296419700540308e-08 0 -0.03499961918476667 7.7235768661649804e-08 0 -0.03495641684529234 -5.6067111525718504e-06 0 -0.03499961918476667 7.7235768661649804e-08 0 -0.034852823708187458 2.5619715429524406e-05 0 -0.03495641684529234 -5.6067111525718504e-06 0 -0.034843130197492418 8.388426864896272e-05 0 -0.034852823708187458 2.5619715429524406e-05 0 -0.03472429150658804 0.00011048506119863492 0 -0.034818089672058954 -3.2083875940055594e-05 0 -0.034798342687678535 2.8223028757688035e-05 0 -0.034597619044956299 0.00010382227261636143 0 -0.033924993624645704 -0.00055480534880328455 0 -0.034500097624040799 -0.00046367954569445034 0 -0.034818089672058954 -3.2083875940055594e-05 0 -0.03495641684529234 -5.6067111525718504e-06 0 -0.034798342687678535 2.8223028757688035e-05 0 -0.034852823708187458 2.5619715429524406e-05 0 -0.03495641684529234 -5.6067111525718504e-06 0 -0.034837148675729852 2.5155778027519921e-05 0 -0.03495641684529234 -5.6067111525718504e-06 0 -0.034837148675729852 2.5155778027519921e-05 0 -0.034798342687678535 2.8223028757688035e-05 0 -0.034798342687678535 2.8223028757688035e-05 0 -0.034739981461863467 6.1307400143886993e-05 0 -0.034597619044956299 0.00010382227261636143 0 -0.034852823708187458 2.5619715429524406e-05 0 -0.034837148675729852 2.5155778027519921e-05 0 -0.034739981461863467 6.1307400143886993e-05 0 -0.034837148675729852 2.5155778027519921e-05 0 -0.034798342687678535 2.8223028757688035e-05 0 -0.034739981461863467 6.1307400143886993e-05 0 -0.034739981461863467 6.1307400143886993e-05 0 -0.03461980899743336 0.00012346816715752597 0 -0.03472429150658804 0.00011048506119863492 0 -0.034739981461863467 6.1307400143886993e-05 0 -0.034597619044956299 0.00010382227261636143 0 -0.03461980899743336 0.00012346816715752597 0 -0.034597619044956299 0.00010382227261636143 0 -0.034480715722485407 0.00017385790955881314 0 -0.03461980899743336 0.00012346816715752597 0 -0.034280598421681886 0.00024555371831277414 0 -0.034597619044956299 0.00010382227261636143 0 -0.034480715722485407 0.00017385790955881314 0 -0.034280598421681886 0.00024555371831277414 0 -0.034480715722485407 0.00017385790955881314 0 -0.03437853220834429 0.00022117395523568934 0 -0.034480715722485407 0.00017385790955881314 0 -0.034543123915913354 0.00017719327402793253 0 -0.03437853220834429 0.00022117395523568934 0 -0.034480715722485407 0.00017385790955881314 0 -0.034543123915913354 0.00017719327402793253 0 -0.03461980899743336 0.00012346816715752597 0 -0.034725924163587073 0.00021817780959646361 0 -0.03472429150658804 0.00011048506119863492 0 -0.034609906449813849 0.00021270796987293475 0 -0.034543123915913354 0.00017719327402793253 0 -0.03461980899743336 0.00012346816715752597 0 -0.03472429150658804 0.00011048506119863492 0 -0.034543123915913354 0.00017719327402793253 0 -0.03472429150658804 0.00011048506119863492 0 -0.034609906449813849 0.00021270796987293475 0 -0.034543123915913354 0.00017719327402793253 0 -0.034609906449813849 0.00021270796987293475 0 -0.03446049285683913 0.00024202987722951025 0 -0.034725924163587073 0.00021817780959646361 0 -0.034609906449813849 0.00021270796987293475 0 -0.034528355163244755 0.00034497505806274273 0 -0.034609906449813849 0.00021270796987293475 0 -0.03446049285683913 0.00024202987722951025 0 -0.034528355163244755 0.00034497505806274273 0 -0.034195120601892927 0.00030580201139461961 0 -0.03446049285683913 0.00024202987722951025 0 -0.034528355163244755 0.00034497505806274273 0 -0.034280598421681886 0.00024555371831277414 0 -0.034195120601892927 0.00030580201139461961 0 -0.03437853220834429 0.00022117395523568934 0 -0.034195120601892927 0.00030580201139461961 0 -0.03437853220834429 0.00022117395523568934 0 -0.03446049285683913 0.00024202987722951025 0 -0.034543123915913354 0.00017719327402793253 0 -0.03437853220834429 0.00022117395523568934 0 -0.03446049285683913 0.00024202987722951025 0 -0.034120900509239112 0.00031252495359672421 0 -0.033567694957710927 0.00064774105475858782 0 -0.033149365187939366 0.00067758797123517996 0 -0.034195120601892927 0.00030580201139461961 0 -0.03296743479399631 0.0007995720294445421 0 -0.034195120601892927 0.00030580201139461961 0 -0.034473274483362522 0.00051964117097537843 0 -0.034407596679909266 0.00072566854347128388 0 -0.034195120601892927 0.00030580201139461961 0 -0.034528355163244755 0.00034497505806274273 0 -0.034473274483362522 0.00051964117097537843 0 -0.033149365187939366 0.00067758797123517996 0 -0.03296743479399631 0.0007995720294445421 0 -0.03234506551098848 0.001208439566629456 0 -0.034473274483362522 0.00051964117097537843 0 -0.034407596679909266 0.00072566854347128388 0 -0.034518510051356761 0.00065252038155980011 0 -0.034407596679909266 0.00072566854347128388 0 -0.034518510051356761 0.00065252038155980011 0 -0.03449877031183271 0.00079255426750972694 0 -0.034518510051356761 0.00065252038155980011 0 -0.034581467960359602 0.00067795904351594769 0 -0.03449877031183271 0.00079255426750972694 0 -0.034581467960359602 0.00067795904351594769 0 -0.034619261541094605 0.00049360184539388801 0 -0.034708549681801516 0.00056293246651217257 0 -0.034518510051356761 0.00065252038155980011 0 -0.034581467960359602 0.00067795904351594769 0 -0.034619261541094605 0.00049360184539388801 0 -0.034725924163587073 0.00021817780959646361 0 -0.034619261541094605 0.00049360184539388801 0 -0.034815070621634282 0.00033198843836586826 0 -0.034725924163587073 0.00021817780959646361 0 -0.034528355163244755 0.00034497505806274273 0 -0.034619261541094605 0.00049360184539388801 0 -0.034473274483362522 0.00051964117097537843 0 -0.034518510051356761 0.00065252038155980011 0 -0.034619261541094605 0.00049360184539388801 0 -0.034528355163244755 0.00034497505806274273 0 -0.034473274483362522 0.00051964117097537843 0 -0.034619261541094605 0.00049360184539388801 0 -0.034815070621634282 0.00033198843836586826 0 -0.034708549681801516 0.00056293246651217257 0 -0.03490228309956294 0.0004782254813070381 0 -0.034619261541094605 0.00049360184539388801 0 -0.034815070621634282 0.00033198843836586826 0 -0.034708549681801516 0.00056293246651217257 0 -0.034581467960359602 0.00067795904351594769 0 -0.034594986550109633 0.0007257537903085225 0 -0.03449877031183271 0.00079255426750972694 0 -0.034633595701666117 0.00069030687003326994 0 -0.0347502668944496 0.00047532169140739148 0 -0.034708549681801516 0.00056293246651217257 0 -0.034594986550109633 0.0007257537903085225 0 -0.03490228309956294 0.0004782254813070381 0 -0.034581467960359602 0.00067795904351594769 0 -0.034708549681801516 0.00056293246651217257 0 -0.034594986550109633 0.0007257537903085225 0 -0.034594986550109633 0.0007257537903085225 0 -0.034687539181215588 0.00072270825223498883 0 -0.034743991842926342 0.00054885415750882888 0 -0.034594986550109633 0.0007257537903085225 0 -0.034615790970551071 0.00048982284520861675 0 -0.034743991842926342 0.00054885415750882888 0 -0.034615790970551071 0.00048982284520861675 0 -0.034746989672922036 0.00041068659462210763 0 -0.034743991842926342 0.00054885415750882888 0 -0.034715297578138592 0.00026139402362095147 0 -0.034615790970551071 0.00048982284520861675 0 -0.034746989672922036 0.00041068659462210763 0 -0.033571543179986667 0.0018249232748518177 0 -0.034156186427259268 0.00096866353305653319 0 -0.032720985050686151 0.0025467349925694729 0 -0.034110584766629932 0.00096780104375266058 0 -0.032603469312071115 0.00079653447673105567 0 -0.034594986550109633 0.0007257537903085225 0 -0.034614624146736904 0.00086865539369936334 0 -0.034687539181215588 0.00072270825223498883 0 -0.034594986550109633 0.0007257537903085225 0 -0.034614624146736904 0.00086865539369936334 0 -0.034381901656675547 0.00088976446500662828 0 -0.034594986550109633 0.0007257537903085225 0 -0.034381901656675547 0.00088976446500662828 0 -0.03449877031183271 0.00079255426750972694 0 -0.034381901656675547 0.00088976446500662828 0 -0.034357605840053602 0.00082160871781129796 0 -0.034110584766629932 0.00096780104375266058 0 -0.034614624146736904 0.00086865539369936334 0 -0.034381901656675547 0.00088976446500662828 0 -0.034110584766629932 0.00096780104375266058 0 -0.034381901656675547 0.00088976446500662828 0 -0.034467199622901477 0.00092395887899243136 0 -0.034357605840053602 0.00082160871781129796 0 -0.034407596679909266 0.00072566854347128388 0 -0.034467199622901477 0.00092395887899243136 0 -0.03449877031183271 0.00079255426750972694 0 -0.034381901656675547 0.00088976446500662828 0 -0.034467199622901477 0.00092395887899243136 0 -0.03449877031183271 0.00079255426750972694 0 -0.03296743479399631 0.0007995720294445421 0 -0.032738714566332226 0.0016350972603246252 0 -0.03234506551098848 0.001208439566629456 0 -0.033567694957710927 0.00064774105475858782 0 -0.034625067731913227 0.0014312654163336337 0 -0.032738714566332226 0.0016350972603246252 0 -0.032300340279364188 0.0019976759160771755 0 -0.032509207544572434 0.0025651076400160563 0 -0.032300340279364188 0.0019976759160771755 0 -0.03234506551098848 0.001208439566629456 0 -0.031603233285091153 0.0022597640675089659 0 -0.032738714566332226 0.0016350972603246252 0 -0.032300340279364188 0.0019976759160771755 0 -0.03234506551098848 0.001208439566629456 0 -0.026728725642316372 0.0018109122432307392 0 -0.024422918293138238 0.0020804876906810243 0 -0.032509207544572434 0.0025651076400160563 0 -0.033100614247214756 0.0031541196690806732 0 -0.031619036444889573 0.0030122703800416492 0 -0.032300340279364188 0.0019976759160771755 0 -0.032014643439025471 0.0024539246127659978 0 -0.031603233285091153 0.0022597640675089659 0 -0.032014643439025471 0.0024539246127659978 0 -0.031603233285091153 0.0022597640675089659 0 -0.031619036444889573 0.0030122703800416492 0 -0.032014643439025471 0.0024539246127659978 0 -0.032509207544572434 0.0025651076400160563 0 -0.031619036444889573 0.0030122703800416492 0 -0.032300340279364188 0.0019976759160771755 0 -0.032014643439025471 0.0024539246127659978 0 -0.032509207544572434 0.0025651076400160563 0 -0.018497625297742921 0.0012710633427232948 0 -0.018487540813748825 0.0012694821636373497 0 -0.018553216260307839 0.0013208272763902032 0 -0.018497625297742921 0.0012710633427232948 0 -0.018553216260307839 0.0013208272763902032 0 -0.018528783423821429 0.0012857053983252667 0 -0.018487540813748825 0.0012694821636373497 0 -0.018483543450795704 0.0012858590971004239 0 -0.018553216260307839 0.0013208272763902032 0 -0.018497625297742921 0.0012710633427232948 0 -0.018528783423821429 0.0012857053983252667 0 -0.018481519765670699 0.0012545177054165736 0 -0.018497625297742921 0.0012710633427232948 0 -0.018487540813748825 0.0012694821636373497 0 -0.018442774331610123 0.0012290193740975314 0 -0.018487540813748825 0.0012694821636373497 0 -0.018483543450795704 0.0012858590971004239 0 -0.018449859903028269 0.0012326756803201187 0 -0.018487540813748825 0.0012694821636373497 0 -0.018449859903028269 0.0012326756803201187 0 -0.018442774331610123 0.0012290193740975314 0 -0.018497729065434027 0.0012720780087834031 0 -0.018449859903028269 0.0012326756803201187 0 -0.018398271941061958 0.0011903991769813349 0 -0.018449859903028269 0.0012326756803201187 0 -0.018398271941061958 0.0011903991769813349 0 -0.018399603985960186 0.0011917359604846918 0 -0.026728725642316372 0.0018109122432307392 0 -0.021794115447237927 0.0001828985603451053 0 -0.034467199622901477 0.00092395887899243136 0 -0.034585260714132794 0.00044703972293178929 0 -0.034357605840053602 0.00082160871781129796 0 -0.034625067731913227 0.0014312654163336337 0 -0.026728725642316372 0.0018109122432307392 0 -0.034585260714132794 0.00044703972293178929 0 -0.034357605840053602 0.00082160871781129796 0 -0.034203451208662833 0.00057658976607431593 0 -0.032738714566332226 0.0016350972603246252 0 -0.032509207544572434 0.0025651076400160563 0 -0.033100614247214756 0.0031541196690806732 0 -0.034110584766629932 0.00096780104375266058 0 -0.034203451208662833 0.00057658976607431593 0 -0.033584503421632494 -0.00012870727678698329 0 -0.034357605840053602 0.00082160871781129796 0 -0.034110584766629932 0.00096780104375266058 0 -0.034203451208662833 0.00057658976607431593 0 -0.034585260714132794 0.00044703972293178929 0 -0.034203451208662833 0.00057658976607431593 0 -0.033584503421632494 -0.00012870727678698329 0 -0.018497729065434027 0.0012720780087834031 0 -0.018398271941061958 0.0011903991769813349 0 -0.018382744431418234 0.0011913011844179985 0 -0.018398271941061958 0.0011903991769813349 0 -0.018382744431418234 0.0011913011844179985 0 -0.018320591489154565 0.0011108065317333006 0 -0.026728725642316372 0.0018109122432307392 0 -0.025978596126860105 0.00044192808387151711 0 -0.033584503421632494 -0.00012870727678698329 0 -0.032603469312071115 0.00079653447673105567 0 -0.031637931940458802 -0.00051031669232645661 0 -0.025978596126860105 0.00044192808387151711 0 -0.024600823956892091 0.00035427138987056706 0 -0.018382744431418234 0.0011913011844179985 0 -0.018320591489154565 0.0011108065317333006 0 -0.018318522138932695 0.0010927587232597269 0 -0.034110584766629932 0.00096780104375266058 0 -0.033584503421632494 -0.00012870727678698329 0 -0.032603469312071115 0.00079653447673105567 0 -0.029389560343670358 0.0014548801231419434 0 -0.028375574106266944 0.0014218280022939434 0 -0.028857243550918198 0.0021870669262165706 0 -0.028104881054130934 0.0022523245565613339 0 -0.028375574106266944 0.0014218280022939434 0 -0.028857243550918198 0.0021870669262165706 0 -0.028311373160032401 0.00056347911457238367 0 -0.028375574106266944 0.0014218280022939434 0 -0.029333072518961591 0.00065736531276774587 0 -0.029389560343670358 0.0014548801231419434 0 -0.029333072518961591 0.00065736531276774587 0 -0.030056967339332389 0.0009318590623063356 0 -0.029389560343670358 0.0014548801231419434 0 -0.028375574106266944 0.0014218280022939434 0 -0.029333072518961591 0.00065736531276774587 0 -0.030026168405109271 0.00041335680473702553 0 -0.029333072518961591 0.00065736531276774587 0 -0.030056967339332389 0.0009318590623063356 0 -0.030521517595957993 0.00042693802826956792 0 -0.030026168405109271 0.00041335680473702553 0 -0.030056967339332389 0.0009318590623063356 0 -0.030056967339332389 0.0009318590623063356 0 -0.031137258797996864 0.00091027960774263535 0 -0.030283305413494162 0.0016226569215224708 0 -0.030521517595957993 0.00042693802826956792 0 -0.030056967339332389 0.0009318590623063356 0 -0.031137258797996864 0.00091027960774263535 0 -0.031137258797996864 0.00091027960774263535 0 -0.030942036810472404 0.0017785234816275555 0 -0.030283305413494162 0.0016226569215224708 0 -0.031747133976453776 0.0011535956064505294 0 -0.03163246630254514 0.0022351124554172365 0 -0.031137258797996864 0.00091027960774263535 0 -0.030942036810472404 0.0017785234816275555 0 -0.031603233285091153 0.0022597640675089659 0 -0.030942036810472404 0.0017785234816275555 0 -0.030283305413494162 0.0016226569215224708 0 -0.030834726875676306 0.0022755623814306124 0 -0.030942036810472404 0.0017785234816275555 0 -0.031603233285091153 0.0022597640675089659 0 -0.030834726875676306 0.0022755623814306124 0 -0.029389560343670358 0.0014548801231419434 0 -0.030283305413494162 0.0016226569215224708 0 -0.029918515476663094 0.0024207908275695918 0 -0.030390042590381357 0.0013197661346047004 0 -0.026444983495800815 0.0026793852835414523 0 -0.029389560343670358 0.0014548801231419434 0 -0.030056967339332389 0.0009318590623063356 0 -0.030283305413494162 0.0016226569215224708 0 -0.030283305413494162 0.0016226569215224708 0 -0.029780876612540742 0.0027520134015816553 0 -0.030834726875676306 0.0022755623814306124 0 -0.029780876612540742 0.0027520134015816553 0 -0.030834726875676306 0.0022755623814306124 0 -0.031619036444889573 0.0030122703800416492 0 -0.018632937536376567 0.0013346512063771626 0 -0.018553216260307839 0.0013208272763902032 0 -0.01857173856042213 0.0013043320494342274 0 -0.026444983495800815 0.0026793852835414523 0 -0.024422918293138238 0.0020804876906810243 0 -0.031603233285091153 0.0022597640675089659 0 -0.030834726875676306 0.0022755623814306124 0 -0.031619036444889573 0.0030122703800416492 0 -0.018553216260307839 0.0013208272763902032 0 -0.01857173856042213 0.0013043320494342274 0 -0.018528783423821429 0.0012857053983252667 0 -0.01857173856042213 0.0013043320494342274 0 -0.018527458527762074 0.0012765905750007542 0 -0.018528783423821429 0.0012857053983252667 0 -0.018527458527762074 0.0012765905750007542 0 -0.018528783423821429 0.0012857053983252667 0 -0.018481519765670699 0.0012545177054165736 0 -0.026444983495800815 0.0026793852835414523 0 -0.023578324882710611 0.0020863492136361907 0 -0.018632937536376567 0.0013346512063771626 0 -0.01857173856042213 0.0013043320494342274 0 -0.018570353591789334 0.0012828282522501263 0 -0.01857173856042213 0.0013043320494342274 0 -0.018527458527762074 0.0012765905750007542 0 -0.018570353591789334 0.0012828282522501263 0 -0.029052978797096958 0.0029979959294824843 0 -0.028857243550918198 0.0021870669262165706 0 -0.028329912656654323 0.0027704587914492004 0 -0.029347088802960161 0.0023162158282892657 0 -0.029052978797096958 0.0029979959294824843 0 -0.028857243550918198 0.0021870669262165706 0 -0.026444983495800815 0.0026793852835414523 0 -0.030047567354255948 0.0023435474166234749 0 -0.029389560343670358 0.0014548801231419434 0 -0.029918515476663094 0.0024207908275695918 0 -0.028857243550918198 0.0021870669262165706 0 -0.028104881054130934 0.0022523245565613339 0 -0.028857243550918198 0.0021870669262165706 0 -0.028329912656654323 0.0027704587914492004 0 -0.029052978797096958 0.0029979959294824843 0 -0.028329912656654323 0.0027704587914492004 0 -0.028145685404487399 0.0033136354470618156 0 -0.027533009167579919 0.0028503695534660939 0 -0.028329912656654323 0.0027704587914492004 0 -0.028145685404487399 0.0033136354470618156 0 -0.028145685404487399 0.0033136354470618156 0 -0.028705524423707777 0.0038951423211017705 0 -0.027325939986532145 0.0037921389697372163 0 -0.028705524423707777 0.0038951423211017705 0 -0.028260442469332462 0.0050423726193801373 0 -0.027325939986532145 0.0037921389697372163 0 -0.018496983360354113 0.0012915270042784259 0 -0.018465896331452354 0.0012756022618603665 0 -0.018460756766787927 0.0013345080088951501 0 -0.023578324882710611 0.0020863492136361907 0 -0.023623143479643616 0.0025608499772932745 0 -0.018570353591789334 0.0012828282522501263 0 -0.018496983360354113 0.0012915270042784259 0 -0.018512316251548436 0.0012715278890516653 0 -0.029052978797096958 0.0029979959294824843 0 -0.028145685404487399 0.0033136354470618156 0 -0.028705524423707777 0.0038951423211017705 0 -0.018527458527762074 0.0012765905750007542 0 -0.018570353591789334 0.0012828282522501263 0 -0.018512316251548436 0.0012715278890516653 0 -0.018527458527762074 0.0012765905750007542 0 -0.018512316251548436 0.0012715278890516653 0 -0.018468867195581301 0.0012497867962130127 0 -0.018527458527762074 0.0012765905750007542 0 -0.018468867195581301 0.0012497867962130127 0 -0.018481519765670699 0.0012545177054165736 0 -0.018512316251548436 0.0012715278890516653 0 -0.018468867195581301 0.0012497867962130127 0 -0.018465896331452354 0.0012756022618603665 0 -0.018468867195581301 0.0012497867962130127 0 -0.018465896331452354 0.0012756022618603665 0 -0.018377569051115573 0.0012063365924252075 0 -0.018496983360354113 0.0012915270042784259 0 -0.018512316251548436 0.0012715278890516653 0 -0.018465896331452354 0.0012756022618603665 0 -0.018465896331452354 0.0012756022618603665 0 -0.018418539617295195 0.0013717584776323309 0 -0.018460756766787927 0.0013345080088951501 0 -0.018465896331452354 0.0012756022618603665 0 -0.018369012586932208 0.001228347842510469 0 -0.018418539617295195 0.0013717584776323309 0 -0.018465896331452354 0.0012756022618603665 0 -0.018369012586932208 0.001228347842510469 0 -0.018377569051115573 0.0012063365924252075 0 -0.018350546942503265 0.0012428324678495507 0 -0.01827231693162833 0.0012573569612044421 0 -0.018369012586932208 0.001228347842510469 0 -0.018418539617295195 0.0013717584776323309 0 -0.018377134111196375 0.0014061164628625443 0 -0.018418539617295195 0.0013717584776323309 0 -0.018445588590889479 0.0014525520763167892 0 -0.018419979225928907 0.0014834481764486054 0 -0.018418539617295195 0.0013717584776323309 0 -0.018445588590889479 0.0014525520763167892 0 -0.018460756766787927 0.0013345080088951501 0 -0.023411722875729506 0.0034462732983318715 0 -0.021894130006400853 0.002493807485400474 0 -0.028260442469332462 0.0050423726193801373 0 -0.027736369224262404 0.0062817173077708887 0 -0.027295047058248888 0.0060528603856491977 0 -0.018445588590889479 0.0014525520763167892 0 -0.018420330019701805 0.0013681631767677436 0 -0.018355668758916085 0.0015472899769554884 0 -0.023623143479643616 0.0025608499772932745 0 -0.023411722875729506 0.0034462732983318715 0 -0.018445588590889479 0.0014525520763167892 0 -0.018420330019701805 0.0013681631767677436 0 -0.018460756766787927 0.0013345080088951501 0 -0.018496983360354113 0.0012915270042784259 0 -0.018420330019701805 0.0013681631767677436 0 -0.018460756766787927 0.0013345080088951501 0 -0.01823089262754992 0.0010520215487162534 0 -0.018263580846269677 0.0010414609293111423 0 -0.018204603958833866 0.00097592226860198554 0 -0.01823089262754992 0.0010520215487162534 0 -0.018287704299262072 0.001089141649700262 0 -0.018263580846269677 0.0010414609293111423 0 -0.018263580846269677 0.0010414609293111423 0 -0.018320591489154565 0.0011108065317333006 0 -0.01828001051418875 0.0010430812216430808 0 -0.018287704299262072 0.001089141649700262 0 -0.018263580846269677 0.0010414609293111423 0 -0.018320591489154565 0.0011108065317333006 0 -0.018398271941061958 0.0011903991769813349 0 -0.018320591489154565 0.0011108065317333006 0 -0.018342489206313595 0.0011439267350222479 0 -0.018287704299262072 0.001089141649700262 0 -0.018320591489154565 0.0011108065317333006 0 -0.018342489206313595 0.0011439267350222479 0 -0.018398271941061958 0.0011903991769813349 0 -0.018342489206313595 0.0011439267350222479 0 -0.018399603985960186 0.0011917359604846918 0 -0.018287704299262072 0.001089141649700262 0 -0.018342489206313595 0.0011439267350222479 0 -0.018279966739171968 0.0011179679181850565 0 -0.01823089262754992 0.0010520215487162534 0 -0.018287704299262072 0.001089141649700262 0 -0.018279966739171968 0.0011179679181850565 0 -0.018279966739171968 0.0011179679181850565 0 -0.018368636529186702 0.0011784435975848678 0 -0.018377569051115573 0.0012063365924252075 0 -0.018342489206313595 0.0011439267350222479 0 -0.018279966739171968 0.0011179679181850565 0 -0.018368636529186702 0.0011784435975848678 0 -0.018342489206313595 0.0011439267350222479 0 -0.018368636529186702 0.0011784435975848678 0 -0.018399603985960186 0.0011917359604846918 0 -0.018449859903028269 0.0012326756803201187 0 -0.018399603985960186 0.0011917359604846918 0 -0.018442774331610123 0.0012290193740975314 0 -0.018368636529186702 0.0011784435975848678 0 -0.018399603985960186 0.0011917359604846918 0 -0.018442774331610123 0.0012290193740975314 0 -0.018368636529186702 0.0011784435975848678 0 -0.018442774331610123 0.0012290193740975314 0 -0.01842380240694691 0.0012194583673553799 0 -0.018442774331610123 0.0012290193740975314 0 -0.01842380240694691 0.0012194583673553799 0 -0.018481519765670699 0.0012545177054165736 0 -0.018497625297742921 0.0012710633427232948 0 -0.018442774331610123 0.0012290193740975314 0 -0.018481519765670699 0.0012545177054165736 0 -0.018468867195581301 0.0012497867962130127 0 -0.01842380240694691 0.0012194583673553799 0 -0.018481519765670699 0.0012545177054165736 0 -0.018468867195581301 0.0012497867962130127 0 -0.01842380240694691 0.0012194583673553799 0 -0.018377569051115573 0.0012063365924252075 0 -0.018368636529186702 0.0011784435975848678 0 -0.01842380240694691 0.0012194583673553799 0 -0.018377569051115573 0.0012063365924252075 0 -0.018369012586932208 0.001228347842510469 0 -0.018377569051115573 0.0012063365924252075 0 -0.01823480867506224 0.0011244825158665634 0 -0.018369012586932208 0.001228347842510469 0 -0.018185091296938568 0.0011125350559104826 0 -0.01823480867506224 0.0011244825158665634 0 -0.018369012586932208 0.001228347842510469 0 -0.018185091296938568 0.0011125350559104826 0 -0.018170437718165545 0.0011000813335012404 0 -0.018185091296938568 0.0011125350559104826 0 -0.01823480867506224 0.0011244825158665634 0 -0.018097233639938707 0.0010622869101775253 0 -0.018279966739171968 0.0011179679181850565 0 -0.018377569051115573 0.0012063365924252075 0 -0.01823480867506224 0.0011244825158665634 0 -0.018279966739171968 0.0011179679181850565 0 -0.01823480867506224 0.0011244825158665634 0 -0.018159512094848083 0.001046301531755732 0 -0.01823089262754992 0.0010520215487162534 0 -0.018279966739171968 0.0011179679181850565 0 -0.018159512094848083 0.001046301531755732 0 -0.018159512094848083 0.001046301531755732 0 -0.01806058643982943 0.0010167804632162402 0 -0.018097233639938707 0.0010622869101775253 0 -0.01823480867506224 0.0011244825158665634 0 -0.018159512094848083 0.001046301531755732 0 -0.018097233639938707 0.0010622869101775253 0 -0.018159512094848083 0.001046301531755732 0 -0.018076027035183836 0.00096295530476810565 0 -0.01806058643982943 0.0010167804632162402 0 -0.018159512094848083 0.001046301531755732 0 -0.018076027035183836 0.00096295530476810565 0 -0.018160949041606915 0.00098871630429688689 0 -0.018076027035183836 0.00096295530476810565 0 -0.018160949041606915 0.00098871630429688689 0 -0.018141994365392902 0.00091792331286572916 0 -0.01823089262754992 0.0010520215487162534 0 -0.018160949041606915 0.00098871630429688689 0 -0.018204603958833866 0.00097592226860198554 0 -0.01823089262754992 0.0010520215487162534 0 -0.018159512094848083 0.001046301531755732 0 -0.018160949041606915 0.00098871630429688689 0 -0.017837096500727376 0.0010444088519694979 0 -0.017906383461604811 0.0009833883526399283 0 -0.01797000137001066 0.001028388284877408 0 -0.017837096500727376 0.0010444088519694979 0 -0.017906383461604811 0.0009833883526399283 0 -0.01782381963525622 0.0010143335196808334 0 -0.017906383461604811 0.0009833883526399283 0 -0.018001778026330156 0.00098057547399173347 0 -0.018008626938302661 0.00092775850932014703 0 -0.017906383461604811 0.0009833883526399283 0 -0.018001778026330156 0.00098057547399173347 0 -0.01797000137001066 0.001028388284877408 0 -0.018076027035183836 0.00096295530476810565 0 -0.018001778026330156 0.00098057547399173347 0 -0.018008626938302661 0.00092775850932014703 0 -0.018076027035183836 0.00096295530476810565 0 -0.018001778026330156 0.00098057547399173347 0 -0.01806058643982943 0.0010167804632162402 0 -0.018001778026330156 0.00098057547399173347 0 -0.01797000137001066 0.001028388284877408 0 -0.01806058643982943 0.0010167804632162402 0 -0.01797000137001066 0.001028388284877408 0 -0.018097233639938707 0.0010622869101775253 0 -0.018063353062546333 0.0010792570084609875 0 -0.01797000137001066 0.001028388284877408 0 -0.01806058643982943 0.0010167804632162402 0 -0.018097233639938707 0.0010622869101775253 0 -0.01797000137001066 0.001028388284877408 0 -0.017907396786786767 0.0010711939648406163 0 -0.018063353062546333 0.0010792570084609875 0 -0.017837096500727376 0.0010444088519694979 0 -0.01797000137001066 0.001028388284877408 0 -0.017907396786786767 0.0010711939648406163 0 -0.017907396786786767 0.0010711939648406163 0 -0.018063353062546333 0.0010792570084609875 0 -0.018029747055803215 0.0010908190456546511 0 -0.018185091296938568 0.0011125350559104826 0 -0.018097233639938707 0.0010622869101775253 0 -0.018063353062546333 0.0010792570084609875 0 -0.018185091296938568 0.0011125350559104826 0 -0.018063353062546333 0.0010792570084609875 0 -0.018170437718165545 0.0011000813335012404 0 -0.018063353062546333 0.0010792570084609875 0 -0.018029747055803215 0.0010908190456546511 0 -0.018170437718165545 0.0011000813335012404 0 -0.018029747055803215 0.0010908190456546511 0 -0.018010304964169086 0.0010796568919748425 0 -0.018093587068827494 0.0011026808341589205 0 -0.018029747055803215 0.0010908190456546511 0 -0.018010304964169086 0.0010796568919748425 0 -0.017869672963377027 0.0010844296546294299 0 -0.018010304964169086 0.0010796568919748425 0 -0.017946548453694488 0.0010308293187957433 0 -0.017869672963377027 0.0010844296546294299 0 -0.018010304964169086 0.0010796568919748425 0 -0.017946548453694488 0.0010308293187957433 0 -0.018058141667033453 0.0010437499078001871 0 -0.017946548453694488 0.0010308293187957433 0 -0.018058141667033453 0.0010437499078001871 0 -0.018009927760973755 0.00094911624317256136 0 -0.017946548453694488 0.0010308293187957433 0 -0.017902395445495149 0.00091519571786581654 0 -0.018009927760973755 0.00094911624317256136 0 -0.017946548453694488 0.0010308293187957433 0 -0.017792100867718773 0.0010608650306386206 0 -0.017869672963377027 0.0010844296546294299 0 -0.017946548453694488 0.0010308293187957433 0 -0.017792100867718773 0.0010608650306386206 0 -0.017902395445495149 0.00091519571786581654 0 -0.017907396786786767 0.0010711939648406163 0 -0.018029747055803215 0.0010908190456546511 0 -0.017869672963377027 0.0010844296546294299 0 -0.017837096500727376 0.0010444088519694979 0 -0.017907396786786767 0.0010711939648406163 0 -0.017762546246634241 0.0010914137806517163 0 -0.017907396786786767 0.0010711939648406163 0 -0.017869672963377027 0.0010844296546294299 0 -0.017762546246634241 0.0010914137806517163 0 -0.017869672963377027 0.0010844296546294299 0 -0.017762546246634241 0.0010914137806517163 0 -0.017688808322187548 0.0011163788393597704 0 -0.017792100867718773 0.0010608650306386206 0 -0.017869672963377027 0.0010844296546294299 0 -0.017688808322187548 0.0011163788393597704 0 -0.017792100867718773 0.0010608650306386206 0 -0.017688808322187548 0.0011163788393597704 0 -0.017644253348626546 0.0011099759901267929 0 -0.017762546246634241 0.0010914137806517163 0 -0.017688808322187548 0.0011163788393597704 0 -0.017618263017838913 0.0011325863118705466 0 -0.017688808322187548 0.0011163788393597704 0 -0.017618263017838913 0.0011325863118705466 0 -0.017526830019816982 0.0011728576127951317 0 -0.017618263017838913 0.0011325863118705466 0 -0.017523180735091144 0.0011755327738415472 0 -0.017526830019816982 0.0011728576127951317 0 -0.017618263017838913 0.0011325863118705466 0 -0.017523180735091144 0.0011755327738415472 0 -0.017608467931004474 0.001140289578691939 0 -0.017618263017838913 0.0011325863118705466 0 -0.017722215770799264 0.0010785136023032827 0 -0.017608467931004474 0.001140289578691939 0 -0.017762546246634241 0.0010914137806517163 0 -0.017618263017838913 0.0011325863118705466 0 -0.017722215770799264 0.0010785136023032827 0 -0.017837096500727376 0.0010444088519694979 0 -0.017762546246634241 0.0010914137806517163 0 -0.017722215770799264 0.0010785136023032827 0 -0.017837096500727376 0.0010444088519694979 0 -0.017722215770799264 0.0010785136023032827 0 -0.01782381963525622 0.0010143335196808334 0 -0.018399563261704971 0.0013802049026543032 0 -0.018545059570271614 0.0013977729089566879 0 -0.018459406666077632 0.0016326106964551731 0 -0.018545059570271614 0.0013977729089566879 0 -0.01878105524288938 0.001710617033628915 0 -0.018845835602593227 0.0013296232023104347 0 -0.018545059570271614 0.0013977729089566879 0 -0.018459406666077632 0.0016326106964551731 0 -0.01878105524288938 0.001710617033628915 0 -0.018445588590889479 0.0014525520763167892 0 -0.018459406666077632 0.0016326106964551731 0 -0.018355668758916085 0.0015472899769554884 0 -0.018459406666077632 0.0016326106964551731 0 -0.01878105524288938 0.001710617033628915 0 -0.018731287305097773 0.0021300259189498704 0 -0.017931286658418224 0.0011927552688304134 0 -0.021894130006400853 0.002493807485400474 0 -0.018399563261704971 0.0013802049026543032 0 -0.018459406666077632 0.0016326106964551731 0 -0.018419979225928907 0.0014834481764486054 0 -0.018445588590889479 0.0014525520763167892 0 -0.018459406666077632 0.0016326106964551731 0 -0.018419979225928907 0.0014834481764486054 0 -0.018418539617295195 0.0013717584776323309 0 -0.018373329167331726 0.0014277750594658206 0 -0.018377134111196375 0.0014061164628625443 0 -0.018418539617295195 0.0013717584776323309 0 -0.018419979225928907 0.0014834481764486054 0 -0.018373329167331726 0.0014277750594658206 0 -0.018373329167331726 0.0014277750594658206 0 -0.018377134111196375 0.0014061164628625443 0 -0.018254585591374498 0.0013155179177058436 0 -0.018029747055803215 0.0010908190456546511 0 -0.018170437718165545 0.0011000813335012404 0 -0.018093587068827494 0.0011026808341589205 0 -0.01827231693162833 0.0012573569612044421 0 -0.018185135898092734 0.0011955328175975242 0 -0.018399563261704971 0.0013802049026543032 0 -0.018419979225928907 0.0014834481764486054 0 -0.018373329167331726 0.0014277750594658206 0 -0.018399563261704971 0.0013802049026543032 0 -0.018373329167331726 0.0014277750594658206 0 -0.018254585591374498 0.0013155179177058436 0 -0.018399563261704971 0.0013802049026543032 0 -0.018304200098586947 0.0011798094775155694 0 -0.018254585591374498 0.0013155179177058436 0 -0.018010304964169086 0.0010796568919748425 0 -0.018093587068827494 0.0011026808341589205 0 -0.018058141667033453 0.0010437499078001871 0 -0.018304200098586947 0.0011798094775155694 0 -0.018254585591374498 0.0013155179177058436 0 -0.01820244494144074 0.00099466328008648028 0 -0.018058141667033453 0.0010437499078001871 0 -0.01820244494144074 0.00099466328008648028 0 -0.018009927760973755 0.00094911624317256136 0 -0.018185135898092734 0.0011955328175975242 0 -0.018201749415991487 0.00099879564537201735 0 -0.018093587068827494 0.0011026808341589205 0 -0.018058141667033453 0.0010437499078001871 0 -0.01820244494144074 0.00099466328008648028 0 -0.018304200098586947 0.0011798094775155694 0 -0.018303768937968368 0.00099008991715305878 0 -0.018506765724188932 0.0011808188398986898 0 -0.018304200098586947 0.0011798094775155694 0 -0.01820244494144074 0.00099466328008648028 0 -0.018303768937968368 0.00099008991715305878 0 -0.018030396531493471 0.00068193115678569552 0 -0.018261937633266553 0.00095831185318576823 0 -0.01795553240490708 0.00073936955452464368 0 -0.017898287765842985 0.00034092416846769513 0 -0.017831963850397831 0.00036969876578231848 0 -0.017773460512822588 0.00033790072715125504 0 -0.01795553240490708 0.00073936955452464368 0 -0.017831963850397831 0.00036969876578231848 0 -0.01795553240490708 0.00073936955452464368 0 -0.018119903093346931 0.00024629003060114713 0 -0.017898287765842985 0.00034092416846769513 0 -0.018399563261704971 0.0013802049026543032 0 -0.018304200098586947 0.0011798094775155694 0 -0.018506765724188932 0.0011808188398986898 0 -0.018399563261704971 0.0013802049026543032 0 -0.018545059570271614 0.0013977729089566879 0 -0.018506765724188932 0.0011808188398986898 0 -0.018261937633266553 0.00095831185318576823 0 -0.018804378481198914 0.0013174308757952129 0 -0.01795553240490708 0.00073936955452464368 0 -0.018577982285710153 0.00044113554772140198 0 -0.018845835602593227 0.0013296232023104347 0 -0.018545059570271614 0.0013977729089566879 0 -0.018506765724188932 0.0011808188398986898 0 -0.018845835602593227 0.0013296232023104347 0 -0.01795553240490708 0.00073936955452464368 0 -0.018577982285710153 0.00044113554772140198 0 -0.018119903093346931 0.00024629003060114713 0 -0.018577982285710153 0.00044113554772140198 0 -0.019258838648398769 0.00036404803456748663 0 -0.019172530563059134 0.00082093993438147347 0 -0.019258838648398769 0.00036404803456748663 0 -0.019643621494529064 0.00074821220810684062 0 -0.019906419512956731 0.00030447413127641059 0 -0.019258838648398769 0.00036404803456748663 0 -0.019906419512956731 0.00030447413127641059 0 -0.019464485846010231 -1.4242961843007197e-05 0 -0.019258838648398769 0.00036404803456748663 0 -0.019643621494529064 0.00074821220810684062 0 -0.019172530563059134 0.00082093993438147347 0 -0.019643621494529064 0.00074821220810684062 0 -0.019624558514476143 0.0013577280003695281 0 -0.020256727655234813 0.00097871709099291138 0 -0.019643621494529064 0.00074821220810684062 0 -0.019172530563059134 0.00082093993438147347 0 -0.019624558514476143 0.0013577280003695281 0 -0.019172530563059134 0.00082093993438147347 0 -0.018845835602593227 0.0013296232023104347 0 -0.019624558514476143 0.0013577280003695281 0 -0.018577982285710153 0.00044113554772140198 0 -0.019172530563059134 0.00082093993438147347 0 -0.018845835602593227 0.0013296232023104347 0 -0.018845835602593227 0.0013296232023104347 0 -0.019624558514476143 0.0013577280003695281 0 -0.019309872669675949 0.0019886205819290691 0 -0.01878105524288938 0.001710617033628915 0 -0.018845835602593227 0.0013296232023104347 0 -0.019309872669675949 0.0019886205819290691 0 -0.019624558514476143 0.0013577280003695281 0 -0.019936065938560045 0.0020721107031644384 0 -0.020345125814958932 0.0016916888431332724 0 -0.019624558514476143 0.0013577280003695281 0 -0.019936065938560045 0.0020721107031644384 0 -0.019309872669675949 0.0019886205819290691 0 -0.019936065938560045 0.0020721107031644384 0 -0.019309872669675949 0.0019886205819290691 0 -0.019986975521250054 0.003106425758660848 0 -0.01878105524288938 0.001710617033628915 0 -0.019309872669675949 0.0019886205819290691 0 -0.019030444079141472 0.0024488791627211527 0 -0.01878105524288938 0.001710617033628915 0 -0.018731287305097773 0.0021300259189498704 0 -0.019030444079141472 0.0024488791627211527 0 -0.021894130006400853 0.002493807485400474 0 -0.023304433736385768 0.0041224528210742342 0 -0.021053271885666802 0.0020872526290536932 0 -0.021896049214012347 0.0024516566407545011 0 -0.021205665165630789 0.0028170187547123622 0 -0.021053271885666802 0.0020872526290536932 0 -0.021619462010211903 0.0018317940882606014 0 -0.021896049214012347 0.0024516566407545011 0 -0.019936065938560045 0.0020721107031644384 0 -0.02047975889946212 0.0024577684074948004 0 -0.020345125814958932 0.0016916888431332724 0 -0.021053271885666802 0.0020872526290536932 0 -0.02047975889946212 0.0024577684074948004 0 -0.020345125814958932 0.0016916888431332724 0 -0.021053271885666802 0.0020872526290536932 0 -0.02047975889946212 0.0024577684074948004 0 -0.021205665165630789 0.0028170187547123622 0 -0.019624558514476143 0.0013577280003695281 0 -0.020345125814958932 0.0016916888431332724 0 -0.020256727655234813 0.00097871709099291138 0 -0.021053271885666802 0.0020872526290536932 0 -0.020345125814958932 0.0016916888431332724 0 -0.020978625223149409 0.0013181757974085233 0 -0.020345125814958932 0.0016916888431332724 0 -0.020978625223149409 0.0013181757974085233 0 -0.020256727655234813 0.00097871709099291138 0 -0.021053271885666802 0.0020872526290536932 0 -0.020978625223149409 0.0013181757974085233 0 -0.021619462010211903 0.0018317940882606014 0 -0.020978625223149409 0.0013181757974085233 0 -0.021619462010211903 0.0018317940882606014 0 -0.021679014342913187 0.0011154026382940811 0 -0.020978625223149409 0.0013181757974085233 0 -0.020256727655234813 0.00097871709099291138 0 -0.020830993576944894 0.00029450275645104133 0 -0.020978625223149409 0.0013181757974085233 0 -0.020830993576944894 0.00029450275645104133 0 -0.021679014342913187 0.0011154026382940811 0 -0.020659234753397326 0.00038925164998383565 0 -0.021372595358725464 0.0012340348573200706 0 -0.019643621494529064 0.00074821220810684062 0 -0.020256727655234813 0.00097871709099291138 0 -0.019906419512956731 0.00030447413127641059 0 -0.020256727655234813 0.00097871709099291138 0 -0.019906419512956731 0.00030447413127641059 0 -0.020830993576944894 0.00029450275645104133 0 -0.020492810656185835 0.00047177688378982011 0 -0.021263885542652163 0.00045005121325219892 0 -0.021501189580812582 0.00099849389064806272 0 -0.020492810656185835 0.00047177688378982011 0 -0.021263885542652163 0.00045005121325219892 0 -0.021142195452555364 -7.7603876915784208e-06 0 -0.021263885542652163 0.00045005121325219892 0 -0.021754701934855767 0.00069634582667932191 0 -0.021504768825031269 0.00018520612079765117 0 -0.021263885542652163 0.00045005121325219892 0 -0.021754701934855767 0.00069634582667932191 0 -0.021501189580812582 0.00099849389064806272 0 -0.021849947160304486 0.00032758227025669016 0 -0.021754701934855767 0.00069634582667932191 0 -0.021504768825031269 0.00018520612079765117 0 -0.021754701934855767 0.00069634582667932191 0 -0.021861906093801651 0.001163676655583701 0 -0.022128739836509412 0.0010560491493089958 0 -0.021501189580812582 0.00099849389064806272 0 -0.021861906093801651 0.001163676655583701 0 -0.021815383165146144 0.0015525659146601875 0 -0.021754701934855767 0.00069634582667932191 0 -0.021501189580812582 0.00099849389064806272 0 -0.021861906093801651 0.001163676655583701 0 -0.021501189580812582 0.00099849389064806272 0 -0.021046978145369336 0.0013203878798266125 0 -0.022170458677569446 0.0020282768203657904 0 -0.020492810656185835 0.00047177688378982011 0 -0.021501189580812582 0.00099849389064806272 0 -0.021046978145369336 0.0013203878798266125 0 -0.022723686170376897 0.0004835262043403745 0 -0.022180038324696956 0.00057975515260207241 0 -0.022303280707273523 0.00022543353933859167 0 -0.022723686170376897 0.0004835262043403745 0 -0.022180038324696956 0.00057975515260207241 0 -0.02247327660770208 0.00091747067434438424 0 -0.021754701934855767 0.00069634582667932191 0 -0.022180038324696956 0.00057975515260207241 0 -0.022128739836509412 0.0010560491493089958 0 -0.022180038324696956 0.00057975515260207241 0 -0.02205411294586003 0.00015339523792942081 0 -0.022303280707273523 0.00022543353933859167 0 -0.021849947160304486 0.00032758227025669016 0 -0.021754701934855767 0.00069634582667932191 0 -0.022180038324696956 0.00057975515260207241 0 -0.021849947160304486 0.00032758227025669016 0 -0.022180038324696956 0.00057975515260207241 0 -0.02205411294586003 0.00015339523792942081 0 -0.022180038324696956 0.00057975515260207241 0 -0.022128739836509412 0.0010560491493089958 0 -0.02247327660770208 0.00091747067434438424 0 -0.021861906093801651 0.001163676655583701 0 -0.022128739836509412 0.0010560491493089958 0 -0.022114533062585612 0.0014367027480614728 0 -0.022128739836509412 0.0010560491493089958 0 -0.022404070878195043 0.0012564323156465959 0 -0.022114533062585612 0.0014367027480614728 0 -0.022128739836509412 0.0010560491493089958 0 -0.02247327660770208 0.00091747067434438424 0 -0.022404070878195043 0.0012564323156465959 0 -0.022832138804655983 0.0012177791216697984 0 -0.022723686170376897 0.0004835262043403745 0 -0.02247327660770208 0.00091747067434438424 0 -0.022832138804655983 0.0012177791216697984 0 -0.02247327660770208 0.00091747067434438424 0 -0.022404070878195043 0.0012564323156465959 0 -0.022510970261734067 0.0012339198834580298 0 -0.022492229703605385 0.00070498270193145507 0 -0.022832138804655983 0.0012177791216697984 0 -0.022404070878195043 0.0012564323156465959 0 -0.022421177750145797 0.0016399171633073959 0 -0.022832138804655983 0.0012177791216697984 0 -0.022421177750145797 0.0016399171633073959 0 -0.022638317719144919 0.0018468985849173611 0 -0.022404070878195043 0.0012564323156465959 0 -0.022114533062585612 0.0014367027480614728 0 -0.022421177750145797 0.0016399171633073959 0 -0.022114533062585612 0.0014367027480614728 0 -0.022166900473759164 0.0017185301080979438 0 -0.022421177750145797 0.0016399171633073959 0 -0.022114533062585612 0.0014367027480614728 0 -0.022166900473759164 0.0017185301080979438 0 -0.021815383165146144 0.0015525659146601875 0 -0.022166900473759164 0.0017185301080979438 0 -0.022372423295046712 0.0019112742160398734 0 -0.02211356303957402 0.0019991883166631265 0 -0.022166900473759164 0.0017185301080979438 0 -0.022372423295046712 0.0019112742160398734 0 -0.022421177750145797 0.0016399171633073959 0 -0.022372423295046712 0.0019112742160398734 0 -0.022421177750145797 0.0016399171633073959 0 -0.022638317719144919 0.0018468985849173611 0 -0.021619462010211903 0.0018317940882606014 0 -0.021679014342913187 0.0011154026382940811 0 -0.022490802461987938 0.0021550329630444578 0 -0.021046978145369336 0.0013203878798266125 0 -0.022170458677569446 0.0020282768203657904 0 -0.021853268863099521 0.0023760653822908766 0 -0.021372595358725464 0.0012340348573200706 0 -0.022161085246462601 0.0022566559662787131 0 -0.021567922491225799 0.0010517505789058835 0 -0.021992590923653334 0.0017892912610362841 0 -0.021861906093801651 0.001163676655583701 0 -0.022114533062585612 0.0014367027480614728 0 -0.021815383165146144 0.0015525659146601875 0 -0.022161085246462601 0.0022566559662787131 0 -0.022716520045050995 0.0030632261319769464 0 -0.022166900473759164 0.0017185301080979438 0 -0.021815383165146144 0.0015525659146601875 0 -0.02211356303957402 0.0019991883166631265 0 -0.022170458677569446 0.0020282768203657904 0 -0.021853268863099521 0.0023760653822908766 0 -0.022827697319630968 0.0029641198401283001 0 -0.021992590923653334 0.0017892912610362841 0 -0.022441397204663573 0.0024793097101135017 0 -0.022490802461987938 0.0021550329630444578 0 -0.021896049214012347 0.0024516566407545011 0 -0.022424156250265795 0.0028403638155169875 0 -0.021619462010211903 0.0018317940882606014 0 -0.022490802461987938 0.0021550329630444578 0 -0.021896049214012347 0.0024516566407545011 0 -0.021896049214012347 0.0024516566407545011 0 -0.022160805190052028 0.0030928394543091615 0 -0.022424156250265795 0.0028403638155169875 0 -0.022160805190052028 0.0030928394543091615 0 -0.022424156250265795 0.0028403638155169875 0 -0.022654815266950293 0.0032835145778331168 0 -0.021853268863099521 0.0023760653822908766 0 -0.022827697319630968 0.0029641198401283001 0 -0.022790796724076492 0.0031405849991916601 0 -0.022490802461987938 0.0021550329630444578 0 -0.022424156250265795 0.0028403638155169875 0 -0.022790796724076492 0.0031405849991916601 0 -0.022424156250265795 0.0028403638155169875 0 -0.022790796724076492 0.0031405849991916601 0 -0.022654815266950293 0.0032835145778331168 0 -0.022790796724076492 0.0031405849991916601 0 -0.022836449661726654 0.0034029693159201759 0 -0.022800837197811119 0.0033211045742987926 0 -0.022836449661726654 0.0034029693159201759 0 -0.022800837197811119 0.0033211045742987926 0 -0.022854052414779721 0.0030401390565485396 0 -0.022790796724076492 0.0031405849991916601 0 -0.022836449661726654 0.0034029693159201759 0 -0.022654815266950293 0.0032835145778331168 0 -0.022160805190052028 0.0030928394543091615 0 -0.022654815266950293 0.0032835145778331168 0 -0.022963965774553053 0.0037897929309143666 0 -0.022836449661726654 0.0034029693159201759 0 -0.022654815266950293 0.0032835145778331168 0 -0.022963965774553053 0.0037897929309143666 0 -0.02270038522192553 0.0021375923606753275 0 -0.022638317719144919 0.0018468985849173611 0 -0.022529971986818574 0.0020702757539210839 0 -0.02270038522192553 0.0021375923606753275 0 -0.022529971986818574 0.0020702757539210839 0 -0.022568054333626637 0.0022764732029426906 0 -0.022372423295046712 0.0019112742160398734 0 -0.022638317719144919 0.0018468985849173611 0 -0.022529971986818574 0.0020702757539210839 0 -0.022529971986818574 0.0020702757539210839 0 -0.022390883908681408 0.0021151806249175504 0 -0.022568054333626637 0.0022764732029426906 0 -0.022827697319630968 0.0029641198401283001 0 -0.022790796724076492 0.0031405849991916601 0 -0.022800837197811119 0.0033211045742987926 0 -0.02211356303957402 0.0019991883166631265 0 -0.022390883908681408 0.0021151806249175504 0 -0.022369355545919078 0.0023232197142571821 0 -0.022441397204663573 0.0024793097101135017 0 -0.022597942954522325 0.0027883149964791788 0 -0.022372423295046712 0.0019112742160398734 0 -0.022529971986818574 0.0020702757539210839 0 -0.022390883908681408 0.0021151806249175504 0 -0.022372423295046712 0.0019112742160398734 0 -0.02211356303957402 0.0019991883166631265 0 -0.022390883908681408 0.0021151806249175504 0 -0.022390883908681408 0.0021151806249175504 0 -0.022369355545919078 0.0023232197142571821 0 -0.022568054333626637 0.0022764732029426906 0 -0.02270038522192553 0.0021375923606753275 0 -0.022568054333626637 0.0022764732029426906 0 -0.022725870719611251 0.0023779984771857723 0 -0.022568054333626637 0.0022764732029426906 0 -0.022725870719611251 0.0023779984771857723 0 -0.022708527606938124 0.0026781389736569559 0 -0.022799711931707631 0.0024505988855824763 0 -0.022725870719611251 0.0023779984771857723 0 -0.022708527606938124 0.0026781389736569559 0 -0.022800837197811119 0.0033211045742987926 0 -0.022708527606938124 0.0026781389736569559 0 -0.022854052414779721 0.0030401390565485396 0 -0.022369355545919078 0.0023232197142571821 0 -0.022568054333626637 0.0022764732029426906 0 -0.022708527606938124 0.0026781389736569559 0 -0.022597942954522325 0.0027883149964791788 0 -0.022675227476497209 0.0026995255305145849 0 -0.022708527606938124 0.0026781389736569559 0 -0.022935124109175507 0.0025707975086191859 0 -0.022854052414779721 0.0030401390565485396 0 -0.022949949536573096 0.002426944406062388 0 -0.022708527606938124 0.0026781389736569559 0 -0.022935124109175507 0.0025707975086191859 0 -0.022851594374851306 0.002441746229232814 0 -0.022799711931707631 0.0024505988855824763 0 -0.022708527606938124 0.0026781389736569559 0 -0.022851594374851306 0.002441746229232814 0 -0.022949949536573096 0.002426944406062388 0 -0.022708527606938124 0.0026781389736569559 0 -0.022836449661726654 0.0034029693159201759 0 -0.022963965774553053 0.0037897929309143666 0 -0.022943274878709508 0.002963168354550255 0 -0.022836449661726654 0.0034029693159201759 0 -0.022854052414779721 0.0030401390565485396 0 -0.022943274878709508 0.002963168354550255 0 -0.023107762389162644 0.0023411753080956237 0 -0.022935124109175507 0.0025707975086191859 0 -0.022943274878709508 0.002963168354550255 0 -0.022935124109175507 0.0025707975086191859 0 -0.022854052414779721 0.0030401390565485396 0 -0.022943274878709508 0.002963168354550255 0 -0.023107762389162644 0.0023411753080956237 0 -0.023912133079933156 0.0023536494042509836 0 -0.022943274878709508 0.002963168354550255 0 -0.023912133079933156 0.0023536494042509836 0 -0.022963965774553053 0.0037897929309143666 0 -0.022943274878709508 0.002963168354550255 0 -0.022963965774553053 0.0037897929309143666 0 -0.024713900811476563 0.0036542667421367958 0 -0.024711165214395339 0.0049598642896157789 0 -0.023912133079933156 0.0023536494042509836 0 -0.022963965774553053 0.0037897929309143666 0 -0.024713900811476563 0.0036542667421367958 0 -0.024713900811476563 0.0036542667421367958 0 -0.025923140102378641 0.0030167280810742946 0 -0.026028469474566628 0.004315531481736014 0 -0.024713900811476563 0.0036542667421367958 0 -0.026028469474566628 0.004315531481736014 0 -0.024711165214395339 0.0049598642896157789 0 -0.024710542559267655 0.0026504631391864684 0 -0.025843019697555647 0.0030048692632779709 0 -0.023912133079933156 0.0023536494042509836 0 -0.024713900811476563 0.0036542667421367958 0 -0.025923140102378641 0.0030167280810742946 0 -0.026889338008933419 0.0025151685810389885 0 -0.025923140102378641 0.0030167280810742946 0 -0.027325939986532145 0.0037921389697372163 0 -0.027533009167579919 0.0028503695534660939 0 -0.028145685404487399 0.0033136354470618156 0 -0.027325939986532145 0.0037921389697372163 0 -0.027218382353036693 0.0027202135738970293 0 -0.027333083739917611 0.0037579588277775575 0 -0.025923140102378641 0.0030167280810742946 0 -0.027325939986532145 0.0037921389697372163 0 -0.026028469474566628 0.004315531481736014 0 -0.027325939986532145 0.0037921389697372163 0 -0.026028469474566628 0.004315531481736014 0 -0.027133279027388546 0.0049741994154336722 0 -0.026028469474566628 0.004315531481736014 0 -0.027133279027388546 0.0049741994154336722 0 -0.026152300187059961 0.0055598643588975977 0 -0.028260442469332462 0.0050423726193801373 0 -0.027325939986532145 0.0037921389697372163 0 -0.027133279027388546 0.0049741994154336722 0 -0.028260442469332462 0.0050423726193801373 0 -0.027133279027388546 0.0049741994154336722 0 -0.027295047058248888 0.0060528603856491977 0 -0.019309872669675949 0.0019886205819290691 0 -0.019030444079141472 0.0024488791627211527 0 -0.019986975521250054 0.003106425758660848 0 -0.027133279027388546 0.0049741994154336722 0 -0.027295047058248888 0.0060528603856491977 0 -0.026152300187059961 0.0055598643588975977 0 -0.023304433736385768 0.0041224528210742342 0 -0.023049284757214017 0.0043310887222402202 0 -0.019936065938560045 0.0020721107031644384 0 -0.02047975889946212 0.0024577684074948004 0 -0.019986975521250054 0.003106425758660848 0 -0.019986975521250054 0.003106425758660848 0 -0.021205665165630789 0.0028170187547123622 0 -0.02123204466968661 0.0036326892931001615 0 -0.02047975889946212 0.0024577684074948004 0 -0.019986975521250054 0.003106425758660848 0 -0.021205665165630789 0.0028170187547123622 0 -0.022160805190052028 0.0030928394543091615 0 -0.021205665165630789 0.0028170187547123622 0 -0.02123204466968661 0.0036326892931001615 0 -0.021896049214012347 0.0024516566407545011 0 -0.022160805190052028 0.0030928394543091615 0 -0.021205665165630789 0.0028170187547123622 0 -0.022904652590639962 0.0038827811788098689 0 -0.022975623836772385 0.0042291317015791001 0 -0.022160805190052028 0.0030928394543091615 0 -0.022963965774553053 0.0037897929309143666 0 -0.02123204466968661 0.0036326892931001615 0 -0.023049284757214017 0.0043310887222402202 0 -0.022975623836772385 0.0042291317015791001 0 -0.026028469474566628 0.004315531481736014 0 -0.026152300187059961 0.0055598643588975977 0 -0.024711165214395339 0.0049598642896157789 0 -0.027401487360964483 8.8486526841854125e-05 0 -0.026494437861613054 2.1657675361451184e-06 0 -0.030141713560517997 -1.7787462276051628e-06 0 -0.027401487360964483 8.8486526841854125e-05 0 -0.026413952400738856 6.0953417691360358e-05 0 -0.026985502054774697 -4.6766656203016559e-05 0 -0.027401487360964483 8.8486526841854125e-05 0 -0.026494437861613054 2.1657675361451184e-06 0 -0.026313901633984352 0.00016075340115646116 0 -0.027401487360964483 8.8486526841854125e-05 0 -0.026313901633984352 0.00016075340115646116 0 -0.026413952400738856 6.0953417691360358e-05 0 -0.026313901633984352 0.00016075340115646116 0 -0.026413952400738856 6.0953417691360358e-05 0 -0.025693042424329328 0.00029989528487538961 0 -0.026413952400738856 6.0953417691360358e-05 0 -0.02570460468321089 2.2128749409621265e-05 0 -0.025693042424329328 0.00029989528487538961 0 -0.025803560163488219 0.00015133504776667259 0 -0.028057185656796366 0.00020873679872461542 0 -0.028057185656796366 0.00020873679872461542 0 -0.029013056883223729 0.0012567070325141773 0 -0.024913777618310439 0.0013750354425891302 0 -0.025458096035939227 0.001350651166603939 0 -0.025201796625316877 0.00088510369615959355 0 -0.028057185656796366 0.00020873679872461542 0 -0.024914717336696361 0.00085052677618120806 0 -0.033982722069744044 0.00032763553664015332 0 -0.033582417773989577 -0.00059879350646403436 0 -0.033948427642332017 -0.00076229028533393117 0 -0.033982722069744044 0.00032763553664015332 0 -0.033582417773989577 -0.00059879350646403436 0 -0.032089888822057329 0.0011554755496555021 0 -0.028057185656796366 0.00020873679872461542 0 -0.030748506077684406 -0.0004321513992324548 0 -0.026413952400738856 6.0953417691360358e-05 0 -0.026307515359261534 6.7730902765909869e-05 0 -0.026985502054774697 -4.6766656203016559e-05 0 -0.033948427642332017 -0.00076229028533393117 0 -0.033920610663704845 -0.00062861111602790804 0 -0.033297399752325277 -0.0008986209365165783 0 -0.033948427642332017 -0.00076229028533393117 0 -0.033840818390083988 -0.00067558927383379666 0 -0.033920610663704845 -0.00062861111602790804 0 -0.033840818390083988 -0.00067558927383379666 0 -0.034078811875944026 -0.00051481199800192199 0 -0.033948403932227714 -0.0005680478815885551 0 -0.033582417773989577 -0.00059879350646403436 0 -0.033948427642332017 -0.00076229028533393117 0 -0.033840818390083988 -0.00067558927383379666 0 -0.033582417773989577 -0.00059879350646403436 0 -0.033840818390083988 -0.00067558927383379666 0 -0.033948403932227714 -0.0005680478815885551 0 -0.033920610663704845 -0.00062861111602790804 0 -0.034302997421520612 -0.00029958470835514606 0 -0.034078811875944026 -0.00051481199800192199 0 -0.033840818390083988 -0.00067558927383379666 0 -0.033920610663704845 -0.00062861111602790804 0 -0.034078811875944026 -0.00051481199800192199 0 -0.033920610663704845 -0.00062861111602790804 0 -0.033297399752325277 -0.0008986209365165783 0 -0.03354877438712197 -0.0002495426052154973 0 -0.027401487360964483 8.8486526841854125e-05 0 -0.028260053628791273 -5.1429218825514707e-05 0 -0.030141713560517997 -1.7787462276051628e-06 0 -0.026985502054774697 -4.6766656203016559e-05 0 -0.028656992902342918 -0.00029132751543968526 0 -0.028260053628791273 -5.1429218825514707e-05 0 -0.027401487360964483 8.8486526841854125e-05 0 -0.026985502054774697 -4.6766656203016559e-05 0 -0.028260053628791273 -5.1429218825514707e-05 0 -0.030748506077684406 -0.0004321513992324548 0 -0.030896305930291069 -0.0004007069125325966 0 -0.028656992902342918 -0.00029132751543968526 0 -0.030141713560517997 -1.7787462276051628e-06 0 -0.031639364529119342 -7.399419950587155e-05 0 -0.028656992902342918 -0.00029132751543968526 0 -0.028260053628791273 -5.1429218825514707e-05 0 -0.030141713560517997 -1.7787462276051628e-06 0 -0.030141713560517997 -1.7787462276051628e-06 0 -0.031639364529119342 -7.399419950587155e-05 0 -0.034998226305351619 8.9411788823104828e-07 0 -0.034998226305351619 8.9411788823104828e-07 0 -0.034135836379963411 0.00017122397502707359 0 -0.034998963206133937 6.5772017157240057e-08 0 -0.030896305930291069 -0.0004007069125325966 0 -0.031411488259028321 -4.798624851454275e-05 0 -0.033297399752325277 -0.0008986209365165783 0 -0.031639364529119342 -7.399419950587155e-05 0 -0.03354877438712197 -0.0002495426052154973 0 -0.031639364529119342 -7.399419950587155e-05 0 -0.03354877438712197 -0.0002495426052154973 0 -0.034135836379963411 0.00017122397502707359 0 -0.031639364529119342 -7.399419950587155e-05 0 -0.034998226305351619 8.9411788823104828e-07 0 -0.034135836379963411 0.00017122397502707359 0 -0.034135836379963411 0.00017122397502707359 0 -0.034209703616615995 -4.0497575557593097e-05 0 -0.034998963206133937 6.5772017157240057e-08 0 -0.034209703616615995 -4.0497575557593097e-05 0 -0.034302997421520612 -0.00029958470835514606 0 -0.034596859342573873 -8.4041152234470639e-05 0 -0.033920610663704845 -0.00062861111602790804 0 -0.03354877438712197 -0.0002495426052154973 0 -0.034209703616615995 -4.0497575557593097e-05 0 -0.033920610663704845 -0.00062861111602790804 0 -0.034209703616615995 -4.0497575557593097e-05 0 -0.034302997421520612 -0.00029958470835514606 0 -0.03354877438712197 -0.0002495426052154973 0 -0.034135836379963411 0.00017122397502707359 0 -0.034209703616615995 -4.0497575557593097e-05 0 -0.034302997421520612 -0.00029958470835514606 0 -0.0345550518139622 -0.00021669738442334373 0 -0.034596859342573873 -8.4041152234470639e-05 0 -0.034302997421520612 -0.00029958470835514606 0 -0.0345550518139622 -0.00021669738442334373 0 -0.03435457825357266 -0.00036798376397892825 0 -0.0345550518139622 -0.00021669738442334373 0 -0.034596859342573873 -8.4041152234470639e-05 0 -0.034829278072253056 -4.0066575564051808e-05 0 -0.034209703616615995 -4.0497575557593097e-05 0 -0.034596859342573873 -8.4041152234470639e-05 0 -0.034998963206133937 6.5772017157240057e-08 0 -0.034596859342573873 -8.4041152234470639e-05 0 -0.034998963206133937 6.5772017157240057e-08 0 -0.034829278072253056 -4.0066575564051808e-05 0 -0.034998963206133937 6.5772017157240057e-08 0 -0.034829278072253056 -4.0066575564051808e-05 0 -0.035000044735479643 4.9415995369810947e-09 0 -0.034829278072253056 -4.0066575564051808e-05 0 -0.034872206477140053 -0.00011147997035808268 0 -0.035000044735479643 4.9415995369810947e-09 0 -0.034829278072253056 -4.0066575564051808e-05 0 -0.034872206477140053 -0.00011147997035808268 0 -0.034741842323745928 -0.00019321514401233992 0 -0.0345550518139622 -0.00021669738442334373 0 -0.034829278072253056 -4.0066575564051808e-05 0 -0.034741842323745928 -0.00019321514401233992 0 -0.0345550518139622 -0.00021669738442334373 0 -0.034741842323745928 -0.00019321514401233992 0 -0.034551182168222637 -0.00035127937367212278 0 -0.034872206477140053 -0.00011147997035808268 0 -0.034741842323745928 -0.00019321514401233992 0 -0.034838318751406368 -0.00022090763845214597 0 -0.03456111107925601 -0.00044132092054648077 0 -0.034701639383422217 -0.00022305646886678547 0 -0.034741842323745928 -0.00019321514401233992 0 -0.034838318751406368 -0.00022090763845214597 0 -0.034716166178615886 -0.00031591433416184309 0 -0.034838318751406368 -0.00022090763845214597 0 -0.034773228325539716 -0.00044474725633460605 0 -0.034891040847348904 -0.00020675542303265254 0 -0.034838318751406368 -0.00022090763845214597 0 -0.034773228325539716 -0.00044474725633460605 0 -0.034716166178615886 -0.00031591433416184309 0 -0.034357151471235567 -0.00043740612830934003 0 -0.034365462317555509 -0.00047451594657032479 0 -0.034513377290300858 -0.00022981613483449365 0 -0.034773228325539716 -0.00044474725633460605 0 -0.034471692592997226 -0.00049546275690726994 0 -0.034306164915353689 -0.00067168549145960542 0 -0.034357151471235567 -0.00043740612830934003 0 -0.034365462317555509 -0.00047451594657032479 0 -0.034349266478090008 -0.00069815374441046867 0 -0.034357151471235567 -0.00043740612830934003 0 -0.034349266478090008 -0.00069815374441046867 0 -0.034306164915353689 -0.00067168549145960542 0 -0.03456111107925601 -0.00044132092054648077 0 -0.034323979917120266 -0.00064577924394903542 0 -0.034773228325539716 -0.00044474725633460605 0 -0.034635161551823029 -0.000399265689732153 0 -0.034471692592997226 -0.00049546275690726994 0 -0.034551182168222637 -0.00035127937367212278 0 -0.034635161551823029 -0.000399265689732153 0 -0.034471692592997226 -0.00049546275690726994 0 -0.034551182168222637 -0.00035127937367212278 0 -0.034635161551823029 -0.000399265689732153 0 -0.034716166178615886 -0.00031591433416184309 0 -0.034741842323745928 -0.00019321514401233992 0 -0.034551182168222637 -0.00035127937367212278 0 -0.034716166178615886 -0.00031591433416184309 0 -0.034773228325539716 -0.00044474725633460605 0 -0.034635161551823029 -0.000399265689732153 0 -0.034716166178615886 -0.00031591433416184309 0 -0.0345550518139622 -0.00021669738442334373 0 -0.034551182168222637 -0.00035127937367212278 0 -0.03435457825357266 -0.00036798376397892825 0 -0.034551182168222637 -0.00035127937367212278 0 -0.03435457825357266 -0.00036798376397892825 0 -0.034285641048826331 -0.00048799810551645333 0 -0.034078811875944026 -0.00051481199800192199 0 -0.03435457825357266 -0.00036798376397892825 0 -0.034285641048826331 -0.00048799810551645333 0 -0.034302997421520612 -0.00029958470835514606 0 -0.034078811875944026 -0.00051481199800192199 0 -0.03435457825357266 -0.00036798376397892825 0 -0.033582417773989577 -0.00059879350646403436 0 -0.034089978613362805 -0.00057954967769863631 0 -0.033948403932227714 -0.0005680478815885551 0 -0.034078811875944026 -0.00051481199800192199 0 -0.033948403932227714 -0.0005680478815885551 0 -0.034285641048826331 -0.00048799810551645333 0 -0.034089978613362805 -0.00057954967769863631 0 -0.033948403932227714 -0.0005680478815885551 0 -0.034285641048826331 -0.00048799810551645333 0 -0.034551182168222637 -0.00035127937367212278 0 -0.034471692592997226 -0.00049546275690726994 0 -0.034285641048826331 -0.00048799810551645333 0 -0.034471692592997226 -0.00049546275690726994 0 -0.034285641048826331 -0.00048799810551645333 0 -0.034311737426032503 -0.00055921859449883178 0 -0.034089978613362805 -0.00057954967769863631 0 -0.034285641048826331 -0.00048799810551645333 0 -0.034311737426032503 -0.00055921859449883178 0 -0.034089978613362805 -0.00057954967769863631 0 -0.034311737426032503 -0.00055921859449883178 0 -0.034306164915353689 -0.00067168549145960542 0 -0.034471692592997226 -0.00049546275690726994 0 -0.034311737426032503 -0.00055921859449883178 0 -0.034306164915353689 -0.00067168549145960542 0 -0.030039665957758841 -0.00071982381276807189 0 -0.030655577232340379 0.00040081422950833713 0 -0.031591664096464162 6.574604915590705e-05 0 -0.030039665957758841 -0.00071982381276807189 0 -0.030655577232340379 0.00040081422950833713 0 -0.029705939701017661 0.0003609793667839759 0 -0.033582417773989577 -0.00059879350646403436 0 -0.031591664096464162 6.574604915590705e-05 0 -0.032089888822057329 0.0011554755496555021 0 -0.033582417773989577 -0.00059879350646403436 0 -0.034349266478090008 -0.00069815374441046867 0 -0.034306164915353689 -0.00067168549145960542 0 -0.033582417773989577 -0.00059879350646403436 0 -0.030039665957758841 -0.00071982381276807189 0 -0.031591664096464162 6.574604915590705e-05 0 -0.033582417773989577 -0.00059879350646403436 0 -0.034089978613362805 -0.00057954967769863631 0 -0.034306164915353689 -0.00067168549145960542 0 -0.033533391406321958 -0.00061517539892864102 0 -0.032220057529317066 -0.00065912199592995258 0 -0.030655577232340379 0.00040081422950833713 0 -0.031591664096464162 6.574604915590705e-05 0 -0.032089888822057329 0.0011554755496555021 0 -0.030655577232340379 0.00040081422950833713 0 -0.032089888822057329 0.0011554755496555021 0 -0.029530477830472565 0.0014097571477688627 0 -0.025458096035939227 0.001350651166603939 0 -0.026229140310960845 0.0013413887651046929 0 -0.025680238605679261 0.00090806064833596763 0 -0.029013056883223729 0.0012567070325141773 0 -0.02785520044356319 0.0013299747544033027 0 -0.030655577232340379 0.00040081422950833713 0 -0.029705939701017661 0.0003609793667839759 0 -0.029530477830472565 0.0014097571477688627 0 -0.02785520044356319 0.0013299747544033027 0 -0.027590281035653644 0.0011707150574420324 0 -0.029530477830472565 0.0014097571477688627 0 -0.027518951674984332 0.0010977104650553924 0 -0.028672932901515038 0.00032661143803734694 0 -0.029705939701017661 0.0003609793667839759 0 -0.029530477830472565 0.0014097571477688627 0 -0.028672932901515038 0.00032661143803734694 0 -0.027518951674984332 0.0010977104650553924 0 -0.027814154685122425 0.00056331629331009693 0 -0.027702655962558453 0.00067135297641123025 0 -0.027518951674984332 0.0010977104650553924 0 -0.027814154685122425 0.00056331629331009693 0 -0.028672932901515038 0.00032661143803734694 0 -0.027776006518539485 0.00012337575094751248 0 -0.027814154685122425 0.00056331629331009693 0 -0.028672932901515038 0.00032661143803734694 0 -0.027776006518539485 0.00012337575094751248 0 -0.027814154685122425 0.00056331629331009693 0 -0.027702655962558453 0.00067135297641123025 0 -0.031175819683530226 -0.000166376525651966 0 -0.032220057529317066 -0.00065912199592995258 0 -0.027776006518539485 0.00012337575094751248 0 -0.030039665957758841 -0.00071982381276807189 0 -0.028672932901515038 0.00032661143803734694 0 -0.030039665957758841 -0.00071982381276807189 0 -0.029705939701017661 0.0003609793667839759 0 -0.028672932901515038 0.00032661143803734694 0 -0.027702655962558453 0.00067135297641123025 0 -0.028029196470847801 0.00064294428612438818 0 -0.027809678686100271 0.00073068042053762332 0 -0.027776006518539485 0.00012337575094751248 0 -0.027702655962558453 0.00067135297641123025 0 -0.027809678686100271 0.00073068042053762332 0 -0.027702655962558453 0.00067135297641123025 0 -0.027705508303645099 0.00073254159820497369 0 -0.028059187151991564 0.00065366629985006189 0 -0.027518951674984332 0.0010977104650553924 0 -0.027702655962558453 0.00067135297641123025 0 -0.027705508303645099 0.00073254159820497369 0 -0.027702655962558453 0.00067135297641123025 0 -0.028029196470847801 0.00064294428612438818 0 -0.028059187151991564 0.00065366629985006189 0 -0.028316283263619086 0.0011728082183017634 0 -0.028201360467073656 0.00074724042122113993 0 -0.029318734109069735 0.00080115781876443216 0 -0.029299995520008816 0.0019393273687562729 0 -0.028059187151991564 0.00065366629985006189 0 -0.029318734109069735 0.00080115781876443216 0 -0.031022579754350191 0.00082508751539906843 0 -0.029299995520008816 0.0019393273687562729 0 -0.031022579754350191 0.00082508751539906843 0 -0.031439610896533264 0.0022972996550802071 0 -0.029299995520008816 0.0019393273687562729 0 -0.031439610896533264 0.0022972996550802071 0 -0.029299995520008816 0.0019393273687562729 0 -0.030784466839006045 0.0034719802545071414 0 -0.028029196470847801 0.00064294428612438818 0 -0.028251143963834605 0.00086482195295474874 0 -0.027809678686100271 0.00073068042053762332 0 -0.028316283263619086 0.0011728082183017634 0 -0.032378779065233496 0.0016951416735263511 0 -0.034728799610443686 -0.0002347433244282956 0 -0.034851581260862123 -0.00028910959508590651 0 -0.034577854526827635 -0.00038336058549077562 0 -0.034728799610443686 -0.0002347433244282956 0 -0.034851581260862123 -0.00028910959508590651 0 -0.034844095657000008 -0.00014407797202263905 0 -0.032378779065233496 0.0016951416735263511 0 -0.0310038135110926 -4.6947889921028331e-05 0 -0.03608452170354335 0.0029337455323816528 0 -0.035081952792706865 0.0023378369960462479 0 -0.035139850530926567 0.002875585471818291 0 -0.032378779065233496 0.0016951416735263511 0 -0.035522175620206375 0.00084722439788988027 0 -0.03608452170354335 0.0029337455323816528 0 -0.035252325168826447 0.0016315869326651651 0 -0.035081952792706865 0.0023378369960462479 0 -0.032378779065233496 0.0016951416735263511 0 -0.033921004620421635 0.0030129156745300374 0 -0.031439610896533264 0.0022972996550802071 0 -0.030784466839006045 0.0034719802545071414 0 -0.032454805984303225 0.0033769254401865528 0 -0.034844095657000008 -0.00014407797202263905 0 -0.034824022713436945 -7.9560374753761406e-05 0 -0.034870388444685194 -4.956832029206917e-05 0 -0.034851581260862123 -0.00028910959508590651 0 -0.034844095657000008 -0.00014407797202263905 0 -0.034927640233407352 -8.0676507566117742e-05 0 -0.034844095657000008 -0.00014407797202263905 0 -0.034870388444685194 -4.956832029206917e-05 0 -0.034927640233407352 -8.0676507566117742e-05 0 -0.034728799610443686 -0.0002347433244282956 0 -0.034844095657000008 -0.00014407797202263905 0 -0.034824022713436945 -7.9560374753761406e-05 0 -0.034728799610443686 -0.0002347433244282956 0 -0.034513377290300858 -0.00022981613483449365 0 -0.034824022713436945 -7.9560374753761406e-05 0 -0.034701639383422217 -0.00022305646886678547 0 -0.034815504720738966 -9.5436785948885088e-05 0 -0.034728799610443686 -0.0002347433244282956 0 -0.034577854526827635 -0.00038336058549077562 0 -0.034513377290300858 -0.00022981613483449365 0 -0.031175819683530226 -0.000166376525651966 0 -0.0310038135110926 -4.6947889921028331e-05 0 -0.034365462317555509 -0.00047451594657032479 0 -0.034577854526827635 -0.00038336058549077562 0 -0.034513377290300858 -0.00022981613483449365 0 -0.034838318751406368 -0.00022090763845214597 0 -0.034891040847348904 -0.00020675542303265254 0 -0.034875234606374927 -0.00011774424954182273 0 -0.034872206477140053 -0.00011147997035808268 0 -0.034838318751406368 -0.00022090763845214597 0 -0.034875234606374927 -0.00011774424954182273 0 -0.034891040847348904 -0.00020675542303265254 0 -0.034875234606374927 -0.00011774424954182273 0 -0.034824022713436945 -7.9560374753761406e-05 0 -0.034875234606374927 -0.00011774424954182273 0 -0.034865185943867956 -6.6747405892239405e-05 0 -0.034866586191011996 -5.6092570309650021e-05 0 -0.034876530553270446 -0.00010640111086489151 0 -0.034927119851571126 -5.8124302117812987e-05 0 -0.034872206477140053 -0.00011147997035808268 0 -0.034875234606374927 -0.00011774424954182273 0 -0.034865185943867956 -6.6747405892239405e-05 0 -0.034872206477140053 -0.00011147997035808268 0 -0.034990957341385895 -5.173754034682132e-05 0 -0.035000044735479643 4.9415995369810947e-09 0 -0.03499884951794846 -1.6710567618166707e-05 0 -0.035000044735479643 4.9415995369810947e-09 0 -0.034999998960052493 -2.7570263342133948e-08 0 -0.034990957341385895 -5.173754034682132e-05 0 -0.03499884951794846 -1.6710567618166707e-05 0 -0.035000044735479643 4.9415995369810947e-09 0 -0.034875947870551906 -1.7290426607072055e-05 0 -0.034914952615974486 -2.5718773092760439e-05 0 -0.034999770386731466 2.6435962957054457e-09 0 -0.03500564392052561 -8.7794175403447507e-06 0 -0.034999998960052493 -2.7570263342133948e-08 0 -0.035000009554413285 1.1513735339204006e-08 0 -0.034941971055094612 -1.7037729884346447e-05 0 -0.034999975966820751 -3.5334711004269507e-09 0 -0.03499884951794846 -1.6710567618166707e-05 0 -0.03500564392052561 -8.7794175403447507e-06 0 -0.034999998960052493 -2.7570263342133948e-08 0 -0.034927119851571126 -5.8124302117812987e-05 0 -0.034941971055094612 -1.7037729884346447e-05 0 -0.034865185943867956 -6.6747405892239405e-05 0 -0.034875947870551906 -1.7290426607072055e-05 0 -0.034866586191011996 -5.6092570309650021e-05 0 -0.034990957341385895 -5.173754034682132e-05 0 -0.03499884951794846 -1.6710567618166707e-05 0 -0.03500564392052561 -8.7794175403447507e-06 0 -0.034875947870551906 -1.7290426607072055e-05 0 -0.034889703596621087 -3.1653216268101399e-05 0 -0.034866586191011996 -5.6092570309650021e-05 0 -0.034875947870551906 -1.7290426607072055e-05 0 -0.034914952615974486 -2.5718773092760439e-05 0 -0.034889703596621087 -3.1653216268101399e-05 0 -0.034914952615974486 -2.5718773092760439e-05 0 -0.034889703596621087 -3.1653216268101399e-05 0 -0.034892865568629181 -1.9268870671523386e-05 0 -0.034889703596621087 -3.1653216268101399e-05 0 -0.03488087544148126 -1.9265685675126309e-05 0 -0.034866586191011996 -5.6092570309650021e-05 0 -0.034889703596621087 -3.1653216268101399e-05 0 -0.03488087544148126 -1.9265685675126309e-05 0 -0.034892865568629181 -1.9268870671523386e-05 0 -0.03488087544148126 -1.9265685675126309e-05 0 -0.034881163072270044 2.5564783789820196e-06 0 -0.034892865568629181 -1.9268870671523386e-05 0 -0.034875234606374927 -0.00011774424954182273 0 -0.034866586191011996 -5.6092570309650021e-05 0 -0.034824022713436945 -7.9560374753761406e-05 0 -0.03488087544148126 -1.9265685675126309e-05 0 -0.034866586191011996 -5.6092570309650021e-05 0 -0.034824022713436945 -7.9560374753761406e-05 0 -0.03488087544148126 -1.9265685675126309e-05 0 -0.034870388444685194 -4.956832029206917e-05 0 -0.034878939269203421 1.270281790088277e-05 0 -0.03488087544148126 -1.9265685675126309e-05 0 -0.034824022713436945 -7.9560374753761406e-05 0 -0.034870388444685194 -4.956832029206917e-05 0 -0.034797229181699064 0.0010018795845762962 0 -0.034797178094064594 0.00012262215335240523 0 -0.035252325168826447 0.0016315869326651651 0 -0.034878939269203421 1.270281790088277e-05 0 -0.034797178094064594 0.00012262215335240523 0 -0.034927640233407352 -8.0676507566117742e-05 0 -0.034636714610173862 6.1925980452071989e-05 0 -0.035522175620206375 0.00084722439788988027 0 -0.034870388444685194 -4.956832029206917e-05 0 -0.034878939269203421 1.270281790088277e-05 0 -0.034927640233407352 -8.0676507566117742e-05 0 -0.034878939269203421 1.270281790088277e-05 0 -0.034797178094064594 0.00012262215335240523 0 -0.034859103293473206 3.7066746411623997e-05 0 -0.034797229181699064 0.0010018795845762962 0 -0.03458963865234025 0.00014544464972583661 0 -0.034579785741083044 0.0020466663938245012 0 -0.034542235391196149 0.0010263513284806071 0 -0.034627560746196676 0.00068011294428489081 0 -0.034084535829322735 0.0013774676579474685 0 -0.034542235391196149 0.0010263513284806071 0 -0.034084535829322735 0.0013774676579474685 0 -0.034287479903217177 0.00174500837467987 0 -0.034567980554830499 0.00063970250313659036 0 -0.034648186637298101 0.001950015278147857 0 -0.034797229181699064 0.0010018795845762962 0 -0.03458963865234025 0.00014544464972583661 0 -0.034797178094064594 0.00012262215335240523 0 -0.034542235391196149 0.0010263513284806071 0 -0.034627560746196676 0.00068011294428489081 0 -0.034817499277578538 0.00031371385505333073 0 -0.034567980554830499 0.00063970250313659036 0 -0.034836207885722212 0.00012693104141128631 0 -0.03458963865234025 0.00014544464972583661 0 -0.034752224932889215 4.3963002347047347e-05 0 -0.034907277724245817 -4.3139881456380069e-05 0 -0.034797178094064594 0.00012262215335240523 0 -0.034752224932889215 4.3963002347047347e-05 0 -0.034826354677289131 4.1506529794253029e-05 0 -0.03458963865234025 0.00014544464972583661 0 -0.034797178094064594 0.00012262215335240523 0 -0.034752224932889215 4.3963002347047347e-05 0 -0.034820175065471505 2.0359874427722751e-06 0 -0.034868602520864114 5.0255424045221626e-07 0 -0.034884370432147732 -2.5130296140456316e-05 0 -0.034752224932889215 4.3963002347047347e-05 0 -0.034826354677289131 4.1506529794253029e-05 0 -0.034820175065471505 2.0359874427722751e-06 0 -0.034752224932889215 4.3963002347047347e-05 0 -0.034820175065471505 2.0359874427722751e-06 0 -0.034907277724245817 -4.3139881456380069e-05 0 -0.034878939269203421 1.270281790088277e-05 0 -0.034881163072270044 2.5564783789820196e-06 0 -0.034859103293473206 3.7066746411623997e-05 0 -0.03488087544148126 -1.9265685675126309e-05 0 -0.034878939269203421 1.270281790088277e-05 0 -0.034881163072270044 2.5564783789820196e-06 0 -0.034881163072270044 2.5564783789820196e-06 0 -0.034859103293473206 3.7066746411623997e-05 0 -0.034868602520864114 5.0255424045221626e-07 0 -0.034826354677289131 4.1506529794253029e-05 0 -0.034859103293473206 3.7066746411623997e-05 0 -0.034868602520864114 5.0255424045221626e-07 0 -0.034797178094064594 0.00012262215335240523 0 -0.034826354677289131 4.1506529794253029e-05 0 -0.034859103293473206 3.7066746411623997e-05 0 -0.034826354677289131 4.1506529794253029e-05 0 -0.034820175065471505 2.0359874427722751e-06 0 -0.034868602520864114 5.0255424045221626e-07 0 -0.034881163072270044 2.5564783789820196e-06 0 -0.034868602520864114 5.0255424045221626e-07 0 -0.034892865568629181 -1.9268870671523386e-05 0 -0.034868602520864114 5.0255424045221626e-07 0 -0.034892865568629181 -1.9268870671523386e-05 0 -0.034901446783883065 -2.3909603254215181e-05 0 -0.034914952615974486 -2.5718773092760439e-05 0 -0.034892865568629181 -1.9268870671523386e-05 0 -0.034901446783883065 -2.3909603254215181e-05 0 -0.034914952615974486 -2.5718773092760439e-05 0 -0.034928995826595116 -2.2444729166530853e-05 0 -0.034901446783883065 -2.3909603254215181e-05 0 -0.034928995826595116 -2.2444729166530853e-05 0 -0.034901446783883065 -2.3909603254215181e-05 0 -0.034884370432147732 -2.5130296140456316e-05 0 -0.034868602520864114 5.0255424045221626e-07 0 -0.034901446783883065 -2.3909603254215181e-05 0 -0.034884370432147732 -2.5130296140456316e-05 0 -0.034884370432147732 -2.5130296140456316e-05 0 -0.034934966556925552 -2.0105297646767708e-05 0 -0.034907277724245817 -4.3139881456380069e-05 0 -0.034820175065471505 2.0359874427722751e-06 0 -0.034884370432147732 -2.5130296140456316e-05 0 -0.034907277724245817 -4.3139881456380069e-05 0 -0.034928995826595116 -2.2444729166530853e-05 0 -0.034884370432147732 -2.5130296140456316e-05 0 -0.034934966556925552 -2.0105297646767708e-05 0 -0.034934966556925552 -2.0105297646767708e-05 0 -0.034999945088835055 -1.1138956307096886e-08 0 -0.034907277724245817 -4.3139881456380069e-05 0 -0.034934966556925552 -2.0105297646767708e-05 0 -0.034999945088835055 -1.1138956307096886e-08 0 -0.034999770386731466 2.6435962957054457e-09 0 -0.034928995826595116 -2.2444729166530853e-05 0 -0.034934966556925552 -2.0105297646767708e-05 0 -0.034999770386731466 2.6435962957054457e-09 0 -0.034914952615974486 -2.5718773092760439e-05 0 -0.034928995826595116 -2.2444729166530853e-05 0 -0.034999770386731466 2.6435962957054457e-09 0 -0.034999246965404331 2.9374744075483948e-08 0 -0.035000192942067195 3.0838724973313507e-07 0 -0.034855805047676755 0.00022916703303574139 0 -0.03499994373769711 9.9078942665512326e-09 0 -0.034836207885722212 0.00012693104141128631 0 -0.035000192942067195 3.0838724973313507e-07 0 -0.034817499277578538 0.00031371385505333073 0 -0.034855805047676755 0.00022916703303574139 0 -0.034999945088835055 -1.1138956307096886e-08 0 -0.03500002664022242 -1.3839617945731077e-09 0 -0.034907277724245817 -4.3139881456380069e-05 0 -0.034817499277578538 0.00031371385505333073 0 -0.034855805047676755 0.00022916703303574139 0 -0.034762931642706697 0.00047052856077809589 0 -0.034746989672922036 0.00041068659462210763 0 -0.034855805047676755 0.00022916703303574139 0 -0.034762931642706697 0.00047052856077809589 0 -0.034746989672922036 0.00041068659462210763 0 -0.034762931642706697 0.00047052856077809589 0 -0.034743991842926342 0.00054885415750882888 0 -0.034762931642706697 0.00047052856077809589 0 -0.034741203372185378 0.00054085378688955698 0 -0.034743991842926342 0.00054885415750882888 0 -0.034627560746196676 0.00068011294428489081 0 -0.034762931642706697 0.00047052856077809589 0 -0.034741203372185378 0.00054085378688955698 0 -0.034627560746196676 0.00068011294428489081 0 -0.034817499277578538 0.00031371385505333073 0 -0.034762931642706697 0.00047052856077809589 0 -0.034627560746196676 0.00068011294428489081 0 -0.034084535829322735 0.0013774676579474685 0 -0.033304827132768375 0.0015107893826359531 0 -0.034627560746196676 0.00068011294428489081 0 -0.034741203372185378 0.00054085378688955698 0 -0.034744296691016148 0.00045164246410010496 0 -0.034817122359435293 0.00043881523952000854 0 -0.033450526262982207 0.0015478126190116626 0 -0.034754405077644317 0.00063070280822953887 0 -0.033450526262982207 0.0015478126190116626 0 -0.034741203372185378 0.00054085378688955698 0 -0.034743991842926342 0.00054885415750882888 0 -0.034744296691016148 0.00045164246410010496 0 -0.034687539181215588 0.00072270825223498883 0 -0.034743991842926342 0.00054885415750882888 0 -0.034851146575892798 0.00069711772821977422 0 -0.033571543179986667 0.0018249232748518177 0 -0.033450526262982207 0.0015478126190116626 0 -0.032720985050686151 0.0025467349925694729 0 -0.031425819086445518 0.0039126504334761111 0 -0.03121721550510223 0.0024256408507385995 0 -0.034614624146736904 0.00086865539369936334 0 -0.034687539181215588 0.00072270825223498883 0 -0.034851146575892798 0.00069711772821977422 0 -0.032720985050686151 0.0025467349925694729 0 -0.032603469312071115 0.00079653447673105567 0 -0.031522533079209519 0.0016038515546785064 0 -0.032720985050686151 0.0025467349925694729 0 -0.03121721550510223 0.0024256408507385995 0 -0.031522533079209519 0.0016038515546785064 0 -0.030695662578873139 0.0016918327093779783 0 -0.02998808611478989 0.0024026430642602554 0 -0.030067382982909174 0.0010370806000773705 0 -0.03121721550510223 0.0024256408507385995 0 -0.030695662578873139 0.0016918327093779783 0 -0.02998808611478989 0.0024026430642602554 0 -0.03121721550510223 0.0024256408507385995 0 -0.031522533079209519 0.0016038515546785064 0 -0.030695662578873139 0.0016918327093779783 0 -0.031522533079209519 0.0016038515546785064 0 -0.030695662578873139 0.0016918327093779783 0 -0.030786571989525866 0.00097492844766530816 0 -0.034084535829322735 0.0013774676579474685 0 -0.033304827132768375 0.0015107893826359531 0 -0.034120960006658881 0.0025030800065906802 0 -0.031425819086445518 0.0039126504334761111 0 -0.03121721550510223 0.0024256408507385995 0 -0.02998808611478989 0.0024026430642602554 0 -0.033450526262982207 0.0015478126190116626 0 -0.031916823961284986 0.0026103936729167817 0 -0.034084535829322735 0.0013774676579474685 0 -0.034287479903217177 0.00174500837467987 0 -0.034120960006658881 0.0025030800065906802 0 -0.034542235391196149 0.0010263513284806071 0 -0.034287479903217177 0.00174500837467987 0 -0.034579785741083044 0.0020466663938245012 0 -0.034287479903217177 0.00174500837467987 0 -0.034216726713591043 0.0021946821552729233 0 -0.034579785741083044 0.0020466663938245012 0 -0.034287479903217177 0.00174500837467987 0 -0.034216726713591043 0.0021946821552729233 0 -0.034120960006658881 0.0025030800065906802 0 -0.034797229181699064 0.0010018795845762962 0 -0.035252325168826447 0.0016315869326651651 0 -0.034579785741083044 0.0020466663938245012 0 -0.035252325168826447 0.0016315869326651651 0 -0.034579785741083044 0.0020466663938245012 0 -0.035081952792706865 0.0023378369960462479 0 -0.034579785741083044 0.0020466663938245012 0 -0.035081952792706865 0.0023378369960462479 0 -0.033845646233736391 0.0026576100642281141 0 -0.035081952792706865 0.0023378369960462479 0 -0.035139850530926567 0.002875585471818291 0 -0.033845646233736391 0.0026576100642281141 0 -0.033921004620421635 0.0030129156745300374 0 -0.033720445427351364 0.0028207913976605777 0 -0.032454805984303225 0.0033769254401865528 0 -0.033845646233736391 0.0026576100642281141 0 -0.03335295494448183 0.0023950431714658748 0 -0.031916823961284986 0.0026103936729167817 0 -0.031066854212079539 0.0016360264887645103 0 -0.02998808611478989 0.0024026430642602554 0 -0.029458052330371309 0.00091173145189171463 0 -0.030067382982909174 0.0010370806000773705 0 -0.034120960006658881 0.0025030800065906802 0 -0.033845646233736391 0.0026576100642281141 0 -0.03335295494448183 0.0023950431714658748 0 -0.02998808611478989 0.0024026430642602554 0 -0.029458052330371309 0.00091173145189171463 0 -0.02872612105937538 0.00089738114572370084 0 -0.034216726713591043 0.0021946821552729233 0 -0.034120960006658881 0.0025030800065906802 0 -0.033845646233736391 0.0026576100642281141 0 -0.034216726713591043 0.0021946821552729233 0 -0.034579785741083044 0.0020466663938245012 0 -0.033845646233736391 0.0026576100642281141 0 -0.029458052330371309 0.00091173145189171463 0 -0.02872612105937538 0.00089738114572370084 0 -0.028900854024273202 0.00017079117514861848 0 -0.029458052330371309 0.00091173145189171463 0 -0.029639253118333236 0.00028728591390315918 0 -0.028900854024273202 0.00017079117514861848 0 -0.029458052330371309 0.00091173145189171463 0 -0.029639253118333236 0.00028728591390315918 0 -0.030067382982909174 0.0010370806000773705 0 -0.031022579754350191 0.00082508751539906843 0 -0.031439610896533264 0.0022972996550802071 0 -0.03335295494448183 0.0023950431714658748 0 -0.031439610896533264 0.0022972996550802071 0 -0.032454805984303225 0.0033769254401865528 0 -0.03335295494448183 0.0023950431714658748 0 -0.029569763166016182 0.00039746899411768606 0 -0.031066854212079539 0.0016360264887645103 0 -0.028047268419801694 -0.00015754582639818622 0 -0.028900854024273202 0.00017079117514861848 0 -0.02844073408083948 -0.00040685135087015044 0 -0.028047268419801694 -0.00015754582639818622 0 -0.02872612105937538 0.00089738114572370084 0 -0.028900854024273202 0.00017079117514861848 0 -0.029310312062670877 -0.00018274316238965304 0 -0.029716679624729517 -0.00055177582298849193 0 -0.02844073408083948 -0.00040685135087015044 0 -0.029639253118333236 0.00028728591390315918 0 -0.029310312062670877 -0.00018274316238965304 0 -0.029957033387093115 -0.00031461880885451924 0 -0.029639253118333236 0.00028728591390315918 0 -0.028900854024273202 0.00017079117514861848 0 -0.029310312062670877 -0.00018274316238965304 0 -0.028900854024273202 0.00017079117514861848 0 -0.029310312062670877 -0.00018274316238965304 0 -0.02844073408083948 -0.00040685135087015044 0 -0.029310312062670877 -0.00018274316238965304 0 -0.029716679624729517 -0.00055177582298849193 0 -0.029957033387093115 -0.00031461880885451924 0 -0.025964112919558874 -0.00056498172394638124 0 -0.027538746561078738 0.00028929653691086156 0 -0.018266391235216697 0.0010351011485174731 0 -0.018318522138932695 0.0010927587232597269 0 -0.018271189631796143 0.0010225679272648474 0 -0.029702665754593113 -0.00069082059308736457 0 -0.029957033387093115 -0.00031461880885451924 0 -0.031637931940458802 -0.00051031669232645661 0 -0.025964112919558874 -0.00056498172394638124 0 -0.024600823956892091 0.00035427138987056706 0 -0.029957033387093115 -0.00031461880885451924 0 -0.030829218000544219 0.00022823848668108244 0 -0.031637931940458802 -0.00051031669232645661 0 -0.029957033387093115 -0.00031461880885451924 0 -0.030829218000544219 0.00022823848668108244 0 -0.030235151090225985 0.00044787390480858119 0 -0.029639253118333236 0.00028728591390315918 0 -0.029957033387093115 -0.00031461880885451924 0 -0.030235151090225985 0.00044787390480858119 0 -0.030829218000544219 0.00022823848668108244 0 -0.031637931940458802 -0.00051031669232645661 0 -0.031470966988887523 0.00061750227151172459 0 -0.032603469312071115 0.00079653447673105567 0 -0.031637931940458802 -0.00051031669232645661 0 -0.031470966988887523 0.00061750227151172459 0 -0.032603469312071115 0.00079653447673105567 0 -0.031522533079209519 0.0016038515546785064 0 -0.031470966988887523 0.00061750227151172459 0 -0.031522533079209519 0.0016038515546785064 0 -0.031470966988887523 0.00061750227151172459 0 -0.030786571989525866 0.00097492844766530816 0 -0.030695662578873139 0.0016918327093779783 0 -0.030786571989525866 0.00097492844766530816 0 -0.030067382982909174 0.0010370806000773705 0 -0.030786571989525866 0.00097492844766530816 0 -0.030067382982909174 0.0010370806000773705 0 -0.030235151090225985 0.00044787390480858119 0 -0.029639253118333236 0.00028728591390315918 0 -0.030067382982909174 0.0010370806000773705 0 -0.030235151090225985 0.00044787390480858119 0 -0.030829218000544219 0.00022823848668108244 0 -0.031470966988887523 0.00061750227151172459 0 -0.030786571989525866 0.00097492844766530816 0 -0.030829218000544219 0.00022823848668108244 0 -0.030786571989525866 0.00097492844766530816 0 -0.030235151090225985 0.00044787390480858119 0 -0.018240075743019175 0.00096560044450190777 0 -0.018244579566564521 0.0009760015640950608 0 -0.018221569399153585 0.00089484653123642999 0 -0.018240075743019175 0.00096560044450190777 0 -0.018221569399153585 0.00089484653123642999 0 -0.018196516030154201 0.00088770065430916517 0 -0.018263580846269677 0.0010414609293111423 0 -0.018240075743019175 0.00096560044450190777 0 -0.01828001051418875 0.0010430812216430808 0 -0.018240075743019175 0.00096560044450190777 0 -0.018196516030154201 0.00088770065430916517 0 -0.018204603958833866 0.00097592226860198554 0 -0.018263580846269677 0.0010414609293111423 0 -0.018240075743019175 0.00096560044450190777 0 -0.018204603958833866 0.00097592226860198554 0 -0.018240075743019175 0.00096560044450190777 0 -0.01828001051418875 0.0010430812216430808 0 -0.018271189631796143 0.0010225679272648474 0 -0.018320591489154565 0.0011108065317333006 0 -0.018318522138932695 0.0010927587232597269 0 -0.01828001051418875 0.0010430812216430808 0 -0.018318522138932695 0.0010927587232597269 0 -0.01828001051418875 0.0010430812216430808 0 -0.018271189631796143 0.0010225679272648474 0 -0.018240075743019175 0.00096560044450190777 0 -0.018271189631796143 0.0010225679272648474 0 -0.018244579566564521 0.0009760015640950608 0 -0.018266391235216697 0.0010351011485174731 0 -0.018271189631796143 0.0010225679272648474 0 -0.018244579566564521 0.0009760015640950608 0 -0.025964112919558874 -0.00056498172394638124 0 -0.023050828290434703 0.00022172757743326682 0 -0.028276976433487977 -0.00045880186684193173 0 -0.02844073408083948 -0.00040685135087015044 0 -0.028341004557044896 -0.00039417362401008394 0 -0.018266391235216697 0.0010351011485174731 0 -0.018244579566564521 0.0009760015640950608 0 -0.018196541768949644 0.00093483763854893909 0 -0.025964112919558874 -0.00056498172394638124 0 -0.029644661875066199 -0.00029655156105297045 0 -0.02844073408083948 -0.00040685135087015044 0 -0.028239145143576692 -0.00042109615156385352 0 -0.028130028266446668 -0.00036518051811196067 0 -0.02844073408083948 -0.00040685135087015044 0 -0.028239145143576692 -0.00042109615156385352 0 -0.028341004557044896 -0.00039417362401008394 0 -0.028239145143576692 -0.00042109615156385352 0 -0.028341004557044896 -0.00039417362401008394 0 -0.02821610309148638 -0.00050215538953792655 0 -0.028239145143576692 -0.00042109615156385352 0 -0.02821610309148638 -0.00050215538953792655 0 -0.028147773702208872 -0.00046923120134669276 0 -0.018196541768949644 0.00093483763854893909 0 -0.018200467702669334 0.0008239948647985432 0 -0.018172426358800217 0.00076889075934525285 0 -0.023050828290434703 0.00022172757743326682 0 -0.023350061052700832 0.00017904677866704554 0 -0.018244579566564521 0.0009760015640950608 0 -0.018196541768949644 0.00093483763854893909 0 -0.018221569399153585 0.00089484653123642999 0 -0.018196541768949644 0.00093483763854893909 0 -0.018200467702669334 0.0008239948647985432 0 -0.018221569399153585 0.00089484653123642999 0 -0.018200467702669334 0.0008239948647985432 0 -0.018221569399153585 0.00089484653123642999 0 -0.018202288392916405 0.00081251526361691376 0 -0.018200467702669334 0.0008239948647985432 0 -0.018202288392916405 0.00081251526361691376 0 -0.018204629112226287 0.00069594259327010119 0 -0.018202288392916405 0.00081251526361691376 0 -0.018204629112226287 0.00069594259327010119 0 -0.018171495581883641 0.00077625911197915984 0 -0.023350061052700832 0.00017904677866704554 0 -0.021474857323315777 0.00048345566760626073 0 -0.018172426358800217 0.00076889075934525285 0 -0.018219851773586055 0.0005407827680813062 0 -0.018160525865573082 0.0005154734186874531 0 -0.018204629112226287 0.00069594259327010119 0 -0.018172426358800217 0.00076889075934525285 0 -0.018219851773586055 0.0005407827680813062 0 -0.018200467702669334 0.0008239948647985432 0 -0.018204629112226287 0.00069594259327010119 0 -0.018172426358800217 0.00076889075934525285 0 -0.018219851773586055 0.0005407827680813062 0 -0.018292166797253404 0.00039925168724508071 0 -0.018304275094951302 0.00039892204769819767 0 -0.018529790407585497 0.00018138244161913835 0 -0.021474857323315777 0.00048345566760626073 0 -0.018204629112226287 0.00069594259327010119 0 -0.018219851773586055 0.0005407827680813062 0 -0.01821436449175547 0.00055480847102542413 0 -0.01821436449175547 0.00055480847102542413 0 -0.018292166797253404 0.00039925168724508071 0 -0.018247796813632134 0.00054419520534480705 0 -0.018219851773586055 0.0005407827680813062 0 -0.01821436449175547 0.00055480847102542413 0 -0.018292166797253404 0.00039925168724508071 0 -0.018204629112226287 0.00069594259327010119 0 -0.018166785930709393 0.0006758807187957881 0 -0.018171495581883641 0.00077625911197915984 0 -0.018166785930709393 0.0006758807187957881 0 -0.018108580663768935 0.00078100794325691334 0 -0.018171495581883641 0.00077625911197915984 0 -0.018204629112226287 0.00069594259327010119 0 -0.01821436449175547 0.00055480847102542413 0 -0.018166785930709393 0.0006758807187957881 0 -0.01821436449175547 0.00055480847102542413 0 -0.018166785930709393 0.0006758807187957881 0 -0.018171873640334377 0.00063436728996757864 0 -0.018108580663768935 0.00078100794325691334 0 -0.018132566732812119 0.00083766051259644484 0 -0.018075697445089377 0.00087653144632346088 0 -0.018108580663768935 0.00078100794325691334 0 -0.018132566732812119 0.00083766051259644484 0 -0.018171495581883641 0.00077625911197915984 0 -0.018132566732812119 0.00083766051259644484 0 -0.018171495581883641 0.00077625911197915984 0 -0.018196516030154201 0.00088770065430916517 0 -0.018202288392916405 0.00081251526361691376 0 -0.018171495581883641 0.00077625911197915984 0 -0.018196516030154201 0.00088770065430916517 0 -0.018221569399153585 0.00089484653123642999 0 -0.018202288392916405 0.00081251526361691376 0 -0.018196516030154201 0.00088770065430916517 0 -0.018132566732812119 0.00083766051259644484 0 -0.018196516030154201 0.00088770065430916517 0 -0.018141994365392902 0.00091792331286572916 0 -0.018196516030154201 0.00088770065430916517 0 -0.018204603958833866 0.00097592226860198554 0 -0.018141994365392902 0.00091792331286572916 0 -0.018160949041606915 0.00098871630429688689 0 -0.018204603958833866 0.00097592226860198554 0 -0.018141994365392902 0.00091792331286572916 0 -0.018076027035183836 0.00096295530476810565 0 -0.018075697445089377 0.00087653144632346088 0 -0.018008626938302661 0.00092775850932014703 0 -0.018076027035183836 0.00096295530476810565 0 -0.018141994365392902 0.00091792331286572916 0 -0.018075697445089377 0.00087653144632346088 0 -0.018132566732812119 0.00083766051259644484 0 -0.018141994365392902 0.00091792331286572916 0 -0.018075697445089377 0.00087653144632346088 0 -0.018075697445089377 0.00087653144632346088 0 -0.018008626938302661 0.00092775850932014703 0 -0.018020608994970037 0.00085619411061244868 0 -0.018008626938302661 0.00092775850932014703 0 -0.018020608994970037 0.00085619411061244868 0 -0.017932239955306808 0.00093065157061943007 0 -0.018020608994970037 0.00085619411061244868 0 -0.0180006011212482 0.00086604632569827616 0 -0.018102852752180404 0.00073411652473619985 0 -0.018108580663768935 0.00078100794325691334 0 -0.018020608994970037 0.00085619411061244868 0 -0.018102852752180404 0.00073411652473619985 0 -0.018108580663768935 0.00078100794325691334 0 -0.018075697445089377 0.00087653144632346088 0 -0.018020608994970037 0.00085619411061244868 0 -0.018020608994970037 0.00085619411061244868 0 -0.0180006011212482 0.00086604632569827616 0 -0.017932239955306808 0.00093065157061943007 0 -0.0180006011212482 0.00086604632569827616 0 -0.017932239955306808 0.00093065157061943007 0 -0.017889547496526124 0.00097317740616839783 0 -0.0180006011212482 0.00086604632569827616 0 -0.017889547496526124 0.00097317740616839783 0 -0.017977808502094718 0.00095180319524488567 0 -0.017906383461604811 0.0009833883526399283 0 -0.018008626938302661 0.00092775850932014703 0 -0.017932239955306808 0.00093065157061943007 0 -0.017932239955306808 0.00093065157061943007 0 -0.01782381963525622 0.0010143335196808334 0 -0.017889547496526124 0.00097317740616839783 0 -0.017906383461604811 0.0009833883526399283 0 -0.017932239955306808 0.00093065157061943007 0 -0.01782381963525622 0.0010143335196808334 0 -0.017722215770799264 0.0010785136023032827 0 -0.01782381963525622 0.0010143335196808334 0 -0.017760384021527739 0.0010633161085297762 0 -0.01782381963525622 0.0010143335196808334 0 -0.017760384021527739 0.0010633161085297762 0 -0.017889547496526124 0.00097317740616839783 0 -0.017889547496526124 0.00097317740616839783 0 -0.017977808502094718 0.00095180319524488567 0 -0.017853414381141679 0.0010598098237628866 0 -0.017977808502094718 0.00095180319524488567 0 -0.017853414381141679 0.0010598098237628866 0 -0.017981094939446298 0.0010734660719149821 0 -0.017853414381141679 0.0010598098237628866 0 -0.017878097163644715 0.0011557557099016133 0 -0.017981094939446298 0.0010734660719149821 0 -0.017760384021527739 0.0010633161085297762 0 -0.017853414381141679 0.0010598098237628866 0 -0.017726487027790432 0.0011400938183667682 0 -0.017760384021527739 0.0010633161085297762 0 -0.017889547496526124 0.00097317740616839783 0 -0.017853414381141679 0.0010598098237628866 0 -0.017726487027790432 0.0011400938183667682 0 -0.017581438747868612 0.0012326616000091191 0 -0.017872043000203106 0.0012704089399197495 0 -0.017853414381141679 0.0010598098237628866 0 -0.017726487027790432 0.0011400938183667682 0 -0.017878097163644715 0.0011557557099016133 0 -0.017726487027790432 0.0011400938183667682 0 -0.017878097163644715 0.0011557557099016133 0 -0.017872043000203106 0.0012704089399197495 0 -0.017726487027790432 0.0011400938183667682 0 -0.017608467931004474 0.001140289578691939 0 -0.017581438747868612 0.0012326616000091191 0 -0.017523180735091144 0.0011755327738415472 0 -0.017608467931004474 0.001140289578691939 0 -0.017422292068353159 0.0012297690324024858 0 -0.017722215770799264 0.0010785136023032827 0 -0.017760384021527739 0.0010633161085297762 0 -0.017608467931004474 0.001140289578691939 0 -0.017760384021527739 0.0010633161085297762 0 -0.017726487027790432 0.0011400938183667682 0 -0.017608467931004474 0.001140289578691939 0 -0.018113010232834462 0.0012647873508052757 0 -0.01848379776747414 0.0013124124649704846 0 -0.018338259084883332 0.0015324577698836795 0 -0.018113010232834462 0.0012647873508052757 0 -0.018218919708489024 0.0010630119598287295 0 -0.01848379776747414 0.0013124124649704846 0 -0.017878097163644715 0.0011557557099016133 0 -0.018113010232834462 0.0012647873508052757 0 -0.017872043000203106 0.0012704089399197495 0 -0.017878097163644715 0.0011557557099016133 0 -0.018113010232834462 0.0012647873508052757 0 -0.017981094939446298 0.0010734660719149821 0 -0.018113010232834462 0.0012647873508052757 0 -0.017981094939446298 0.0010734660719149821 0 -0.018218919708489024 0.0010630119598287295 0 -0.017981094939446298 0.0010734660719149821 0 -0.018085769401490131 0.0009552270249497608 0 -0.018218919708489024 0.0010630119598287295 0 -0.017977808502094718 0.00095180319524488567 0 -0.017981094939446298 0.0010734660719149821 0 -0.018085769401490131 0.0009552270249497608 0 -0.018085769401490131 0.0009552270249497608 0 -0.018218919708489024 0.0010630119598287295 0 -0.018231502025223032 0.00079707996064072855 0 -0.018218919708489024 0.0010630119598287295 0 -0.018231502025223032 0.00079707996064072855 0 -0.018547419095242511 0.00090740086091355729 0 -0.018231502025223032 0.00079707996064072855 0 -0.018247796813632134 0.00054419520534480705 0 -0.018484920027484104 0.00057472092728144426 0 -0.0180006011212482 0.00086604632569827616 0 -0.017977808502094718 0.00095180319524488567 0 -0.018082455260971513 0.00083572461812505649 0 -0.017977808502094718 0.00095180319524488567 0 -0.018085769401490131 0.0009552270249497608 0 -0.018082455260971513 0.00083572461812505649 0 -0.018085769401490131 0.0009552270249497608 0 -0.018231502025223032 0.00079707996064072855 0 -0.018082455260971513 0.00083572461812505649 0 -0.018231502025223032 0.00079707996064072855 0 -0.018082455260971513 0.00083572461812505649 0 -0.018152408727061319 0.00071168903553338509 0 -0.0180006011212482 0.00086604632569827616 0 -0.018082455260971513 0.00083572461812505649 0 -0.018102852752180404 0.00073411652473619985 0 -0.018102852752180404 0.00073411652473619985 0 -0.018152408727061319 0.00071168903553338509 0 -0.018171873640334377 0.00063436728996757864 0 -0.018082455260971513 0.00083572461812505649 0 -0.018102852752180404 0.00073411652473619985 0 -0.018152408727061319 0.00071168903553338509 0 -0.018166785930709393 0.0006758807187957881 0 -0.018102852752180404 0.00073411652473619985 0 -0.018171873640334377 0.00063436728996757864 0 -0.018166785930709393 0.0006758807187957881 0 -0.018108580663768935 0.00078100794325691334 0 -0.018102852752180404 0.00073411652473619985 0 -0.018231502025223032 0.00079707996064072855 0 -0.018152408727061319 0.00071168903553338509 0 -0.018247796813632134 0.00054419520534480705 0 -0.018152408727061319 0.00071168903553338509 0 -0.018171873640334377 0.00063436728996757864 0 -0.018247796813632134 0.00054419520534480705 0 -0.01821436449175547 0.00055480847102542413 0 -0.018171873640334377 0.00063436728996757864 0 -0.018247796813632134 0.00054419520534480705 0 -0.018292166797253404 0.00039925168724508071 0 -0.018247796813632134 0.00054419520534480705 0 -0.01838500231394382 0.00039512267026747626 0 -0.018292166797253404 0.00039925168724508071 0 -0.01838500231394382 0.00039512267026747626 0 -0.018463315602780472 0.00013871796881403272 0 -0.01838500231394382 0.00039512267026747626 0 -0.018775806016224271 0.00027844932327236087 0 -0.018463315602780472 0.00013871796881403272 0 -0.01838500231394382 0.00039512267026747626 0 -0.018775806016224271 0.00027844932327236087 0 -0.018484920027484104 0.00057472092728144426 0 -0.018247796813632134 0.00054419520534480705 0 -0.01838500231394382 0.00039512267026747626 0 -0.018484920027484104 0.00057472092728144426 0 -0.018775806016224271 0.00027844932327236087 0 -0.01927190953420737 -0.00042311806736821013 0 -0.018463315602780472 0.00013871796881403272 0 -0.018775806016224271 0.00027844932327236087 0 -0.019455852872753573 0.00031008462247951847 0 -0.01927190953420737 -0.00042311806736821013 0 -0.018866199533989672 0.00063890132023129156 0 -0.018974838038266169 0.0010848901501684905 0 -0.019455852872753573 0.00031008462247951847 0 -0.018775806016224271 0.00027844932327236087 0 -0.018866199533989672 0.00063890132023129156 0 -0.019455852872753573 0.00031008462247951847 0 -0.018866199533989672 0.00063890132023129156 0 -0.018547419095242511 0.00090740086091355729 0 -0.018974838038266169 0.0010848901501684905 0 -0.018775806016224271 0.00027844932327236087 0 -0.018866199533989672 0.00063890132023129156 0 -0.018484920027484104 0.00057472092728144426 0 -0.018231502025223032 0.00079707996064072855 0 -0.018484920027484104 0.00057472092728144426 0 -0.018547419095242511 0.00090740086091355729 0 -0.018866199533989672 0.00063890132023129156 0 -0.018484920027484104 0.00057472092728144426 0 -0.018547419095242511 0.00090740086091355729 0 -0.018547419095242511 0.00090740086091355729 0 -0.018974838038266169 0.0010848901501684905 0 -0.01848379776747414 0.0013124124649704846 0 -0.018218919708489024 0.0010630119598287295 0 -0.018547419095242511 0.00090740086091355729 0 -0.01848379776747414 0.0013124124649704846 0 -0.018974838038266169 0.0010848901501684905 0 -0.01848379776747414 0.0013124124649704846 0 -0.01909187696191628 0.0017489604606872227 0 -0.01848379776747414 0.0013124124649704846 0 -0.01909187696191628 0.0017489604606872227 0 -0.018590919079202101 0.0016298704836006836 0 -0.020548693147149848 0.0019288078744138834 0 -0.01909187696191628 0.0017489604606872227 0 -0.02033278287220449 0.001214956049597883 0 -0.020548693147149848 0.0019288078744138834 0 -0.01909187696191628 0.0017489604606872227 0 -0.020588831526923049 0.0026632760818377245 0 -0.020548693147149848 0.0019288078744138834 0 -0.020707804408334644 0.002290365739169656 0 -0.020588831526923049 0.0026632760818377245 0 -0.019104376918217987 0.001825294842818371 0 -0.019410927440347801 0.002226187757325688 0 -0.01909187696191628 0.0017489604606872227 0 -0.019615610172287478 0.00095160419685101649 0 -0.02033278287220449 0.001214956049597883 0 -0.018974838038266169 0.0010848901501684905 0 -0.01909187696191628 0.0017489604606872227 0 -0.019615610172287478 0.00095160419685101649 0 -0.019615610172287478 0.00095160419685101649 0 -0.02033278287220449 0.001214956049597883 0 -0.020358339965204555 0.00036707012775657999 0 -0.02033278287220449 0.001214956049597883 0 -0.020358339965204555 0.00036707012775657999 0 -0.021200856573933412 0.00067974219625200813 0 -0.020548693147149848 0.0019288078744138834 0 -0.02033278287220449 0.001214956049597883 0 -0.021260615947805858 0.0013913633066877582 0 -0.018974838038266169 0.0010848901501684905 0 -0.019615610172287478 0.00095160419685101649 0 -0.019455852872753573 0.00031008462247951847 0 -0.019615610172287478 0.00095160419685101649 0 -0.020358339965204555 0.00036707012775657999 0 -0.019455852872753573 0.00031008462247951847 0 -0.019455852872753573 0.00031008462247951847 0 -0.020566100725329165 -0.00083586390239620632 0 -0.01927190953420737 -0.00042311806736821013 0 -0.020358339965204555 0.00036707012775657999 0 -0.019455852872753573 0.00031008462247951847 0 -0.020566100725329165 -0.00083586390239620632 0 -0.020358339965204555 0.00036707012775657999 0 -0.020566100725329165 -0.00083586390239620632 0 -0.021312154671818691 -0.00013342698384076018 0 -0.027270866191171295 -0.00086484169067270738 0 -0.027276939507736186 -0.00031700639567928767 0 -0.02792342176688755 -0.00071256226902681398 0 -0.027800642940504831 -0.00030762509582915918 0 -0.02792342176688755 -0.00071256226902681398 0 -0.02796630138640686 -0.00043225832295265245 0 -0.027276939507736186 -0.00031700639567928767 0 -0.027800642940504831 -0.00030762509582915918 0 -0.02792342176688755 -0.00071256226902681398 0 -0.023874143097008974 -0.00083788037268963582 0 -0.023989856166926189 -0.00065056670824422183 0 -0.023989856166926189 -0.00065056670824422183 0 -0.021474857323315777 0.00048345566760626073 0 -0.02792342176688755 -0.00071256226902681398 0 -0.028025028250344104 -0.00058393565403249683 0 -0.028111182284411656 -0.00060317481241686625 0 -0.01927190953420737 -0.00042311806736821013 0 -0.018463315602780472 0.00013871796881403272 0 -0.018276091715308498 -0.00012290103406472388 0 -0.019052049568106775 -0.00049245212360960237 0 -0.021474857323315777 0.00048345566760626073 0 -0.018292166797253404 0.00039925168724508071 0 -0.018463315602780472 0.00013871796881403272 0 -0.018304275094951302 0.00039892204769819767 0 -0.028025028250344104 -0.00058393565403249683 0 -0.028111182284411656 -0.00060317481241686625 0 -0.028085282922586573 -0.00055325353599389908 0 -0.02821610309148638 -0.00050215538953792655 0 -0.028111182284411656 -0.00060317481241686625 0 -0.028127374329373827 -0.0005252635563398147 0 -0.028111182284411656 -0.00060317481241686625 0 -0.028085282922586573 -0.00055325353599389908 0 -0.028127374329373827 -0.0005252635563398147 0 -0.028025028250344104 -0.00058393565403249683 0 -0.028085282922586573 -0.00055325353599389908 0 -0.028069950930196815 -0.00048992697994706404 0 -0.028085282922586573 -0.00055325353599389908 0 -0.028069950930196815 -0.00048992697994706404 0 -0.028127374329373827 -0.0005252635563398147 0 -0.028069950930196815 -0.00048992697994706404 0 -0.028127374329373827 -0.0005252635563398147 0 -0.028147773702208872 -0.00046923120134669276 0 -0.02821610309148638 -0.00050215538953792655 0 -0.028127374329373827 -0.0005252635563398147 0 -0.028147773702208872 -0.00046923120134669276 0 -0.02792342176688755 -0.00071256226902681398 0 -0.028025028250344104 -0.00058393565403249683 0 -0.02796630138640686 -0.00043225832295265245 0 -0.028025028250344104 -0.00058393565403249683 0 -0.028069950930196815 -0.00048992697994706404 0 -0.02796630138640686 -0.00043225832295265245 0 -0.028069950930196815 -0.00048992697994706404 0 -0.02796630138640686 -0.00043225832295265245 0 -0.028080957759470934 -0.00041812215458909428 0 -0.027800642940504831 -0.00030762509582915918 0 -0.02796630138640686 -0.00043225832295265245 0 -0.027989315034289343 -0.00035491484686816632 0 -0.02796630138640686 -0.00043225832295265245 0 -0.028080957759470934 -0.00041812215458909428 0 -0.027989315034289343 -0.00035491484686816632 0 -0.028069950930196815 -0.00048992697994706404 0 -0.028147773702208872 -0.00046923120134669276 0 -0.028080957759470934 -0.00041812215458909428 0 -0.028239145143576692 -0.00042109615156385352 0 -0.028080957759470934 -0.00041812215458909428 0 -0.028130028266446668 -0.00036518051811196067 0 -0.028239145143576692 -0.00042109615156385352 0 -0.028147773702208872 -0.00046923120134669276 0 -0.028080957759470934 -0.00041812215458909428 0 -0.028047268419801694 -0.00015754582639818622 0 -0.028130028266446668 -0.00036518051811196067 0 -0.027989315034289343 -0.00035491484686816632 0 -0.028080957759470934 -0.00041812215458909428 0 -0.028130028266446668 -0.00036518051811196067 0 -0.027989315034289343 -0.00035491484686816632 0 -0.029569763166016182 0.00039746899411768606 0 -0.028503951538270234 -0.00017936629384790882 0 -0.028047268419801694 -0.00015754582639818622 0 -0.02844073408083948 -0.00040685135087015044 0 -0.028130028266446668 -0.00036518051811196067 0 -0.029318734109069735 0.00080115781876443216 0 -0.031022579754350191 0.00082508751539906843 0 -0.028981489354297157 -7.6014783799862302e-05 0 -0.029318734109069735 0.00080115781876443216 0 -0.028981489354297157 -7.6014783799862302e-05 0 -0.028059187151991564 0.00065366629985006189 0 -0.028981489354297157 -7.6014783799862302e-05 0 -0.02795316254771793 0.00022912045618033551 0 -0.028059187151991564 0.00065366629985006189 0 -0.027705508303645099 0.00073254159820497369 0 -0.02795316254771793 0.00022912045618033551 0 -0.028059187151991564 0.00065366629985006189 0 -0.027705508303645099 0.00073254159820497369 0 -0.02795316254771793 0.00022912045618033551 0 -0.027499091771440842 0.00032654099125352208 0 -0.027518951674984332 0.0010977104650553924 0 -0.027705508303645099 0.00073254159820497369 0 -0.027499091771440842 0.00032654099125352208 0 -0.027276939507736186 -0.00031700639567928767 0 -0.027800642940504831 -0.00030762509582915918 0 -0.027499091771440842 0.00032654099125352208 0 -0.027800642940504831 -0.00030762509582915918 0 -0.02795316254771793 0.00022912045618033551 0 -0.027499091771440842 0.00032654099125352208 0 -0.027887391072928227 -0.00032799366581590897 0 -0.028503951538270234 -0.00017936629384790882 0 -0.027800642940504831 -0.00030762509582915918 0 -0.028981489354297157 -7.6014783799862302e-05 0 -0.02795316254771793 0.00022912045618033551 0 -0.026746352586782977 9.9072066596213898e-05 0 -0.02614319595249295 0.00045773317557682347 0 -0.025771809743904268 -6.565302801927992e-05 0 -0.026746352586782977 9.9072066596213898e-05 0 -0.026954653628198225 0.00056833441348179837 0 -0.02614319595249295 0.00045773317557682347 0 -0.027499091771440842 0.00032654099125352208 0 -0.026746352586782977 9.9072066596213898e-05 0 -0.026954653628198225 0.00056833441348179837 0 -0.027276939507736186 -0.00031700639567928767 0 -0.027499091771440842 0.00032654099125352208 0 -0.026746352586782977 9.9072066596213898e-05 0 -0.027518951674984332 0.0010977104650553924 0 -0.027499091771440842 0.00032654099125352208 0 -0.026954653628198225 0.00056833441348179837 0 -0.026229140310960845 0.0013413887651046929 0 -0.026954653628198225 0.00056833441348179837 0 -0.02614319595249295 0.00045773317557682347 0 -0.026229140310960845 0.0013413887651046929 0 -0.027518951674984332 0.0010977104650553924 0 -0.026954653628198225 0.00056833441348179837 0 -0.026229140310960845 0.0013413887651046929 0 -0.025680238605679261 0.00090806064833596763 0 -0.02614319595249295 0.00045773317557682347 0 -0.025680238605679261 0.00090806064833596763 0 -0.025417518115072226 0.00033229513686423287 0 -0.025201796625316877 0.00088510369615959355 0 -0.025458096035939227 0.001350651166603939 0 -0.025680238605679261 0.00090806064833596763 0 -0.025201796625316877 0.00088510369615959355 0 -0.025544417871337481 0.00022461939453086529 0 -0.024914717336696361 0.00085052677618120806 0 -0.025680238605679261 0.00090806064833596763 0 -0.025417518115072226 0.00033229513686423287 0 -0.02614319595249295 0.00045773317557682347 0 -0.025417518115072226 0.00033229513686423287 0 -0.02614319595249295 0.00045773317557682347 0 -0.025771809743904268 -6.565302801927992e-05 0 -0.025417518115072226 0.00033229513686423287 0 -0.025771809743904268 -6.565302801927992e-05 0 -0.024927101228414909 0.00015962871889506371 0 -0.025417518115072226 0.00033229513686423287 0 -0.024927101228414909 0.00015962871889506371 0 -0.025246718049946482 0.00030418700103856011 0 -0.024927101228414909 0.00015962871889506371 0 -0.024594348457567392 -0.00068115211331936591 0 -0.024118178067255264 -0.00023268839124881223 0 -0.025771809743904268 -6.565302801927992e-05 0 -0.024927101228414909 0.00015962871889506371 0 -0.024594348457567392 -0.00068115211331936591 0 -0.025771809743904268 -6.565302801927992e-05 0 -0.026183878880955233 -0.00095812129781578238 0 -0.024594348457567392 -0.00068115211331936591 0 -0.025771809743904268 -6.565302801927992e-05 0 -0.026650428488312797 -0.0004152824227537181 0 -0.026183878880955233 -0.00095812129781578238 0 -0.026746352586782977 9.9072066596213898e-05 0 -0.025771809743904268 -6.565302801927992e-05 0 -0.026650428488312797 -0.0004152824227537181 0 -0.027276939507736186 -0.00031700639567928767 0 -0.026746352586782977 9.9072066596213898e-05 0 -0.026650428488312797 -0.0004152824227537181 0 -0.027270866191171295 -0.00086484169067270738 0 -0.027276939507736186 -0.00031700639567928767 0 -0.026650428488312797 -0.0004152824227537181 0 -0.027270866191171295 -0.00086484169067270738 0 -0.026650428488312797 -0.0004152824227537181 0 -0.026183878880955233 -0.00095812129781578238 0 -0.023874143097008974 -0.00083788037268963582 0 -0.024413638560533323 -0.00096234588286947748 0 -0.020566100725329165 -0.00083586390239620632 0 -0.022567050722409093 -0.0010815120193205898 0 -0.021312154671818691 -0.00013342698384076018 0 -0.022567050722409093 -0.0010815120193205898 0 -0.021978893411563269 9.4618316132159819e-05 0 -0.021312154671818691 -0.00013342698384076018 0 -0.022567050722409093 -0.0010815120193205898 0 -0.021978893411563269 9.4618316132159819e-05 0 -0.022837384267148573 0.00019985162704719002 0 -0.022567050722409093 -0.0010815120193205898 0 -0.022837384267148573 0.00019985162704719002 0 -0.023808842916255631 -0.00020112353039011268 0 -0.021978893411563269 9.4618316132159819e-05 0 -0.022837384267148573 0.00019985162704719002 0 -0.022042222782797036 0.00094571458024724441 0 -0.021978893411563269 9.4618316132159819e-05 0 -0.021312154671818691 -0.00013342698384076018 0 -0.021200856573933412 0.00067974219625200813 0 -0.021978893411563269 9.4618316132159819e-05 0 -0.021200856573933412 0.00067974219625200813 0 -0.022042222782797036 0.00094571458024724441 0 -0.020358339965204555 0.00036707012775657999 0 -0.021312154671818691 -0.00013342698384076018 0 -0.021200856573933412 0.00067974219625200813 0 -0.02033278287220449 0.001214956049597883 0 -0.021200856573933412 0.00067974219625200813 0 -0.021260615947805858 0.0013913633066877582 0 -0.021200856573933412 0.00067974219625200813 0 -0.021260615947805858 0.0013913633066877582 0 -0.022042222782797036 0.00094571458024724441 0 -0.021260615947805858 0.0013913633066877582 0 -0.022042222782797036 0.00094571458024724441 0 -0.022332214704619633 0.001554135268436632 0 -0.022307993670604015 0.00096850793559012866 0 -0.022840110248716201 0.00093730866288028525 0 -0.022042222782797036 0.00094571458024724441 0 -0.022332214704619633 0.001554135268436632 0 -0.022773447674739027 0.0010338162882261046 0 -0.022884890940544463 0.00038525335533864144 0 -0.022840110248716201 0.00093730866288028525 0 -0.022837384267148573 0.00019985162704719002 0 -0.022042222782797036 0.00094571458024724441 0 -0.023593350934403783 0.0011048857848534631 0 -0.022332214704619633 0.001554135268436632 0 -0.022153438318948088 0.0022991005202621637 0 -0.021227672082763927 0.0021321562608572096 0 -0.021260615947805858 0.0013913633066877582 0 -0.022332214704619633 0.001554135268436632 0 -0.021227672082763927 0.0021321562608572096 0 -0.020554187909462607 0.0029304240318125639 0 -0.020393936909352435 0.0026423379597627396 0 -0.022153438318948088 0.0022991005202621637 0 -0.021227672082763927 0.0021321562608572096 0 -0.020427135796301354 0.0026300098374493022 0 -0.020548693147149848 0.0019288078744138834 0 -0.021227672082763927 0.0021321562608572096 0 -0.020707804408334644 0.002290365739169656 0 -0.021227672082763927 0.0021321562608572096 0 -0.020707804408334644 0.002290365739169656 0 -0.020427135796301354 0.0026300098374493022 0 -0.020548693147149848 0.0019288078744138834 0 -0.021260615947805858 0.0013913633066877582 0 -0.021227672082763927 0.0021321562608572096 0 -0.019198805577723098 0.0012896192374013615 0 -0.017712092094768133 0.00018267821603688153 0 -0.015806930274287121 2.3062380528536335e-05 0 -0.015988526373295852 -6.0336719058544301e-05 0 -0.016022246358793912 0.00029862902357470454 0 -0.019198805577723098 0.0012896192374013615 0 -0.015279465861344436 0.0012527015132520751 0 -0.022332214704619633 0.001554135268436632 0 -0.022153438318948088 0.0022991005202621637 0 -0.023435418614807271 0.0018316799501644225 0 -0.020554187909462607 0.0029304240318125639 0 -0.019198805577723098 0.0012896192374013615 0 -0.018690857863045456 0.0033150664221660866 0 -0.01683619212589731 0.0038774194569386362 0 -0.017276603172209398 0.0023272979992691686 0 -0.022332214704619633 0.001554135268436632 0 -0.023435418614807271 0.0018316799501644225 0 -0.022773447674739027 0.0010338162882261046 0 -0.021135830041129702 -2.5405823502426679e-05 0 -0.021938881884950072 0.00091436843538391939 0 -0.020433640657574904 0.0007804886509287435 0 -0.022840110248716201 0.00093730866288028525 0 -0.022699632850717751 0.00015833130970395608 0 -0.019198805577723098 0.0012896192374013615 0 -0.022840110248716201 0.00093730866288028525 0 -0.023499220494095061 0.00029393538138347607 0 -0.024264346820001781 -0.00043840846388913175 0 -0.023808842916255631 -0.00020112353039011268 0 -0.021135830041129702 -2.5405823502426679e-05 0 -0.020433640657574904 0.0007804886509287435 0 -0.020035030447863235 0.0003102721855529112 0 -0.024264346820001781 -0.00043840846388913175 0 -0.023808842916255631 -0.00020112353039011268 0 -0.024594348457567392 -0.00068115211331936591 0 -0.024264346820001781 -0.00043840846388913175 0 -0.024594348457567392 -0.00068115211331936591 0 -0.023986802491969154 -0.0005888709594681961 0 -0.022837384267148573 0.00019985162704719002 0 -0.023499220494095061 0.00029393538138347607 0 -0.023808842916255631 -0.00020112353039011268 0 -0.024413638560533323 -0.00096234588286947748 0 -0.024611128154758775 -0.00073751976650513992 0 -0.022567050722409093 -0.0010815120193205898 0 -0.023808842916255631 -0.00020112353039011268 0 -0.024594348457567392 -0.00068115211331936591 0 -0.024594348457567392 -0.00068115211331936591 0 -0.024118178067255264 -0.00023268839124881223 0 -0.023986802491969154 -0.0005888709594681961 0 -0.024118178067255264 -0.00023268839124881223 0 -0.02320307876470985 -0.00026343517389370782 0 -0.023986802491969154 -0.0005888709594681961 0 -0.024118178067255264 -0.00023268839124881223 0 -0.02320307876470985 -0.00026343517389370782 0 -0.023548470882393955 0.00047878547277064307 0 -0.023173009868299926 -0.00073891471962003112 0 -0.023986802491969154 -0.0005888709594681961 0 -0.023589184221416561 -0.001167752024468679 0 -0.02320307876470985 -0.00026343517389370782 0 -0.023173009868299926 -0.00073891471962003112 0 -0.023986802491969154 -0.0005888709594681961 0 -0.02320307876470985 -0.00026343517389370782 0 -0.023173009868299926 -0.00073891471962003112 0 -0.022489520467757429 -0.00049004208157224288 0 -0.022699632850717751 0.00015833130970395608 0 -0.019022547871513418 -0.00026391559249832843 0 -0.017712092094768133 0.00018267821603688153 0 -0.019022547871513418 -0.00026391559249832843 0 -0.020433640657574904 0.0007804886509287435 0 -0.020035030447863235 0.0003102721855529112 0 -0.018939950537170066 0.00063145656451895401 0 -0.024264346820001781 -0.00043840846388913175 0 -0.023986802491969154 -0.0005888709594681961 0 -0.023589184221416561 -0.001167752024468679 0 -0.015988526373295852 -6.0336719058544301e-05 0 -0.016254632728020586 -0.0002904488437586271 0 -0.016159380317956499 7.6160551163256368e-05 0 -0.019022547871513418 -0.00026391559249832843 0 -0.019948046136264816 -0.00087286564064271857 0 -0.019022547871513418 -0.00026391559249832843 0 -0.016138954585788828 -0.00026796811579985771 0 -0.023173009868299926 -0.00073891471962003112 0 -0.023589184221416561 -0.001167752024468679 0 -0.022221664866126672 -0.0011799986173846148 0 -0.016254632728020586 -0.0002904488437586271 0 -0.016529027863005922 0.00011404743518324542 0 -0.017314936355092292 -0.00019958643961851978 0 -0.016254632728020586 -0.0002904488437586271 0 -0.016529027863005922 0.00011404743518324542 0 -0.016159380317956499 7.6160551163256368e-05 0 -0.016529027863005922 0.00011404743518324542 0 -0.016159380317956499 7.6160551163256368e-05 0 -0.016188233980397627 0.00025031910782182697 0 -0.015988526373295852 -6.0336719058544301e-05 0 -0.016159380317956499 7.6160551163256368e-05 0 -0.016022246358793912 0.00029862902357470454 0 -0.017871869181420173 -4.6909672193224776e-06 0 -0.018196528897517869 7.9127544918130352e-07 0 -0.017041307522888505 0.00014406860080414121 0 -0.018196528897517869 7.9127544918130352e-07 0 -0.017041307522888505 0.00014406860080414121 0 -0.016661232390652845 0.000186474337954226 0 -0.016529027863005922 0.00011404743518324542 0 -0.017041307522888505 0.00014406860080414121 0 -0.016333197538731838 0.00028734827566428934 0 -0.016529027863005922 0.00011404743518324542 0 -0.017041307522888505 0.00014406860080414121 0 -0.017314936355092292 -0.00019958643961851978 0 -0.017871869181420173 -4.6909672193224776e-06 0 -0.017041307522888505 0.00014406860080414121 0 -0.017314936355092292 -0.00019958643961851978 0 -0.0162415398724415 -0.000315351627731121 0 -0.017314936355092292 -0.00019958643961851978 0 -0.017318849325070398 -0.00069934033299474095 0 -0.017314936355092292 -0.00019958643961851978 0 -0.017318849325070398 -0.00069934033299474095 0 -0.018496768344622945 -9.8762951610771032e-05 0 -0.018196528897517869 7.9127544918130352e-07 0 -0.018496768344622945 -9.8762951610771032e-05 0 -0.020045666850078855 -2.2573962284249019e-06 0 -0.017318849325070398 -0.00069934033299474095 0 -0.018496768344622945 -9.8762951610771032e-05 0 -0.020045666850078855 -2.2573962284249019e-06 0 -0.017871869181420173 -4.6909672193224776e-06 0 -0.017314936355092292 -0.00019958643961851978 0 -0.018496768344622945 -9.8762951610771032e-05 0 -0.017871869181420173 -4.6909672193224776e-06 0 -0.018196528897517869 7.9127544918130352e-07 0 -0.018496768344622945 -9.8762951610771032e-05 0 -0.022221664866126672 -0.0011799986173846148 0 -0.020053614610984295 -3.4895348238251867e-06 0 -0.021534409214814702 -0.00021240277323205341 0 -0.020053614610984295 -3.4895348238251867e-06 0 -0.021534409214814702 -0.00021240277323205341 0 -0.021709684475641904 3.0218606813050443e-06 0 -0.019948046136264816 -0.00087286564064271857 0 -0.020047948167548981 -3.1425777399935041e-07 0 -0.02320307876470985 -0.00026343517389370782 0 -0.022489520467757429 -0.00049004208157224288 0 -0.022067665993435792 -4.3023186750111528e-05 0 -0.023173009868299926 -0.00073891471962003112 0 -0.022221664866126672 -0.0011799986173846148 0 -0.022489520467757429 -0.00049004208157224288 0 -0.022221664866126672 -0.0011799986173846148 0 -0.021534409214814702 -0.00021240277323205341 0 -0.022489520467757429 -0.00049004208157224288 0 -0.021534409214814702 -0.00021240277323205341 0 -0.022489520467757429 -0.00049004208157224288 0 -0.022067665993435792 -4.3023186750111528e-05 0 -0.02320307876470985 -0.00026343517389370782 0 -0.022067665993435792 -4.3023186750111528e-05 0 -0.022250708366024798 0.00043762824154956444 0 -0.022067665993435792 -4.3023186750111528e-05 0 -0.021709684475641904 3.0218606813050443e-06 0 -0.022250708366024798 0.00043762824154956444 0 -0.021534409214814702 -0.00021240277323205341 0 -0.022067665993435792 -4.3023186750111528e-05 0 -0.021709684475641904 3.0218606813050443e-06 0 -0.021719479160560544 -1.888835489381439e-06 0 -0.024653546807929309 0.00027786256446417351 0 -0.02400457620725897 -0.00039146241901419262 0 -0.021714376155039152 -6.6664307742006279e-09 0 -0.023157327468706881 6.1968371680855744e-05 0 -0.026494437861613054 2.1657675361451184e-06 0 -0.021719479160560544 -1.888835489381439e-06 0 -0.024653546807929309 0.00027786256446417351 0 -0.024653546807929309 0.00027786256446417351 0 -0.02400457620725897 -0.00039146241901419262 0 -0.025002906700062423 -3.9182934498653378e-05 0 -0.02320307876470985 -0.00026343517389370782 0 -0.022250708366024798 0.00043762824154956444 0 -0.023548470882393955 0.00047878547277064307 0 -0.023157327468706881 6.1968371680855744e-05 0 -0.024224024793885305 0.00018482060042924241 0 -0.024927101228414909 0.00015962871889506371 0 -0.024118178067255264 -0.00023268839124881223 0 -0.023548470882393955 0.00047878547277064307 0 -0.024825256067296755 0.00019069264921747235 0 -0.024224024793885305 0.00018482060042924241 0 -0.024927101228414909 0.00015962871889506371 0 -0.025002906700062423 -3.9182934498653378e-05 0 -0.025246718049946482 0.00030418700103856011 0 -0.024653546807929309 0.00027786256446417351 0 -0.025002906700062423 -3.9182934498653378e-05 0 -0.025246718049946482 0.00030418700103856011 0 -0.025246718049946482 0.00030418700103856011 0 -0.025693042424329328 0.00029989528487538961 0 -0.025414549769722215 0.00028267936175143028 0 -0.024653546807929309 0.00027786256446417351 0 -0.025246718049946482 0.00030418700103856011 0 -0.025414549769722215 0.00028267936175143028 0 -0.025417518115072226 0.00033229513686423287 0 -0.025246718049946482 0.00030418700103856011 0 -0.025385536458294323 0.00032800159082225491 0 -0.02570460468321089 2.2128749409621265e-05 0 -0.025385536458294323 0.00032800159082225491 0 -0.025693042424329328 0.00029989528487538961 0 -0.025246718049946482 0.00030418700103856011 0 -0.025385536458294323 0.00032800159082225491 0 -0.025693042424329328 0.00029989528487538961 0 -0.026313901633984352 0.00016075340115646116 0 -0.025693042424329328 0.00029989528487538961 0 -0.025414549769722215 0.00028267936175143028 0 -0.026494437861613054 2.1657675361451184e-06 0 -0.026313901633984352 0.00016075340115646116 0 -0.025414549769722215 0.00028267936175143028 0 -0.026494437861613054 2.1657675361451184e-06 0 -0.024653546807929309 0.00027786256446417351 0 -0.025414549769722215 0.00028267936175143028 0 -0.0089000020213962274 -0.00091816440990999187 0 -0.010358193181891908 3.5848029982638422e-05 0 -0.011801209928739599 -6.3000679732287343e-05 0 -0.011350284166539484 -0.00049864872981441439 0 -0.012279793248491115 -0.00023825644314706443 0 -0.011801209928739599 -6.3000679732287343e-05 0 -0.011036393849770272 -6.2627060208569177e-05 0 -0.01215963538388783 2.6222973094323785e-05 0 -0.011801209928739599 -6.3000679732287343e-05 0 -0.011036393849770272 -6.2627060208569177e-05 0 -0.011350284166539484 -0.00049864872981441439 0 -0.011801209928739599 -6.3000679732287343e-05 0 -0.012279793248491115 -0.00023825644314706443 0 -0.012261774243184123 5.2797942313865077e-05 0 -0.010790016120067285 5.1756142212940541e-07 0 -0.011036393849770272 -6.2627060208569177e-05 0 -0.0089403178370510792 -1.9302143925957317e-06 0 -0.010790016120067285 5.1756142212940541e-07 0 -0.011036393849770272 -6.2627060208569177e-05 0 -0.01215963538388783 2.6222973094323785e-05 0 -0.0089348526864153344 -2.4495953926996852e-06 0 -0.0069275528962755894 -0.0013284094117894777 0 -0.0073685209342091744 -0.00032473696894643199 0 -0.011036393849770272 -6.2627060208569177e-05 0 -0.0089403178370510792 -1.9302143925957317e-06 0 -0.011350284166539484 -0.00049864872981441439 0 -0.0089384634831258369 -1.9901997903386718e-07 0 -0.0089000020213962274 -0.00091816440990999187 0 -0.0069275528962755894 -0.0013284094117894777 0 -0.0062173682205559373 -0.0010706485039761813 0 -0.0059488122842959908 -0.001656813740454731 0 -0.0067228462570578691 -0.00060096935947223326 0 -0.0069275528962755894 -0.0013284094117894777 0 -0.0062173682205559373 -0.0010706485039761813 0 -0.0067228462570578691 -0.00060096935947223326 0 -0.0062173682205559373 -0.0010706485039761813 0 -0.0063158537600574924 -0.00019049496660121412 0 -0.0067228462570578691 -0.00060096935947223326 0 -0.0069275528962755894 -0.0013284094117894777 0 -0.0073685209342091744 -0.00032473696894643199 0 -0.0071399893863440715 0.00080409680810622172 0 -0.010358193181891908 3.5848029982638422e-05 0 -0.0062173682205559373 -0.0010706485039761813 0 -0.0055596170797761078 -0.00057061114148611162 0 -0.0059488122842959908 -0.001656813740454731 0 -0.0090983805390833644 0.0020141889590753127 0 -0.0090485176063867818 0.0019294419885128927 0 -0.0091527606374508397 0.0018859682932834759 0 -0.0090180727542380854 0.0019956418199896112 0 -0.0090485176063867818 0.0019294419885128927 0 -0.0089556910630401842 0.0019412171644089913 0 -0.0090983805390833644 0.0020141889590753127 0 -0.0090180727542380854 0.0019956418199896112 0 -0.0090485176063867818 0.0019294419885128927 0 -0.010358193181891908 3.5848029982638422e-05 0 -0.012009411326649341 0.00055237392351123189 0 -0.0090485176063867818 0.0019294419885128927 0 -0.0091527606374508397 0.0018859682932834759 0 -0.0090217587365357486 0.0018498532698826315 0 -0.0090485176063867818 0.0019294419885128927 0 -0.0090217587365357486 0.0018498532698826315 0 -0.0089556910630401842 0.0019412171644089913 0 -0.013757181285384733 -0.0013541315150277606 0 -0.014035186426799903 -0.00075954147047504041 0 -0.014575384620636062 -0.00089227410056450494 0 -0.013757181285384733 -0.0013541315150277606 0 -0.014035186426799903 -0.00075954147047504041 0 -0.013538086397685887 -0.00083188490003103588 0 -0.010358193181891908 3.5848029982638422e-05 0 -0.012976928176267284 -0.00062138279998580229 0 -0.014035186426799903 -0.00075954147047504041 0 -0.013843188563136074 -0.0003733181316585934 0 -0.014269228015831161 -0.00021984198836001799 0 -0.014035186426799903 -0.00075954147047504041 0 -0.013843188563136074 -0.0003733181316585934 0 -0.013538086397685887 -0.00083188490003103588 0 -0.014575384620636062 -0.00089227410056450494 0 -0.014269228015831161 -0.00021984198836001799 0 -0.014809114252943574 -0.00026728147906349294 0 -0.014035186426799903 -0.00075954147047504041 0 -0.014575384620636062 -0.00089227410056450494 0 -0.014269228015831161 -0.00021984198836001799 0 -0.014269228015831161 -0.00021984198836001799 0 -0.014605783590930651 0.00015798669430762709 0 -0.014809114252943574 -0.00026728147906349294 0 -0.013843188563136074 -0.0003733181316585934 0 -0.013950569556664598 4.3670895108647705e-05 0 -0.013130304959395808 -7.1582765790629361e-05 0 -0.013843188563136074 -0.0003733181316585934 0 -0.014269228015831161 -0.00021984198836001799 0 -0.013950569556664598 4.3670895108647705e-05 0 -0.013130304959395808 -7.1582765790629361e-05 0 -0.01215963538388783 2.6222973094323785e-05 0 -0.013370620125901107 3.7110600546884651e-05 0 -0.013950569556664598 4.3670895108647705e-05 0 -0.013130304959395808 -7.1582765790629361e-05 0 -0.014155041838038021 8.5800967154931064e-05 0 -0.013130304959395808 -7.1582765790629361e-05 0 -0.013370620125901107 3.7110600546884651e-05 0 -0.014155041838038021 8.5800967154931064e-05 0 -0.012969865271467748 1.8015738794148525e-05 0 -0.012976928176267284 -0.00062138279998580229 0 -0.013130304959395808 -7.1582765790629361e-05 0 -0.012261774243184123 5.2797942313865077e-05 0 -0.01215963538388783 2.6222973094323785e-05 0 -0.011801209928739599 -6.3000679732287343e-05 0 -0.012261774243184123 5.2797942313865077e-05 0 -0.01215963538388783 2.6222973094323785e-05 0 -0.013843188563136074 -0.0003733181316585934 0 -0.013130304959395808 -7.1582765790629361e-05 0 -0.013538086397685887 -0.00083188490003103588 0 -0.010790016120067285 5.1756142212940541e-07 0 -0.01215963538388783 2.6222973094323785e-05 0 -0.012641825468723592 -1.6292586339171639e-08 0 -0.01215963538388783 2.6222973094323785e-05 0 -0.013370620125901107 3.7110600546884651e-05 0 -0.012641825468723592 -1.6292586339171639e-08 0 -0.013370620125901107 3.7110600546884651e-05 0 -0.012641825468723592 -1.6292586339171639e-08 0 -0.014493245124173298 3.7050405439405829e-07 0 -0.013370620125901107 3.7110600546884651e-05 0 -0.014155041838038021 8.5800967154931064e-05 0 -0.014493245124173298 3.7050405439405829e-07 0 -0.014155041838038021 8.5800967154931064e-05 0 -0.015601836803729258 0.00024341420776372472 0 -0.01585884133196639 0.00024272254208778534 0 -0.014155041838038021 8.5800967154931064e-05 0 -0.014493245124173298 3.7050405439405829e-07 0 -0.015601836803729258 0.00024341420776372472 0 -0.016344539479792544 3.5060630350873489e-07 0 -0.015601836803729258 0.00024341420776372472 0 -0.016661232390652845 0.000186474337954226 0 -0.014493245124173298 3.7050405439405829e-07 0 -0.016344539479792544 3.5060630350873489e-07 0 -0.015601836803729258 0.00024341420776372472 0 -0.015601836803729258 0.00024341420776372472 0 -0.016333197538731838 0.00028734827566428934 0 -0.016036659076915961 0.00031303134846528394 0 -0.015601836803729258 0.00024341420776372472 0 -0.016333197538731838 0.00028734827566428934 0 -0.016661232390652845 0.000186474337954226 0 -0.017041307522888505 0.00014406860080414121 0 -0.016333197538731838 0.00028734827566428934 0 -0.016661232390652845 0.000186474337954226 0 -0.018196528897517869 7.9127544918130352e-07 0 -0.016344539479792544 3.5060630350873489e-07 0 -0.016661232390652845 0.000186474337954226 0 -0.016159380317956499 7.6160551163256368e-05 0 -0.016022246358793912 0.00029862902357470454 0 -0.016188233980397627 0.00025031910782182697 0 -0.016022246358793912 0.00029862902357470454 0 -0.016188233980397627 0.00025031910782182697 0 -0.016036659076915961 0.00031303134846528394 0 -0.016529027863005922 0.00011404743518324542 0 -0.016333197538731838 0.00028734827566428934 0 -0.016188233980397627 0.00025031910782182697 0 -0.016333197538731838 0.00028734827566428934 0 -0.016188233980397627 0.00025031910782182697 0 -0.016036659076915961 0.00031303134846528394 0 -0.015601836803729258 0.00024341420776372472 0 -0.01585884133196639 0.00024272254208778534 0 -0.016036659076915961 0.00031303134846528394 0 -0.014310844741873763 0.00079526564847790015 0 -0.015634892622063783 0.00038862905668397 0 -0.016126567498755618 0.0013312331062525328 0 -0.015279465861344436 0.0012527015132520751 0 -0.015151835603264358 0.00059474919247799252 0 -0.015460208334223728 0.0022400063748463108 0 -0.014310844741873763 0.00079526564847790015 0 -0.016126567498755618 0.0013312331062525328 0 -0.016022246358793912 0.00029862902357470454 0 -0.01585884133196639 0.00024272254208778534 0 -0.016036659076915961 0.00031303134846528394 0 -0.014310844741873763 0.00079526564847790015 0 -0.014283392306708723 0.00019929364823056652 0 -0.015634892622063783 0.00038862905668397 0 -0.01437336303271178 0.00020162398941722822 0 -0.015198156281534375 0.00048549814148741532 0 -0.014155041838038021 8.5800967154931064e-05 0 -0.014310844741873763 0.00079526564847790015 0 -0.014283392306708723 0.00019929364823056652 0 -0.014269971959348066 0.00011580628408842213 0 -0.015151835603264358 0.00059474919247799252 0 -0.014269228015831161 -0.00021984198836001799 0 -0.013950569556664598 4.3670895108647705e-05 0 -0.014283392306708723 0.00019929364823056652 0 -0.013950569556664598 4.3670895108647705e-05 0 -0.014155041838038021 8.5800967154931064e-05 0 -0.014283392306708723 0.00019929364823056652 0 -0.014283392306708723 0.00019929364823056652 0 -0.014605783590930651 0.00015798669430762709 0 -0.014724337047880384 0.00053162284183999446 0 -0.014269228015831161 -0.00021984198836001799 0 -0.014283392306708723 0.00019929364823056652 0 -0.014605783590930651 0.00015798669430762709 0 -0.014605783590930651 0.00015798669430762709 0 -0.014968640704369086 1.5416618690392893e-05 0 -0.014809114252943574 -0.00026728147906349294 0 -0.014968640704369086 1.5416618690392893e-05 0 -0.014991801049001188 0.00027404441927687958 0 -0.015232736170281744 0.00013748688968656837 0 -0.014605783590930651 0.00015798669430762709 0 -0.014968640704369086 1.5416618690392893e-05 0 -0.014991801049001188 0.00027404441927687958 0 -0.015502158485524191 4.0345806215876503e-05 0 -0.015232736170281744 0.00013748688968656837 0 -0.015373524067103897 0.00047866166558455819 0 -0.015502158485524191 4.0345806215876503e-05 0 -0.015373524067103897 0.00047866166558455819 0 -0.015752427704808412 0.0001964271084555937 0 -0.015502158485524191 4.0345806215876503e-05 0 -0.015232736170281744 0.00013748688968656837 0 -0.015255794325232414 -0.0001295860721052558 0 -0.014968640704369086 1.5416618690392893e-05 0 -0.015232736170281744 0.00013748688968656837 0 -0.015255794325232414 -0.0001295860721052558 0 -0.015289810821779506 0.00039253242292692207 0 -0.016721117752788544 0.00026930633971182066 0 -0.015373524067103897 0.00047866166558455819 0 -0.015703599037330263 0.0011388105952389272 0 -0.016210059879886926 0.00055363323072365404 0 -0.015373524067103897 0.00047866166558455819 0 -0.014724337047880384 0.00053162284183999446 0 -0.015703599037330263 0.0011388105952389272 0 -0.015198156281534375 0.00048549814148741532 0 -0.016549199555374323 0.0010677587006179261 0 -0.014991801049001188 0.00027404441927687958 0 -0.015373524067103897 0.00047866166558455819 0 -0.014724337047880384 0.00053162284183999446 0 -0.014605783590930651 0.00015798669430762709 0 -0.014991801049001188 0.00027404441927687958 0 -0.014724337047880384 0.00053162284183999446 0 -0.014991801049001188 0.00027404441927687958 0 -0.015232736170281744 0.00013748688968656837 0 -0.015373524067103897 0.00047866166558455819 0 -0.015634892622063783 0.00038862905668397 0 -0.016126567498755618 0.0013312331062525328 0 -0.017357591069322647 0.00099155027086487903 0 -0.017357591069322647 0.00099155027086487903 0 -0.017276603172209398 0.0023272979992691686 0 -0.019197498876958194 0.0018320034431766267 0 -0.016126567498755618 0.0013312331062525328 0 -0.017357591069322647 0.00099155027086487903 0 -0.017276603172209398 0.0023272979992691686 0 -0.01683619212589731 0.0038774194569386362 0 -0.015460208334223728 0.0022400063748463108 0 -0.017276603172209398 0.0023272979992691686 0 -0.015460208334223728 0.0022400063748463108 0 -0.016126567498755618 0.0013312331062525328 0 -0.017276603172209398 0.0023272979992691686 0 -0.018690857863045456 0.0033150664221660866 0 -0.019197498876958194 0.0018320034431766267 0 -0.020427135796301354 0.0026300098374493022 0 -0.019197498876958194 0.0018320034431766267 0 -0.020588831526923049 0.0026632760818377245 0 -0.020427135796301354 0.0026300098374493022 0 -0.017200361493738832 0.0017335826986135507 0 -0.018047023403533969 0.0014110088401751762 0 -0.018379739877401647 0.0019119058469676551 0 -0.018183907157400526 0.0017769134565217308 0 -0.019410927440347801 0.002226187757325688 0 -0.018690857863045456 0.0033150664221660866 0 -0.017276603172209398 0.0023272979992691686 0 -0.019197498876958194 0.0018320034431766267 0 -0.016549199555374323 0.0010677587006179261 0 -0.018183907157400526 0.0017769134565217308 0 -0.015703599037330263 0.0011388105952389272 0 -0.017200361493738832 0.0017335826986135507 0 -0.016813264163190289 0.00081316830254034647 0 -0.017200361493738832 0.0017335826986135507 0 -0.017516299795327508 0.00092678387453417113 0 -0.016813264163190289 0.00081316830254034647 0 -0.017200361493738832 0.0017335826986135507 0 -0.017516299795327508 0.00092678387453417113 0 -0.018047023403533969 0.0014110088401751762 0 -0.017516299795327508 0.00092678387453417113 0 -0.018047023403533969 0.0014110088401751762 0 -0.018282554539471169 0.00074230202131921269 0 -0.016721117752788544 0.00026930633971182066 0 -0.017998450643094889 0.0011311141121868652 0 -0.017516299795327508 0.00092678387453417113 0 -0.016966182568216866 -0.00024099578153421379 0 -0.018282554539471169 0.00074230202131921269 0 -0.015373524067103897 0.00047866166558455819 0 -0.016210059879886926 0.00055363323072365404 0 -0.016966182568216866 -0.00024099578153421379 0 -0.015703599037330263 0.0011388105952389272 0 -0.016813264163190289 0.00081316830254034647 0 -0.016210059879886926 0.00055363323072365404 0 -0.017516299795327508 0.00092678387453417113 0 -0.016813264163190289 0.00081316830254034647 0 -0.016966182568216866 -0.00024099578153421379 0 -0.016813264163190289 0.00081316830254034647 0 -0.016210059879886926 0.00055363323072365404 0 -0.016966182568216866 -0.00024099578153421379 0 -0.015502158485524191 4.0345806215876503e-05 0 -0.015679720402226521 0.00013499237495095211 0 -0.01566079629405771 -0.00017437551010334842 0 -0.015351318600739544 -0.00012292746657139867 0 -0.016721117752788544 0.00026930633971182066 0 -0.015679720402226521 0.00013499237495095211 0 -0.01566079629405771 -0.00017437551010334842 0 -0.015932051683519462 1.5089528595618915e-05 0 -0.017026836497392249 0.0010978831457373439 0 -0.01753526218015453 0.00089640574092293983 0 -0.017630047953976984 0.0014547505575954051 0 -0.016721117752788544 0.00026930633971182066 0 -0.013802627649379609 0.0011028729887160658 0 -0.012021545947998934 0.00079215960029732245 0 -0.013802627649379609 0.0011028729887160658 0 -0.0089358452159230568 0.0019136292207124679 0 -0.0089063848473199068 0.0019099779352109445 0 -0.0089798751037021562 0.0019605599858490033 0 -0.0089358452159230568 0.0019136292207124679 0 -0.0088896463134233022 0.0018925811802334123 0 -0.0089063848473199068 0.0019099779352109445 0 -0.0089358452159230568 0.0019136292207124679 0 -0.0088774772908927456 0.0018946434340194379 0 -0.0088896463134233022 0.0018925811802334123 0 -0.0089358452159230568 0.0019136292207124679 0 -0.0088774772908927456 0.0018946434340194379 0 -0.0089000776869437217 0.0018932234695253347 0 -0.0088774772908927456 0.0018946434340194379 0 -0.0088896463134233022 0.0018925811802334123 0 -0.008875407223049421 0.0018897138221589929 0 -0.0088896463134233022 0.0018925811802334123 0 -0.0089063848473199068 0.0019099779352109445 0 -0.0089171468995018297 0.0018558723296430157 0 -0.012021545947998934 0.00079215960029732245 0 -0.01206703729159724 0.00067590067915635767 0 -0.01566079629405771 -0.00017437551010334842 0 -0.015255794325232414 -0.0001295860721052558 0 -0.015203597452928258 -0.00050934061365921789 0 -0.015502158485524191 4.0345806215876503e-05 0 -0.01566079629405771 -0.00017437551010334842 0 -0.015255794325232414 -0.0001295860721052558 0 -0.014968640704369086 1.5416618690392893e-05 0 -0.015255794325232414 -0.0001295860721052558 0 -0.014809114252943574 -0.00026728147906349294 0 -0.015255794325232414 -0.0001295860721052558 0 -0.014809114252943574 -0.00026728147906349294 0 -0.015203597452928258 -0.00050934061365921789 0 -0.0090217587365357486 0.0018498532698826315 0 -0.0089171468995018297 0.0018558723296430157 0 -0.0089192111778831802 0.0018896190666900378 0 -0.012009411326649341 0.00055237392351123189 0 -0.01206703729159724 0.00067590067915635767 0 -0.014575384620636062 -0.00089227410056450494 0 -0.014809114252943574 -0.00026728147906349294 0 -0.015203597452928258 -0.00050934061365921789 0 -0.0089171468995018297 0.0018558723296430157 0 -0.0089192111778831802 0.0018896190666900378 0 -0.008875407223049421 0.0018897138221589929 0 -0.0088896463134233022 0.0018925811802334123 0 -0.0089171468995018297 0.0018558723296430157 0 -0.008875407223049421 0.0018897138221589929 0 -0.0089192111778831802 0.0018896190666900378 0 -0.0088600589961984662 0.0019281697712931513 0 -0.008875407223049421 0.0018897138221589929 0 -0.0089192111778831802 0.0018896190666900378 0 -0.0089556910630401842 0.0019412171644089913 0 -0.0088600589961984662 0.0019281697712931513 0 -0.0090217587365357486 0.0018498532698826315 0 -0.0089192111778831802 0.0018896190666900378 0 -0.0089556910630401842 0.0019412171644089913 0 -0.0090180727542380854 0.0019956418199896112 0 -0.0089556910630401842 0.0019412171644089913 0 -0.0089500138648158731 0.002042478578851154 0 -0.0089556910630401842 0.0019412171644089913 0 -0.0088848677055138707 0.0019901636534268379 0 -0.0089500138648158731 0.002042478578851154 0 -0.0089556910630401842 0.0019412171644089913 0 -0.0088600589961984662 0.0019281697712931513 0 -0.0088848677055138707 0.0019901636534268379 0 -0.0088600589961984662 0.0019281697712931513 0 -0.0088109971505983438 0.0019940707111562499 0 -0.0087958778444631718 0.0019501702888903287 0 -0.0088600589961984662 0.0019281697712931513 0 -0.0088848677055138707 0.0019901636534268379 0 -0.0088109971505983438 0.0019940707111562499 0 -0.0087958778444631718 0.0019501702888903287 0 -0.0088324980768975988 0.001903220669413746 0 -0.0086843863173975376 0.0020536793311060962 0 -0.0088109971505983438 0.0019940707111562499 0 -0.0087958778444631718 0.0019501702888903287 0 -0.0086843863173975376 0.0020536793311060962 0 -0.0087958778444631718 0.0019501702888903287 0 -0.0088324980768975988 0.001903220669413746 0 -0.0088389750299017883 0.0019095155716467708 0 -0.0087030688834060822 0.0019404634907881524 0 -0.0086837708132693949 0.0020406930119198407 0 -0.0088600589961984662 0.0019281697712931513 0 -0.0087958778444631718 0.0019501702888903287 0 -0.0088389750299017883 0.0019095155716467708 0 -0.0084820189889123297 0.0019110434649966602 0 -0.0084726338182337657 0.0019213485259087061 0 -0.0084390770029867546 0.0021107530032418451 0 -0.0088774772908927456 0.0018946434340194379 0 -0.0088324980768975988 0.001903220669413746 0 -0.0088389750299017883 0.0019095155716467708 0 -0.0089000776869437217 0.0018932234695253347 0 -0.0088324980768975988 0.001903220669413746 0 -0.0089502616142504137 0.0018846686398674552 0 -0.0088774772908927456 0.0018946434340194379 0 -0.0089000776869437217 0.0018932234695253347 0 -0.0088324980768975988 0.001903220669413746 0 -0.0088774772908927456 0.0018946434340194379 0 -0.008875407223049421 0.0018897138221589929 0 -0.0088389750299017883 0.0019095155716467708 0 -0.0088600589961984662 0.0019281697712931513 0 -0.008875407223049421 0.0018897138221589929 0 -0.0088389750299017883 0.0019095155716467708 0 -0.0082682175532119619 0.0020380262232938878 0 -0.0084861280205372324 0.0020321876647942908 0 -0.0083712686681070465 0.0020823442517356409 0 -0.0083835849515097993 0.0020423098435504491 0 -0.0084010253797289595 0.002103123469464866 0 -0.0083712686681070465 0.0020823442517356409 0 -0.0083835849515097993 0.0020423098435504491 0 -0.0083589627425247944 0.0020460515050418045 0 -0.0085048232480843203 0.0019619095108054283 0 -0.0085826457132086621 0.0020110683514262327 0 -0.008507239245409812 0.0020318631583653014 0 -0.0086819893703581463 0.0019914467194215653 0 -0.0085048232480843203 0.0019619095108054283 0 -0.0084726338182337657 0.0019213485259087061 0 -0.0086819893703581463 0.0019914467194215653 0 -0.0085048232480843203 0.0019619095108054283 0 -0.0085826457132086621 0.0020110683514262327 0 -0.0084820189889123297 0.0019110434649966602 0 -0.0085048232480843203 0.0019619095108054283 0 -0.008507239245409812 0.0020318631583653014 0 -0.0087030688834060822 0.0019404634907881524 0 -0.0085010085645330739 0.0019421836123205427 0 -0.0084820189889123297 0.0019110434649966602 0 -0.0085048232480843203 0.0019619095108054283 0 -0.0084726338182337657 0.0019213485259087061 0 -0.0084010253797289595 0.002103123469464866 0 -0.0083490163862887084 0.0021280134831615136 0 -0.0083723223742513606 0.0021766390837283634 0 -0.0083712686681070465 0.0020823442517356409 0 -0.0084010253797289595 0.002103123469464866 0 -0.0083490163862887084 0.0021280134831615136 0 -0.0094756005438904178 -0.00035903811068226262 0 -0.010034934119622755 -1.2641451757837325e-05 0 -0.0098692213657662706 -0.00061489745581636522 0 -0.0089371681190620056 0.00088543205364481365 0 -0.0088409626111261956 0.0011090282749980371 0 -0.0083712686681070465 0.0020823442517356409 0 -0.0083490163862887084 0.0021280134831615136 0 -0.0083589627425247944 0.0020460515050418045 0 -0.0094756005438904178 -0.00035903811068226262 0 -0.010034934119622755 -1.2641451757837325e-05 0 -0.0097152310652494234 0.00020441221401624535 0 -0.010034934119622755 -1.2641451757837325e-05 0 -0.01047554859224022 -0.00017085052784166676 0 -0.0098692213657662706 -0.00061489745581636522 0 -0.010034934119622755 -1.2641451757837325e-05 0 -0.0097152310652494234 0.00020441221401624535 0 -0.010118541770449557 0.00042821836869158086 0 -0.010034934119622755 -1.2641451757837325e-05 0 -0.010118541770449557 0.00042821836869158086 0 -0.010534854721344328 0.00034889990136356897 0 -0.0083835849515097993 0.0020423098435504491 0 -0.0083589627425247944 0.0020460515050418045 0 -0.0083888166249886948 0.0019928535102837945 0 -0.0082682175532119619 0.0020380262232938878 0 -0.010527916400906405 0.0015020926085405702 0 -0.0088409626111261956 0.0011090282749980371 0 -0.010797818710103737 0.0013160119806032823 0 -0.0083589627425247944 0.0020460515050418045 0 -0.0083888166249886948 0.0019928535102837945 0 -0.0083884744461339214 0.0019904914373086954 0 -0.0086819893703581463 0.0019914467194215653 0 -0.0088960487179324029 0.0022091665348021421 0 -0.0089219545094614203 0.0022200391334823732 0 -0.0097152310652494234 0.00020441221401624535 0 -0.010118541770449557 0.00042821836869158086 0 -0.0099102744788465268 0.00080281008336259584 0 -0.010118541770449557 0.00042821836869158086 0 -0.010366743950142084 0.00068034733652163162 0 -0.0099102744788465268 0.00080281008336259584 0 -0.010118541770449557 0.00042821836869158086 0 -0.010366743950142084 0.00068034733652163162 0 -0.010534854721344328 0.00034889990136356897 0 -0.01301966877546106 0.0010601547737888102 0 -0.012769541085554175 0.0007057089314698369 0 -0.013680324656522544 0.001219830069387604 0 -0.010797818710103737 0.0013160119806032823 0 -0.012218321556733273 0.0011121126056889759 0 -0.010366743950142084 0.00068034733652163162 0 -0.0099102744788465268 0.00080281008336259584 0 -0.010543655662281305 0.0010766396749212475 0 -0.010679044364527825 0.0017185913780046495 0 -0.01042650964193206 0.0018434638965489337 0 -0.014068285840931612 0.0012332463604749306 0 -0.014120215123648427 0.0012975828591940497 0 -0.013983863598964023 0.0013475054014079203 0 -0.014017653474627653 0.0012042821868654321 0 -0.014068285840931612 0.0012332463604749306 0 -0.013983863598964023 0.0013475054014079203 0 -0.010679044364527825 0.0017185913780046495 0 -0.010527916400906405 0.0015020926085405702 0 -0.010527916400906405 0.0015020926085405702 0 -0.010797818710103737 0.0013160119806032823 0 -0.010527916400906405 0.0015020926085405702 0 -0.01133832633907338 0.0014474388569468721 0 -0.010919280133036622 0.0013555089097722901 0 -0.010923493851555482 0.0013579076662744343 0 -0.010924499220556966 0.001361614225536536 0 -0.010797818710103737 0.0013160119806032823 0 -0.01133832633907338 0.0014474388569468721 0 -0.01301966877546106 0.0010601547737888102 0 -0.012769541085554175 0.0007057089314698369 0 -0.012781226870051824 0.0007655704622913927 0 -0.012346923129947554 0.0014340337941815414 0 -0.01133832633907338 0.0014474388569468721 0 -0.014017653474627653 0.0012042821868654321 0 -0.013983863598964023 0.0013475054014079203 0 -0.01382551457186554 0.001417888292763451 0 -0.014120215123648427 0.0012975828591940497 0 -0.013983863598964023 0.0013475054014079203 0 -0.013963057080653048 0.0015434009384903107 0 -0.014017653474627653 0.0012042821868654321 0 -0.01382551457186554 0.001417888292763451 0 -0.01360546740720117 0.0013662721918779235 0 -0.013983863598964023 0.0013475054014079203 0 -0.01382551457186554 0.001417888292763451 0 -0.013963057080653048 0.0015434009384903107 0 -0.01382551457186554 0.001417888292763451 0 -0.013792314984403612 0.0016010918758632667 0 -0.013963057080653048 0.0015434009384903107 0 -0.013665797196989037 0.0014382703583013202 0 -0.013601006958575761 0.0013549784531451732 0 -0.012909255301168271 0.0016494850116955495 0 -0.01382551457186554 0.001417888292763451 0 -0.013665797196989037 0.0014382703583013202 0 -0.013792314984403612 0.0016010918758632667 0 -0.0089548836434389049 0.0022299320004955953 0 -0.00872669447673558 0.0023208382320812817 0 -0.0086466288589319637 0.0020861229546381872 0 -0.010996888244951443 0.0021058889446241322 0 -0.01042650964193206 0.0018434638965489337 0 -0.01382551457186554 0.001417888292763451 0 -0.013665797196989037 0.0014382703583013202 0 -0.01360546740720117 0.0013662721918779235 0 -0.00872669447673558 0.0023208382320812817 0 -0.0086466288589319637 0.0020861229546381872 0 -0.008507239245409812 0.0020318631583653014 0 -0.01042650964193206 0.0018434638965489337 0 -0.0085010085645330739 0.0019421836123205427 0 -0.0086819893703581463 0.0019914467194215653 0 -0.0088960487179324029 0.0022091665348021421 0 -0.0086466288589319637 0.0020861229546381872 0 -0.010679044364527825 0.0017185913780046495 0 -0.0081347665954458366 0.0020162112022143004 0 -0.0086819893703581463 0.0019914467194215653 0 -0.0086466288589319637 0.0020861229546381872 0 -0.0085826457132086621 0.0020110683514262327 0 -0.0089358452159230568 0.0019136292207124679 0 -0.0089000776869437217 0.0018932234695253347 0 -0.0089502616142504137 0.0018846686398674552 0 -0.0086466288589319637 0.0020861229546381872 0 -0.0085826457132086621 0.0020110683514262327 0 -0.008507239245409812 0.0020318631583653014 0 -0.0089358452159230568 0.0019136292207124679 0 -0.0090462607370903163 0.0019362502869186811 0 -0.0089798751037021562 0.0019605599858490033 0 -0.0089358452159230568 0.0019136292207124679 0 -0.0090462607370903163 0.0019362502869186811 0 -0.0089502616142504137 0.0018846686398674552 0 -0.01042650964193206 0.0018434638965489337 0 -0.013802627649379609 0.0011028729887160658 0 -0.013802627649379609 0.0011028729887160658 0 -0.016050486109105963 0.0016627802856455695 0 -0.013665797196989037 0.0014382703583013202 0 -0.012909255301168271 0.0016494850116955495 0 -0.013647062345674062 0.0020339572351999349 0 -0.013665797196989037 0.0014382703583013202 0 -0.013792314984403612 0.0016010918758632667 0 -0.013647062345674062 0.0020339572351999349 0 -0.013792314984403612 0.0016010918758632667 0 -0.013830857552216119 0.0017766727699971758 0 -0.013647062345674062 0.0020339572351999349 0 -0.018105781873400402 0.0012211236884801864 0 -0.017630047953976984 0.0014547505575954051 0 -0.018202888787697886 0.0016913323477435291 0 -0.01753526218015453 0.00089640574092293983 0 -0.018105781873400402 0.0012211236884801864 0 -0.017630047953976984 0.0014547505575954051 0 -0.018282554539471169 0.00074230202131921269 0 -0.018932591040501184 0.0015518065762221247 0 -0.018610793742708263 0.0015869223849743379 0 -0.018047023403533969 0.0014110088401751762 0 -0.018282554539471169 0.00074230202131921269 0 -0.018610793742708263 0.0015869223849743379 0 -0.017998450643094889 0.0011311141121868652 0 -0.018524281614578308 0.0015810998044157791 0 -0.01909187696191628 0.0017489604606872227 0 -0.018932591040501184 0.0015518065762221247 0 -0.018610793742708263 0.0015869223849743379 0 -0.018047023403533969 0.0014110088401751762 0 -0.018610793742708263 0.0015869223849743379 0 -0.018379739877401647 0.0019119058469676551 0 -0.01909187696191628 0.0017489604606872227 0 -0.018610793742708263 0.0015869223849743379 0 -0.018379739877401647 0.0019119058469676551 0 -0.020707804408334644 0.002290365739169656 0 -0.020588831526923049 0.0026632760818377245 0 -0.020427135796301354 0.0026300098374493022 0 -0.01848379776747414 0.0013124124649704846 0 -0.018590919079202101 0.0016298704836006836 0 -0.018338259084883332 0.0015324577698836795 0 -0.018590919079202101 0.0016298704836006836 0 -0.018497459577509267 0.0016291577913429293 0 -0.018338259084883332 0.0015324577698836795 0 -0.01909187696191628 0.0017489604606872227 0 -0.018932591040501184 0.0015518065762221247 0 -0.018590919079202101 0.0016298704836006836 0 -0.018202888787697886 0.0016913323477435291 0 -0.018590919079202101 0.0016298704836006836 0 -0.018497459577509267 0.0016291577913429293 0 -0.018524281614578308 0.0015810998044157791 0 -0.018581326268720413 0.0016280488759674498 0 -0.018202888787697886 0.0016913323477435291 0 -0.018497459577509267 0.0016291577913429293 0 -0.018472793076251007 0.0015433811957638944 0 -0.018202888787697886 0.0016913323477435291 0 -0.018472793076251007 0.0015433811957638944 0 -0.018469957204958764 0.0015180096733035278 0 -0.018497459577509267 0.0016291577913429293 0 -0.018472793076251007 0.0015433811957638944 0 -0.018327926229717538 0.0016967419223666257 0 -0.018472793076251007 0.0015433811957638944 0 -0.018476373593183149 0.001541609332748341 0 -0.018327926229717538 0.0016967419223666257 0 -0.01701303660860521 0.0021818287630661006 0 -0.018766190344255952 0.0017365650025996866 0 -0.018480384314539341 0.001840215587282731 0 -0.018480221052478409 0.0019899000899994152 0 -0.018313163091656825 0.0019676258179865251 0 -0.018480384314539341 0.001840215587282731 0 -0.018313163091656825 0.0019676258179865251 0 -0.018327926229717538 0.0016967419223666257 0 -0.01701303660860521 0.0021818287630661006 0 -0.01511332234624172 0.0015277192883984393 0 -0.017040977673453774 0.0021450764302859185 0 -0.01701303660860521 0.0021818287630661006 0 -0.013647062345674062 0.0020339572351999349 0 -0.014564969985261069 0.0025039360902363882 0 -0.014436101633084035 0.0019076528215772773 0 -0.018105781873400402 0.0012211236884801864 0 -0.018202888787697886 0.0016913323477435291 0 -0.018469957204958764 0.0015180096733035278 0 -0.016050486109105963 0.0016627802856455695 0 -0.01701303660860521 0.0021818287630661006 0 -0.013830857552216119 0.0017766727699971758 0 -0.013647062345674062 0.0020339572351999349 0 -0.014436101633084035 0.0019076528215772773 0 -0.01133832633907338 0.0014474388569468721 0 -0.01511332234624172 0.0015277192883984393 0 -0.01301966877546106 0.0010601547737888102 0 -0.012783466148834218 0.00076955088930463246 0 -0.012967774605578583 0.0016334036475015882 0 -0.014120215123648427 0.0012975828591940497 0 -0.014239656845012074 0.0018668852452747482 0 -0.013963057080653048 0.0015434009384903107 0 -0.013707083562133824 0.0017084886835676129 0 -0.01511332234624172 0.0015277192883984393 0 -0.013830857552216119 0.0017766727699971758 0 -0.014239656845012074 0.0018668852452747482 0 -0.013963057080653048 0.0015434009384903107 0 -0.013792314984403612 0.0016010918758632667 0 -0.013830857552216119 0.0017766727699971758 0 -0.013963057080653048 0.0015434009384903107 0 -0.01511332234624172 0.0015277192883984393 0 -0.016134122606092455 0.0019270290255958707 0 -0.012967774605578583 0.0016334036475015882 0 -0.013368061698849002 0.001437112693382966 0 -0.013801461206818071 0.0018300299288386227 0 -0.013368061698849002 0.001437112693382966 0 -0.013680324656522544 0.001219830069387604 0 -0.013801461206818071 0.0018300299288386227 0 -0.01301966877546106 0.0010601547737888102 0 -0.012967774605578583 0.0016334036475015882 0 -0.013368061698849002 0.001437112693382966 0 -0.01301966877546106 0.0010601547737888102 0 -0.013368061698849002 0.001437112693382966 0 -0.013680324656522544 0.001219830069387604 0 -0.012218321556733273 0.0011121126056889759 0 -0.012678084064894599 0.0014164924068158539 0 -0.013680324656522544 0.001219830069387604 0 -0.014552752937234546 0.0017243152533949267 0 -0.013801461206818071 0.0018300299288386227 0 -0.010543655662281305 0.0010766396749212475 0 -0.011225333815800168 0.0012561333452855011 0 -0.011324431388724557 0.00084363637428529019 0 -0.011225333815800168 0.0012561333452855011 0 -0.011954699735902794 0.0010994428297693044 0 -0.011324431388724557 0.00084363637428529019 0 -0.014552752937234546 0.0017243152533949267 0 -0.01461026028247033 0.0020204518221983419 0 -0.013801461206818071 0.0018300299288386227 0 -0.014552752937234546 0.0017243152533949267 0 -0.01461026028247033 0.0020204518221983419 0 -0.015397173949207711 0.002214142409327228 0 -0.018024615038557401 0.0019577712713962671 0 -0.018313163091656825 0.0019676258179865251 0 -0.018327926229717538 0.0016967419223666257 0 -0.016501291625654748 0.0020439357425588224 0 -0.016134122606092455 0.0019270290255958707 0 -0.018497459577509267 0.0016291577913429293 0 -0.018327926229717538 0.0016967419223666257 0 -0.018338259084883332 0.0015324577698836795 0 -0.018327926229717538 0.0016967419223666257 0 -0.018043798470981684 0.0015025962746025962 0 -0.018338259084883332 0.0015324577698836795 0 -0.018024615038557401 0.0019577712713962671 0 -0.018327926229717538 0.0016967419223666257 0 -0.018056203660888233 0.0017060117266761614 0 -0.018327926229717538 0.0016967419223666257 0 -0.018056203660888233 0.0017060117266761614 0 -0.018043798470981684 0.0015025962746025962 0 -0.018024615038557401 0.0019577712713962671 0 -0.018056203660888233 0.0017060117266761614 0 -0.017814216061206284 0.0016778871350522876 0 -0.018056203660888233 0.0017060117266761614 0 -0.018043798470981684 0.0015025962746025962 0 -0.017814216061206284 0.0016778871350522876 0 -0.018113010232834462 0.0012647873508052757 0 -0.018043798470981684 0.0015025962746025962 0 -0.017872043000203106 0.0012704089399197495 0 -0.018113010232834462 0.0012647873508052757 0 -0.018043798470981684 0.0015025962746025962 0 -0.018338259084883332 0.0015324577698836795 0 -0.017307413269591568 0.0013357372086744946 0 -0.017422292068353159 0.0012297690324024858 0 -0.017581438747868612 0.0012326616000091191 0 -0.017307413269591568 0.0013357372086744946 0 -0.017581438747868612 0.0012326616000091191 0 -0.017648005203715539 0.0013870600104828887 0 -0.017307413269591568 0.0013357372086744946 0 -0.017422292068353159 0.0012297690324024858 0 -0.017218303692411053 0.0012944771838109624 0 -0.017608467931004474 0.001140289578691939 0 -0.017422292068353159 0.0012297690324024858 0 -0.017581438747868612 0.0012326616000091191 0 -0.017581438747868612 0.0012326616000091191 0 -0.017872043000203106 0.0012704089399197495 0 -0.017648005203715539 0.0013870600104828887 0 -0.018043798470981684 0.0015025962746025962 0 -0.017872043000203106 0.0012704089399197495 0 -0.017648005203715539 0.0013870600104828887 0 -0.017648005203715539 0.0013870600104828887 0 -0.017814216061206284 0.0016778871350522876 0 -0.017377072919038512 0.0015817199936199004 0 -0.018043798470981684 0.0015025962746025962 0 -0.017648005203715539 0.0013870600104828887 0 -0.017814216061206284 0.0016778871350522876 0 -0.017814216061206284 0.0016778871350522876 0 -0.017377072919038512 0.0015817199936199004 0 -0.017580975541229359 0.0019549859185073589 0 -0.017377072919038512 0.0015817199936199004 0 -0.017116274506337553 0.0014440020527214086 0 -0.016745762969433635 0.0015486984420859465 0 -0.016903055599455419 0.0017044400232270819 0 -0.015393772396737459 0.0016932041930520769 0 -0.017377072919038512 0.0015817199936199004 0 -0.016745762969433635 0.0015486984420859465 0 -0.017580975541229359 0.0019549859185073589 0 -0.016745762969433635 0.0015486984420859465 0 -0.016294876207105086 0.0013957339848444388 0 -0.015185356874406222 0.001386629150654491 0 -0.017307413269591568 0.0013357372086744946 0 -0.017648005203715539 0.0013870600104828887 0 -0.017377072919038512 0.0015817199936199004 0 -0.017307413269591568 0.0013357372086744946 0 -0.017377072919038512 0.0015817199936199004 0 -0.017116274506337553 0.0014440020527214086 0 -0.017307413269591568 0.0013357372086744946 0 -0.017047821579667548 0.0013909764510623354 0 -0.017218303692411053 0.0012944771838109624 0 -0.017307413269591568 0.0013357372086744946 0 -0.017116274506337553 0.0014440020527214086 0 -0.017047821579667548 0.0013909764510623354 0 -0.017116274506337553 0.0014440020527214086 0 -0.017047821579667548 0.0013909764510623354 0 -0.016745762969433635 0.0015486984420859465 0 -0.017047821579667548 0.0013909764510623354 0 -0.016745762969433635 0.0015486984420859465 0 -0.017068237345889064 0.001325082042447797 0 -0.016745762969433635 0.0015486984420859465 0 -0.016294876207105086 0.0013957339848444388 0 -0.016677929245483732 0.0011431874096033846 0 -0.015814320665092949 0.00068708575125152826 0 -0.016864748812507806 0.00066344972994642523 0 -0.016677929245483732 0.0011431874096033846 0 -0.012819257765813784 0.0011504042759685211 0 -0.014008506883244967 0.00043395350809697199 0 -0.016294876207105086 0.0013957339848444388 0 -0.015814320665092949 0.00068708575125152826 0 -0.016677929245483732 0.0011431874096033846 0 -0.0127253632491854 0.0012739488860071771 0 -0.012228878840564138 0.0010995339722653511 0 -0.012129002221137939 0.0010539879589670979 0 -0.015814320665092949 0.00068708575125152826 0 -0.0127253632491854 0.0012739488860071771 0 -0.016054046650414766 -0.00043701524619673798 0 -0.016294876207105086 0.0013957339848444388 0 -0.015814320665092949 0.00068708575125152826 0 -0.013185393718265404 0.00142562176033372 0 -0.015561467276821792 0.0014296210894500631 0 -0.015393772396737459 0.0016932041930520769 0 -0.015814320665092949 0.00068708575125152826 0 -0.016054046650414766 -0.00043701524619673798 0 -0.016849809580087825 -9.7419280030615758e-05 0 -0.018024615038557401 0.0019577712713962671 0 -0.017814216061206284 0.0016778871350522876 0 -0.017580975541229359 0.0019549859185073589 0 -0.012678084064894599 0.0014164924068158539 0 -0.015393772396737459 0.0016932041930520769 0 -0.011225333815800168 0.0012561333452855011 0 -0.0127253632491854 0.0012739488860071771 0 -0.011954699735902794 0.0010994428297693044 0 -0.016501291625654748 0.0020439357425588224 0 -0.015393772396737459 0.0016932041930520769 0 -0.015814320665092949 0.00068708575125152826 0 -0.013185393718265404 0.00142562176033372 0 -0.0127253632491854 0.0012739488860071771 0 -0.011225333815800168 0.0012561333452855011 0 -0.013185393718265404 0.00142562176033372 0 -0.0127253632491854 0.0012739488860071771 0 -0.0127253632491854 0.0012739488860071771 0 -0.011954699735902794 0.0010994428297693044 0 -0.012228878840564138 0.0010995339722653511 0 -0.011954699735902794 0.0010994428297693044 0 -0.012228878840564138 0.0010995339722653511 0 -0.011889479221743845 0.00095162757198852211 0 -0.012228878840564138 0.0010995339722653511 0 -0.011889479221743845 0.00095162757198852211 0 -0.012049027408892845 0.00095119643279109676 0 -0.011954699735902794 0.0010994428297693044 0 -0.011889479221743845 0.00095162757198852211 0 -0.011324431388724557 0.00084363637428529019 0 -0.012228878840564138 0.0010995339722653511 0 -0.012129002221137939 0.0010539879589670979 0 -0.012049027408892845 0.00095119643279109676 0 -0.012129002221137939 0.0010539879589670979 0 -0.012049027408892845 0.00095119643279109676 0 -0.012141205317586699 0.00091063948280178551 0 -0.012049027408892845 0.00095119643279109676 0 -0.012038454643344229 0.00070917681186241676 0 -0.011730195400405652 0.0007144219955349324 0 -0.012049027408892845 0.00095119643279109676 0 -0.012141205317586699 0.00091063948280178551 0 -0.012038454643344229 0.00070917681186241676 0 -0.012038454643344229 0.00070917681186241676 0 -0.011711356665472246 0.00047735360055848632 0 -0.011921079378409758 0.00033105147174910361 0 -0.012038454643344229 0.00070917681186241676 0 -0.011711356665472246 0.00047735360055848632 0 -0.011730195400405652 0.0007144219955349324 0 -0.011711356665472246 0.00047735360055848632 0 -0.011216783233190473 0.00046618027465310713 0 -0.011447571981487954 0.00017573422091774748 0 -0.011711356665472246 0.00047735360055848632 0 -0.011730195400405652 0.0007144219955349324 0 -0.011216783233190473 0.00046618027465310713 0 -0.011730195400405652 0.0007144219955349324 0 -0.011324431388724557 0.00084363637428529019 0 -0.011216783233190473 0.00046618027465310713 0 -0.011889479221743845 0.00095162757198852211 0 -0.011730195400405652 0.0007144219955349324 0 -0.011324431388724557 0.00084363637428529019 0 -0.011889479221743845 0.00095162757198852211 0 -0.012049027408892845 0.00095119643279109676 0 -0.011730195400405652 0.0007144219955349324 0 -0.011324431388724557 0.00084363637428529019 0 -0.010812287607898778 0.00066735001110379772 0 -0.011216783233190473 0.00046618027465310713 0 -0.010543655662281305 0.0010766396749212475 0 -0.011324431388724557 0.00084363637428529019 0 -0.010812287607898778 0.00066735001110379772 0 -0.010366743950142084 0.00068034733652163162 0 -0.010543655662281305 0.0010766396749212475 0 -0.010812287607898778 0.00066735001110379772 0 -0.010812287607898778 0.00066735001110379772 0 -0.010534854721344328 0.00034889990136356897 0 -0.011216783233190473 0.00046618027465310713 0 -0.010366743950142084 0.00068034733652163162 0 -0.010812287607898778 0.00066735001110379772 0 -0.010534854721344328 0.00034889990136356897 0 -0.010534854721344328 0.00034889990136356897 0 -0.011216783233190473 0.00046618027465310713 0 -0.010941469568832959 0.00010448760754010259 0 -0.011216783233190473 0.00046618027465310713 0 -0.010941469568832959 0.00010448760754010259 0 -0.011447571981487954 0.00017573422091774748 0 -0.010534854721344328 0.00034889990136356897 0 -0.010941469568832959 0.00010448760754010259 0 -0.01047554859224022 -0.00017085052784166676 0 -0.010034934119622755 -1.2641451757837325e-05 0 -0.010534854721344328 0.00034889990136356897 0 -0.01047554859224022 -0.00017085052784166676 0 -0.010941469568832959 0.00010448760754010259 0 -0.01047554859224022 -0.00017085052784166676 0 -0.010991698475436277 -0.00032981157517736093 0 -0.010991698475436277 -0.00032981157517736093 0 -0.011692266610030465 -0.00016508238562936009 0 -0.011447571981487954 0.00017573422091774748 0 -0.010941469568832959 0.00010448760754010259 0 -0.010991698475436277 -0.00032981157517736093 0 -0.011447571981487954 0.00017573422091774748 0 -0.011692266610030465 -0.00016508238562936009 0 -0.011921079378409758 0.00033105147174910361 0 -0.011447571981487954 0.00017573422091774748 0 -0.011711356665472246 0.00047735360055848632 0 -0.011921079378409758 0.00033105147174910361 0 -0.011447571981487954 0.00017573422091774748 0 -0.010991698475436277 -0.00032981157517736093 0 -0.011458760518721849 -0.00083493642754178658 0 -0.010633056396894684 -0.00095590280528770112 0 -0.011692266610030465 -0.00016508238562936009 0 -0.011458760518721849 -0.00083493642754178658 0 -0.012185344727291455 -0.00052033603913421381 0 -0.010991698475436277 -0.00032981157517736093 0 -0.011692266610030465 -0.00016508238562936009 0 -0.011458760518721849 -0.00083493642754178658 0 -0.010991698475436277 -0.00032981157517736093 0 -0.010383725925445694 -0.00062200875596202579 0 -0.010633056396894684 -0.00095590280528770112 0 -0.01047554859224022 -0.00017085052784166676 0 -0.010991698475436277 -0.00032981157517736093 0 -0.010383725925445694 -0.00062200875596202579 0 -0.01047554859224022 -0.00017085052784166676 0 -0.010383725925445694 -0.00062200875596202579 0 -0.0098692213657662706 -0.00061489745581636522 0 -0.010383725925445694 -0.00062200875596202579 0 -0.0099842082558032931 -0.0010505441504334962 0 -0.010633056396894684 -0.00095590280528770112 0 -0.010383725925445694 -0.00062200875596202579 0 -0.0099842082558032931 -0.0010505441504334962 0 -0.0098692213657662706 -0.00061489745581636522 0 -0.0099842082558032931 -0.0010505441504334962 0 -0.010633056396894684 -0.00095590280528770112 0 -0.0099943744507327154 -0.0016006455642957819 0 -0.010633056396894684 -0.00095590280528770112 0 -0.0099943744507327154 -0.0016006455642957819 0 -0.011106208504947411 -0.0015133466086994236 0 -0.0099842082558032931 -0.0010505441504334962 0 -0.0099943744507327154 -0.0016006455642957819 0 -0.0095584656466402174 -0.0014668309575393633 0 -0.0099943744507327154 -0.0016006455642957819 0 -0.0096428870878807922 -0.0016657194935261231 0 -0.0095584656466402174 -0.0014668309575393633 0 -0.0099943744507327154 -0.0016006455642957819 0 -0.011106208504947411 -0.0015133466086994236 0 -0.010957292116328595 -0.002359944285728451 0 -0.011458760518721849 -0.00083493642754178658 0 -0.010633056396894684 -0.00095590280528770112 0 -0.011106208504947411 -0.0015133466086994236 0 -0.011458760518721849 -0.00083493642754178658 0 -0.011106208504947411 -0.0015133466086994236 0 -0.011848255505189743 -0.0014657402332116259 0 -0.011106208504947411 -0.0015133466086994236 0 -0.011692152783466305 -0.0020947379813675143 0 -0.010957292116328595 -0.002359944285728451 0 -0.011106208504947411 -0.0015133466086994236 0 -0.011692152783466305 -0.0020947379813675143 0 -0.011848255505189743 -0.0014657402332116259 0 -0.011692152783466305 -0.0020947379813675143 0 -0.010957292116328595 -0.002359944285728451 0 -0.011706453271153161 -0.00290855625226747 0 -0.0096296508952058175 -0.0016728282873823743 0 -0.0095840187825949746 -0.0017233940442934984 0 -0.0096428870878807922 -0.0016657194935261231 0 -0.0096296508952058175 -0.0016728282873823743 0 -0.0095840187825949746 -0.0017233940442934984 0 -0.0096881815662782679 -0.0017257200053292265 0 -0.010431109089634844 -0.0019770512852996741 0 -0.0099396121372992297 -0.0026359834493041847 0 -0.0085982299554858508 -0.0023169094422713795 0 -0.0099396121372992297 -0.0026359834493041847 0 -0.0095840187825949746 -0.0017233940442934984 0 -0.0095296680127878522 -0.0018551941102123853 0 -0.0096881815662782679 -0.0017257200053292265 0 -0.0082276857841190824 -0.0027068169093698497 0 -0.0073907127582470882 -0.00338394654722558 0 -0.0070764959304499596 -0.0023944850703263437 0 -0.0082276857841190824 -0.0027068169093698497 0 -0.0070764959304499596 -0.0023944850703263437 0 -0.0078248111636378681 -0.0017220004519730909 0 -0.0095840187825949746 -0.0017233940442934984 0 -0.0095296680127878522 -0.0018551941102123853 0 -0.0093434840616146361 -0.0017920852991547781 0 -0.0093434840616146361 -0.0017920852991547781 0 -0.0093194880994403734 -0.0016818804233522924 0 -0.0090601538342637098 -0.0018685535514430473 0 -0.0093434840616146361 -0.0017920852991547781 0 -0.0090601538342637098 -0.0018685535514430473 0 -0.0089832208608231212 -0.0019978552214951163 0 -0.0095296680127878522 -0.0018551941102123853 0 -0.0093434840616146361 -0.0017920852991547781 0 -0.0089832208608231212 -0.0019978552214951163 0 -0.0085982299554858508 -0.0023169094422713795 0 -0.0091057176877912867 -0.0019751500718593251 0 -0.0093434840616146361 -0.0017920852991547781 0 -0.0096428870878807922 -0.0016657194935261231 0 -0.0093194880994403734 -0.0016818804233522924 0 -0.0095840187825949746 -0.0017233940442934984 0 -0.0093434840616146361 -0.0017920852991547781 0 -0.0096428870878807922 -0.0016657194935261231 0 -0.0099943744507327154 -0.0016006455642957819 0 -0.0096296508952058175 -0.0016728282873823743 0 -0.0096428870878807922 -0.0016657194935261231 0 -0.0099358670903800881 -0.0016219243273310623 0 -0.010431109089634844 -0.0019770512852996741 0 -0.0096428870878807922 -0.0016657194935261231 0 -0.0093194880994403734 -0.0016818804233522924 0 -0.0095584656466402174 -0.0014668309575393633 0 -0.0092320019637643479 -0.0015672198323295541 0 -0.0093194880994403734 -0.0016818804233522924 0 -0.0095584656466402174 -0.0014668309575393633 0 -0.0092320019637643479 -0.0015672198323295541 0 -0.0093194880994403734 -0.0016818804233522924 0 -0.0090505875908703341 -0.0016909063835285269 0 -0.0092320019637643479 -0.0015672198323295541 0 -0.0090505875908703341 -0.0016909063835285269 0 -0.0089959441187031346 -0.0015777055636904387 0 -0.0093194880994403734 -0.0016818804233522924 0 -0.0090505875908703341 -0.0016909063835285269 0 -0.0090601538342637098 -0.0018685535514430473 0 -0.0090505875908703341 -0.0016909063835285269 0 -0.0088844318029999061 -0.0017585987049452963 0 -0.0090601538342637098 -0.0018685535514430473 0 -0.0088844318029999061 -0.0017585987049452963 0 -0.0090601538342637098 -0.0018685535514430473 0 -0.0089503601369230485 -0.001886541994765839 0 -0.0086477493289897223 -0.0002909876523805834 0 -0.0078831684007693737 -0.00096633025631715885 0 -0.0084250746634535172 -0.0016918118800505252 0 -0.0087054846466310138 -0.0010035153454410475 0 -0.0084630171088157305 -0.0016747031816679793 0 -0.0078831684007693737 -0.00096633025631715885 0 -0.0075374448011369223 -0.0016517009130370861 0 -0.0084250746634535172 -0.0016918118800505252 0 -0.0088844318029999061 -0.0017585987049452963 0 -0.0088033883601664736 -0.0016694617446143547 0 -0.0084250746634535172 -0.0016918118800505252 0 -0.0090505875908703341 -0.0016909063835285269 0 -0.0088844318029999061 -0.0017585987049452963 0 -0.0088033883601664736 -0.0016694617446143547 0 -0.0086477493289897223 -0.0002909876523805834 0 -0.0077685162966353739 -0.00032024120048586464 0 -0.0078831684007693737 -0.00096633025631715885 0 -0.0086477493289897223 -0.0002909876523805834 0 -0.008058837331544463 0.00052848764599314451 0 -0.0077685162966353739 -0.00032024120048586464 0 -0.0086477493289897223 -0.0002909876523805834 0 -0.008058837331544463 0.00052848764599314451 0 -0.0087632030014913945 0.00101712183636225 0 -0.0090505875908703341 -0.0016909063835285269 0 -0.0088033883601664736 -0.0016694617446143547 0 -0.0089959441187031346 -0.0015777055636904387 0 -0.0087054846466310138 -0.0010035153454410475 0 -0.0088664875514864166 -0.00029291192240776592 0 -0.0092320019637643479 -0.0015672198323295541 0 -0.0089959441187031346 -0.0015777055636904387 0 -0.009115641580799104 -0.001342728192332484 0 -0.008058837331544463 0.00052848764599314451 0 -0.0082454756947958011 0.0015560527629474748 0 -0.0074947364531888485 0.0010931714816597943 0 -0.008058837331544463 0.00052848764599314451 0 -0.0087632030014913945 0.00101712183636225 0 -0.0082454756947958011 0.0015560527629474748 0 -0.0082454756947958011 0.0015560527629474748 0 -0.0082638975261374609 0.0020737451764727688 0 -0.0086436327324504562 0.0020042553746999646 0 -0.0082454756947958011 0.0015560527629474748 0 -0.0082638975261374609 0.0020737451764727688 0 -0.007800764792981368 0.0020233758540228915 0 -0.0082638975261374609 0.0020737451764727688 0 -0.0083580578440549287 0.0022332428231209324 0 -0.0086436327324504562 0.0020042553746999646 0 -0.0082638975261374609 0.0020737451764727688 0 -0.0083580578440549287 0.0022332428231209324 0 -0.0081744974386320033 0.0023031673346457044 0 -0.0083580578440549287 0.0022332428231209324 0 -0.0086436327324504562 0.0020042553746999646 0 -0.0084074973405282808 0.0022245321721983042 0 -0.008875607303585482 0.00030569447750409168 0 -0.0088410082117604972 0.00064469475759122003 0 -0.0087632030014913945 0.00101712183636225 0 -0.0082454756947958011 0.0015560527629474748 0 -0.0086436327324504562 0.0020042553746999646 0 -0.0088664875514864166 -0.00029291192240776592 0 -0.008875607303585482 0.00030569447750409168 0 -0.0092320019637643479 -0.0015672198323295541 0 -0.009115641580799104 -0.001342728192332484 0 -0.0095584656466402174 -0.0014668309575393633 0 -0.0099842082558032931 -0.0010505441504334962 0 -0.0095584656466402174 -0.0014668309575393633 0 -0.0095451244199004463 -0.001098289869315681 0 -0.009115641580799104 -0.001342728192332484 0 -0.0095451244199004463 -0.001098289869315681 0 -0.0092599742430734405 -0.00090251096838354016 0 -0.009115641580799104 -0.001342728192332484 0 -0.0095584656466402174 -0.0014668309575393633 0 -0.0095451244199004463 -0.001098289869315681 0 -0.0095451244199004463 -0.001098289869315681 0 -0.0098692213657662706 -0.00061489745581636522 0 -0.0092599742430734405 -0.00090251096838354016 0 -0.0099842082558032931 -0.0010505441504334962 0 -0.0095451244199004463 -0.001098289869315681 0 -0.0098692213657662706 -0.00061489745581636522 0 -0.0094756005438904178 -0.00035903811068226262 0 -0.0098692213657662706 -0.00061489745581636522 0 -0.0092599742430734405 -0.00090251096838354016 0 -0.0083490163862887084 0.0021280134831615136 0 -0.0083723223742513606 0.0021766390837283634 0 -0.0084074973405282808 0.0022245321721983042 0 -0.0089371681190620056 0.00088543205364481365 0 -0.0088410082117604972 0.00064469475759122003 0 -0.0084010253797289595 0.002103123469464866 0 -0.0083723223742513606 0.0021766390837283634 0 -0.0084390770029867546 0.0021107530032418451 0 -0.0083723223742513606 0.0021766390837283634 0 -0.0083253848412210528 0.0022215126475676121 0 -0.0084390770029867546 0.0021107530032418451 0 -0.0084861280205372324 0.0020321876647942908 0 -0.0084348957075962103 0.0020985881209802386 0 -0.0083580578440549287 0.0022332428231209324 0 -0.0083723223742513606 0.0021766390837283634 0 -0.0083253848412210528 0.0022215126475676121 0 -0.0083580578440549287 0.0022332428231209324 0 -0.0083253848412210528 0.0022215126475676121 0 -0.0081744974386320033 0.0023031673346457044 0 -0.0083580578440549287 0.0022332428231209324 0 -0.0083723223742513606 0.0021766390837283634 0 -0.0084074973405282808 0.0022245321721983042 0 -0.0086697376013015054 0.002170383477404926 0 -0.0086688340275953256 0.0023219019151329871 0 -0.0088054298505593539 0.0021769021329017218 0 -0.0086697376013015054 0.002170383477404926 0 -0.0086688340275953256 0.0023219019151329871 0 -0.008435419464315478 0.0022124158300085594 0 -0.0086697376013015054 0.002170383477404926 0 -0.008435419464315478 0.0022124158300085594 0 -0.0084390770029867546 0.0021107530032418451 0 -0.0086688340275953256 0.0023219019151329871 0 -0.008435419464315478 0.0022124158300085594 0 -0.0081744974386320033 0.0023031673346457044 0 -0.0083253848412210528 0.0022215126475676121 0 -0.008435419464315478 0.0022124158300085594 0 -0.0081744974386320033 0.0023031673346457044 0 -0.0083253848412210528 0.0022215126475676121 0 -0.008435419464315478 0.0022124158300085594 0 -0.0084390770029867546 0.0021107530032418451 0 -0.0084820189889123297 0.0019110434649966602 0 -0.0084390770029867546 0.0021107530032418451 0 -0.0086843863173975376 0.0020536793311060962 0 -0.0086697376013015054 0.002170383477404926 0 -0.0084390770029867546 0.0021107530032418451 0 -0.0086843863173975376 0.0020536793311060962 0 -0.0086697376013015054 0.002170383477404926 0 -0.0086843863173975376 0.0020536793311060962 0 -0.0088285134532097437 0.0020763293472117672 0 -0.0088109971505983438 0.0019940707111562499 0 -0.0086843863173975376 0.0020536793311060962 0 -0.0088285134532097437 0.0020763293472117672 0 -0.0088848677055138707 0.0019901636534268379 0 -0.0088285134532097437 0.0020763293472117672 0 -0.0089500138648158731 0.002042478578851154 0 -0.0088848677055138707 0.0019901636534268379 0 -0.0088109971505983438 0.0019940707111562499 0 -0.0088285134532097437 0.0020763293472117672 0 -0.0088285134532097437 0.0020763293472117672 0 -0.008906872912438156 0.002125250811693066 0 -0.0088054298505593539 0.0021769021329017218 0 -0.0088285134532097437 0.0020763293472117672 0 -0.0089500138648158731 0.002042478578851154 0 -0.008906872912438156 0.002125250811693066 0 -0.0089500138648158731 0.002042478578851154 0 -0.008906872912438156 0.002125250811693066 0 -0.0089726991144707269 0.0021179265650434491 0 -0.0089500138648158731 0.002042478578851154 0 -0.0089726991144707269 0.0021179265650434491 0 -0.0090184258508877839 0.0020633779118676265 0 -0.0089726991144707269 0.0021179265650434491 0 -0.0089112214042396769 0.002211225619368483 0 -0.0090476002126621165 0.0021462029927883756 0 -0.0060341617200100747 0.002819902015999287 0 -0.0049079564263740166 0.0027619224293547171 0 -0.0068718279188966164 0.0026176010401992131 0 -0.0068588766078292503 0.0023688875558821347 0 -0.0062824411073958662 0.0025797052400947781 0 -0.008097540866758424 0.0024970652751298283 0 -0.0065251686836113173 0.0014500925356509629 0 -0.008906872912438156 0.002125250811693066 0 -0.0089726991144707269 0.0021179265650434491 0 -0.0089112214042396769 0.002211225619368483 0 -0.0086688340275953256 0.0023219019151329871 0 -0.0089112214042396769 0.002211225619368483 0 -0.0088054298505593539 0.0021769021329017218 0 -0.0074735506426463197 0.0024868195080327274 0 -0.0068718279188966164 0.0026176010401992131 0 -0.007160863498859903 0.0024101210022829766 0 -0.0080249565506163995 0.0023887018311409053 0 -0.008097540866758424 0.0024970652751298283 0 -0.0086697376013015054 0.002170383477404926 0 -0.0088285134532097437 0.0020763293472117672 0 -0.0088054298505593539 0.0021769021329017218 0 -0.008906872912438156 0.002125250811693066 0 -0.0089112214042396769 0.002211225619368483 0 -0.0088054298505593539 0.0021769021329017218 0 -0.0060341617200100747 0.002819902015999287 0 -0.0069301689800805649 0.0024345525041594694 0 -0.007160863498859903 0.0024101210022829766 0 -0.0068588766078292503 0.0023688875558821347 0 -0.0074378104778310755 0.0021583198489135442 0 -0.0051497579926124484 0.0032141846275709498 0 -0.0056085561699269655 0.0025181890653211791 0 -0.0064239901998911645 0.0027450944049736835 0 -0.0068718279188966164 0.0026176010401992131 0 -0.007160863498859903 0.0024101210022829766 0 -0.0068588766078292503 0.0023688875558821347 0 -0.0046192911344925727 0.0029957826597883565 0 -0.0051497579926124484 0.0032141846275709498 0 -0.0039826705476917754 0.0036522605311569488 0 -0.0046192911344925727 0.0029957826597883565 0 -0.0051497579926124484 0.0032141846275709498 0 -0.0049724701265093209 0.0025050149960875612 0 -0.0051497579926124484 0.0032141846275709498 0 -0.0049724701265093209 0.0025050149960875612 0 -0.0056085561699269655 0.0025181890653211791 0 -0.0046192911344925727 0.0029957826597883565 0 -0.0049724701265093209 0.0025050149960875612 0 -0.0043734484065429229 0.002540125347310007 0 -0.0047138944806306383 0.0014019240674477721 0 -0.0042480670915343239 0.0024663056650844582 0 -0.0049724701265093209 0.0025050149960875612 0 -0.0054044653837756317 0.002059170271733953 0 -0.0047164515847145051 0.0013949704148997703 0 -0.0049724701265093209 0.0025050149960875612 0 -0.0047164515847145051 0.0013949704148997703 0 -0.0043734484065429229 0.002540125347310007 0 -0.0049724701265093209 0.0025050149960875612 0 -0.0056085561699269655 0.0025181890653211791 0 -0.0054044653837756317 0.002059170271733953 0 -0.0056085561699269655 0.0025181890653211791 0 -0.0061213218372447621 0.0020579710852020451 0 -0.0064239901998911645 0.0027450944049736835 0 -0.0056085561699269655 0.0025181890653211791 0 -0.0054044653837756317 0.002059170271733953 0 -0.0061213218372447621 0.0020579710852020451 0 -0.0054044653837756317 0.002059170271733953 0 -0.0061213218372447621 0.0020579710852020451 0 -0.0055924204172466113 0.0014183492513464182 0 -0.0061213218372447621 0.0020579710852020451 0 -0.0068977894388658374 0.0018655393292823647 0 -0.0064700922465745639 0.0013113204661783764 0 -0.0069301689800805649 0.0024345525041594694 0 -0.0077349002853703839 0.0020710645608305665 0 -0.0068977894388658374 0.0018655393292823647 0 -0.0064239901998911645 0.0027450944049736835 0 -0.007800764792981368 0.0020233758540228915 0 -0.0061213218372447621 0.0020579710852020451 0 -0.0068977894388658374 0.0018655393292823647 0 -0.0064239901998911645 0.0027450944049736835 0 -0.0074378104778310755 0.0021583198489135442 0 -0.007719357228199982 0.0022184729340157128 0 -0.007800764792981368 0.0020233758540228915 0 -0.0074735506426463197 0.0024868195080327274 0 -0.0074378104778310755 0.0021583198489135442 0 -0.007719357228199982 0.0022184729340157128 0 -0.0074735506426463197 0.0024868195080327274 0 -0.007160863498859903 0.0024101210022829766 0 -0.0074378104778310755 0.0021583198489135442 0 -0.0080249565506163995 0.0023887018311409053 0 -0.0081948994590321303 0.0023197115192583719 0 -0.0074735506426463197 0.0024868195080327274 0 -0.007719357228199982 0.0022184729340157128 0 -0.0081744974386320033 0.0023031673346457044 0 -0.0082638975261374609 0.0020737451764727688 0 -0.0081744974386320033 0.0023031673346457044 0 -0.007800764792981368 0.0020233758540228915 0 -0.007719357228199982 0.0022184729340157128 0 -0.0081744974386320033 0.0023031673346457044 0 -0.007800764792981368 0.0020233758540228915 0 -0.0068977894388658374 0.0018655393292823647 0 -0.007800764792981368 0.0020233758540228915 0 -0.0074947364531888485 0.0010931714816597943 0 -0.0082454756947958011 0.0015560527629474748 0 -0.007800764792981368 0.0020233758540228915 0 -0.0074947364531888485 0.0010931714816597943 0 -0.0074947364531888485 0.0010931714816597943 0 -0.0064700922465745639 0.0013113204661783764 0 -0.0066140874946861907 0.00065690402436764965 0 -0.0068977894388658374 0.0018655393292823647 0 -0.0074947364531888485 0.0010931714816597943 0 -0.0064700922465745639 0.0013113204661783764 0 -0.0064700922465745639 0.0013113204661783764 0 -0.0066140874946861907 0.00065690402436764965 0 -0.0059678633567640952 0.00087590966971432471 0 -0.0074947364531888485 0.0010931714816597943 0 -0.0070694978422582164 8.5795012335121275e-05 0 -0.0066140874946861907 0.00065690402436764965 0 -0.0070694978422582164 8.5795012335121275e-05 0 -0.0066140874946861907 0.00065690402436764965 0 -0.0060474099438881839 0.00026202000291650229 0 -0.008058837331544463 0.00052848764599314451 0 -0.0070694978422582164 8.5795012335121275e-05 0 -0.0077685162966353739 -0.00032024120048586464 0 -0.008058837331544463 0.00052848764599314451 0 -0.0074947364531888485 0.0010931714816597943 0 -0.0070694978422582164 8.5795012335121275e-05 0 -0.0070694978422582164 8.5795012335121275e-05 0 -0.0077685162966353739 -0.00032024120048586464 0 -0.0070989884178407747 -0.00083712375555335995 0 -0.0077685162966353739 -0.00032024120048586464 0 -0.0070989884178407747 -0.00083712375555335995 0 -0.0078831684007693737 -0.00096633025631715885 0 -0.0070694978422582164 8.5795012335121275e-05 0 -0.0062731110813491527 -0.00049392507016498611 0 -0.0060474099438881839 0.00026202000291650229 0 -0.0070694978422582164 8.5795012335121275e-05 0 -0.0070989884178407747 -0.00083712375555335995 0 -0.0062731110813491527 -0.00049392507016498611 0 -0.0070989884178407747 -0.00083712375555335995 0 -0.0063765682817061896 -0.0010321607586152443 0 -0.0067268548973220812 -0.0013547257185598722 0 -0.0070989884178407747 -0.00083712375555335995 0 -0.0063765682817061896 -0.0010321607586152443 0 -0.0062731110813491527 -0.00049392507016498611 0 -0.0067268548973220812 -0.0013547257185598722 0 -0.0061818794029694429 -0.0014331084002052233 0 -0.006417326750825075 -0.0016800617318005566 0 -0.0063765682817061896 -0.0010321607586152443 0 -0.0067268548973220812 -0.0013547257185598722 0 -0.0061818794029694429 -0.0014331084002052233 0 -0.0070989884178407747 -0.00083712375555335995 0 -0.0078831684007693737 -0.00096633025631715885 0 -0.0075374448011369223 -0.0016517009130370861 0 -0.0070989884178407747 -0.00083712375555335995 0 -0.0067268548973220812 -0.0013547257185598722 0 -0.0075374448011369223 -0.0016517009130370861 0 -0.0056490415018389997 -0.0010679661326649936 0 -0.0059359257800465394 -0.0017235511669090864 0 -0.0047584011797149779 -0.0018156052037292436 0 -0.0044878059615040614 -0.00017039016627753593 0 -0.0038984511121679072 -0.00073831040323448828 0 -0.0042226694975488364 -0.0010878968267777028 0 -0.0049782596436314412 -0.00045912744310591956 0 -0.0023397089765625884 -0.00067343549226852684 0 -0.0056490415018389997 -0.0010679661326649936 0 -0.0050012647373003562 -0.00055266320620910578 0 -0.0047584011797149779 -0.0018156052037292436 0 -0.0063765682817061896 -0.0010321607586152443 0 -0.0061818794029694429 -0.0014331084002052233 0 -0.0056490415018389997 -0.0010679661326649936 0 -0.0061818794029694429 -0.0014331084002052233 0 -0.0056490415018389997 -0.0010679661326649936 0 -0.0059359257800465394 -0.0017235511669090864 0 -0.0063765682817061896 -0.0010321607586152443 0 -0.0056490415018389997 -0.0010679661326649936 0 -0.0062731110813491527 -0.00049392507016498611 0 -0.0056490415018389997 -0.0010679661326649936 0 -0.0062731110813491527 -0.00049392507016498611 0 -0.0056135969686018907 -0.00023997996129247227 0 -0.0062731110813491527 -0.00049392507016498611 0 -0.0056135969686018907 -0.00023997996129247227 0 -0.0060474099438881839 0.00026202000291650229 0 -0.0056135969686018907 -0.00023997996129247227 0 -0.0050012647373003562 -0.00055266320620910578 0 -0.00505697742656506 0.00072907289320554673 0 -0.0056490415018389997 -0.0010679661326649936 0 -0.0056135969686018907 -0.00023997996129247227 0 -0.0050012647373003562 -0.00055266320620910578 0 -0.0049782596436314412 -0.00045912744310591956 0 -0.0049853084105253055 0.00074084235371474306 0 -0.0044878059615040614 -0.00017039016627753593 0 -0.00505697742656506 0.00072907289320554673 0 -0.0043313683209442941 0.00060545962613867089 0 -0.0056135969686018907 -0.00023997996129247227 0 -0.00505697742656506 0.00072907289320554673 0 -0.0060474099438881839 0.00026202000291650229 0 -0.00505697742656506 0.00072907289320554673 0 -0.0060474099438881839 0.00026202000291650229 0 -0.0059678633567640952 0.00087590966971432471 0 -0.0066140874946861907 0.00065690402436764965 0 -0.0060474099438881839 0.00026202000291650229 0 -0.0059678633567640952 0.00087590966971432471 0 -0.0064700922465745639 0.0013113204661783764 0 -0.0059678633567640952 0.00087590966971432471 0 -0.0055924204172466113 0.0014183492513464182 0 -0.00505697742656506 0.00072907289320554673 0 -0.0059678633567640952 0.00087590966971432471 0 -0.0055924204172466113 0.0014183492513464182 0 -0.0061213218372447621 0.0020579710852020451 0 -0.0064700922465745639 0.0013113204661783764 0 -0.0055924204172466113 0.0014183492513464182 0 -0.00505697742656506 0.00072907289320554673 0 -0.0047164515847145051 0.0013949704148997703 0 -0.0043313683209442941 0.00060545962613867089 0 -0.00505697742656506 0.00072907289320554673 0 -0.0055924204172466113 0.0014183492513464182 0 -0.0047164515847145051 0.0013949704148997703 0 -0.0054044653837756317 0.002059170271733953 0 -0.0055924204172466113 0.0014183492513464182 0 -0.0047164515847145051 0.0013949704148997703 0 -0.0047164515847145051 0.0013949704148997703 0 -0.0041278408946382244 0.0011036207416194304 0 -0.004185996315762032 0.0016922177522457199 0 -0.0041278408946382244 0.0011036207416194304 0 -0.0037043703792885934 0.0014189600075427504 0 -0.0037165319853885905 0.0003443458188799792 0 -0.0047164515847145051 0.0013949704148997703 0 -0.0041278408946382244 0.0011036207416194304 0 -0.0043313683209442941 0.00060545962613867089 0 -0.0041278408946382244 0.0011036207416194304 0 -0.0037043703792885934 0.0014189600075427504 0 -0.004185996315762032 0.0016922177522457199 0 -0.0034561564039382814 0.00043225116836150798 0 -0.0030536052725759874 0.00042717708048766075 0 -0.0042922615303472647 0.00061962629555132893 0 -0.0040024891706098038 0.00067185612320068725 0 -0.0034561564039382814 0.00043225116836150798 0 -0.0037165319853885905 0.0003443458188799792 0 -0.0040024891706098038 0.00067185612320068725 0 -0.0034561564039382814 0.00043225116836150798 0 -0.0042922615303472647 0.00061962629555132893 0 -0.0034561564039382814 0.00043225116836150798 0 -0.0037165319853885905 0.0003443458188799792 0 -0.0026772711897963572 0.00024626636601824417 0 -0.0044878059615040614 -0.00017039016627753593 0 -0.0037165319853885905 0.0003443458188799792 0 -0.0043313683209442941 0.00060545962613867089 0 -0.0041278408946382244 0.0011036207416194304 0 -0.0037165319853885905 0.0003443458188799792 0 -0.0043313683209442941 0.00060545962613867089 0 -0.0038797036105415097 0.001029251151616697 0 -0.0037560734486393604 0.00041361656364634044 0 -0.0044878059615040614 -0.00017039016627753593 0 -0.0037165319853885905 0.0003443458188799792 0 -0.0036054477067162974 -0.00031446017098809247 0 -0.0037165319853885905 0.0003443458188799792 0 -0.0027272591649159387 -6.0350527965756343e-05 0 -0.0036054477067162974 -0.00031446017098809247 0 -0.0037165319853885905 0.0003443458188799792 0 -0.0027272591649159387 -6.0350527965756343e-05 0 -0.0026772711897963572 0.00024626636601824417 0 -0.0027272591649159387 -6.0350527965756343e-05 0 -0.0030920548058627974 -0.00060484934711345036 0 -0.0036054477067162974 -0.00031446017098809247 0 -0.0027272591649159387 -6.0350527965756343e-05 0 -0.0030920548058627974 -0.00060484934711345036 0 -0.0019891120183846457 -0.0011059770167107556 0 -0.0030920548058627974 -0.00060484934711345036 0 -0.0034963301208987938 -0.00071909772200318004 0 -0.0036054477067162974 -0.00031446017098809247 0 -0.0030920548058627974 -0.00060484934711345036 0 -0.0034963301208987938 -0.00071909772200318004 0 -0.0033006399660518099 -0.0011910271636834688 0 -0.0044878059615040614 -0.00017039016627753593 0 -0.0038984511121679072 -0.00073831040323448828 0 -0.0036054477067162974 -0.00031446017098809247 0 -0.0034963301208987938 -0.00071909772200318004 0 -0.0038984511121679072 -0.00073831040323448828 0 -0.0033006399660518099 -0.0011910271636834688 0 -0.0034963301208987938 -0.00071909772200318004 0 -0.0038984511121679072 -0.00073831040323448828 0 -0.0036054477067162974 -0.00031446017098809247 0 -0.00034503249480704164 -7.8135522456922736e-07 0 -0.0012112142504961724 -0.00018318147909927537 0 -0.0017622575091620859 6.8145169693358166e-05 0 -0.0027272591649159387 -6.0350527965756343e-05 0 -0.0012112142504961724 -0.00018318147909927537 0 -0.0017622575091620859 6.8145169693358166e-05 0 -0.0027272591649159387 -6.0350527965756343e-05 0 -0.0012112142504961724 -0.00018318147909927537 0 -0.0019891120183846457 -0.0011059770167107556 0 -0.0027272591649159387 -6.0350527965756343e-05 0 -0.0017622575091620859 6.8145169693358166e-05 0 -0.0026772711897963572 0.00024626636601824417 0 -0.00034503249480704164 -7.8135522456922736e-07 0 -0.0021119226652709226 9.077933105068139e-07 0 -0.0017622575091620859 6.8145169693358166e-05 0 -0.0021119226652709226 9.077933105068139e-07 0 -0.0017622575091620859 6.8145169693358166e-05 0 -0.0026772711897963572 0.00024626636601824417 0 -0.0021119226652709226 9.077933105068139e-07 0 -0.0029502234786755667 0.00030781925168943359 0 -0.0038748977963887796 7.9773950051328397e-08 0 -0.0021119226652709226 9.077933105068139e-07 0 -0.0029502234786755667 0.00030781925168943359 0 -0.0026772711897963572 0.00024626636601824417 0 -0.0034561564039382814 0.00043225116836150798 0 -0.0029502234786755667 0.00030781925168943359 0 -0.0026772711897963572 0.00024626636601824417 0 -0.0041994441516002212 0.00034618484788637713 0 -0.0042430735354698455 0.00054422504858477256 0 -0.0034561564039382814 0.00043225116836150798 0 -0.0029502234786755667 0.00030781925168943359 0 -0.0030536052725759874 0.00042717708048766075 0 -0.0041994441516002212 0.00034618484788637713 0 -0.0038779139062927793 1.7635800007482668e-07 0 -0.0053403807944719835 0.00026357932741508843 0 -0.0038803800248194296 -4.6270422142062777e-07 0 -0.0053003486537994008 0.00025722097954813462 0 -0.0029502234786755667 0.00030781925168943359 0 -0.0030536052725759874 0.00042717708048766075 0 -0.0038748977963887796 7.9773950051328397e-08 0 -0.0038803800248194296 -4.6270422142062777e-07 0 -0.0053003486537994008 0.00025722097954813462 0 -0.0055639029469615386 7.1007669415167855e-07 0 -0.0053003486537994008 0.00025722097954813462 0 -0.0055639029469615386 7.1007669415167855e-07 0 -0.0058952433721414094 0.00019583825221190025 0 -0.0055639029469615386 7.1007669415167855e-07 0 -0.0058952433721414094 0.00019583825221190025 0 -0.0072511289855158156 8.6335398296298753e-07 0 -0.0058952433721414094 0.00019583825221190025 0 -0.0056447181380400837 0.00016453379432778626 0 -0.0053034876152786388 0.00026656725028175831 0 -0.0058952433721414094 0.00019583825221190025 0 -0.0056447181380400837 0.00016453379432778626 0 -0.0063681521657290539 9.6723736126097472e-05 0 -0.0053003486537994008 0.00025722097954813462 0 -0.0058952433721414094 0.00019583825221190025 0 -0.0053034876152786388 0.00026656725028175831 0 -0.0053403807944719835 0.00026357932741508843 0 -0.0053034876152786388 0.00026656725028175831 0 -0.0042922615303472647 0.00061962629555132893 0 -0.0053403807944719835 0.00026357932741508843 0 -0.0053003486537994008 0.00025722097954813462 0 -0.0053034876152786388 0.00026656725028175831 0 -0.0053034876152786388 0.00026656725028175831 0 -0.0042922615303472647 0.00061962629555132893 0 -0.0049932037339240707 0.00023729288239050268 0 -0.0038797036105415097 0.001029251151616697 0 -0.0042396064031239925 0.0013853457392450383 0 -0.0040024891706098038 0.00067185612320068725 0 -0.0042922615303472647 0.00061962629555132893 0 -0.0049932037339240707 0.00023729288239050268 0 -0.004185996315762032 0.0016922177522457199 0 -0.0043007270779793607 0.0021737951176163009 0 -0.0036297952936465974 0.0022943521598535223 0 -0.0037043703792885934 0.0014189600075427504 0 -0.004185996315762032 0.0016922177522457199 0 -0.0036297952936465974 0.0022943521598535223 0 -0.0047164515847145051 0.0013949704148997703 0 -0.004185996315762032 0.0016922177522457199 0 -0.0043007270779793607 0.0021737951176163009 0 -0.0043007270779793607 0.0021737951176163009 0 -0.0036297952936465974 0.0022943521598535223 0 -0.0040364139861043822 0.0028208839703199387 0 -0.0042480670915343239 0.0024663056650844582 0 -0.0049079564263740166 0.0027619224293547171 0 -0.0046192911344925727 0.0029957826597883565 0 -0.0043734484065429229 0.002540125347310007 0 -0.0039826705476917754 0.0036522605311569488 0 -0.0056447181380400837 0.00016453379432778626 0 -0.0049932037339240707 0.00023729288239050268 0 -0.0058221507057108794 2.5692304107466017e-05 0 -0.0056447181380400837 0.00016453379432778626 0 -0.0053034876152786388 0.00026656725028175831 0 -0.0049932037339240707 0.00023729288239050268 0 -0.0042396064031239925 0.0013853457392450383 0 -0.0051196044515967919 0.0012562347306580045 0 -0.0051196044515967919 0.0012562347306580045 0 -0.0049079564263740166 0.0027619224293547171 0 -0.0056447181380400837 0.00016453379432778626 0 -0.0058221507057108794 2.5692304107466017e-05 0 -0.0058731098770723623 8.8879288852350541e-05 0 -0.0036297952936465974 0.0022943521598535223 0 -0.0035281885458855154 0.0030048971438786315 0 -0.0040364139861043822 0.0028208839703199387 0 -0.0055832928551837876 0.0005714350013825472 0 -0.0065251686836113173 0.0014500925356509629 0 -0.0056531798374049903 0.00148735784616414 0 -0.0056449774636789596 0.0015293446684878896 0 -0.0054415235645934017 0.0015423738098037502 0 -0.0059165310898940384 5.0982779030258936e-05 0 -0.005892791948354039 3.4223932300444819e-05 0 -0.0059176716768701452 2.5684846892363339e-05 0 -0.0055832928551837876 0.0005714350013825472 0 -0.0051196044515967919 0.0012562347306580045 0 -0.0059303011346140775 5.3033078685520338e-05 0 -0.0059657083313437546 4.0155816613356069e-05 0 -0.0061025103935920619 -4.2610464899521801e-06 0 -0.0059657083313437546 4.0155816613356069e-05 0 -0.005892791948354039 3.4223932300444819e-05 0 -0.00598565054422724 5.4119262080146411e-05 0 -0.0055832928551837876 0.0005714350013825472 0 -0.0056547407255057346 0.00053333854310186129 0 -0.0059303011346140775 5.3033078685520338e-05 0 -0.0059657083313437546 4.0155816613356069e-05 0 -0.005892791948354039 3.4223932300444819e-05 0 -0.0059165310898940384 5.0982779030258936e-05 0 -0.0059303011346140775 5.3033078685520338e-05 0 -0.005892791948354039 3.4223932300444819e-05 0 -0.005892791948354039 3.4223932300444819e-05 0 -0.0058731098770723623 8.8879288852350541e-05 0 -0.00598565054422724 5.4119262080146411e-05 0 -0.005892791948354039 3.4223932300444819e-05 0 -0.0058221507057108794 2.5692304107466017e-05 0 -0.0058731098770723623 8.8879288852350541e-05 0 -0.0053272410751484421 0.0011194770809716307 0 -0.0051196044515967919 0.0012562347306580045 0 -0.0068718279188966164 0.0026176010401992131 0 -0.0062824411073958662 0.0025797052400947781 0 -0.0062224948344991636 0.0027429120388993184 0 -0.0056449774636789596 0.0015293446684878896 0 -0.00540842359718215 0.0016356243510703083 0 -0.0054415235645934017 0.0015423738098037502 0 -0.0049079564263740166 0.0027619224293547171 0 -0.0065251686836113173 0.0014500925356509629 0 -0.0071399893863440715 0.00080409680810622172 0 -0.0065251686836113173 0.0014500925356509629 0 -0.0090983805390833644 0.0020141889590753127 0 -0.0090476002126621165 0.0021462029927883756 0 -0.0090184258508877839 0.0020633779118676265 0 -0.0089726991144707269 0.0021179265650434491 0 -0.0090476002126621165 0.0021462029927883756 0 -0.0090184258508877839 0.0020633779118676265 0 -0.0090983805390833644 0.0020141889590753127 0 -0.0090180727542380854 0.0019956418199896112 0 -0.0090184258508877839 0.0020633779118676265 0 -0.0090180727542380854 0.0019956418199896112 0 -0.0089500138648158731 0.002042478578851154 0 -0.0090184258508877839 0.0020633779118676265 0 -0.0055596170797761078 -0.00057061114148611162 0 -0.0059656533696065281 0.00035665303787893969 0 -0.0051746442637296422 0.00053423788427040117 0 -0.0062854559953052979 -0.0011546325266069027 0 -0.0055832928551837876 0.0005714350013825472 0 -0.0062173682205559373 -0.0010706485039761813 0 -0.0055596170797761078 -0.00057061114148611162 0 -0.0059656533696065281 0.00035665303787893969 0 -0.0058360245425555261 9.3344276205213777e-05 0 -0.0059303011346140775 5.3033078685520338e-05 0 -0.0063158537600574924 -0.00019049496660121412 0 -0.0062173682205559373 -0.0010706485039761813 0 -0.0058360245425555261 9.3344276205213777e-05 0 -0.0063158537600574924 -0.00019049496660121412 0 -0.0063158537600574924 -0.00019049496660121412 0 -0.0066559075319142227 -3.2322501749199941e-05 0 -0.0061842643073071191 5.6179781124994452e-05 0 -0.0063158537600574924 -0.00019049496660121412 0 -0.0061025103935920619 -4.2610464899521801e-06 0 -0.0061842643073071191 5.6179781124994452e-05 0 -0.0059303011346140775 5.3033078685520338e-05 0 -0.0063158537600574924 -0.00019049496660121412 0 -0.0061025103935920619 -4.2610464899521801e-06 0 -0.0063158537600574924 -0.00019049496660121412 0 -0.0066559075319142227 -3.2322501749199941e-05 0 -0.0068942580756433383 -0.00021509822985777365 0 -0.0067228462570578691 -0.00060096935947223326 0 -0.0063158537600574924 -0.00019049496660121412 0 -0.0068942580756433383 -0.00021509822985777365 0 -0.0067228462570578691 -0.00060096935947223326 0 -0.0068942580756433383 -0.00021509822985777365 0 -0.0073685209342091744 -0.00032473696894643199 0 -0.0068942580756433383 -0.00021509822985777365 0 -0.0073685209342091744 -0.00032473696894643199 0 -0.0073740727446009319 1.6062903961702497e-06 0 -0.0089348526864153344 -2.4495953926996852e-06 0 -0.0073740727446009319 1.6062903961702497e-06 0 -0.0072511289855158156 8.6335398296298753e-07 0 -0.0089348526864153344 -2.4495953926996852e-06 0 -0.0073685209342091744 -0.00032473696894643199 0 -0.0073740727446009319 1.6062903961702497e-06 0 -0.0066559075319142227 -3.2322501749199941e-05 0 -0.0068942580756433383 -0.00021509822985777365 0 -0.0073740727446009319 1.6062903961702497e-06 0 -0.0066559075319142227 -3.2322501749199941e-05 0 -0.0073740727446009319 1.6062903961702497e-06 0 -0.0063681521657290539 9.6723736126097472e-05 0 -0.0073740727446009319 1.6062903961702497e-06 0 -0.0072511289855158156 8.6335398296298753e-07 0 -0.0063681521657290539 9.6723736126097472e-05 0 -0.0058952433721414094 0.00019583825221190025 0 -0.0072511289855158156 8.6335398296298753e-07 0 -0.0063681521657290539 9.6723736126097472e-05 0 -0.0056447181380400837 0.00016453379432778626 0 -0.0058731098770723623 8.8879288852350541e-05 0 -0.0063681521657290539 9.6723736126097472e-05 0 -0.0058731098770723623 8.8879288852350541e-05 0 -0.0061842643073071191 5.6179781124994452e-05 0 -0.0063681521657290539 9.6723736126097472e-05 0 -0.0058731098770723623 8.8879288852350541e-05 0 -0.00598565054422724 5.4119262080146411e-05 0 -0.0061842643073071191 5.6179781124994452e-05 0 -0.00598565054422724 5.4119262080146411e-05 0 -0.0061025103935920619 -4.2610464899521801e-06 0 -0.0061842643073071191 5.6179781124994452e-05 0 -0.0059657083313437546 4.0155816613356069e-05 0 -0.00598565054422724 5.4119262080146411e-05 0 -0.0061025103935920619 -4.2610464899521801e-06 0 -0.0066559075319142227 -3.2322501749199941e-05 0 -0.0061842643073071191 5.6179781124994452e-05 0 -0.0063681521657290539 9.6723736126097472e-05 0 -0.016629845779933029 -0.00059680666106465795 0 -0.016721645586138392 -0.00061937843735690207 0 -0.016445758064283392 -0.00082966495059868714 0 -0.016721645586138392 -0.00061937843735690207 0 -0.016445758064283392 -0.00082966495059868714 0 -0.016747119248235156 -0.00095529317230519026 0 -0.01694882637407584 -0.00071786921710435673 0 -0.016747119248235156 -0.00095529317230519026 0 -0.017173103704670938 -0.0008712638841140973 0 -0.01694882637407584 -0.00071786921710435673 0 -0.016721645586138392 -0.00061937843735690207 0 -0.016747119248235156 -0.00095529317230519026 0 -0.01694882637407584 -0.00071786921710435673 0 -0.016721645586138392 -0.00061937843735690207 0 -0.016931686710406828 -0.00056894517526166722 0 -0.01694882637407584 -0.00071786921710435673 0 -0.017209814567991463 -0.00064120215969241424 0 -0.016931686710406828 -0.00056894517526166722 0 -0.016721645586138392 -0.00061937843735690207 0 -0.016762107510497205 -0.00051504311957285755 0 -0.016786213342249643 -0.00057066981467745754 0 -0.016629845779933029 -0.00059680666106465795 0 -0.016721645586138392 -0.00061937843735690207 0 -0.016762107510497205 -0.00051504311957285755 0 -0.016721645586138392 -0.00061937843735690207 0 -0.016786213342249643 -0.00057066981467745754 0 -0.016931686710406828 -0.00056894517526166722 0 -0.016762107510497205 -0.00051504311957285755 0 -0.017009528016327297 -0.00050359499652026778 0 -0.016813604207797483 -0.00049798061722163695 0 -0.016762107510497205 -0.00051504311957285755 0 -0.017009528016327297 -0.00050359499652026778 0 -0.01706681875722767 -0.00056990795222269309 0 -0.016762107510497205 -0.00051504311957285755 0 -0.016813604207797483 -0.00049798061722163695 0 -0.016529519833349583 -0.00053053786391687172 0 -0.016813604207797483 -0.00049798061722163695 0 -0.016758759627738106 -0.00048317433407449003 0 -0.016529519833349583 -0.00053053786391687172 0 -0.016629845779933029 -0.00059680666106465795 0 -0.016762107510497205 -0.00051504311957285755 0 -0.016529519833349583 -0.00053053786391687172 0 -0.016974667568291971 -0.00013213016442106761 0 -0.017133385066379129 -0.00020039406588575552 0 -0.017245464928128142 -0.0004833661171484364 0 -0.017015741982017291 -0.00048748717295215964 0 -0.016758759627738106 -0.00048317433407449003 0 -0.017245464928128142 -0.0004833661171484364 0 -0.017015741982017291 -0.00048748717295215964 0 -0.01721905983215723 -0.00047904275567074034 0 -0.017009528016327297 -0.00050359499652026778 0 -0.017015741982017291 -0.00048748717295215964 0 -0.01721905983215723 -0.00047904275567074034 0 -0.017009528016327297 -0.00050359499652026778 0 -0.016813604207797483 -0.00049798061722163695 0 -0.017015741982017291 -0.00048748717295215964 0 -0.016813604207797483 -0.00049798061722163695 0 -0.017015741982017291 -0.00048748717295215964 0 -0.016758759627738106 -0.00048317433407449003 0 -0.016974667568291971 -0.00013213016442106761 0 -0.016254403518816081 -0.00019054006212836658 0 -0.015506593380986042 0.00048049469322282158 0 -0.015734200872882038 0.00015191940216598338 0 -0.015273568202891483 0.00021329576343178419 0 -0.015734200872882038 0.00015191940216598338 0 -0.015383808178314232 -0.00012054733383265771 0 -0.015273568202891483 0.00021329576343178419 0 -0.016254403518816081 -0.00019054006212836658 0 -0.016223592592396342 -0.00058239733067849925 0 -0.015734200872882038 0.00015191940216598338 0 -0.015383808178314232 -0.00012054733383265771 0 -0.016126699890592368 -0.00059562324504632989 0 -0.016529519833349583 -0.00053053786391687172 0 -0.016126699890592368 -0.00059562324504632989 0 -0.016445758064283392 -0.00082966495059868714 0 -0.016629845779933029 -0.00059680666106465795 0 -0.016529519833349583 -0.00053053786391687172 0 -0.016445758064283392 -0.00082966495059868714 0 -0.016758759627738106 -0.00048317433407449003 0 -0.016529519833349583 -0.00053053786391687172 0 -0.016126699890592368 -0.00059562324504632989 0 -0.016126699890592368 -0.00059562324504632989 0 -0.015950856729852084 -0.0011495154634651899 0 -0.016445758064283392 -0.00082966495059868714 0 -0.016126699890592368 -0.00059562324504632989 0 -0.015950856729852084 -0.0011495154634651899 0 -0.01549662711978168 -0.0011975399925661981 0 -0.015386333092960062 -0.00013868690330818347 0 -0.015342568919617749 -0.00074307339381344672 0 -0.015383808178314232 -0.00012054733383265771 0 -0.016126699890592368 -0.00059562324504632989 0 -0.01549662711978168 -0.0011975399925661981 0 -0.015950856729852084 -0.0011495154634651899 0 -0.01549662711978168 -0.0011975399925661981 0 -0.015726745910149883 -0.0012929817973968891 0 -0.015950856729852084 -0.0011495154634651899 0 -0.016082424030564681 -0.00139979745866459 0 -0.015726745910149883 -0.0012929817973968891 0 -0.016082424030564681 -0.00139979745866459 0 -0.016445758064283392 -0.00082966495059868714 0 -0.016747119248235156 -0.00095529317230519026 0 -0.015950856729852084 -0.0011495154634651899 0 -0.016082424030564681 -0.00139979745866459 0 -0.016445758064283392 -0.00082966495059868714 0 -0.016082424030564681 -0.00139979745866459 0 -0.016747119248235156 -0.00095529317230519026 0 -0.016739648065630108 -0.0014595580705495739 0 -0.016026704357060374 -0.0014424136653061837 0 -0.016027747848811096 -0.0017499268089381421 0 -0.016082424030564681 -0.00139979745866459 0 -0.016739648065630108 -0.0014595580705495739 0 -0.016811940470237662 -0.001995489892976406 0 -0.016739648065630108 -0.0014595580705495739 0 -0.017190518583414742 -0.0018619502849829817 0 -0.016811940470237662 -0.001995489892976406 0 -0.016739648065630108 -0.0014595580705495739 0 -0.017209354851400314 -0.0012964480426697848 0 -0.017190518583414742 -0.0018619502849829817 0 -0.017543908345235726 -0.0017157624259848117 0 -0.017209354851400314 -0.0012964480426697848 0 -0.017190518583414742 -0.0018619502849829817 0 -0.017209354851400314 -0.0012964480426697848 0 -0.01766416103920352 -0.0013418015724866092 0 -0.017453122841970901 -0.0010363650445698587 0 -0.017543908345235726 -0.0017157624259848117 0 -0.017209354851400314 -0.0012964480426697848 0 -0.01766416103920352 -0.0013418015724866092 0 -0.016747119248235156 -0.00095529317230519026 0 -0.017209354851400314 -0.0012964480426697848 0 -0.017173103704670938 -0.0008712638841140973 0 -0.016747119248235156 -0.00095529317230519026 0 -0.016739648065630108 -0.0014595580705495739 0 -0.017209354851400314 -0.0012964480426697848 0 -0.018542919590592264 -0.0019666429055907107 0 -0.018324198028734303 -0.0012446257317204391 0 -0.017979585608601596 -0.0016545213101902601 0 -0.018542919590592264 -0.0019666429055907107 0 -0.017979585608601596 -0.0016545213101902601 0 -0.018062493354570153 -0.0021471265147095992 0 -0.017979585608601596 -0.0016545213101902601 0 -0.018062493354570153 -0.0021471265147095992 0 -0.017774956280146435 -0.0020215885929017307 0 -0.017543908345235726 -0.0017157624259848117 0 -0.017979585608601596 -0.0016545213101902601 0 -0.017774956280146435 -0.0020215885929017307 0 -0.017543908345235726 -0.0017157624259848117 0 -0.017979585608601596 -0.0016545213101902601 0 -0.01766416103920352 -0.0013418015724866092 0 -0.01766416103920352 -0.0013418015724866092 0 -0.01781903302015472 -0.00096685501242002028 0 -0.017453122841970901 -0.0010363650445698587 0 -0.01766416103920352 -0.0013418015724866092 0 -0.017943429226308327 -0.0012963276464986299 0 -0.01781903302015472 -0.00096685501242002028 0 -0.017979585608601596 -0.0016545213101902601 0 -0.01766416103920352 -0.0013418015724866092 0 -0.017943429226308327 -0.0012963276464986299 0 -0.018324198028734303 -0.0012446257317204391 0 -0.017979585608601596 -0.0016545213101902601 0 -0.017943429226308327 -0.0012963276464986299 0 -0.018324198028734303 -0.0012446257317204391 0 -0.017943429226308327 -0.0012963276464986299 0 -0.01781903302015472 -0.00096685501242002028 0 -0.01876001911918173 -0.0019434062117207819 0 -0.018578136226742547 -0.0014065953533727452 0 -0.018324198028734303 -0.0012446257317204391 0 -0.01781903302015472 -0.00096685501242002028 0 -0.018095683214195739 -0.00072752805837669071 0 -0.017824559483066233 -0.00071202168324952387 0 -0.017536596792124968 -0.00073328823424241183 0 -0.017707036455317546 -0.00053901535756999282 0 -0.01781903302015472 -0.00096685501242002028 0 -0.017824559483066233 -0.00071202168324952387 0 -0.017536596792124968 -0.00073328823424241183 0 -0.017824559483066233 -0.00071202168324952387 0 -0.017838216292626347 -0.00056816162437498365 0 -0.017707036455317546 -0.00053901535756999282 0 -0.017824559483066233 -0.00071202168324952387 0 -0.018095683214195739 -0.00072752805837669071 0 -0.017838216292626347 -0.00056816162437498365 0 -0.01781903302015472 -0.00096685501242002028 0 -0.017824559483066233 -0.00071202168324952387 0 -0.018095683214195739 -0.00072752805837669071 0 -0.017173103704670938 -0.0008712638841140973 0 -0.017453122841970901 -0.0010363650445698587 0 -0.017536596792124968 -0.00073328823424241183 0 -0.017209354851400314 -0.0012964480426697848 0 -0.017173103704670938 -0.0008712638841140973 0 -0.017453122841970901 -0.0010363650445698587 0 -0.01781903302015472 -0.00096685501242002028 0 -0.017453122841970901 -0.0010363650445698587 0 -0.017536596792124968 -0.00073328823424241183 0 -0.017536596792124968 -0.00073328823424241183 0 -0.017578821559241984 -0.00052101489037935389 0 -0.017707036455317546 -0.00053901535756999282 0 -0.017536596792124968 -0.00073328823424241183 0 -0.017209814567991463 -0.00064120215969241424 0 -0.017578821559241984 -0.00052101489037935389 0 -0.01694882637407584 -0.00071786921710435673 0 -0.017173103704670938 -0.0008712638841140973 0 -0.017209814567991463 -0.00064120215969241424 0 -0.017173103704670938 -0.0008712638841140973 0 -0.017536596792124968 -0.00073328823424241183 0 -0.017209814567991463 -0.00064120215969241424 0 -0.017209814567991463 -0.00064120215969241424 0 -0.017269433446333592 -0.00052312208657375977 0 -0.016931686710406828 -0.00056894517526166722 0 -0.017269433446333592 -0.00052312208657375977 0 -0.01779048340272623 -0.00036326535982796911 0 -0.016945979029445096 -0.00037273139632332475 0 -0.017209814567991463 -0.00064120215969241424 0 -0.017269433446333592 -0.00052312208657375977 0 -0.017578821559241984 -0.00052101489037935389 0 -0.017578821559241984 -0.00052101489037935389 0 -0.017707036455317546 -0.00053901535756999282 0 -0.017688885395475203 -0.00041416908000196164 0 -0.017578821559241984 -0.00052101489037935389 0 -0.01779048340272623 -0.00036326535982796911 0 -0.017688885395475203 -0.00041416908000196164 0 -0.017269433446333592 -0.00052312208657375977 0 -0.017578821559241984 -0.00052101489037935389 0 -0.01779048340272623 -0.00036326535982796911 0 -0.01779048340272623 -0.00036326535982796911 0 -0.017688885395475203 -0.00041416908000196164 0 -0.017948744626690376 -0.0011212763691509093 0 -0.017935377423257126 -0.00070590082615745557 0 -0.019963118813673776 -0.00083150401840722209 0 -0.01779048340272623 -0.00036326535982796911 0 -0.018925975490620105 -0.0011987766436948302 0 -0.017948744626690376 -0.0011212763691509093 0 -0.017837418386921385 -0.00035970107108143623 0 -0.018255696133468533 -0.00047523816272899413 0 -0.01779048340272623 -0.00036326535982796911 0 -0.018925975490620105 -0.0011987766436948302 0 -0.019617322338197438 -0.00048098996268573844 0 -0.019302487671810545 -0.0016187902468742259 0 -0.01912541341875049 -0.0021108838036321088 0 -0.018996529226944753 -0.0014385459742198821 0 -0.018578136226742547 -0.0014065953533727452 0 -0.018679254749988203 -0.0010199588777246374 0 -0.018095683214195739 -0.00072752805837669071 0 -0.017838216292626347 -0.00056816162437498365 0 -0.017862921703800241 -0.00043870484302850496 0 -0.017838216292626347 -0.00056816162437498365 0 -0.017739699616056873 -0.00047528125606188755 0 -0.017862921703800241 -0.00043870484302850496 0 -0.017838216292626347 -0.00056816162437498365 0 -0.017739699616056873 -0.00047528125606188755 0 -0.017707036455317546 -0.00053901535756999282 0 -0.017739699616056873 -0.00047528125606188755 0 -0.017707036455317546 -0.00053901535756999282 0 -0.017688885395475203 -0.00041416908000196164 0 -0.017688885395475203 -0.00041416908000196164 0 -0.017632513310705679 -0.00059255354604013043 0 -0.017948744626690376 -0.0011212763691509093 0 -0.017739699616056873 -0.00047528125606188755 0 -0.017632513310705679 -0.00059255354604013043 0 -0.017862921703800241 -0.00043870484302850496 0 -0.017739699616056873 -0.00047528125606188755 0 -0.017688885395475203 -0.00041416908000196164 0 -0.017632513310705679 -0.00059255354604013043 0 -0.01876713400141846 -0.0010089281858490285 0 -0.018808315339236593 -0.0010195376043599326 0 -0.018781325306717139 -0.00097359704290315616 0 -0.017935377423257126 -0.00070590082615745557 0 -0.018679254749988203 -0.0010199588777246374 0 -0.01876713400141846 -0.0010089281858490285 0 -0.018808315339236593 -0.0010195376043599326 0 -0.018922470813598671 -0.0011119310518133449 0 -0.018808315339236593 -0.0010195376043599326 0 -0.018865790245043174 -0.00097022969202146679 0 -0.018922470813598671 -0.0011119310518133449 0 -0.018865790245043174 -0.00097022969202146679 0 -0.018922725633592295 -0.0009889103643104611 0 -0.018922470813598671 -0.0011119310518133449 0 -0.018865790245043174 -0.00097022969202146679 0 -0.018922725633592295 -0.0009889103643104611 0 -0.018911423219315129 -0.0008673670320462429 0 -0.019174033492579005 -0.00094587930907197499 0 -0.019233171021027586 -0.0012292712354590497 0 -0.018922725633592295 -0.0009889103643104611 0 -0.019174033492579005 -0.00094587930907197499 0 -0.018922725633592295 -0.0009889103643104611 0 -0.019020746402592017 -0.00085955210465574585 0 -0.018873472871149748 -0.0011030575939872387 0 -0.018679254749988203 -0.0010199588777246374 0 -0.019233171021027586 -0.0012292712354590497 0 -0.018922725633592295 -0.0009889103643104611 0 -0.01894239703935496 -0.0013824827373978396 0 -0.021487296389143651 0.00013006004827798137 0 -0.020675481755144935 1.7747001603246871e-06 0 -0.020704787502541896 9.2032970254355431e-05 0 -0.02034156197983341 -0.00020570199623390161 0 -0.020357190724630658 -0.00047149623180981983 0 -0.019135672730787326 -0.0007206788832686997 0 -0.018970381741370539 -0.00079851598891365221 0 -0.018817047598108719 -0.00074220090756419832 0 -0.019174033492579005 -0.00094587930907197499 0 -0.019135672730787326 -0.0007206788832686997 0 -0.019020746402592017 -0.00085955210465574585 0 -0.019135672730787326 -0.0007206788832686997 0 -0.019020746402592017 -0.00085955210465574585 0 -0.018970381741370539 -0.00079851598891365221 0 -0.018922725633592295 -0.0009889103643104611 0 -0.019020746402592017 -0.00085955210465574585 0 -0.018911423219315129 -0.0008673670320462429 0 -0.019020746402592017 -0.00085955210465574585 0 -0.018970381741370539 -0.00079851598891365221 0 -0.018911423219315129 -0.0008673670320462429 0 -0.018808139528442361 -0.0012479476928336879 0 -0.020357190724630658 -0.00047149623180981983 0 -0.018808315339236593 -0.0010195376043599326 0 -0.018865790245043174 -0.00097022969202146679 0 -0.018817047598108719 -0.00074220090756419832 0 -0.018970381741370539 -0.00079851598891365221 0 -0.018911423219315129 -0.0008673670320462429 0 -0.018817047598108719 -0.00074220090756419832 0 -0.018865790245043174 -0.00097022969202146679 0 -0.018911423219315129 -0.0008673670320462429 0 -0.018817047598108719 -0.00074220090756419832 0 -0.022510125952163229 -0.00035949900718137696 0 -0.022381233257766434 -0.00025822367728633425 0 -0.022389064151166951 -8.1280209345340875e-05 0 -0.021377583465799724 2.7791460594702707e-05 0 -0.021761588662471239 3.2271228338493665e-05 0 -0.022472097005782093 -0.0004573997606880406 0 -0.022498815769853079 -0.00036423713783079837 0 -0.022381762002742923 -0.00039189203249637849 0 -0.020357190724630658 -0.00047149623180981983 0 -0.021377583465799724 2.7791460594702707e-05 0 -0.022510125952163229 -0.00035949900718137696 0 -0.022381233257766434 -0.00025822367728633425 0 -0.022381762002742923 -0.00039189203249637849 0 -0.022381762002742923 -0.00039189203249637849 0 -0.021861237719925288 -0.00030743102879218033 0 -0.021523485920722927 -0.0006590826487016181 0 -0.01876713400141846 -0.0010089281858490285 0 -0.018781325306717139 -0.00097359704290315616 0 -0.018702724571424537 -0.00095777857611258543 0 -0.020357190724630658 -0.00047149623180981983 0 -0.019963118813673776 -0.00083150401840722209 0 -0.018833396017091691 -0.00093085015079879662 0 -0.018781325306717139 -0.00097359704290315616 0 -0.018702724571424537 -0.00095777857611258543 0 -0.022472097005782093 -0.0004573997606880406 0 -0.022381762002742923 -0.00039189203249637849 0 -0.021523485920722927 -0.0006590826487016181 0 -0.022381762002742923 -0.00039189203249637849 0 -0.021861237719925288 -0.00030743102879218033 0 -0.022190406847438924 -0.00021250651129527289 0 -0.022381233257766434 -0.00025822367728633425 0 -0.022381762002742923 -0.00039189203249637849 0 -0.022190406847438924 -0.00021250651129527289 0 -0.018808315339236593 -0.0010195376043599326 0 -0.018833396017091691 -0.00093085015079879662 0 -0.018781325306717139 -0.00097359704290315616 0 -0.021861237719925288 -0.00030743102879218033 0 -0.021998260644434404 -0.00011859219609601577 0 -0.021789741634098605 -1.5132840975182799e-05 0 -0.021861237719925288 -0.00030743102879218033 0 -0.021998260644434404 -0.00011859219609601577 0 -0.022190406847438924 -0.00021250651129527289 0 -0.021998260644434404 -0.00011859219609601577 0 -0.022187864503836877 -5.5012791296285901e-06 0 -0.022190406847438924 -0.00021250651129527289 0 -0.021998260644434404 -0.00011859219609601577 0 -0.02205411294586003 0.00015339523792942081 0 -0.022187864503836877 -5.5012791296285901e-06 0 -0.021998260644434404 -0.00011859219609601577 0 -0.02205411294586003 0.00015339523792942081 0 -0.021789741634098605 -1.5132840975182799e-05 0 -0.021849947160304486 0.00032758227025669016 0 -0.02205411294586003 0.00015339523792942081 0 -0.021789741634098605 -1.5132840975182799e-05 0 -0.022303280707273523 0.00022543353933859167 0 -0.022187864503836877 -5.5012791296285901e-06 0 -0.022389064151166951 -8.1280209345340875e-05 0 -0.02205411294586003 0.00015339523792942081 0 -0.022303280707273523 0.00022543353933859167 0 -0.022187864503836877 -5.5012791296285901e-06 0 -0.022187864503836877 -5.5012791296285901e-06 0 -0.022190406847438924 -0.00021250651129527289 0 -0.022389064151166951 -8.1280209345340875e-05 0 -0.022381233257766434 -0.00025822367728633425 0 -0.022190406847438924 -0.00021250651129527289 0 -0.022389064151166951 -8.1280209345340875e-05 0 -0.022492229703605385 0.00070498270193145507 0 -0.021377583465799724 2.7791460594702707e-05 0 -0.022723686170376897 0.0004835262043403745 0 -0.022303280707273523 0.00022543353933859167 0 -0.022389064151166951 -8.1280209345340875e-05 0 -0.022187257750450159 0.00066016862112622536 0 -0.022068929279483149 0.0008735648158101993 0 -0.021931013357719235 0.00046159821849444267 0 -0.022723686170376897 0.0004835262043403745 0 -0.022510125952163229 -0.00035949900718137696 0 -0.022389064151166951 -8.1280209345340875e-05 0 -0.020821080551869577 -0.00082715031729274483 0 -0.021436928715273647 -0.00073832697346990059 0 -0.020698013814603872 -0.00026602695258134225 0 -0.021523485920722927 -0.0006590826487016181 0 -0.021142195452555364 -7.7603876915784208e-06 0 -0.020698013814603872 -0.00026602695258134225 0 -0.019963118813673776 -0.00083150401840722209 0 -0.02124939076958153 -0.0004103489243122578 0 -0.019823366045884756 -0.00097701873171791658 0 -0.019963118813673776 -0.00083150401840722209 0 -0.020821080551869577 -0.00082715031729274483 0 -0.020698013814603872 -0.00026602695258134225 0 -0.02033171501456307 -0.00056766795192409293 0 -0.021523485920722927 -0.0006590826487016181 0 -0.021536285937493963 -0.00018826022987146704 0 -0.021142195452555364 -7.7603876915784208e-06 0 -0.021861237719925288 -0.00030743102879218033 0 -0.021523485920722927 -0.0006590826487016181 0 -0.021536285937493963 -0.00018826022987146704 0 -0.021536285937493963 -0.00018826022987146704 0 -0.021504768825031269 0.00018520612079765117 0 -0.021142195452555364 -7.7603876915784208e-06 0 -0.021861237719925288 -0.00030743102879218033 0 -0.021536285937493963 -0.00018826022987146704 0 -0.021789741634098605 -1.5132840975182799e-05 0 -0.021536285937493963 -0.00018826022987146704 0 -0.021789741634098605 -1.5132840975182799e-05 0 -0.021504768825031269 0.00018520612079765117 0 -0.021849947160304486 0.00032758227025669016 0 -0.021789741634098605 -1.5132840975182799e-05 0 -0.021504768825031269 0.00018520612079765117 0 -0.021263885542652163 0.00045005121325219892 0 -0.021504768825031269 0.00018520612079765117 0 -0.021142195452555364 -7.7603876915784208e-06 0 -0.020492810656185835 0.00047177688378982011 0 -0.021142195452555364 -7.7603876915784208e-06 0 -0.020698013814603872 -0.00026602695258134225 0 -0.020659234753397326 0.00038925164998383565 0 -0.020076788719630034 -0.00034578097988859172 0 -0.020492810656185835 0.00047177688378982011 0 -0.020698013814603872 -0.00026602695258134225 0 -0.019994474711274603 -0.00039642340363496326 0 -0.019994474711274603 -0.00039642340363496326 0 -0.019387290906952691 -0.00038306024347891656 0 -0.019464485846010231 -1.4242961843007197e-05 0 -0.019906419512956731 0.00030447413127641059 0 -0.020830993576944894 0.00029450275645104133 0 -0.019994474711274603 -0.00039642340363496326 0 -0.019906419512956731 0.00030447413127641059 0 -0.019994474711274603 -0.00039642340363496326 0 -0.019464485846010231 -1.4242961843007197e-05 0 -0.019994474711274603 -0.00039642340363496326 0 -0.019706642270105584 -0.00071401632355669016 0 -0.019387290906952691 -0.00038306024347891656 0 -0.019994474711274603 -0.00039642340363496326 0 -0.019706642270105584 -0.00071401632355669016 0 -0.019920256878433459 -0.00087519270396325673 0 -0.020821080551869577 -0.00082715031729274483 0 -0.02033171501456307 -0.00056766795192409293 0 -0.019920256878433459 -0.00087519270396325673 0 -0.019823366045884756 -0.00097701873171791658 0 -0.019922618082823071 -0.00092013087388189666 0 -0.020698013814603872 -0.00026602695258134225 0 -0.019994474711274603 -0.00039642340363496326 0 -0.02033171501456307 -0.00056766795192409293 0 -0.019994474711274603 -0.00039642340363496326 0 -0.02033171501456307 -0.00056766795192409293 0 -0.019920256878433459 -0.00087519270396325673 0 -0.019920256878433459 -0.00087519270396325673 0 -0.019617322338197438 -0.00048098996268573844 0 -0.019677711063126487 -0.0010796184227625757 0 -0.018925975490620105 -0.0011987766436948302 0 -0.019920256878433459 -0.00087519270396325673 0 -0.019617322338197438 -0.00048098996268573844 0 -0.019706642270105584 -0.00071401632355669016 0 -0.019920256878433459 -0.00087519270396325673 0 -0.019677711063126487 -0.0010796184227625757 0 -0.018255696133468533 -0.00047523816272899413 0 -0.018247305059907192 -0.00088444642036130967 0 -0.019706642270105584 -0.00071401632355669016 0 -0.019677711063126487 -0.0010796184227625757 0 -0.01916614526624532 -0.00068512196308783541 0 -0.016945979029445096 -0.00037273139632332475 0 -0.016833396531136347 -0.00077181428030430202 0 -0.016786213342249643 -0.00057066981467745754 0 -0.016945979029445096 -0.00037273139632332475 0 -0.016786213342249643 -0.00057066981467745754 0 -0.016931686710406828 -0.00056894517526166722 0 -0.017269433446333592 -0.00052312208657375977 0 -0.016945979029445096 -0.00037273139632332475 0 -0.016931686710406828 -0.00056894517526166722 0 -0.0175171450058592 -0.00048855367460450948 0 -0.017706063765219118 -0.00077996143438702117 0 -0.018001038944691926 -0.00098455376890016098 0 -0.017561095487563134 -0.00073198983391036226 0 -0.01706681875722767 -0.00056990795222269309 0 -0.018006815275319908 -0.0010163896025137966 0 -0.016974667568291971 -0.00013213016442106761 0 -0.018104228810884092 -0.00062502145967516893 0 -0.017561095487563134 -0.00073198983391036226 0 -0.017706063765219118 -0.00077996143438702117 0 -0.017483540770022794 -0.00063547354772930528 0 -0.0175171450058592 -0.00048855367460450948 0 -0.017706063765219118 -0.00077996143438702117 0 -0.017483540770022794 -0.00063547354772930528 0 -0.0175171450058592 -0.00048855367460450948 0 -0.01721905983215723 -0.00047904275567074034 0 -0.017483540770022794 -0.00063547354772930528 0 -0.01721905983215723 -0.00047904275567074034 0 -0.017483540770022794 -0.00063547354772930528 0 -0.017268951754363479 -0.00057448099304289058 0 -0.017561095487563134 -0.00073198983391036226 0 -0.017268951754363479 -0.00057448099304289058 0 -0.01706681875722767 -0.00056990795222269309 0 -0.017561095487563134 -0.00073198983391036226 0 -0.017483540770022794 -0.00063547354772930528 0 -0.017268951754363479 -0.00057448099304289058 0 -0.017009528016327297 -0.00050359499652026778 0 -0.01721905983215723 -0.00047904275567074034 0 -0.017268951754363479 -0.00057448099304289058 0 -0.016833396531136347 -0.00077181428030430202 0 -0.016786213342249643 -0.00057066981467745754 0 -0.01706681875722767 -0.00056990795222269309 0 -0.016762107510497205 -0.00051504311957285755 0 -0.016786213342249643 -0.00057066981467745754 0 -0.01706681875722767 -0.00056990795222269309 0 -0.017009528016327297 -0.00050359499652026778 0 -0.017268951754363479 -0.00057448099304289058 0 -0.01706681875722767 -0.00056990795222269309 0 -0.016833396531136347 -0.00077181428030430202 0 -0.01706681875722767 -0.00056990795222269309 0 -0.018006815275319908 -0.0010163896025137966 0 -0.018247305059907192 -0.00088444642036130967 0 -0.018028286866278671 -0.0010057387871556637 0 -0.019677711063126487 -0.0010796184227625757 0 -0.018006815275319908 -0.0010163896025137966 0 -0.01916614526624532 -0.00068512196308783541 0 -0.018006815275319908 -0.0010163896025137966 0 -0.018696893137948093 -0.00047938671591644412 0 -0.01916614526624532 -0.00068512196308783541 0 -0.018006815275319908 -0.0010163896025137966 0 -0.018150307094814924 -0.00076860339040506654 0 -0.018696893137948093 -0.00047938671591644412 0 -0.017561095487563134 -0.00073198983391036226 0 -0.017706063765219118 -0.00077996143438702117 0 -0.018006815275319908 -0.0010163896025137966 0 -0.017706063765219118 -0.00077996143438702117 0 -0.018006815275319908 -0.0010163896025137966 0 -0.018001038944691926 -0.00098455376890016098 0 -0.018150307094814924 -0.00076860339040506654 0 -0.018218320051933523 -0.00044560906625303899 0 -0.018001038944691926 -0.00098455376890016098 0 -0.018006815275319908 -0.0010163896025137966 0 -0.018150307094814924 -0.00076860339040506654 0 -0.018001038944691926 -0.00098455376890016098 0 -0.018150307094814924 -0.00076860339040506654 0 -0.018218320051933523 -0.00044560906625303899 0 -0.018696893137948093 -0.00047938671591644412 0 -0.018696893137948093 -0.00047938671591644412 0 -0.018525784748875292 -0.00021370117950547608 0 -0.018934805087653696 -4.3531865260939213e-05 0 -0.018218320051933523 -0.00044560906625303899 0 -0.018696893137948093 -0.00047938671591644412 0 -0.018525784748875292 -0.00021370117950547608 0 -0.018218320051933523 -0.00044560906625303899 0 -0.018525784748875292 -0.00021370117950547608 0 -0.018214254614154112 -7.7594458991782356e-05 0 -0.019706642270105584 -0.00071401632355669016 0 -0.01916614526624532 -0.00068512196308783541 0 -0.019387290906952691 -0.00038306024347891656 0 -0.018696893137948093 -0.00047938671591644412 0 -0.01916614526624532 -0.00068512196308783541 0 -0.019387290906952691 -0.00038306024347891656 0 -0.018696893137948093 -0.00047938671591644412 0 -0.019387290906952691 -0.00038306024347891656 0 -0.018934805087653696 -4.3531865260939213e-05 0 -0.019387290906952691 -0.00038306024347891656 0 -0.018934805087653696 -4.3531865260939213e-05 0 -0.019464485846010231 -1.4242961843007197e-05 0 -0.019258838648398769 0.00036404803456748663 0 -0.018934805087653696 -4.3531865260939213e-05 0 -0.019464485846010231 -1.4242961843007197e-05 0 -0.018577982285710153 0.00044113554772140198 0 -0.018934805087653696 -4.3531865260939213e-05 0 -0.018430447871815216 5.8692358847967976e-05 0 -0.018577982285710153 0.00044113554772140198 0 -0.019258838648398769 0.00036404803456748663 0 -0.018934805087653696 -4.3531865260939213e-05 0 -0.018525784748875292 -0.00021370117950547608 0 -0.018430447871815216 5.8692358847967976e-05 0 -0.018214254614154112 -7.7594458991782356e-05 0 -0.018525784748875292 -0.00021370117950547608 0 -0.018934805087653696 -4.3531865260939213e-05 0 -0.018430447871815216 5.8692358847967976e-05 0 -0.018577982285710153 0.00044113554772140198 0 -0.018430447871815216 5.8692358847967976e-05 0 -0.018119903093346931 0.00024629003060114713 0 -0.018119903093346931 0.00024629003060114713 0 -0.017960311453100047 1.9645127216462759e-05 0 -0.017908186573890709 0.00019523512550827414 0 -0.018119903093346931 0.00024629003060114713 0 -0.018214254614154112 -7.7594458991782356e-05 0 -0.017960311453100047 1.9645127216462759e-05 0 -0.018430447871815216 5.8692358847967976e-05 0 -0.018119903093346931 0.00024629003060114713 0 -0.018214254614154112 -7.7594458991782356e-05 0 -0.018218320051933523 -0.00044560906625303899 0 -0.017960311453100047 1.9645127216462759e-05 0 -0.018001038944691926 -0.00098455376890016098 0 -0.017960311453100047 1.9645127216462759e-05 0 -0.017983346723939416 -0.0001060827666750514 0 -0.017903541505227265 -3.5566993107156188e-05 0 -0.017916163677957363 -1.0807270127881864e-06 0 -0.018104228810884092 -0.00062502145967516893 0 -0.018218320051933523 -0.00044560906625303899 0 -0.018214254614154112 -7.7594458991782356e-05 0 -0.017960311453100047 1.9645127216462759e-05 0 -0.017749624251607549 1.3519124805548977e-06 0 -0.017842705149486396 0.00014290873437711681 0 -0.017903541505227265 -3.5566993107156188e-05 0 -0.017960311453100047 1.9645127216462759e-05 0 -0.017842705149486396 0.00014290873437711681 0 -0.017903541505227265 -3.5566993107156188e-05 0 -0.017842705149486396 0.00014290873437711681 0 -0.017827193638423021 0.00029821713636110224 0 -0.01782503912432604 0.00037986331604112332 0 -0.017842705149486396 0.00014290873437711681 0 -0.017827193638423021 0.00029821713636110224 0 -0.017908186573890709 0.00019523512550827414 0 -0.017960311453100047 1.9645127216462759e-05 0 -0.017842705149486396 0.00014290873437711681 0 -0.017908186573890709 0.00019523512550827414 0 -0.018119903093346931 0.00024629003060114713 0 -0.017908186573890709 0.00019523512550827414 0 -0.017898287765842985 0.00034092416846769513 0 -0.017827193638423021 0.00029821713636110224 0 -0.017898287765842985 0.00034092416846769513 0 -0.017831963850397831 0.00036969876578231848 0 -0.017827193638423021 0.00029821713636110224 0 -0.017908186573890709 0.00019523512550827414 0 -0.017898287765842985 0.00034092416846769513 0 -0.017773460512822588 0.00033790072715125504 0 -0.017831963850397831 0.00036969876578231848 0 -0.017800804869794771 0.00037011161251202662 0 -0.017827193638423021 0.00029821713636110224 0 -0.017831963850397831 0.00036969876578231848 0 -0.017800804869794771 0.00037011161251202662 0 -0.017773460512822588 0.00033790072715125504 0 -0.017800804869794771 0.00037011161251202662 0 -0.017863645849031579 0.00050927634509252597 0 -0.017800804869794771 0.00037011161251202662 0 -0.017863645849031579 0.00050927634509252597 0 -0.01782503912432604 0.00037986331604112332 0 -0.017827193638423021 0.00029821713636110224 0 -0.017800804869794771 0.00037011161251202662 0 -0.01782503912432604 0.00037986331604112332 0 -0.01820244494144074 0.00099466328008648028 0 -0.018009927760973755 0.00094911624317256136 0 -0.017984699522835618 0.00069559342880402852 0 -0.01820244494144074 0.00099466328008648028 0 -0.018303768937968368 0.00099008991715305878 0 -0.017984699522835618 0.00069559342880402852 0 -0.018030396531493471 0.00068193115678569552 0 -0.017981015894596841 0.00067547877410397295 0 -0.017773460512822588 0.00033790072715125504 0 -0.017863645849031579 0.00050927634509252597 0 -0.017984699522835618 0.00069559342880402852 0 -0.017867756421991184 0.00059980593605603815 0 -0.017984699522835618 0.00069559342880402852 0 -0.017954241233954119 0.00071696841775156046 0 -0.017863645849031579 0.00050927634509252597 0 -0.017867756421991184 0.00059980593605603815 0 -0.017984699522835618 0.00069559342880402852 0 -0.017843904367121365 0.00019430009520727691 0 -0.017691869420745 0.00030061477861859814 0 -0.017842705149486396 0.00014290873437711681 0 -0.01782503912432604 0.00037986331604112332 0 -0.017867756421991184 0.00059980593605603815 0 -0.017749624251607549 1.3519124805548977e-06 0 -0.017842705149486396 0.00014290873437711681 0 -0.017492693386747308 4.0728921501313983e-05 0 -0.017863645849031579 0.00050927634509252597 0 -0.01782503912432604 0.00037986331604112332 0 -0.017867756421991184 0.00059980593605603815 0 -0.017492693386747308 4.0728921501313983e-05 0 -0.017510586345590645 -0.00033253042450748081 0 -0.017752483510291052 -0.000137304967797275 0 -0.017749624251607549 1.3519124805548977e-06 0 -0.017492693386747308 4.0728921501313983e-05 0 -0.017752483510291052 -0.000137304967797275 0 -0.017492693386747308 4.0728921501313983e-05 0 -0.017341640663278542 -0.00017026301035553932 0 -0.017510586345590645 -0.00033253042450748081 0 -0.017691869420745 0.00030061477861859814 0 -0.017574327954825251 0.00034511633291830552 0 -0.017492693386747308 4.0728921501313983e-05 0 -0.017341640663278542 -0.00017026301035553932 0 -0.017146948002501976 -6.8661864039056976e-05 0 -0.017341640663278542 -0.00017026301035553932 0 -0.017510586345590645 -0.00033253042450748081 0 -0.017153938789580884 -0.00030176665606549969 0 -0.016146755692370965 1.0601527528448608e-05 0 -0.015689266412525393 6.1594959145334574e-05 0 -0.014691166143590463 0.00036724841908465341 0 -0.014531671573925457 0.00033557737106925366 0 -0.014597752711819456 0.00025265074937404913 0 -0.016146755692370965 1.0601527528448608e-05 0 -0.016356005536003169 6.859131555645291e-05 0 -0.017819792493560634 -0.00033744209537049115 0 -0.017891499405995721 -0.00016837771186143746 0 -0.017752483510291052 -0.000137304967797275 0 -0.017510586345590645 -0.00033253042450748081 0 -0.017819792493560634 -0.00033744209537049115 0 -0.017752483510291052 -0.000137304967797275 0 -0.018068990802053202 -0.00035156919881921411 0 -0.017819792493560634 -0.00033744209537049115 0 -0.017957488116913778 -0.00025941524087976067 0 -0.018068990802053202 -0.00035156919881921411 0 -0.017957488116913778 -0.00025941524087976067 0 -0.017983346723939416 -0.0001060827666750514 0 -0.016974667568291971 -0.00013213016442106761 0 -0.016356005536003169 6.859131555645291e-05 0 -0.017819792493560634 -0.00033744209537049115 0 -0.017957488116913778 -0.00025941524087976067 0 -0.017891499405995721 -0.00016837771186143746 0 -0.017957488116913778 -0.00025941524087976067 0 -0.017891499405995721 -0.00016837771186143746 0 -0.017983346723939416 -0.0001060827666750514 0 -0.017891499405995721 -0.00016837771186143746 0 -0.017983346723939416 -0.0001060827666750514 0 -0.017903541505227265 -3.5566993107156188e-05 0 -0.017749624251607549 1.3519124805548977e-06 0 -0.017903541505227265 -3.5566993107156188e-05 0 -0.017752483510291052 -0.000137304967797275 0 -0.017891499405995721 -0.00016837771186143746 0 -0.017903541505227265 -3.5566993107156188e-05 0 -0.017752483510291052 -0.000137304967797275 0 -0.016745762969433635 0.0015486984420859465 0 -0.017026887214468617 0.0011352336360329286 0 -0.016677929245483732 0.0011431874096033846 0 -0.016745762969433635 0.0015486984420859465 0 -0.017026887214468617 0.0011352336360329286 0 -0.017068237345889064 0.001325082042447797 0 -0.017026887214468617 0.0011352336360329286 0 -0.017358950857010332 0.0010572698355963066 0 -0.017068237345889064 0.001325082042447797 0 -0.017026887214468617 0.0011352336360329286 0 -0.017358950857010332 0.0010572698355963066 0 -0.017272765059157827 0.000702456773472611 0 -0.017358950857010332 0.0010572698355963066 0 -0.017068237345889064 0.001325082042447797 0 -0.01739611876797743 0.0012007607151588268 0 -0.017068237345889064 0.001325082042447797 0 -0.017218303692411053 0.0012944771838109624 0 -0.01739611876797743 0.0012007607151588268 0 -0.017047821579667548 0.0013909764510623354 0 -0.017068237345889064 0.001325082042447797 0 -0.017218303692411053 0.0012944771838109624 0 -0.017422292068353159 0.0012297690324024858 0 -0.017218303692411053 0.0012944771838109624 0 -0.017394640038925321 0.0012286877218450148 0 -0.017218303692411053 0.0012944771838109624 0 -0.017394640038925321 0.0012286877218450148 0 -0.01739611876797743 0.0012007607151588268 0 -0.017523180735091144 0.0011755327738415472 0 -0.017394640038925321 0.0012286877218450148 0 -0.017526830019816982 0.0011728576127951317 0 -0.017523180735091144 0.0011755327738415472 0 -0.017422292068353159 0.0012297690324024858 0 -0.017394640038925321 0.0012286877218450148 0 -0.017394640038925321 0.0012286877218450148 0 -0.017526830019816982 0.0011728576127951317 0 -0.01739611876797743 0.0012007607151588268 0 -0.01739611876797743 0.0012007607151588268 0 -0.017644253348626546 0.0011099759901267929 0 -0.017692360334098035 0.00099458433002136111 0 -0.017526830019816982 0.0011728576127951317 0 -0.01739611876797743 0.0012007607151588268 0 -0.017644253348626546 0.0011099759901267929 0 -0.017688808322187548 0.0011163788393597704 0 -0.017526830019816982 0.0011728576127951317 0 -0.017644253348626546 0.0011099759901267929 0 -0.017644253348626546 0.0011099759901267929 0 -0.017692360334098035 0.00099458433002136111 0 -0.017794118643742692 0.00098656468855104723 0 -0.017358950857010332 0.0010572698355963066 0 -0.01739611876797743 0.0012007607151588268 0 -0.017692360334098035 0.00099458433002136111 0 -0.017358950857010332 0.0010572698355963066 0 -0.017692360334098035 0.00099458433002136111 0 -0.017602142355268198 0.00071170060619872978 0 -0.017692360334098035 0.00099458433002136111 0 -0.017828365975651825 0.00076960393422376182 0 -0.017602142355268198 0.00071170060619872978 0 -0.017692360334098035 0.00099458433002136111 0 -0.017902158604617278 0.00080122347781047402 0 -0.017794118643742692 0.00098656468855104723 0 -0.017692360334098035 0.00099458433002136111 0 -0.017902158604617278 0.00080122347781047402 0 -0.017828365975651825 0.00076960393422376182 0 -0.017902158604617278 0.00080122347781047402 0 -0.01787898352473969 0.00074061607268259338 0 -0.017828365975651825 0.00076960393422376182 0 -0.017902158604617278 0.00080122347781047402 0 -0.017794118643742692 0.00098656468855104723 0 -0.017902395445495149 0.00091519571786581654 0 -0.017792100867718773 0.0010608650306386206 0 -0.017644253348626546 0.0011099759901267929 0 -0.017794118643742692 0.00098656468855104723 0 -0.017792100867718773 0.0010608650306386206 0 -0.017794118643742692 0.00098656468855104723 0 -0.017902395445495149 0.00091519571786581654 0 -0.017902158604617278 0.00080122347781047402 0 -0.017902395445495149 0.00091519571786581654 0 -0.017984699522835618 0.00069559342880402852 0 -0.017902395445495149 0.00091519571786581654 0 -0.018009927760973755 0.00094911624317256136 0 -0.017984699522835618 0.00069559342880402852 0 -0.017902158604617278 0.00080122347781047402 0 -0.017984699522835618 0.00069559342880402852 0 -0.017954241233954119 0.00071696841775156046 0 -0.017146948002501976 -6.8661864039056976e-05 0 -0.017153938789580884 -0.00030176665606549969 0 -0.016969337973090127 -0.0002079359203918794 0 -0.017341640663278542 -0.00017026301035553932 0 -0.017146948002501976 -6.8661864039056976e-05 0 -0.017153938789580884 -0.00030176665606549969 0 -0.017902158604617278 0.00080122347781047402 0 -0.017954241233954119 0.00071696841775156046 0 -0.01787898352473969 0.00074061607268259338 0 -0.016306114077471724 -0.00028340900139784379 0 -0.014327396585197695 0.0006032007430050567 0 -0.014531671573925457 0.00033557737106925366 0 -0.014470518667214025 0.00029569990900528995 0 -0.014428896344883042 0.00033033801304157748 0 -0.017153938789580884 -0.00030176665606549969 0 -0.016969337973090127 -0.0002079359203918794 0 -0.016787998446367358 -0.00025737348605055742 0 -0.014470518667214025 0.00029569990900528995 0 -0.014428896344883042 0.00033033801304157748 0 -0.01442131308506376 0.00026246904350500508 0 -0.015689266412525393 6.1594959145334574e-05 0 -0.016306114077471724 -0.00028340900139784379 0 -0.016969337973090127 -0.0002079359203918794 0 -0.016787998446367358 -0.00025737348605055742 0 -0.016787864949942177 -0.00020391260998558632 0 -0.016306114077471724 -0.00028340900139784379 0 -0.017204133280656661 6.7252467610460023e-05 0 -0.017146948002501976 -6.8661864039056976e-05 0 -0.016969337973090127 -0.0002079359203918794 0 -0.016787864949942177 -0.00020391260998558632 0 -0.017954241233954119 0.00071696841775156046 0 -0.017827257686093563 0.00066855057471507963 0 -0.01787898352473969 0.00074061607268259338 0 -0.017827257686093563 0.00066855057471507963 0 -0.01787898352473969 0.00074061607268259338 0 -0.017828365975651825 0.00076960393422376182 0 -0.017574327954825251 0.00034511633291830552 0 -0.017204133280656661 6.7252467610460023e-05 0 -0.017204133280656661 6.7252467610460023e-05 0 -0.017824180353985284 0.00079924784006911572 0 -0.018055363346259269 0.00015324355878758102 0 -0.017828365975651825 0.00076960393422376182 0 -0.01779545896266941 0.00042777804405164457 0 -0.017828365975651825 0.00076960393422376182 0 -0.017602142355268198 0.00071170060619872978 0 -0.01779545896266941 0.00042777804405164457 0 -0.017602142355268198 0.00071170060619872978 0 -0.017446015886186717 0.00039566746894329386 0 -0.017272765059157827 0.000702456773472611 0 -0.017358950857010332 0.0010572698355963066 0 -0.017602142355268198 0.00071170060619872978 0 -0.017272765059157827 0.000702456773472611 0 -0.017602142355268198 0.00071170060619872978 0 -0.017446015886186717 0.00039566746894329386 0 -0.01763070254659985 0.00030448914143859414 0 -0.017602142355268198 0.00071170060619872978 0 -0.01763070254659985 0.00030448914143859414 0 -0.01779545896266941 0.00042777804405164457 0 -0.017446015886186717 0.00039566746894329386 0 -0.01763070254659985 0.00030448914143859414 0 -0.017461941659516957 6.3926598105923157e-05 0 -0.01763070254659985 0.00030448914143859414 0 -0.017664475492299821 0.00013051440227424167 0 -0.017461941659516957 6.3926598105923157e-05 0 -0.018055363346259269 0.00015324355878758102 0 -0.01779545896266941 0.00042777804405164457 0 -0.017664475492299821 0.00013051440227424167 0 -0.01763070254659985 0.00030448914143859414 0 -0.01779545896266941 0.00042777804405164457 0 -0.017664475492299821 0.00013051440227424167 0 -0.018055363346259269 0.00015324355878758102 0 -0.017664475492299821 0.00013051440227424167 0 -0.017353058574119954 -0.00035152824400527664 0 -0.01736734571763477 -0.00040158363840697134 0 -0.017364529957727144 -0.00046488997847445306 0 -0.017340005136473637 -0.00036595735899457867 0 -0.017364059202544222 -0.00041483628018179147 0 -0.01736734571763477 -0.00040158363840697134 0 -0.017353058574119954 -0.00035152824400527664 0 -0.017357785608066324 -0.00040907100846930685 0 -0.01736734571763477 -0.00040158363840697134 0 -0.017340005136473637 -0.00036595735899457867 0 -0.017357785608066324 -0.00040907100846930685 0 -0.017364059202544222 -0.00041483628018179147 0 -0.01736734571763477 -0.00040158363840697134 0 -0.017204133280656661 6.7252467610460023e-05 0 -0.017495898147338759 -0.00028964277218507766 0 -0.01736734571763477 -0.00040158363840697134 0 -0.017353058574119954 -0.00035152824400527664 0 -0.017364529957727144 -0.00046488997847445306 0 -0.017664475492299821 0.00013051440227424167 0 -0.017461941659516957 6.3926598105923157e-05 0 -0.017353058574119954 -0.00035152824400527664 0 -0.017353058574119954 -0.00035152824400527664 0 -0.017364529957727144 -0.00046488997847445306 0 -0.016849809580087825 -9.7419280030615758e-05 0 -0.017461941659516957 6.3926598105923157e-05 0 -0.017353058574119954 -0.00035152824400527664 0 -0.017177375169792557 0.00013564219797857028 0 -0.017353058574119954 -0.00035152824400527664 0 -0.016849809580087825 -9.7419280030615758e-05 0 -0.017177375169792557 0.00013564219797857028 0 -0.014008506883244967 0.00043395350809697199 0 -0.014944263279760693 0.00016243653320577379 0 -0.012129002221137939 0.0010539879589670979 0 -0.012334387106019097 0.00097076401699787082 0 -0.012213923858748123 0.00094531400749826161 0 -0.016054046650414766 -0.00043701524619673798 0 -0.017364529957727144 -0.00046488997847445306 0 -0.016849809580087825 -9.7419280030615758e-05 0 -0.012129002221137939 0.0010539879589670979 0 -0.012141205317586699 0.00091063948280178551 0 -0.012213923858748123 0.00094531400749826161 0 -0.016849809580087825 -9.7419280030615758e-05 0 -0.017177375169792557 0.00013564219797857028 0 -0.016864748812507806 0.00066344972994642523 0 -0.015814320665092949 0.00068708575125152826 0 -0.016849809580087825 -9.7419280030615758e-05 0 -0.016864748812507806 0.00066344972994642523 0 -0.017446015886186717 0.00039566746894329386 0 -0.017177375169792557 0.00013564219797857028 0 -0.017272765059157827 0.000702456773472611 0 -0.017177375169792557 0.00013564219797857028 0 -0.017272765059157827 0.000702456773472611 0 -0.016864748812507806 0.00066344972994642523 0 -0.017446015886186717 0.00039566746894329386 0 -0.017461941659516957 6.3926598105923157e-05 0 -0.017177375169792557 0.00013564219797857028 0 -0.017026887214468617 0.0011352336360329286 0 -0.017272765059157827 0.000702456773472611 0 -0.016864748812507806 0.00066344972994642523 0 -0.017026887214468617 0.0011352336360329286 0 -0.016864748812507806 0.00066344972994642523 0 -0.016677929245483732 0.0011431874096033846 0 -0.012038454643344229 0.00070917681186241676 0 -0.011921079378409758 0.00033105147174910361 0 -0.012325486963944457 0.00062079122549672046 0 -0.012038454643344229 0.00070917681186241676 0 -0.012325486963944457 0.00062079122549672046 0 -0.01226658969803816 0.0008074213500615003 0 -0.012141205317586699 0.00091063948280178551 0 -0.012213923858748123 0.00094531400749826161 0 -0.01226658969803816 0.0008074213500615003 0 -0.012141205317586699 0.00091063948280178551 0 -0.012038454643344229 0.00070917681186241676 0 -0.01226658969803816 0.0008074213500615003 0 -0.012334387106019097 0.00097076401699787082 0 -0.01226658969803816 0.0008074213500615003 0 -0.012396076402059015 0.00081032378702297267 0 -0.012334387106019097 0.00097076401699787082 0 -0.012213923858748123 0.00094531400749826161 0 -0.01226658969803816 0.0008074213500615003 0 -0.012325486963944457 0.00062079122549672046 0 -0.01226658969803816 0.0008074213500615003 0 -0.012396076402059015 0.00081032378702297267 0 -0.012325486963944457 0.00062079122549672046 0 -0.012396076402059015 0.00081032378702297267 0 -0.012666840988475165 0.00083308062176716731 0 -0.012334387106019097 0.00097076401699787082 0 -0.012396076402059015 0.00081032378702297267 0 -0.012666840988475165 0.00083308062176716731 0 -0.014944263279760693 0.00016243653320577379 0 -0.014327396585197695 0.0006032007430050567 0 -0.012325486963944457 0.00062079122549672046 0 -0.012666840988475165 0.00083308062176716731 0 -0.012691746958009243 0.00031732706468264737 0 -0.014327396585197695 0.0006032007430050567 0 -0.012649064535471325 0.00034696353049068257 0 -0.012996376071961673 0.00091677655813434105 0 -0.013512502698803823 0.00065138847587890684 0 -0.013003028735203401 0.00024290039376956759 0 -0.014327396585197695 0.0006032007430050567 0 -0.013894424191413526 0.0004467975819525754 0 -0.014470518667214025 0.00029569990900528995 0 -0.01442131308506376 0.00026246904350500508 0 -0.014507705321914999 0.0001903927225840413 0 -0.014531671573925457 0.00033557737106925366 0 -0.014470518667214025 0.00029569990900528995 0 -0.014507705321914999 0.0001903927225840413 0 -0.014531671573925457 0.00033557737106925366 0 -0.014507705321914999 0.0001903927225840413 0 -0.014597752711819456 0.00025265074937404913 0 -0.013512502698803823 0.00065138847587890684 0 -0.013460702912109929 0.00012484320373206938 0 -0.013003028735203401 0.00024290039376956759 0 -0.013512502698803823 0.00065138847587890684 0 -0.013460702912109929 0.00012484320373206938 0 -0.014081159904135009 0.0003600715805001292 0 -0.013460702912109929 0.00012484320373206938 0 -0.012985785671720975 -0.00041094849200745161 0 -0.01372058407879931 -0.00029144524419744377 0 -0.012892148559702967 -0.00038393357639475369 0 -0.012649064535471325 0.00034696353049068257 0 -0.013460702912109929 0.00012484320373206938 0 -0.012985785671720975 -0.00041094849200745161 0 -0.013003028735203401 0.00024290039376956759 0 -0.012749602377236881 -0.00029120451909494361 0 -0.012691746958009243 0.00031732706468264737 0 -0.01226197432297791 8.5649600036422885e-05 0 -0.012325486963944457 0.00062079122549672046 0 -0.012691746958009243 0.00031732706468264737 0 -0.01226197432297791 8.5649600036422885e-05 0 -0.012749602377236881 -0.00029120451909494361 0 -0.01226197432297791 8.5649600036422885e-05 0 -0.012185344727291455 -0.00052033603913421381 0 -0.011692266610030465 -0.00016508238562936009 0 -0.01226197432297791 8.5649600036422885e-05 0 -0.012185344727291455 -0.00052033603913421381 0 -0.011692266610030465 -0.00016508238562936009 0 -0.011921079378409758 0.00033105147174910361 0 -0.01226197432297791 8.5649600036422885e-05 0 -0.011921079378409758 0.00033105147174910361 0 -0.012325486963944457 0.00062079122549672046 0 -0.01226197432297791 8.5649600036422885e-05 0 -0.014968334918642882 5.2938013408217753e-05 0 -0.014753552443822204 0.00018793341089187135 0 -0.014752194510216617 -7.0411083443428437e-05 0 -0.015383808178314232 -0.00012054733383265771 0 -0.014968334918642882 5.2938013408217753e-05 0 -0.015273568202891483 0.00021329576343178419 0 -0.014975722461340161 0.00042865290348155207 0 -0.014968334918642882 5.2938013408217753e-05 0 -0.015273568202891483 0.00021329576343178419 0 -0.015506593380986042 0.00048049469322282158 0 -0.014975722461340161 0.00042865290348155207 0 -0.015273568202891483 0.00021329576343178419 0 -0.014975722461340161 0.00042865290348155207 0 -0.014968334918642882 5.2938013408217753e-05 0 -0.014753552443822204 0.00018793341089187135 0 -0.014691166143590463 0.00036724841908465341 0 -0.014753552443822204 0.00018793341089187135 0 -0.014597752711819456 0.00025265074937404913 0 -0.014691166143590463 0.00036724841908465341 0 -0.014975722461340161 0.00042865290348155207 0 -0.014753552443822204 0.00018793341089187135 0 -0.014507705321914999 0.0001903927225840413 0 -0.014597752711819456 0.00025265074937404913 0 -0.01464038597962527 6.9128152623046138e-05 0 -0.013894424191413526 0.0004467975819525754 0 -0.014391416126827898 0.00019461261345228161 0 -0.014753552443822204 0.00018793341089187135 0 -0.014597752711819456 0.00025265074937404913 0 -0.01464038597962527 6.9128152623046138e-05 0 -0.014753552443822204 0.00018793341089187135 0 -0.01464038597962527 6.9128152623046138e-05 0 -0.014752194510216617 -7.0411083443428437e-05 0 -0.014391416126827898 0.00019461261345228161 0 -0.014720856224135806 -3.6955649864369384e-05 0 -0.014081159904135009 0.0003600715805001292 0 -0.014290734121382563 -0.00030039769428452103 0 -0.014752194510216617 -7.0411083443428437e-05 0 -0.014081159904135009 0.0003600715805001292 0 -0.01372058407879931 -0.00029144524419744377 0 -0.014290734121382563 -0.00030039769428452103 0 -0.013460702912109929 0.00012484320373206938 0 -0.014081159904135009 0.0003600715805001292 0 -0.01372058407879931 -0.00029144524419744377 0 -0.01372058407879931 -0.00029144524419744377 0 -0.014290734121382563 -0.00030039769428452103 0 -0.014132060323963974 -0.00080594649244488151 0 -0.014752194510216617 -7.0411083443428437e-05 0 -0.015192066267086289 -0.00034591608955753347 0 -0.014688108514031647 -0.00055545322208443658 0 -0.014290734121382563 -0.00030039769428452103 0 -0.014752194510216617 -7.0411083443428437e-05 0 -0.014688108514031647 -0.00055545322208443658 0 -0.015383808178314232 -0.00012054733383265771 0 -0.014968334918642882 5.2938013408217753e-05 0 -0.015192066267086289 -0.00034591608955753347 0 -0.014968334918642882 5.2938013408217753e-05 0 -0.014752194510216617 -7.0411083443428437e-05 0 -0.015192066267086289 -0.00034591608955753347 0 -0.015342568919617749 -0.00074307339381344672 0 -0.015255648873888477 -0.0010841216741430814 0 -0.015192066267086289 -0.00034591608955753347 0 -0.015099224827642803 -0.0008489538481265364 0 -0.014688108514031647 -0.00055545322208443658 0 -0.015255648873888477 -0.0010841216741430814 0 -0.015105244797693715 -0.0014180940830793866 0 -0.015099224827642803 -0.0008489538481265364 0 -0.014685156772166695 -0.00098044547532741386 0 -0.015076002974701862 -0.0014167771340970426 0 -0.015099224827642803 -0.0008489538481265364 0 -0.014685156772166695 -0.00098044547532741386 0 -0.014688108514031647 -0.00055545322208443658 0 -0.014685156772166695 -0.00098044547532741386 0 -0.014688108514031647 -0.00055545322208443658 0 -0.014132060323963974 -0.00080594649244488151 0 -0.014290734121382563 -0.00030039769428452103 0 -0.014688108514031647 -0.00055545322208443658 0 -0.014132060323963974 -0.00080594649244488151 0 -0.01372058407879931 -0.00029144524419744377 0 -0.014132060323963974 -0.00080594649244488151 0 -0.013432211424125621 -0.00083320363340709535 0 -0.014132060323963974 -0.00080594649244488151 0 -0.013760362808713057 -0.0013478145426459719 0 -0.013432211424125621 -0.00083320363340709535 0 -0.014685156772166695 -0.00098044547532741386 0 -0.014132060323963974 -0.00080594649244488151 0 -0.014414525920227916 -0.0013572283197623367 0 -0.014132060323963974 -0.00080594649244488151 0 -0.014414525920227916 -0.0013572283197623367 0 -0.013760362808713057 -0.0013478145426459719 0 -0.014414525920227916 -0.0013572283197623367 0 -0.013760362808713057 -0.0013478145426459719 0 -0.014111968687481472 -0.0017624698544841432 0 -0.013760362808713057 -0.0013478145426459719 0 -0.014111968687481472 -0.0017624698544841432 0 -0.013371270786366941 -0.0020047551095469423 0 -0.014414525920227916 -0.0013572283197623367 0 -0.014111968687481472 -0.0017624698544841432 0 -0.014652126323202022 -0.0018270582817064012 0 -0.014414525920227916 -0.0013572283197623367 0 -0.015076002974701862 -0.0014167771340970426 0 -0.014652126323202022 -0.0018270582817064012 0 -0.015076002974701862 -0.0014167771340970426 0 -0.014652126323202022 -0.0018270582817064012 0 -0.015170148973113711 -0.0016201247549095955 0 -0.014685156772166695 -0.00098044547532741386 0 -0.014414525920227916 -0.0013572283197623367 0 -0.015076002974701862 -0.0014167771340970426 0 -0.011458760518721849 -0.00083493642754178658 0 -0.012221219900442696 -0.0010546802491850668 0 -0.012185344727291455 -0.00052033603913421381 0 -0.012749602377236881 -0.00029120451909494361 0 -0.012185344727291455 -0.00052033603913421381 0 -0.012860843795226781 -0.0010351268680680982 0 -0.012221219900442696 -0.0010546802491850668 0 -0.012185344727291455 -0.00052033603913421381 0 -0.012860843795226781 -0.0010351268680680982 0 -0.012860843795226781 -0.0010351268680680982 0 -0.013432211424125621 -0.00083320363340709535 0 -0.013093561231667055 -0.0014927661721859528 0 -0.012892148559702967 -0.00038393357639475369 0 -0.012859054862871984 -0.0010042487373262594 0 -0.012985785671720975 -0.00041094849200745161 0 -0.012860843795226781 -0.0010351268680680982 0 -0.013432211424125621 -0.00083320363340709535 0 -0.012985785671720975 -0.00041094849200745161 0 -0.01372058407879931 -0.00029144524419744377 0 -0.013432211424125621 -0.00083320363340709535 0 -0.013760362808713057 -0.0013478145426459719 0 -0.013432211424125621 -0.00083320363340709535 0 -0.013093561231667055 -0.0014927661721859528 0 -0.013760362808713057 -0.0013478145426459719 0 -0.013093561231667055 -0.0014927661721859528 0 -0.013371270786366941 -0.0020047551095469423 0 -0.01266979823284254 -0.0019178071645933772 0 -0.013093561231667055 -0.0014927661721859528 0 -0.013371270786366941 -0.0020047551095469423 0 -0.01266979823284254 -0.0019178071645933772 0 -0.013093561231667055 -0.0014927661721859528 0 -0.012493673006333745 -0.0014826289255037389 0 -0.012860843795226781 -0.0010351268680680982 0 -0.013093561231667055 -0.0014927661721859528 0 -0.012493673006333745 -0.0014826289255037389 0 -0.012221219900442696 -0.0010546802491850668 0 -0.012860843795226781 -0.0010351268680680982 0 -0.012493673006333745 -0.0014826289255037389 0 -0.01266979823284254 -0.0019178071645933772 0 -0.012493673006333745 -0.0014826289255037389 0 -0.012208006240310825 -0.0018836118801312969 0 -0.012493673006333745 -0.0014826289255037389 0 -0.012208006240310825 -0.0018836118801312969 0 -0.011848255505189743 -0.0014657402332116259 0 -0.011692152783466305 -0.0020947379813675143 0 -0.012208006240310825 -0.0018836118801312969 0 -0.011848255505189743 -0.0014657402332116259 0 -0.011458760518721849 -0.00083493642754178658 0 -0.012221219900442696 -0.0010546802491850668 0 -0.011848255505189743 -0.0014657402332116259 0 -0.012221219900442696 -0.0010546802491850668 0 -0.012493673006333745 -0.0014826289255037389 0 -0.011848255505189743 -0.0014657402332116259 0 -0.011628781534354789 -0.0027819374068040028 0 -0.012126733119073221 -0.0023420240903870614 0 -0.012282016770660995 -0.002792428648613897 0 -0.0099396121372992297 -0.0026359834493041847 0 -0.012419821968748041 -0.0022798808491222068 0 -0.011692152783466305 -0.0020947379813675143 0 -0.012208006240310825 -0.0018836118801312969 0 -0.012227833455618058 -0.0024119619210893912 0 -0.011692152783466305 -0.0020947379813675143 0 -0.011706453271153161 -0.00290855625226747 0 -0.012227833455618058 -0.0024119619210893912 0 -0.01266979823284254 -0.0019178071645933772 0 -0.012208006240310825 -0.0018836118801312969 0 -0.012227833455618058 -0.0024119619210893912 0 -0.012548315175583134 -0.002013589965909579 0 -0.012419821968748041 -0.0022798808491222068 0 -0.01266979823284254 -0.0019178071645933772 0 -0.012126733119073221 -0.0023420240903870614 0 -0.012669218232136846 -0.0025166123800358757 0 -0.012126733119073221 -0.0023420240903870614 0 -0.012282016770660995 -0.002792428648613897 0 -0.012669218232136846 -0.0025166123800358757 0 -0.012282016770660995 -0.002792428648613897 0 -0.012669218232136846 -0.0025166123800358757 0 -0.012569699567668244 -0.0030019309308206249 0 -0.012669218232136846 -0.0025166123800358757 0 -0.01313388171297562 -0.0027868321186726324 0 -0.012569699567668244 -0.0030019309308206249 0 -0.01266979823284254 -0.0019178071645933772 0 -0.012669218232136846 -0.0025166123800358757 0 -0.013371270786366941 -0.0020047551095469423 0 -0.012669218232136846 -0.0025166123800358757 0 -0.013371270786366941 -0.0020047551095469423 0 -0.01313388171297562 -0.0027868321186726324 0 -0.01313388171297562 -0.0027868321186726324 0 -0.012618930376724135 -0.0033793537231114842 0 -0.013628227703929309 -0.0033504228853775942 0 -0.011680559864107208 -0.0031408688616380502 0 -0.012618930376724135 -0.0033793537231114842 0 -0.012575127859636496 -0.0030975972032522736 0 -0.012638574561630613 -0.0034142362355123784 0 -0.01228432855816488 -0.0036642588860357123 0 -0.011680559864107208 -0.0031408688616380502 0 -0.012618930376724135 -0.0033793537231114842 0 -0.011186757673797879 -0.0038791293837328244 0 -0.012618930376724135 -0.0033793537231114842 0 -0.012575127859636496 -0.0030975972032522736 0 -0.012333515937267338 -0.0032650588495368861 0 -0.0094897798454168791 -0.0026806127899002682 0 -0.0094664480851876284 -0.0030438928905900668 0 -0.012618930376724135 -0.0033793537231114842 0 -0.012569699567668244 -0.0030019309308206249 0 -0.012333515937267338 -0.0032650588495368861 0 -0.01313388171297562 -0.0027868321186726324 0 -0.012618930376724135 -0.0033793537231114842 0 -0.012569699567668244 -0.0030019309308206249 0 -0.012282016770660995 -0.002792428648613897 0 -0.012569699567668244 -0.0030019309308206249 0 -0.012333515937267338 -0.0032650588495368861 0 -0.0067028752460113923 -0.0027422138628832179 0 -0.0066575189078108953 -0.0023232737229030458 0 -0.0070764959304499596 -0.0023944850703263437 0 -0.0064322101997875683 -0.0022772780802439454 0 -0.0067028752460113923 -0.0027422138628832179 0 -0.0066575189078108953 -0.0023232737229030458 0 -0.0099396121372992297 -0.0026359834493041847 0 -0.0094664480851876284 -0.0030438928905900668 0 -0.011628781534354789 -0.0027819374068040028 0 -0.012282016770660995 -0.002792428648613897 0 -0.012333515937267338 -0.0032650588495368861 0 -0.0073907127582470882 -0.00338394654722558 0 -0.0067028752460113923 -0.0027422138628832179 0 -0.0070764959304499596 -0.0023944850703263437 0 -0.014661648984838621 -0.0022772383783740166 0 -0.014988868453108879 -0.0022655837045492786 0 -0.015008171737110016 -0.001994717649974984 0 -0.014661648984838621 -0.0022772383783740166 0 -0.015008171737110016 -0.001994717649974984 0 -0.014652126323202022 -0.0018270582817064012 0 -0.015008171737110016 -0.001994717649974984 0 -0.014652126323202022 -0.0018270582817064012 0 -0.015170148973113711 -0.0016201247549095955 0 -0.014661648984838621 -0.0022772383783740166 0 -0.014652126323202022 -0.0018270582817064012 0 -0.014068914507455756 -0.0022825984245518323 0 -0.014111968687481472 -0.0017624698544841432 0 -0.014652126323202022 -0.0018270582817064012 0 -0.014068914507455756 -0.0022825984245518323 0 -0.014111968687481472 -0.0017624698544841432 0 -0.013371270786366941 -0.0020047551095469423 0 -0.014068914507455756 -0.0022825984245518323 0 -0.013371270786366941 -0.0020047551095469423 0 -0.01313388171297562 -0.0027868321186726324 0 -0.014068914507455756 -0.0022825984245518323 0 -0.01313388171297562 -0.0027868321186726324 0 -0.014068914507455756 -0.0022825984245518323 0 -0.013628227703929309 -0.0033504228853775942 0 -0.014643506843847041 -0.002416273437472144 0 -0.012607917169987489 -0.0029428550434252242 0 -0.014661648984838621 -0.0022772383783740166 0 -0.014068914507455756 -0.0022825984245518323 0 -0.014360377325380799 -0.0026436584604613593 0 -0.014068914507455756 -0.0022825984245518323 0 -0.014495405335899053 -0.0032590686713617045 0 -0.013628227703929309 -0.0033504228853775942 0 -0.012607917169987489 -0.0029428550434252242 0 -0.01228432855816488 -0.0036642588860357123 0 -0.011680559864107208 -0.0031408688616380502 0 -0.011186757673797879 -0.0038791293837328244 0 -0.010528133923392972 -0.0031132888481129428 0 -0.0097648580591882823 -0.0040259792338552718 0 -0.011186757673797879 -0.0038791293837328244 0 -0.010528133923392972 -0.0031132888481129428 0 -0.0097648580591882823 -0.0040259792338552718 0 -0.010528133923392972 -0.0031132888481129428 0 -0.0093110752311635781 -0.0031035147378146773 0 -0.011692649335563082 -0.0023715175589783307 0 -0.011683874589836649 -0.0023729107933178123 0 -0.011691135375692897 -0.0023699554243434579 0 -0.012607917169987489 -0.0029428550434252242 0 -0.010479873391006514 -0.0027374475587565636 0 -0.014661648984838621 -0.0022772383783740166 0 -0.014360377325380799 -0.0026436584604613593 0 -0.014817126042160619 -0.0025411221249635888 0 -0.012607917169987489 -0.0029428550434252242 0 -0.013628146718747982 -0.0024139770003900824 0 -0.011692649335563082 -0.0023715175589783307 0 -0.011701757559441162 -0.0023602093339377579 0 -0.011691135375692897 -0.0023699554243434579 0 -0.014661648984838621 -0.0022772383783740166 0 -0.014988868453108879 -0.0022655837045492786 0 -0.014817126042160619 -0.0025411221249635888 0 -0.011701757559441162 -0.0023602093339377579 0 -0.011691135375692897 -0.0023699554243434579 0 -0.01169838321555319 -0.0023723821107109488 0 -0.0087950652037099737 -0.001407991028921112 0 -0.0087831409261352519 -0.0014160187503939659 0 -0.0088002472529382855 -0.0014371548846815101 0 -0.010057111659162317 -0.0019133421448160447 0 -0.012075344823294362 -0.0021367974229572484 0 -0.0087831409261352519 -0.0014160187503939659 0 -0.0087857520127039776 -0.001442247724070663 0 -0.0087599073143533809 -0.0014075781095539642 0 -0.01016441938193159 -0.002132072599752761 0 -0.0092761586614480071 -0.0025487156380812202 0 -0.0087831409261352519 -0.0014160187503939659 0 -0.0087857520127039776 -0.001442247724070663 0 -0.0088002472529382855 -0.0014371548846815101 0 -0.011960589652533585 -0.0022654841154365109 0 -0.011796866837941752 -0.0022815301703347185 0 -0.011967877444500008 -0.0020875852956973389 0 -0.01016441938193159 -0.002132072599752761 0 -0.013095593093388097 -0.0020763726577312453 0 -0.01016441938193159 -0.002132072599752761 0 -0.012075344823294362 -0.0021367974229572484 0 -0.012075344823294362 -0.0021367974229572484 0 -0.013095593093388097 -0.0020763726577312453 0 -0.011701757559441162 -0.0023602093339377579 0 -0.01169838321555319 -0.0023723821107109488 0 -0.01172655845461348 -0.0023507855902594773 0 -0.014988868453108879 -0.0022655837045492786 0 -0.014817126042160619 -0.0025411221249635888 0 -0.015257472859869546 -0.0024210074055225398 0 -0.013628146718747982 -0.0024139770003900824 0 -0.012075344823294362 -0.0021367974229572484 0 -0.010551593266148705 -0.0036671499796343799 0 -0.011155819603704844 -0.0025666812890919495 0 -0.01169061468401161 -0.0033726566204374934 0 -0.010551593266148705 -0.0036671499796343799 0 -0.010454863284439527 -0.0031234836647974487 0 -0.0099538387379265354 -0.0037710109638626455 0 -0.0098467901128347652 -0.0026647675413799142 0 -0.010454863284439527 -0.0031234836647974487 0 -0.0099538387379265354 -0.0037710109638626455 0 -0.010551593266148705 -0.0036671499796343799 0 -0.010454863284439527 -0.0031234836647974487 0 -0.011155819603704844 -0.0025666812890919495 0 -0.0098467901128347652 -0.0026647675413799142 0 -0.010454863284439527 -0.0031234836647974487 0 -0.011155819603704844 -0.0025666812890919495 0 -0.010482560699746651 -0.0026348999306081873 0 -0.011155819603704844 -0.0025666812890919495 0 -0.011147687986880348 -0.0020708513458738993 0 -0.01016441938193159 -0.002132072599752761 0 -0.01107995622388807 -0.0026651242049211118 0 -0.011155819603704844 -0.0025666812890919495 0 -0.011984506478285957 -0.0022681976473893947 0 -0.01169061468401161 -0.0033726566204374934 0 -0.011147687986880348 -0.0020708513458738993 0 -0.012203516733606775 -0.0015381260961891739 0 -0.011984506478285957 -0.0022681976473893947 0 -0.011155819603704844 -0.0025666812890919495 0 -0.011147687986880348 -0.0020708513458738993 0 -0.011984506478285957 -0.0022681976473893947 0 -0.010482560699746651 -0.0026348999306081873 0 -0.011147687986880348 -0.0020708513458738993 0 -0.010487794957871372 -0.0021759280375606097 0 -0.011147687986880348 -0.0020708513458738993 0 -0.011303728904884935 -0.0013632803658149019 0 -0.010487794957871372 -0.0021759280375606097 0 -0.01560359633647993 -0.0014147861879116748 0 -0.01548585665037497 -0.0020441610154844519 0 -0.01547149281441057 -0.0019723619817620334 0 -0.013415174464221221 -0.0014232012199929848 0 -0.013095593093388097 -0.0020763726577312453 0 -0.011147687986880348 -0.0020708513458738993 0 -0.011303728904884935 -0.0013632803658149019 0 -0.012203516733606775 -0.0015381260961891739 0 -0.015008171737110016 -0.001994717649974984 0 -0.015198580753805358 -0.0021069427695998193 0 -0.015349713922023131 -0.0017717537079401514 0 -0.014988868453108879 -0.0022655837045492786 0 -0.015008171737110016 -0.001994717649974984 0 -0.015198580753805358 -0.0021069427695998193 0 -0.014988868453108879 -0.0022655837045492786 0 -0.015257472859869546 -0.0024210074055225398 0 -0.015198580753805358 -0.0021069427695998193 0 -0.015257472859869546 -0.0024210074055225398 0 -0.015198580753805358 -0.0021069427695998193 0 -0.015352205934861725 -0.0020611000022134115 0 -0.015257472859869546 -0.0024210074055225398 0 -0.015352205934861725 -0.0020611000022134115 0 -0.01548360604819227 -0.0020599770853300492 0 -0.015352205934861725 -0.0020611000022134115 0 -0.01548360604819227 -0.0020599770853300492 0 -0.01547149281441057 -0.0019723619817620334 0 -0.013095593093388097 -0.0020763726577312453 0 -0.013290357566997662 -0.0020503414303831452 0 -0.015198580753805358 -0.0021069427695998193 0 -0.015352205934861725 -0.0020611000022134115 0 -0.015349713922023131 -0.0017717537079401514 0 -0.015352205934861725 -0.0020611000022134115 0 -0.01547149281441057 -0.0019723619817620334 0 -0.015349713922023131 -0.0017717537079401514 0 -0.01560359633647993 -0.0014147861879116748 0 -0.015349713922023131 -0.0017717537079401514 0 -0.015427178000078328 -0.0014501898329173702 0 -0.01560359633647993 -0.0014147861879116748 0 -0.01547149281441057 -0.0019723619817620334 0 -0.015349713922023131 -0.0017717537079401514 0 -0.015008171737110016 -0.001994717649974984 0 -0.015349713922023131 -0.0017717537079401514 0 -0.015170148973113711 -0.0016201247549095955 0 -0.015349713922023131 -0.0017717537079401514 0 -0.015170148973113711 -0.0016201247549095955 0 -0.015427178000078328 -0.0014501898329173702 0 -0.015170148973113711 -0.0016201247549095955 0 -0.015462232199661556 -0.0013007231572081689 0 -0.015427178000078328 -0.0014501898329173702 0 -0.015076002974701862 -0.0014167771340970426 0 -0.015170148973113711 -0.0016201247549095955 0 -0.015462232199661556 -0.0013007231572081689 0 -0.015440284110139361 -0.0012814367241206581 0 -0.015076002974701862 -0.0014167771340970426 0 -0.015462232199661556 -0.0013007231572081689 0 -0.015462232199661556 -0.0013007231572081689 0 -0.015427178000078328 -0.0014501898329173702 0 -0.01553229497884746 -0.0011532595464662863 0 -0.01560359633647993 -0.0014147861879116748 0 -0.015427178000078328 -0.0014501898329173702 0 -0.01553229497884746 -0.0011532595464662863 0 -0.011303728904884935 -0.0013632803658149019 0 -0.012553638134230261 -0.00063246988877783635 0 -0.012203516733606775 -0.0015381260961891739 0 -0.013415174464221221 -0.0014232012199929848 0 -0.013856360476297753 -0.00082511545924882329 0 -0.01560359633647993 -0.0014147861879116748 0 -0.01553229497884746 -0.0011532595464662863 0 -0.015251604680676907 -0.0008676239448535811 0 -0.01553229497884746 -0.0011532595464662863 0 -0.015309837602288301 -0.0010340179520135489 0 -0.015251604680676907 -0.0008676239448535811 0 -0.015462232199661556 -0.0013007231572081689 0 -0.01553229497884746 -0.0011532595464662863 0 -0.015688096837227376 -0.001237375033111048 0 -0.01553229497884746 -0.0011532595464662863 0 -0.015688096837227376 -0.001237375033111048 0 -0.015309837602288301 -0.0010340179520135489 0 -0.015688096837227376 -0.001237375033111048 0 -0.015309837602288301 -0.0010340179520135489 0 -0.015207301137925179 -0.0015423735748727719 0 -0.016082424030564681 -0.00139979745866459 0 -0.015688096837227376 -0.001237375033111048 0 -0.015207301137925179 -0.0015423735748727719 0 -0.016082424030564681 -0.00139979745866459 0 -0.015688096837227376 -0.001237375033111048 0 -0.015726745910149883 -0.0012929817973968891 0 -0.01549662711978168 -0.0011975399925661981 0 -0.015440284110139361 -0.0012814367241206581 0 -0.015726745910149883 -0.0012929817973968891 0 -0.015440284110139361 -0.0012814367241206581 0 -0.015462232199661556 -0.0013007231572081689 0 -0.015726745910149883 -0.0012929817973968891 0 -0.015462232199661556 -0.0013007231572081689 0 -0.015688096837227376 -0.001237375033111048 0 -0.015726745910149883 -0.0012929817973968891 0 -0.015472683173418707 -0.0016029411568464751 0 -0.016667916509005502 -0.0020567359682948393 0 -0.01383157102638018 -0.00087927635272218145 0 -0.013795052175154003 -0.00070394719442865201 0 -0.013954545669993584 -0.00053475907482968172 0 -0.017703949458176816 -0.0026456943994629823 0 -0.017337119769848423 -0.0024682454562264837 0 -0.017938294059079887 -0.0029903551092723664 0 -0.01786246325859504 -0.0025800361921951395 0 -0.018066517799301025 -0.0025058615981083132 0 -0.017816773589377388 -0.0022972000111389263 0 -0.01786246325859504 -0.0025800361921951395 0 -0.017692044054344856 -0.0024261725330168727 0 -0.017816773589377388 -0.0022972000111389263 0 -0.01786246325859504 -0.0025800361921951395 0 -0.017692044054344856 -0.0024261725330168727 0 -0.017703949458176816 -0.0026456943994629823 0 -0.017692044054344856 -0.0024261725330168727 0 -0.017544137717024413 -0.0023804292593759039 0 -0.017703949458176816 -0.0026456943994629823 0 -0.01786246325859504 -0.0025800361921951395 0 -0.017869132850721212 -0.002794627691394414 0 -0.01809164455804619 -0.0028431079887932462 0 -0.017703949458176816 -0.0026456943994629823 0 -0.017869132850721212 -0.002794627691394414 0 -0.017938294059079887 -0.0029903551092723664 0 -0.01786246325859504 -0.0025800361921951395 0 -0.017703949458176816 -0.0026456943994629823 0 -0.017869132850721212 -0.002794627691394414 0 -0.017869132850721212 -0.002794627691394414 0 -0.01809164455804619 -0.0028431079887932462 0 -0.017968237994773501 -0.0029783193948789482 0 -0.018346842962227411 -0.0030431774549322752 0 -0.01809164455804619 -0.0028431079887932462 0 -0.018265861792810926 -0.0027752768853574806 0 -0.018265861792810926 -0.0027752768853574806 0 -0.018066517799301025 -0.0025058615981083132 0 -0.018309146809674486 -0.0024778487960519079 0 -0.01809164455804619 -0.0028431079887932462 0 -0.018265861792810926 -0.0027752768853574806 0 -0.018066517799301025 -0.0025058615981083132 0 -0.01786246325859504 -0.0025800361921951395 0 -0.01809164455804619 -0.0028431079887932462 0 -0.018066517799301025 -0.0025058615981083132 0 -0.018542919590592264 -0.0019666429055907107 0 -0.018309146809674486 -0.0024778487960519079 0 -0.018062493354570153 -0.0021471265147095992 0 -0.018066517799301025 -0.0025058615981083132 0 -0.018062493354570153 -0.0021471265147095992 0 -0.017816773589377388 -0.0022972000111389263 0 -0.018066517799301025 -0.0025058615981083132 0 -0.018309146809674486 -0.0024778487960519079 0 -0.018062493354570153 -0.0021471265147095992 0 -0.018062493354570153 -0.0021471265147095992 0 -0.017774956280146435 -0.0020215885929017307 0 -0.017816773589377388 -0.0022972000111389263 0 -0.017774956280146435 -0.0020215885929017307 0 -0.017816773589377388 -0.0022972000111389263 0 -0.017659269037854662 -0.0022545465844430197 0 -0.017544137717024413 -0.0023804292593759039 0 -0.017659269037854662 -0.0022545465844430197 0 -0.017472067182088012 -0.0021469417960863035 0 -0.017692044054344856 -0.0024261725330168727 0 -0.017544137717024413 -0.0023804292593759039 0 -0.017659269037854662 -0.0022545465844430197 0 -0.017692044054344856 -0.0024261725330168727 0 -0.017816773589377388 -0.0022972000111389263 0 -0.017659269037854662 -0.0022545465844430197 0 -0.017543908345235726 -0.0017157624259848117 0 -0.017774956280146435 -0.0020215885929017307 0 -0.017472067182088012 -0.0021469417960863035 0 -0.017774956280146435 -0.0020215885929017307 0 -0.017659269037854662 -0.0022545465844430197 0 -0.017472067182088012 -0.0021469417960863035 0 -0.017543908345235726 -0.0017157624259848117 0 -0.017190518583414742 -0.0018619502849829817 0 -0.017472067182088012 -0.0021469417960863035 0 -0.017190518583414742 -0.0018619502849829817 0 -0.017472067182088012 -0.0021469417960863035 0 -0.017337119769848423 -0.0024682454562264837 0 -0.017544137717024413 -0.0023804292593759039 0 -0.017472067182088012 -0.0021469417960863035 0 -0.017337119769848423 -0.0024682454562264837 0 -0.016027747848811096 -0.0017499268089381421 0 -0.015472683173418707 -0.0016029411568464751 0 -0.017190518583414742 -0.0018619502849829817 0 -0.016811940470237662 -0.001995489892976406 0 -0.017337119769848423 -0.0024682454562264837 0 -0.015309837602288301 -0.0010340179520135489 0 -0.015207301137925179 -0.0015423735748727719 0 -0.013976496958438602 -0.00076668634353924126 0 -0.015207301137925179 -0.0015423735748727719 0 -0.01383157102638018 -0.00087927635272218145 0 -0.013976496958438602 -0.00076668634353924126 0 -0.017544137717024413 -0.0023804292593759039 0 -0.017703949458176816 -0.0026456943994629823 0 -0.017337119769848423 -0.0024682454562264837 0 -0.01383157102638018 -0.00087927635272218145 0 -0.013976496958438602 -0.00076668634353924126 0 -0.013795052175154003 -0.00070394719442865201 0 -0.013976496958438602 -0.00076668634353924126 0 -0.013795052175154003 -0.00070394719442865201 0 -0.013650187949721393 -0.00068588995652623947 0 -0.013795052175154003 -0.00070394719442865201 0 -0.013650187949721393 -0.00068588995652623947 0 -0.013747770146055865 -0.00068296018601471311 0 -0.013976496958438602 -0.00076668634353924126 0 -0.013650187949721393 -0.00068588995652623947 0 -0.013341007503259991 -0.00070333585313265494 0 -0.013650187949721393 -0.00068588995652623947 0 -0.013341007503259991 -0.00070333585313265494 0 -0.013496918647597195 -0.00081381421334218674 0 -0.013650187949721393 -0.00068588995652623947 0 -0.013496918647597195 -0.00081381421334218674 0 -0.013747770146055865 -0.00068296018601471311 0 -0.015309837602288301 -0.0010340179520135489 0 -0.013976496958438602 -0.00076668634353924126 0 -0.015251604680676907 -0.0008676239448535811 0 -0.013898469746212654 -0.00083462866375773293 0 -0.013856360476297753 -0.00082511545924882329 0 -0.013976496958438602 -0.00076668634353924126 0 -0.013341007503259991 -0.00070333585313265494 0 -0.012553638134230261 -0.00063246988877783635 0 -0.013341007503259991 -0.00070333585313265494 0 -0.012553638134230261 -0.00063246988877783635 0 -0.013034374019056135 -0.0010816867727663029 0 -0.012553638134230261 -0.00063246988877783635 0 -0.013034374019056135 -0.0010816867727663029 0 -0.012203516733606775 -0.0015381260961891739 0 -0.013496918647597195 -0.00081381421334218674 0 -0.013034374019056135 -0.0010816867727663029 0 -0.0136248740410757 -0.001209250916853152 0 -0.013341007503259991 -0.00070333585313265494 0 -0.013496918647597195 -0.00081381421334218674 0 -0.013034374019056135 -0.0010816867727663029 0 -0.0136248740410757 -0.001209250916853152 0 -0.013783818584074204 -0.00078206772478431167 0 -0.014654149104164835 -0.0010296788480676344 0 -0.013496918647597195 -0.00081381421334218674 0 -0.0136248740410757 -0.001209250916853152 0 -0.013783818584074204 -0.00078206772478431167 0 -0.013496918647597195 -0.00081381421334218674 0 -0.013783818584074204 -0.00078206772478431167 0 -0.013747770146055865 -0.00068296018601471311 0 -0.013795052175154003 -0.00070394719442865201 0 -0.013747770146055865 -0.00068296018601471311 0 -0.013954545669993584 -0.00053475907482968172 0 -0.013783818584074204 -0.00078206772478431167 0 -0.013747770146055865 -0.00068296018601471311 0 -0.013954545669993584 -0.00053475907482968172 0 -0.017371228118091182 -0.0028861174990065692 0 -0.016667916509005502 -0.0020567359682948393 0 -0.016667916509005502 -0.0020567359682948393 0 -0.016316970383009066 -0.0019961192050820826 0 -0.018207331284671967 -0.0030805153483569789 0 -0.018187125220208645 -0.0030765018521836658 0 -0.018137207391044942 -0.0030449921206081717 0 -0.013783818584074204 -0.00078206772478431167 0 -0.013954545669993584 -0.00053475907482968172 0 -0.014654149104164835 -0.0010296788480676344 0 -0.018232265493805098 -0.0030641843397020874 0 -0.018187125220208645 -0.0030765018521836658 0 -0.018137207391044942 -0.0030449921206081717 0 -0.018346842962227411 -0.0030431774549322752 0 -0.01809164455804619 -0.0028431079887932462 0 -0.018187125220208645 -0.0030765018521836658 0 -0.018232265493805098 -0.0030641843397020874 0 -0.018346842962227411 -0.0030431774549322752 0 -0.018187125220208645 -0.0030765018521836658 0 -0.01809164455804619 -0.0028431079887932462 0 -0.017968237994773501 -0.0029783193948789482 0 -0.018187125220208645 -0.0030765018521836658 0 -0.016667916509005502 -0.0020567359682948393 0 -0.018276655699975958 -0.0030935363124596185 0 -0.0136248740410757 -0.001209250916853152 0 -0.014654149104164835 -0.0010296788480676344 0 -0.014681126021925462 -0.001593573660671902 0 -0.015516482053458031 -0.0018869594478243452 0 -0.014681126021925462 -0.001593573660671902 0 -0.014417634166457824 -0.0021662975490169328 0 -0.015516482053458031 -0.0018869594478243452 0 -0.014654149104164835 -0.0010296788480676344 0 -0.014681126021925462 -0.001593573660671902 0 -0.0136248740410757 -0.001209250916853152 0 -0.013894083502155589 -0.0019437845360897614 0 -0.013110641326300637 -0.0018569066825647146 0 -0.0136248740410757 -0.001209250916853152 0 -0.014681126021925462 -0.001593573660671902 0 -0.014417634166457824 -0.0021662975490169328 0 -0.01364447165105028 -0.001240864895816578 0 -0.014160863358679207 -0.0020259294036526188 0 -0.013894083502155589 -0.0019437845360897614 0 -0.013110641326300637 -0.0018569066825647146 0 -0.013527160789209231 -0.0027683941570905619 0 -0.015589938097527045 -0.0026355369514656645 0 -0.015516482053458031 -0.0018869594478243452 0 -0.014417634166457824 -0.0021662975490169328 0 -0.013034374019056135 -0.0010816867727663029 0 -0.012203516733606775 -0.0015381260961891739 0 -0.013110641326300637 -0.0018569066825647146 0 -0.013034374019056135 -0.0010816867727663029 0 -0.0136248740410757 -0.001209250916853152 0 -0.013110641326300637 -0.0018569066825647146 0 -0.013110641326300637 -0.0018569066825647146 0 -0.011984506478285957 -0.0022681976473893947 0 -0.0126191535367783 -0.0025461045731009608 0 -0.012203516733606775 -0.0015381260961891739 0 -0.013110641326300637 -0.0018569066825647146 0 -0.011984506478285957 -0.0022681976473893947 0 -0.011984506478285957 -0.0022681976473893947 0 -0.0126191535367783 -0.0025461045731009608 0 -0.01169061468401161 -0.0033726566204374934 0 -0.013110641326300637 -0.0018569066825647146 0 -0.0126191535367783 -0.0025461045731009608 0 -0.013527160789209231 -0.0027683941570905619 0 -0.0126191535367783 -0.0025461045731009608 0 -0.012768190696803138 -0.0031381250497708856 0 -0.013527160789209231 -0.0027683941570905619 0 -0.0126191535367783 -0.0025461045731009608 0 -0.012768190696803138 -0.0031381250497708856 0 -0.01169061468401161 -0.0033726566204374934 0 -0.012768190696803138 -0.0031381250497708856 0 -0.01169061468401161 -0.0033726566204374934 0 -0.012994237151003226 -0.0038933165958582256 0 -0.015589938097527045 -0.0026355369514656645 0 -0.014417634166457824 -0.0021662975490169328 0 -0.01543456272374734 -0.0033058347152846606 0 -0.014160863358679207 -0.0020259294036526188 0 -0.015009651376249334 -0.0031029384673326148 0 -0.013894083502155589 -0.0019437845360897614 0 -0.014586908814593113 -0.0028333478111228815 0 -0.013527160789209231 -0.0027683941570905619 0 -0.013527160789209231 -0.0027683941570905619 0 -0.01403814853265958 -0.0037369011353480808 0 -0.012994237151003226 -0.0038933165958582256 0 -0.012768190696803138 -0.0031381250497708856 0 -0.013527160789209231 -0.0027683941570905619 0 -0.012994237151003226 -0.0038933165958582256 0 -0.014586908814593113 -0.0028333478111228815 0 -0.01403814853265958 -0.0037369011353480808 0 -0.0145269947908136 -0.003650243509430742 0 -0.014916619075013628 -0.0038660763772410353 0 -0.014586908814593113 -0.0028333478111228815 0 -0.0145269947908136 -0.003650243509430742 0 -0.014586908814593113 -0.0028333478111228815 0 -0.013527160789209231 -0.0027683941570905619 0 -0.01403814853265958 -0.0037369011353480808 0 -0.01403814853265958 -0.0037369011353480808 0 -0.0145269947908136 -0.003650243509430742 0 -0.014507260918616826 -0.0041316206688825543 0 -0.014916619075013628 -0.0038660763772410353 0 -0.0145269947908136 -0.003650243509430742 0 -0.014507260918616826 -0.0041316206688825543 0 -0.014507260918616826 -0.0041316206688825543 0 -0.014211484259795095 -0.0045727587664645625 0 -0.015107372601230433 -0.0044479558660702441 0 -0.014211484259795095 -0.0045727587664645625 0 -0.014758992032077894 -0.0049173021734357876 0 -0.015107372601230433 -0.0044479558660702441 0 -0.01403814853265958 -0.0037369011353480808 0 -0.014507260918616826 -0.0041316206688825543 0 -0.014211484259795095 -0.0045727587664645625 0 -0.01403814853265958 -0.0037369011353480808 0 -0.014211484259795095 -0.0045727587664645625 0 -0.013554116762107176 -0.0044507458268321946 0 -0.01403814853265958 -0.0037369011353480808 0 -0.012994237151003226 -0.0038933165958582256 0 -0.013554116762107176 -0.0044507458268321946 0 -0.012994237151003226 -0.0038933165958582256 0 -0.013554116762107176 -0.0044507458268321946 0 -0.012820453488731644 -0.0048361985643770216 0 -0.013707227377206177 -0.0051926050146301594 0 -0.012820453488731644 -0.0048361985643770216 0 -0.013059883982429334 -0.0055895578011717923 0 -0.014211484259795095 -0.0045727587664645625 0 -0.013554116762107176 -0.0044507458268321946 0 -0.013707227377206177 -0.0051926050146301594 0 -0.013554116762107176 -0.0044507458268321946 0 -0.013707227377206177 -0.0051926050146301594 0 -0.012820453488731644 -0.0048361985643770216 0 -0.013707227377206177 -0.0051926050146301594 0 -0.014325821520083029 -0.0052684444729709191 0 -0.013945306493399442 -0.0059581642168601602 0 -0.014211484259795095 -0.0045727587664645625 0 -0.014325821520083029 -0.0052684444729709191 0 -0.014758992032077894 -0.0049173021734357876 0 -0.014211484259795095 -0.0045727587664645625 0 -0.013707227377206177 -0.0051926050146301594 0 -0.014325821520083029 -0.0052684444729709191 0 -0.01169061468401161 -0.0033726566204374934 0 -0.01187588575586428 -0.0043160335188825068 0 -0.010245803483499839 -0.0043189187690416218 0 -0.01169061468401161 -0.0033726566204374934 0 -0.012994237151003226 -0.0038933165958582256 0 -0.01187588575586428 -0.0043160335188825068 0 -0.012994237151003226 -0.0038933165958582256 0 -0.01187588575586428 -0.0043160335188825068 0 -0.012820453488731644 -0.0048361985643770216 0 -0.01187588575586428 -0.0043160335188825068 0 -0.012820453488731644 -0.0048361985643770216 0 -0.011699845228925469 -0.0055686403627323022 0 -0.012820453488731644 -0.0048361985643770216 0 -0.011699845228925469 -0.0055686403627323022 0 -0.013059883982429334 -0.0055895578011717923 0 -0.010205017099833447 -0.0045340602364673114 0 -0.010247904687904458 -0.0043911645149090003 0 -0.01187588575586428 -0.0043160335188825068 0 -0.011699845228925469 -0.0055686403627323022 0 -0.010245803483499839 -0.0043189187690416218 0 -0.0088947444251415344 -0.0037191234177548181 0 -0.0090056713721701903 -0.003246096123316021 0 -0.008353324601806135 -0.0032019202594243037 0 -0.0088947444251415344 -0.0037191234177548181 0 -0.0090056713721701903 -0.003246096123316021 0 -0.0098368746832904787 -0.0037396185215409728 0 -0.011699845228925469 -0.0055686403627323022 0 -0.012773448354751025 -0.0063006252974038305 0 -0.013059883982429334 -0.0055895578011717923 0 -0.010205017099833447 -0.0045340602364673114 0 -0.011123527672642249 -0.0050064634147735177 0 -0.008353324601806135 -0.0032019202594243037 0 -0.0085579759333272529 -0.0025944405800402228 0 -0.0088306554161293738 -0.0026668450108041134 0 -0.0090056713721701903 -0.003246096123316021 0 -0.008353324601806135 -0.0032019202594243037 0 -0.0088306554161293738 -0.0026668450108041134 0 -0.014325821520083029 -0.0052684444729709191 0 -0.013945306493399442 -0.0059581642168601602 0 -0.014842983851367082 -0.0055780622947418021 0 -0.013945306493399442 -0.0059581642168601602 0 -0.014785909476677777 -0.0063799968433005038 0 -0.014842983851367082 -0.0055780622947418021 0 -0.013707227377206177 -0.0051926050146301594 0 -0.013945306493399442 -0.0059581642168601602 0 -0.013059883982429334 -0.0055895578011717923 0 -0.012773448354751025 -0.0063006252974038305 0 -0.013945306493399442 -0.0059581642168601602 0 -0.013059883982429334 -0.0055895578011717923 0 -0.008353324601806135 -0.0032019202594243037 0 -0.0079338538944220115 -0.0028812868503745241 0 -0.0085579759333272529 -0.0025944405800402228 0 -0.011123527672642249 -0.0050064634147735177 0 -0.0072299939261768276 -0.0047420590112939569 0 -0.012773448354751025 -0.0063006252974038305 0 -0.013945306493399442 -0.0059581642168601602 0 -0.01367428322578901 -0.0069598013782123267 0 -0.0038182724272398795 -0.0049242739558785983 0 -0.0032656372010960257 -0.0045288534682463334 0 -0.0030983121484718505 -0.0052197654949957713 0 -0.013945306493399442 -0.0059581642168601602 0 -0.01367428322578901 -0.0069598013782123267 0 -0.014785909476677777 -0.0063799968433005038 0 -0.0072299939261768276 -0.0047420590112939569 0 -0.0092007181702584533 -0.0058617930324534337 0 -0.0072299939261768276 -0.0047420590112939569 0 -0.002185817660773511 -0.0041866666416612254 0 -0.0026092034606938642 -0.0047473645410106716 0 -0.0021871321022921444 -0.0043785533556391937 0 -0.0026195954910739156 -0.0043284110060858583 0 -0.0021871321022921444 -0.0043785533556391937 0 -0.0022254963162605837 -0.0040299301419861157 0 -0.0026195954910739156 -0.0043284110060858583 0 -0.0028455181599577649 -0.0040091021679306586 0 -0.0026195954910739156 -0.0043284110060858583 0 -0.0032327316794740872 -0.0044750043236901921 0 -0.0022254963162605837 -0.0040299301419861157 0 -0.0028455181599577649 -0.0040091021679306586 0 -0.0026195954910739156 -0.0043284110060858583 0 -0.0026092034606938642 -0.0047473645410106716 0 -0.0026195954910739156 -0.0043284110060858583 0 -0.0032327316794740872 -0.0044750043236901921 0 -0.0072299939261768276 -0.0047420590112939569 0 -0.0055299600136903765 -0.0034887983476477166 0 -0.0055299600136903765 -0.0034887983476477166 0 -0.0063129761728222562 -0.0034222088712602297 0 -0.0085579759333272529 -0.0025944405800402228 0 -0.0088306554161293738 -0.0026668450108041134 0 -0.0088035106854525251 -0.002721235947880621 0 -0.003406935393583865 -0.0040994158621830866 0 -0.0036973140541700267 -0.0038370947374291222 0 -0.0038357386952591337 -0.0041896717567684533 0 -0.0032327316794740872 -0.0044750043236901921 0 -0.003406935393583865 -0.0040994158621830866 0 -0.0038357386952591337 -0.0041896717567684533 0 -0.0028455181599577649 -0.0040091021679306586 0 -0.0032327316794740872 -0.0044750043236901921 0 -0.003406935393583865 -0.0040994158621830866 0 -0.0028455181599577649 -0.0040091021679306586 0 -0.003406935393583865 -0.0040994158621830866 0 -0.0033273779292333854 -0.0038136446230456929 0 -0.0033273779292333854 -0.0038136446230456929 0 -0.0035844304884879515 -0.0035738225028893247 0 -0.0030190346752969259 -0.0033900723502470419 0 -0.0028455181599577649 -0.0040091021679306586 0 -0.0033273779292333854 -0.0038136446230456929 0 -0.0030190346752969259 -0.0033900723502470419 0 -0.0036973140541700267 -0.0038370947374291222 0 -0.0035844304884879515 -0.0035738225028893247 0 -0.0039402227885742339 -0.0035156508460292678 0 -0.003406935393583865 -0.0040994158621830866 0 -0.0033273779292333854 -0.0038136446230456929 0 -0.0036973140541700267 -0.0038370947374291222 0 -0.0033273779292333854 -0.0038136446230456929 0 -0.0036973140541700267 -0.0038370947374291222 0 -0.0035844304884879515 -0.0035738225028893247 0 -0.0035844304884879515 -0.0035738225028893247 0 -0.0039402227885742339 -0.0035156508460292678 0 -0.0037167621159416714 -0.0033352771861147735 0 -0.0035844304884879515 -0.0035738225028893247 0 -0.0030190346752969259 -0.0033900723502470419 0 -0.0037167621159416714 -0.0033352771861147735 0 -0.0025410249277117839 -0.003592963627209669 0 -0.0029734744829866358 -0.0035858581466529909 0 -0.0020613604163318327 -0.0037646486158767517 0 -0.0021888123011950954 -0.0037274954065297915 0 -0.0020377600070459892 -0.0037207941922042802 0 -0.0025410249277117839 -0.003592963627209669 0 -0.0022045597142137095 -0.0037164169646800842 0 -0.0021888123011950954 -0.0037274954065297915 0 -0.0020377600070459892 -0.0037207941922042802 0 -0.0019549615288604752 -0.0036673322725491947 0 -0.0022254963162605837 -0.0040299301419861157 0 -0.0028455181599577649 -0.0040091021679306586 0 -0.0021888123011950954 -0.0037274954065297915 0 -0.0028455181599577649 -0.0040091021679306586 0 -0.0030190346752969259 -0.0033900723502470419 0 -0.0021888123011950954 -0.0037274954065297915 0 -0.0041421733534300655 -0.0035633384433268064 0 -0.0037504832782366639 -0.0034162838782507278 0 -0.0037026098354606888 -0.0035447196870327831 0 -0.0041421733534300655 -0.0035633384433268064 0 -0.0041277463717322507 -0.003443888282978958 0 -0.0046306364716053212 -0.0037351413899309525 0 -0.0041421733534300655 -0.0035633384433268064 0 -0.0041277463717322507 -0.003443888282978958 0 -0.0037504832782366639 -0.0034162838782507278 0 -0.0037504832782366639 -0.0034162838782507278 0 -0.0035192627062671875 -0.0034850809993847358 0 -0.0034156118428931167 -0.0032968803568997375 0 -0.0035192627062671875 -0.0034850809993847358 0 -0.0037026098354606888 -0.0035447196870327831 0 -0.003377784611687197 -0.003568624252972232 0 -0.0037504832782366639 -0.0034162838782507278 0 -0.0035192627062671875 -0.0034850809993847358 0 -0.0037026098354606888 -0.0035447196870327831 0 -0.0041421733534300655 -0.0035633384433268064 0 -0.0037026098354606888 -0.0035447196870327831 0 -0.0040167356475379959 -0.0035228244116704381 0 -0.0040167356475379959 -0.0035228244116704381 0 -0.0039402227885742339 -0.0035156508460292678 0 -0.0041931181129034878 -0.0035998123093522517 0 -0.0040167356475379959 -0.0035228244116704381 0 -0.0039402227885742339 -0.0035156508460292678 0 -0.0039038485934072753 -0.0035306928602162986 0 -0.0037026098354606888 -0.0035447196870327831 0 -0.0040167356475379959 -0.0035228244116704381 0 -0.0039038485934072753 -0.0035306928602162986 0 -0.0036973140541700267 -0.0038370947374291222 0 -0.0039402227885742339 -0.0035156508460292678 0 -0.0040350320754428109 -0.0037564497575795523 0 -0.0039402227885742339 -0.0035156508460292678 0 -0.0040350320754428109 -0.0037564497575795523 0 -0.0041931181129034878 -0.0035998123093522517 0 -0.0040350320754428109 -0.0037564497575795523 0 -0.0041931181129034878 -0.0035998123093522517 0 -0.0046306364716053212 -0.0037351413899309525 0 -0.0041421733534300655 -0.0035633384433268064 0 -0.0040167356475379959 -0.0035228244116704381 0 -0.0041931181129034878 -0.0035998123093522517 0 -0.0041421733534300655 -0.0035633384433268064 0 -0.0041931181129034878 -0.0035998123093522517 0 -0.0046306364716053212 -0.0037351413899309525 0 -0.0086342653482216914 -0.0023056567906921035 0 -0.0092055860643155511 -0.0024307646343799637 0 -0.0094432892233095294 -0.002411479556395557 0 -0.0047787700493300382 -0.0037593812870030767 0 -0.0063129761728222562 -0.0034222088712602297 0 -0.0084702301864116904 -0.0023008291118497837 0 -0.0067656248229428827 -0.0025931240915845863 0 -0.0046306364716053212 -0.0037351413899309525 0 -0.0086342653482216914 -0.0023056567906921035 0 -0.0040054228312664713 -0.0027095427468440455 0 -0.0046306364716053212 -0.0037351413899309525 0 -0.0088035106854525251 -0.002721235947880621 0 -0.0086342653482216914 -0.0023056567906921035 0 -0.0040350320754428109 -0.0037564497575795523 0 -0.0046306364716053212 -0.0037351413899309525 0 -0.0038357386952591337 -0.0041896717567684533 0 -0.0036973140541700267 -0.0038370947374291222 0 -0.0040350320754428109 -0.0037564497575795523 0 -0.0038357386952591337 -0.0041896717567684533 0 -0.0088306554161293738 -0.0026668450108041134 0 -0.0088035106854525251 -0.002721235947880621 0 -0.0086342653482216914 -0.0023056567906921035 0 -0.0086342653482216914 -0.0023056567906921035 0 -0.0090482407061312532 -0.0025267490939018711 0 -0.0092055860643155511 -0.0024307646343799637 0 -0.0086342653482216914 -0.0023056567906921035 0 -0.0090482407061312532 -0.0025267490939018711 0 -0.0090083962328117665 -0.0026758811832112146 0 -0.0090482407061312532 -0.0025267490939018711 0 -0.0090083962328117665 -0.0026758811832112146 0 -0.0093149302199682094 -0.0026775257869469269 0 -0.0088306554161293738 -0.0026668450108041134 0 -0.0086342653482216914 -0.0023056567906921035 0 -0.0090083962328117665 -0.0026758811832112146 0 -0.0093149302199682094 -0.0026775257869469269 0 -0.0093868606650355929 -0.0022307580167470818 0 -0.0099783091421348433 -0.0031998273756259259 0 -0.0092055860643155511 -0.0024307646343799637 0 -0.0093149302199682094 -0.0026775257869469269 0 -0.0093868606650355929 -0.0022307580167470818 0 -0.0090482407061312532 -0.0025267490939018711 0 -0.0092055860643155511 -0.0024307646343799637 0 -0.0093149302199682094 -0.0026775257869469269 0 -0.0087611953835760748 -0.0016211315283809491 0 -0.0093868606650355929 -0.0022307580167470818 0 -0.0089110483796757244 -0.0012935269538058725 0 -0.0087611953835760748 -0.0016211315283809491 0 -0.0093868606650355929 -0.0022307580167470818 0 -0.0087818773960081521 -0.0021236359896399173 0 -0.0092055860643155511 -0.0024307646343799637 0 -0.0093868606650355929 -0.0022307580167470818 0 -0.0094432892233095294 -0.002411479556395557 0 -0.0093868606650355929 -0.0022307580167470818 0 -0.0094432892233095294 -0.002411479556395557 0 -0.0087818773960081521 -0.0021236359896399173 0 -0.0041277463717322507 -0.003443888282978958 0 -0.0037504832782366639 -0.0034162838782507278 0 -0.0040054228312664713 -0.0027095427468440455 0 -0.0041277463717322507 -0.003443888282978958 0 -0.0046306364716053212 -0.0037351413899309525 0 -0.0040054228312664713 -0.0027095427468440455 0 -0.0067656248229428827 -0.0025931240915845863 0 -0.0055190840836129009 -0.0031331019584127542 0 -0.0094432892233095294 -0.002411479556395557 0 -0.0087818773960081521 -0.0021236359896399173 0 -0.0076839523986550074 -0.0029556416664860228 0 -0.0087818773960081521 -0.0021236359896399173 0 -0.0082615764763758082 -0.0016191345371696464 0 -0.0076839523986550074 -0.0029556416664860228 0 -0.0037504832782366639 -0.0034162838782507278 0 -0.0040054228312664713 -0.0027095427468440455 0 -0.0034156118428931167 -0.0032968803568997375 0 -0.0087611953835760748 -0.0016211315283809491 0 -0.0087818773960081521 -0.0021236359896399173 0 -0.0082615764763758082 -0.0016191345371696464 0 -0.0087611953835760748 -0.0016211315283809491 0 -0.0082615764763758082 -0.0016191345371696464 0 -0.0085923885804958869 -0.0013171358581826383 0 -0.0087611953835760748 -0.0016211315283809491 0 -0.0085923885804958869 -0.0013171358581826383 0 -0.0089110483796757244 -0.0012935269538058725 0 -0.0093987164645432802 -0.0022869988658227054 0 -0.0094395722032867974 -0.0022997951404610112 0 -0.0094395722032867974 -0.0022997951404610112 0 -0.0094578591042234917 -0.0026299563963972932 0 -0.0089110483796757244 -0.0012935269538058725 0 -0.0087201244303054745 -0.0013185844540870267 0 -0.0087481056382206716 -0.0013344814220679084 0 -0.0085923885804958869 -0.0013171358581826383 0 -0.0087201244303054745 -0.0013185844540870267 0 -0.0087702099318230121 -0.0013998068655262192 0 -0.0085923885804958869 -0.0013171358581826383 0 -0.0089110483796757244 -0.0012935269538058725 0 -0.0087201244303054745 -0.0013185844540870267 0 -0.0090056713721701903 -0.003246096123316021 0 -0.0088306554161293738 -0.0026668450108041134 0 -0.0093247637794886123 -0.0030629504316774183 0 -0.0088306554161293738 -0.0026668450108041134 0 -0.0090083962328117665 -0.0026758811832112146 0 -0.0093247637794886123 -0.0030629504316774183 0 -0.0090083962328117665 -0.0026758811832112146 0 -0.0093149302199682094 -0.0026775257869469269 0 -0.0093247637794886123 -0.0030629504316774183 0 -0.0093149302199682094 -0.0026775257869469269 0 -0.0099783091421348433 -0.0031998273756259259 0 -0.0093247637794886123 -0.0030629504316774183 0 -0.0099783091421348433 -0.0031998273756259259 0 -0.0093247637794886123 -0.0030629504316774183 0 -0.0098368746832904787 -0.0037396185215409728 0 -0.0099783091421348433 -0.0031998273756259259 0 -0.0098368746832904787 -0.0037396185215409728 0 -0.010174256054412375 -0.0039472567272883959 0 -0.0090056713721701903 -0.003246096123316021 0 -0.0093247637794886123 -0.0030629504316774183 0 -0.0098368746832904787 -0.0037396185215409728 0 -0.0088947444251415344 -0.0037191234177548181 0 -0.0098368746832904787 -0.0037396185215409728 0 -0.010245803483499839 -0.0043189187690416218 0 -0.0098368746832904787 -0.0037396185215409728 0 -0.010245803483499839 -0.0043189187690416218 0 -0.010174487237289703 -0.0040775865936172086 0 -0.0098368746832904787 -0.0037396185215409728 0 -0.010174487237289703 -0.0040775865936172086 0 -0.010174256054412375 -0.0039472567272883959 0 -0.010174487237289703 -0.0040775865936172086 0 -0.010174256054412375 -0.0039472567272883959 0 -0.0099538387379265354 -0.0037710109638626455 0 -0.010551593266148705 -0.0036671499796343799 0 -0.010174487237289703 -0.0040775865936172086 0 -0.0099538387379265354 -0.0037710109638626455 0 -0.010551593266148705 -0.0036671499796343799 0 -0.01169061468401161 -0.0033726566204374934 0 -0.010245803483499839 -0.0043189187690416218 0 -0.010551593266148705 -0.0036671499796343799 0 -0.010245803483499839 -0.0043189187690416218 0 -0.010174487237289703 -0.0040775865936172086 0 -0.0087201244303054745 -0.0013185844540870267 0 -0.0087724991093109921 -0.0013822055127949589 0 -0.0087702099318230121 -0.0013998068655262192 0 -0.0087201244303054745 -0.0013185844540870267 0 -0.0087481056382206716 -0.0013344814220679084 0 -0.0087724991093109921 -0.0013822055127949589 0 -0.0087481056382206716 -0.0013344814220679084 0 -0.0087599073143533809 -0.0014075781095539642 0 -0.0087724991093109921 -0.0013822055127949589 0 -0.0094578591042234917 -0.0026299563963972932 0 -0.0092761586614480071 -0.0025487156380812202 0 -0.0087831409261352519 -0.0014160187503939659 0 -0.0087599073143533809 -0.0014075781095539642 0 -0.0087724991093109921 -0.0013822055127949589 0 -0.0087950652037099737 -0.001407991028921112 0 -0.0087831409261352519 -0.0014160187503939659 0 -0.0087724991093109921 -0.0013822055127949589 0 -0.010057111659162317 -0.0019133421448160447 0 -0.0098427451529743571 -0.0019711875520145206 0 -0.011691135375692897 -0.0023699554243434579 0 -0.01169838321555319 -0.0023723821107109488 0 -0.011672609858228508 -0.0023790435499964238 0 -0.0087950652037099737 -0.001407991028921112 0 -0.0087724991093109921 -0.0013822055127949589 0 -0.0087878667446327392 -0.0013935389920375707 0 -0.0098427451529743571 -0.0019711875520145206 0 -0.0086236574893348468 -0.001230581359677133 0 -0.0087724991093109921 -0.0013822055127949589 0 -0.0087878667446327392 -0.0013935389920375707 0 -0.0087702099318230121 -0.0013998068655262192 0 -0.0090333330459462131 -0.001965538951326421 0 -0.0087702099318230121 -0.0013998068655262192 0 -0.009087845606519011 -0.0012925795780786094 0 -0.0090333330459462131 -0.001965538951326421 0 -0.0095619206081652922 -0.0014488331624772865 0 -0.009087845606519011 -0.0012925795780786094 0 -0.0098427451529743571 -0.0019711875520145206 0 -0.0092877572470587699 -0.0016343117642990568 0 -0.0089167814008223809 -0.0022535983166386193 0 -0.0098477438915242164 -0.0023114496977367847 0 -0.0095619206081652922 -0.0014488331624772865 0 -0.010479873391006514 -0.0027374475587565636 0 -0.0098427451529743571 -0.0019711875520145206 0 -0.011683874589836649 -0.0023729107933178123 0 -0.011691135375692897 -0.0023699554243434579 0 -0.011672609858228508 -0.0023790435499964238 0 -0.0093110752311635781 -0.0031035147378146773 0 -0.0089167814008223809 -0.0022535983166386193 0 -0.0098477438915242164 -0.0023114496977367847 0 -0.010528133923392972 -0.0031132888481129428 0 -0.0098477438915242164 -0.0023114496977367847 0 -0.011278458279013427 -0.0020631818905678108 0 -0.010528133923392972 -0.0031132888481129428 0 -0.0093110752311635781 -0.0031035147378146773 0 -0.0098477438915242164 -0.0023114496977367847 0 -0.011680559864107208 -0.0031408688616380502 0 -0.010528133923392972 -0.0031132888481129428 0 -0.011278458279013427 -0.0020631818905678108 0 -0.0063681833692954565 -0.0020154318242210202 0 -0.0063823722246364846 -0.0017517138965031679 0 -0.0063888132436151742 -0.0018305952735154533 0 -0.0063681833692954565 -0.0020154318242210202 0 -0.0063888132436151742 -0.0018305952735154533 0 -0.0064007063897573019 -0.0018967026958847848 0 -0.0088313738824463972 -0.0020576897744484248 0 -0.0081425400209857758 -0.0015324139743121798 0 -0.0098477438915242164 -0.0023114496977367847 0 -0.011278458279013427 -0.0020631818905678108 0 -0.0099937036249962002 -0.0018008027506545212 0 -0.011278458279013427 -0.0020631818905678108 0 -0.0099937036249962002 -0.0018008027506545212 0 -0.0098428986748635323 -0.0012745673347616144 0 -0.0098477438915242164 -0.0023114496977367847 0 -0.0099937036249962002 -0.0018008027506545212 0 -0.0095619206081652922 -0.0014488331624772865 0 -0.0099937036249962002 -0.0018008027506545212 0 -0.0095619206081652922 -0.0014488331624772865 0 -0.0098428986748635323 -0.0012745673347616144 0 -0.0063823722246364846 -0.0017517138965031679 0 -0.0064099910245316496 -0.001727452298233689 0 -0.0063888132436151742 -0.0018305952735154533 0 -0.0063823722246364846 -0.0017517138965031679 0 -0.0064099910245316496 -0.001727452298233689 0 -0.0064609855478911099 -0.0016241850168318649 0 -0.0063888132436151742 -0.0018305952735154533 0 -0.0063937690716110171 -0.0018012535710965772 0 -0.0064007063897573019 -0.0018967026958847848 0 -0.0064099910245316496 -0.001727452298233689 0 -0.0063888132436151742 -0.0018305952735154533 0 -0.0063937690716110171 -0.0018012535710965772 0 -0.0063937690716110171 -0.0018012535710965772 0 -0.0064007063897573019 -0.0018967026958847848 0 -0.0063959966138286252 -0.001863700588121306 0 -0.0063936787496310411 -0.0018197695701887091 0 -0.0063959966138286252 -0.001863700588121306 0 -0.006384797424513056 -0.0018605955777706447 0 -0.0063936787496310411 -0.0018197695701887091 0 -0.0064006587678329943 -0.0017598587709815746 0 -0.006384797424513056 -0.0018605955777706447 0 -0.0063937690716110171 -0.0018012535710965772 0 -0.0063936787496310411 -0.0018197695701887091 0 -0.0063959966138286252 -0.001863700588121306 0 -0.0064099910245316496 -0.001727452298233689 0 -0.0063937690716110171 -0.0018012535710965772 0 -0.0064006587678329943 -0.0017598587709815746 0 -0.0063937690716110171 -0.0018012535710965772 0 -0.0063936787496310411 -0.0018197695701887091 0 -0.0064006587678329943 -0.0017598587709815746 0 -0.0064609855478911099 -0.0016241850168318649 0 -0.0064006587678329943 -0.0017598587709815746 0 -0.0064758495706877571 -0.0017173666413197448 0 -0.0064099910245316496 -0.001727452298233689 0 -0.0064609855478911099 -0.0016241850168318649 0 -0.0064006587678329943 -0.0017598587709815746 0 -0.0064609855478911099 -0.0016241850168318649 0 -0.0064758495706877571 -0.0017173666413197448 0 -0.0066958895279901802 -0.0013384233027664595 0 -0.0064758495706877571 -0.0017173666413197448 0 -0.0066958895279901802 -0.0013384233027664595 0 -0.0068569582045071176 -0.0016426418556708959 0 -0.0082807910611882932 -0.0016363630954075339 0 -0.0078308207162231056 -0.0012897430869782834 0 -0.0082615764763758082 -0.0016191345371696464 0 -0.0085923885804958869 -0.0013171358581826383 0 -0.0088176940275989484 -0.0011253975904170674 0 -0.0082615764763758082 -0.0016191345371696464 0 -0.0066958895279901802 -0.0013384233027664595 0 -0.0068569582045071176 -0.0016426418556708959 0 -0.0088176940275989484 -0.0011253975904170674 0 -0.0087702099318230121 -0.0013998068655262192 0 -0.009087845606519011 -0.0012925795780786094 0 -0.0085923885804958869 -0.0013171358581826383 0 -0.0088176940275989484 -0.0011253975904170674 0 -0.0087702099318230121 -0.0013998068655262192 0 -0.0081425400209857758 -0.0015324139743121798 0 -0.0078308207162231056 -0.0012897430869782834 0 -0.0095619206081652922 -0.0014488331624772865 0 -0.0098428986748635323 -0.0012745673347616144 0 -0.009087845606519011 -0.0012925795780786094 0 -0.0098428986748635323 -0.0012745673347616144 0 -0.0088176940275989484 -0.0011253975904170674 0 -0.009087845606519011 -0.0012925795780786094 0 -0.0063823722246364846 -0.0017517138965031679 0 -0.0064609855478911099 -0.0016241850168318649 0 -0.0066958895279901802 -0.0013384233027664595 0 -0.0066603418388011086 -0.0020817501188916086 0 -0.0067919655769700027 -0.0021770050565325396 0 -0.0066149564734424814 -0.0021204707121963394 0 -0.0066603418388011086 -0.0020817501188916086 0 -0.0067919655769700027 -0.0021770050565325396 0 -0.006771641259165872 -0.0021300881021110046 0 -0.0070614110278296267 -0.002385885287808268 0 -0.0072941748046076553 -0.0019723064825530566 0 -0.0070764959304499596 -0.0023944850703263437 0 -0.0067919655769700027 -0.0021770050565325396 0 -0.006771641259165872 -0.0021300881021110046 0 -0.0066575189078108953 -0.0023232737229030458 0 -0.0070764959304499596 -0.0023944850703263437 0 -0.0067919655769700027 -0.0021770050565325396 0 -0.0066575189078108953 -0.0023232737229030458 0 -0.0066149564734424814 -0.0021204707121963394 0 -0.0065396864573541054 -0.0021841646359706418 0 -0.0066575189078108953 -0.0023232737229030458 0 -0.0067919655769700027 -0.0021770050565325396 0 -0.0066149564734424814 -0.0021204707121963394 0 -0.0066603418388011086 -0.0020817501188916086 0 -0.0066149564734424814 -0.0021204707121963394 0 -0.0065033018030290013 -0.0019981915323362457 0 -0.0066149564734424814 -0.0021204707121963394 0 -0.0064653367428840107 -0.0020440387308548434 0 -0.0065033018030290013 -0.0019981915323362457 0 -0.0066149564734424814 -0.0021204707121963394 0 -0.0064653367428840107 -0.0020440387308548434 0 -0.0065396864573541054 -0.0021841646359706418 0 -0.0064322101997875683 -0.0022772780802439454 0 -0.0066575189078108953 -0.0023232737229030458 0 -0.0065396864573541054 -0.0021841646359706418 0 -0.0064322101997875683 -0.0022772780802439454 0 -0.0064653367428840107 -0.0020440387308548434 0 -0.0065396864573541054 -0.0021841646359706418 0 -0.0094897798454168791 -0.0026806127899002682 0 -0.0088313738824463972 -0.0020576897744484248 0 -0.0064322101997875683 -0.0022772780802439454 0 -0.0063681833692954565 -0.0020154318242210202 0 -0.0064653367428840107 -0.0020440387308548434 0 -0.011680559864107208 -0.0031408688616380502 0 -0.012575127859636496 -0.0030975972032522736 0 -0.011278458279013427 -0.0020631818905678108 0 -0.0063681833692954565 -0.0020154318242210202 0 -0.0064653367428840107 -0.0020440387308548434 0 -0.0064007063897573019 -0.0018967026958847848 0 -0.0064653367428840107 -0.0020440387308548434 0 -0.0064007063897573019 -0.0018967026958847848 0 -0.006431470386185298 -0.001941251798559238 0 -0.0064007063897573019 -0.0018967026958847848 0 -0.0063959966138286252 -0.001863700588121306 0 -0.006431470386185298 -0.001941251798559238 0 -0.0063959966138286252 -0.001863700588121306 0 -0.0063897487303744265 -0.0019162199580097948 0 -0.006384797424513056 -0.0018605955777706447 0 -0.0063959966138286252 -0.001863700588121306 0 -0.0063897487303744265 -0.0019162199580097948 0 -0.006431470386185298 -0.001941251798559238 0 -0.0063897487303744265 -0.0019162199580097948 0 -0.006431470386185298 -0.001941251798559238 0 -0.0065033018030290013 -0.0019981915323362457 0 -0.0064653367428840107 -0.0020440387308548434 0 -0.006431470386185298 -0.001941251798559238 0 -0.0065033018030290013 -0.0019981915323362457 0 -0.0065033018030290013 -0.0019981915323362457 0 -0.0063905915562885805 -0.0020103615817540256 0 -0.0065574577893985232 -0.0020526956166036499 0 -0.0063897487303744265 -0.0019162199580097948 0 -0.0065033018030290013 -0.0019981915323362457 0 -0.0063905915562885805 -0.0020103615817540256 0 -0.0063905915562885805 -0.0020103615817540256 0 -0.0065574577893985232 -0.0020526956166036499 0 -0.0065358079348464557 -0.0019995662250049595 0 -0.0066603418388011086 -0.0020817501188916086 0 -0.0065033018030290013 -0.0019981915323362457 0 -0.0065574577893985232 -0.0020526956166036499 0 -0.0061777059649649867 -0.0020659254023499417 0 -0.0062750472214225996 -0.0017886519798329123 0 -0.0065358079348464557 -0.0019995662250049595 0 -0.0063905915562885805 -0.0020103615817540256 0 -0.0061777059649649867 -0.0020659254023499417 0 -0.0065358079348464557 -0.0019995662250049595 0 -0.0063897487303744265 -0.0019162199580097948 0 -0.0063905915562885805 -0.0020103615817540256 0 -0.0061777059649649867 -0.0020659254023499417 0 -0.0061777059649649867 -0.0020659254023499417 0 -0.0057338625141022774 -0.0017556883620762906 0 -0.0062750472214225996 -0.0017886519798329123 0 -0.0050070170358549144 -0.0022726076650182985 0 -0.0049141994705836963 -0.0017755414876298977 0 -0.0057338625141022774 -0.0017556883620762906 0 -0.0061777059649649867 -0.0020659254023499417 0 -0.0050070170358549144 -0.0022726076650182985 0 -0.0057338625141022774 -0.0017556883620762906 0 -0.0061342481337978453 -0.0020794231225528697 0 -0.0056971049587371154 -0.0020863033014326938 0 -0.0063897487303744265 -0.0019162199580097948 0 -0.0061777059649649867 -0.0020659254023499417 0 -0.0063783947466659798 -0.001949921168440939 0 -0.0063897487303744265 -0.0019162199580097948 0 -0.0063783947466659798 -0.001949921168440939 0 -0.006384797424513056 -0.0018605955777706447 0 -0.0050070170358549144 -0.0022726076650182985 0 -0.0047665529604221024 -0.0020290909802942155 0 -0.0049141994705836963 -0.0017755414876298977 0 -0.0047665529604221024 -0.0020290909802942155 0 -0.0049141994705836963 -0.0017755414876298977 0 -0.0045079585085563397 -0.0018256549818993666 0 -0.0048037016539366735 -0.0017445359829128244 0 -0.0045079585085563397 -0.0018256549818993666 0 -0.0048268407994513703 -0.0016309439693400092 0 -0.0044270815137370557 -0.0018298702969201319 0 -0.0041360764885479103 -0.001825786891000874 0 -0.0049141994705836963 -0.0017755414876298977 0 -0.0048037016539366735 -0.0017445359829128244 0 -0.0045079585085563397 -0.0018256549818993666 0 -0.0049141994705836963 -0.0017755414876298977 0 -0.0048037016539366735 -0.0017445359829128244 0 -0.004825124111100379 -0.001700310312431629 0 -0.0048037016539366735 -0.0017445359829128244 0 -0.004825124111100379 -0.001700310312431629 0 -0.0048268407994513703 -0.0016309439693400092 0 -0.0049347662270123006 -0.0017466754641793062 0 -0.0052115866947583765 -0.0014953552858509762 0 -0.0049141994705836963 -0.0017755414876298977 0 -0.0056503021954152008 -0.0012337295333557867 0 -0.0057338625141022774 -0.0017556883620762906 0 -0.0057338625141022774 -0.0017556883620762906 0 -0.0061040101131957826 -0.0013609094449576397 0 -0.0062750472214225996 -0.0017886519798329123 0 -0.0052115866947583765 -0.0014953552858509762 0 -0.0054819458951903049 -0.00128740794777222 0 -0.0056503021954152008 -0.0012337295333557867 0 -0.0057338625141022774 -0.0017556883620762906 0 -0.0061040101131957826 -0.0013609094449576397 0 -0.0056503021954152008 -0.0012337295333557867 0 -0.0061040101131957826 -0.0013609094449576397 0 -0.0060996608648097488 -0.00099335339017888637 0 -0.0061040101131957826 -0.0013609094449576397 0 -0.0064038585406059369 -0.0010594501562648986 0 -0.0060996608648097488 -0.00099335339017888637 0 -0.0061040101131957826 -0.0013609094449576397 0 -0.0064038585406059369 -0.0010594501562648986 0 -0.0064559368773516425 -0.0014990248194864007 0 -0.0061040101131957826 -0.0013609094449576397 0 -0.0062750472214225996 -0.0017886519798329123 0 -0.0064559368773516425 -0.0014990248194864007 0 -0.0062750472214225996 -0.0017886519798329123 0 -0.0065367929292742388 -0.0017930596184161775 0 -0.0064559368773516425 -0.0014990248194864007 0 -0.0055622164223151516 -0.0025064906545201977 0 -0.0065064534712917926 -0.0019513807846520573 0 -0.0047036062660590783 -0.0019461785534246677 0 -0.0055622164223151516 -0.0025064906545201977 0 -0.0076839523986550074 -0.0029556416664860228 0 -0.0065064534712917926 -0.0019513807846520573 0 -0.0082615764763758082 -0.0016191345371696464 0 -0.0076839523986550074 -0.0029556416664860228 0 -0.0065064534712917926 -0.0019513807846520573 0 -0.0082615764763758082 -0.0016191345371696464 0 -0.0068569582045071176 -0.0016426418556708959 0 -0.0065064534712917926 -0.0019513807846520573 0 -0.0064758495706877571 -0.0017173666413197448 0 -0.0068569582045071176 -0.0016426418556708959 0 -0.0065064534712917926 -0.0019513807846520573 0 -0.0064758495706877571 -0.0017173666413197448 0 -0.0065064534712917926 -0.0019513807846520573 0 -0.0063815106757759837 -0.0018615567660366227 0 -0.0064006587678329943 -0.0017598587709815746 0 -0.0064758495706877571 -0.0017173666413197448 0 -0.0063815106757759837 -0.0018615567660366227 0 -0.0064477325229942376 -0.0019364083399369578 0 -0.0055892487931732144 -0.0019295661372836562 0 -0.0056971049587371154 -0.0020863033014326938 0 -0.0055892487931732144 -0.0019295661372836562 0 -0.0064006587678329943 -0.0017598587709815746 0 -0.0063815106757759837 -0.0018615567660366227 0 -0.006384797424513056 -0.0018605955777706447 0 -0.0063783947466659798 -0.001949921168440939 0 -0.0063815106757759837 -0.0018615567660366227 0 -0.006384797424513056 -0.0018605955777706447 0 -0.0047665529604221024 -0.0020290909802942155 0 -0.0047036062660590783 -0.0019461785534246677 0 -0.004743940499127952 -0.0021097225337321553 0 -0.0050070170358549144 -0.0022726076650182985 0 -0.0047665529604221024 -0.0020290909802942155 0 -0.0047036062660590783 -0.0019461785534246677 0 -0.0055622164223151516 -0.0025064906545201977 0 -0.0047036062660590783 -0.0019461785534246677 0 -0.0049656277006762091 -0.0022595285720472097 0 -0.0047036062660590783 -0.0019461785534246677 0 -0.0049656277006762091 -0.0022595285720472097 0 -0.004743940499127952 -0.0021097225337321553 0 -0.0055622164223151516 -0.0025064906545201977 0 -0.0049656277006762091 -0.0022595285720472097 0 -0.0050766110258811418 -0.0023125170158137167 0 -0.0050766110258811418 -0.0023125170158137167 0 -0.0048501270992163453 -0.0021701785173276174 0 -0.0050065732790307129 -0.0022508441874337843 0 -0.0049656277006762091 -0.0022595285720472097 0 -0.0050766110258811418 -0.0023125170158137167 0 -0.0048501270992163453 -0.0021701785173276174 0 -0.0049656277006762091 -0.0022595285720472097 0 -0.0048501270992163453 -0.0021701785173276174 0 -0.004743940499127952 -0.0021097225337321553 0 -0.0048501270992163453 -0.0021701785173276174 0 -0.004743940499127952 -0.0021097225337321553 0 -0.0046766581647378494 -0.0020658706874422134 0 -0.0048501270992163453 -0.0021701785173276174 0 -0.0046766581647378494 -0.0020658706874422134 0 -0.0050065732790307129 -0.0022508441874337843 0 -0.004743940499127952 -0.0021097225337321553 0 -0.0045079585085563397 -0.0018256549818993666 0 -0.0046766581647378494 -0.0020658706874422134 0 -0.0047665529604221024 -0.0020290909802942155 0 -0.004743940499127952 -0.0021097225337321553 0 -0.0045079585085563397 -0.0018256549818993666 0 -0.0045079585085563397 -0.0018256549818993666 0 -0.0046766581647378494 -0.0020658706874422134 0 -0.0041683830071492824 -0.0020124310226203798 0 -0.0046766581647378494 -0.0020658706874422134 0 -0.0050065732790307129 -0.0022508441874337843 0 -0.0044751218581783048 -0.0020235553146772623 0 -0.0046766581647378494 -0.0020658706874422134 0 -0.0044751218581783048 -0.0020235553146772623 0 -0.0041683830071492824 -0.0020124310226203798 0 -0.0045023335829362686 -0.0030359389624289444 0 -0.0038769027968230943 -0.0026987523568503691 0 -0.0033041732005084441 -0.0034059800205617748 0 -0.0033576072970801503 -0.0035062972166005927 0 -0.0033395861216451786 -0.0034978678548531171 0 -0.0055622164223151516 -0.0025064906545201977 0 -0.0076839523986550074 -0.0029556416664860228 0 -0.005389030085225243 -0.0032164451600559803 0 -0.0055190840836129009 -0.0031331019584127542 0 -0.0045023335829362686 -0.0030359389624289444 0 -0.0051101534328886885 -0.0023887489256690592 0 -0.0045023335829362686 -0.0030359389624289444 0 -0.0055622164223151516 -0.0025064906545201977 0 -0.0050766110258811418 -0.0023125170158137167 0 -0.0050065732790307129 -0.0022508441874337843 0 -0.0035192627062671875 -0.0034850809993847358 0 -0.0034156118428931167 -0.0032968803568997375 0 -0.0033576072970801503 -0.0035062972166005927 0 -0.0034156118428931167 -0.0032968803568997375 0 -0.0033041732005084441 -0.0034059800205617748 0 -0.0033576072970801503 -0.0035062972166005927 0 -0.0035192627062671875 -0.0034850809993847358 0 -0.0033576072970801503 -0.0035062972166005927 0 -0.003377784611687197 -0.003568624252972232 0 -0.0033576072970801503 -0.0035062972166005927 0 -0.0032699966535114774 -0.0034746621739774417 0 -0.003377784611687197 -0.003568624252972232 0 -0.0032699966535114774 -0.0034746621739774417 0 -0.0033395861216451786 -0.0034978678548531171 0 -0.0033862707630103383 -0.0033652153682914025 0 -0.0033576072970801503 -0.0035062972166005927 0 -0.0032699966535114774 -0.0034746621739774417 0 -0.0033395861216451786 -0.0034978678548531171 0 -0.0044751218581783048 -0.0020235553146772623 0 -0.0041683830071492824 -0.0020124310226203798 0 -0.0040277992363799984 -0.0023464475596264838 0 -0.0041683830071492824 -0.0020124310226203798 0 -0.0040277992363799984 -0.0023464475596264838 0 -0.0034632937423923048 -0.0023536206540503927 0 -0.0038769027968230943 -0.0026987523568503691 0 -0.0036964542669961358 -0.0028461124076658239 0 -0.0033862707630103383 -0.0033652153682914025 0 -0.0033678865089934677 -0.0029009963859765093 0 -0.0032435485633930754 -0.0032054195817261119 0 -0.0036964542669961358 -0.0028461124076658239 0 -0.0034252797980424215 -0.0028867329986978587 0 -0.0040277992363799984 -0.0023464475596264838 0 -0.0033678865089934677 -0.0029009963859765093 0 -0.0034632937423923048 -0.0023536206540503927 0 -0.0033678865089934677 -0.0029009963859765093 0 -0.0032435485633930754 -0.0032054195817261119 0 -0.0031483628529599228 -0.0030417311338340339 0 -0.0031294473618280424 -0.0032259413142884715 0 -0.0032435485633930754 -0.0032054195817261119 0 -0.0031483628529599228 -0.0030417311338340339 0 -0.0032699966535114774 -0.0034746621739774417 0 -0.0033862707630103383 -0.0033652153682914025 0 -0.0032435485633930754 -0.0032054195817261119 0 -0.0032699966535114774 -0.0034746621739774417 0 -0.0031294473618280424 -0.0032259413142884715 0 -0.0030623868963914262 -0.0033385280534522044 0 -0.0032699966535114774 -0.0034746621739774417 0 -0.0031294473618280424 -0.0032259413142884715 0 -0.0032435485633930754 -0.0032054195817261119 0 -0.0046786757291135276 -0.0017001979493757573 0 -0.0047660044389648739 -0.0016489492555459729 0 -0.0046476378913018097 -0.0016916401509306448 0 -0.0046786757291135276 -0.0017001979493757573 0 -0.0046359594485463999 -0.0017509078655691605 0 -0.0046327204091999238 -0.0016919634126463712 0 -0.0046786757291135276 -0.0017001979493757573 0 -0.0047082453642879364 -0.0017578502337644182 0 -0.0046359594485463999 -0.0017509078655691605 0 -0.0046786757291135276 -0.0017001979493757573 0 -0.0047557394066270273 -0.0016974629408885557 0 -0.0047082453642879364 -0.0017578502337644182 0 -0.0046786757291135276 -0.0017001979493757573 0 -0.0047660044389648739 -0.0016489492555459729 0 -0.0047557394066270273 -0.0016974629408885557 0 -0.0048539642058460031 -0.0014182720792219529 0 -0.0052414411395289174 -0.0013577173618167788 0 -0.0054819458951903049 -0.00128740794777222 0 -0.0052414411395289174 -0.0013577173618167788 0 -0.0064038585406059369 -0.0010594501562648986 0 -0.0060996608648097488 -0.00099335339017888637 0 -0.0064482884555305386 -0.00074913004302047442 0 -0.0047660044389648739 -0.0016489492555459729 0 -0.0048019609177890671 -0.0016636235609084654 0 -0.0047557394066270273 -0.0016974629408885557 0 -0.004825124111100379 -0.001700310312431629 0 -0.0047660044389648739 -0.0016489492555459729 0 -0.0048019609177890671 -0.0016636235609084654 0 -0.0048019609177890671 -0.0016636235609084654 0 -0.0048032621089625863 -0.0017364238530898654 0 -0.0047557394066270273 -0.0016974629408885557 0 -0.0048032621089625863 -0.0017364238530898654 0 -0.0047557394066270273 -0.0016974629408885557 0 -0.0047082453642879364 -0.0017578502337644182 0 -0.0048019609177890671 -0.0016636235609084654 0 -0.0048032621089625863 -0.0017364238530898654 0 -0.0048268407994513703 -0.0016309439693400092 0 -0.0027616364186483677 -0.0022277313228455196 0 -0.0034556545443150213 -0.0019428178171966674 0 -0.0034632937423923048 -0.0023536206540503927 0 -0.0037752886297737691 -0.0019911766881392152 0 -0.0041360764885479103 -0.001825786891000874 0 -0.004825124111100379 -0.001700310312431629 0 -0.0048019609177890671 -0.0016636235609084654 0 -0.0048268407994513703 -0.0016309439693400092 0 -0.0045079585085563397 -0.0018256549818993666 0 -0.0041683830071492824 -0.0020124310226203798 0 -0.0034556545443150213 -0.0019428178171966674 0 -0.0041683830071492824 -0.0020124310226203798 0 -0.0034556545443150213 -0.0019428178171966674 0 -0.0034632937423923048 -0.0023536206540503927 0 -0.0033678865089934677 -0.0029009963859765093 0 -0.0029631281765084582 -0.0026491637683194701 0 -0.0028955954503104399 -0.0028661901429468486 0 -0.0033678865089934677 -0.0029009963859765093 0 -0.0034632937423923048 -0.0023536206540503927 0 -0.0029631281765084582 -0.0026491637683194701 0 -0.0027616364186483677 -0.0022277313228455196 0 -0.0029631281765084582 -0.0026491637683194701 0 -0.0025282480613743755 -0.0026337142832647004 0 -0.0027616364186483677 -0.0022277313228455196 0 -0.0034632937423923048 -0.0023536206540503927 0 -0.0029631281765084582 -0.0026491637683194701 0 -0.0037752886297737691 -0.0019911766881392152 0 -0.0034683575362175149 -0.0021765789515227371 0 -0.0027616364186483677 -0.0022277313228455196 0 -0.0025282480613743755 -0.0026337142832647004 0 -0.0022338285686715528 -0.0024639393245989624 0 -0.0048032621089625863 -0.0017364238530898654 0 -0.0047190231868952538 -0.0018637142434260372 0 -0.0047082453642879364 -0.0017578502337644182 0 -0.0025282480613743755 -0.0026337142832647004 0 -0.0022338285686715528 -0.0024639393245989624 0 -0.002054745843068367 -0.0028184102845793921 0 -0.0034683575362175149 -0.0021765789515227371 0 -0.0031725995793478652 -0.0023954724888373153 0 -0.0047190231868952538 -0.0018637142434260372 0 -0.0046328602287085243 -0.0018143935630272779 0 -0.0045371480215537748 -0.00190527476905142 0 -0.0047190231868952538 -0.0018637142434260372 0 -0.0045371480215537748 -0.00190527476905142 0 -0.0045725183429974683 -0.0020921251605826533 0 -0.0047190231868952538 -0.0018637142434260372 0 -0.0046328602287085243 -0.0018143935630272779 0 -0.0047082453642879364 -0.0017578502337644182 0 -0.0046328602287085243 -0.0018143935630272779 0 -0.0047082453642879364 -0.0017578502337644182 0 -0.0046359594485463999 -0.0017509078655691605 0 -0.0017613810205269413 -0.0029797675345430595 0 -0.002054745843068367 -0.0028184102845793921 0 -0.0020370985882389851 -0.0029784437320074107 0 -0.0017613810205269413 -0.0029797675345430595 0 -0.0018038969452932713 -0.0028558508953005044 0 -0.002054745843068367 -0.0028184102845793921 0 -0.0018038969452932713 -0.0028558508953005044 0 -0.002054745843068367 -0.0028184102845793921 0 -0.0017711445976633343 -0.0026841272203754641 0 -0.0022338285686715528 -0.0024639393245989624 0 -0.002054745843068367 -0.0028184102845793921 0 -0.0017711445976633343 -0.0026841272203754641 0 -0.0025282480613743755 -0.0026337142832647004 0 -0.002054745843068367 -0.0028184102845793921 0 -0.0024598839319834335 -0.002857659862978795 0 -0.0020370985882389851 -0.0029784437320074107 0 -0.0024598839319834335 -0.002857659862978795 0 -0.0022505585372818264 -0.003017538712869292 0 -0.002054745843068367 -0.0028184102845793921 0 -0.0020370985882389851 -0.0029784437320074107 0 -0.0024598839319834335 -0.002857659862978795 0 -0.0024598839319834335 -0.002857659862978795 0 -0.0028955954503104399 -0.0028661901429468486 0 -0.0026052722131366304 -0.002972360652486477 0 -0.0024598839319834335 -0.002857659862978795 0 -0.0026052722131366304 -0.002972360652486477 0 -0.0022505585372818264 -0.003017538712869292 0 -0.0029631281765084582 -0.0026491637683194701 0 -0.0025282480613743755 -0.0026337142832647004 0 -0.0024598839319834335 -0.002857659862978795 0 -0.0029631281765084582 -0.0026491637683194701 0 -0.0024598839319834335 -0.002857659862978795 0 -0.0028955954503104399 -0.0028661901429468486 0 -0.0028955954503104399 -0.0028661901429468486 0 -0.0026052722131366304 -0.002972360652486477 0 -0.0030003470135083932 -0.0029296699624376155 0 -0.0026052722131366304 -0.002972360652486477 0 -0.0030003470135083932 -0.0029296699624376155 0 -0.0028000788471107731 -0.0030345679083745572 0 -0.0026052722131366304 -0.002972360652486477 0 -0.0022192947984657554 -0.0031477111182984952 0 -0.0028000788471107731 -0.0030345679083745572 0 -0.0028000788471107731 -0.0030345679083745572 0 -0.0026824842841961676 -0.0032672601369193774 0 -0.0023322324827639534 -0.0032919149455944144 0 -0.0022192947984657554 -0.0031477111182984952 0 -0.0028000788471107731 -0.0030345679083745572 0 -0.0023322324827639534 -0.0032919149455944144 0 -0.0022192947984657554 -0.0031477111182984952 0 -0.0018099441295935561 -0.0033700254925353853 0 -0.0023322324827639534 -0.0032919149455944144 0 -0.0026052722131366304 -0.002972360652486477 0 -0.0022192947984657554 -0.0031477111182984952 0 -0.0022505585372818264 -0.003017538712869292 0 -0.0020370985882389851 -0.0029784437320074107 0 -0.0022505585372818264 -0.003017538712869292 0 -0.001927267815134231 -0.0031388736611160741 0 -0.0022192947984657554 -0.0031477111182984952 0 -0.0022505585372818264 -0.003017538712869292 0 -0.001927267815134231 -0.0031388736611160741 0 -0.0022192947984657554 -0.0031477111182984952 0 -0.0018318892550232358 -0.0032555325019144434 0 -0.0018099441295935561 -0.0033700254925353853 0 -0.0022192947984657554 -0.0031477111182984952 0 -0.001927267815134231 -0.0031388736611160741 0 -0.0018318892550232358 -0.0032555325019144434 0 -0.001927267815134231 -0.0031388736611160741 0 -0.0018318892550232358 -0.0032555325019144434 0 -0.0015947950376018281 -0.0032625981534971519 0 -0.001927267815134231 -0.0031388736611160741 0 -0.0015947950376018281 -0.0032625981534971519 0 -0.0017250642869791083 -0.0031240600448404154 0 -0.0018318892550232358 -0.0032555325019144434 0 -0.0015947950376018281 -0.0032625981534971519 0 -0.0015277716777581615 -0.0033625505890001258 0 -0.0015947950376018281 -0.0032625981534971519 0 -0.0017250642869791083 -0.0031240600448404154 0 -0.0014900151657854825 -0.0032182996200250508 0 -0.0020370985882389851 -0.0029784437320074107 0 -0.001927267815134231 -0.0031388736611160741 0 -0.0017250642869791083 -0.0031240600448404154 0 -0.0017613810205269413 -0.0029797675345430595 0 -0.0020370985882389851 -0.0029784437320074107 0 -0.0017250642869791083 -0.0031240600448404154 0 -0.0031294473618280424 -0.0032259413142884715 0 -0.0031483628529599228 -0.0030417311338340339 0 -0.0029062356921492078 -0.0030561415931093351 0 -0.0030324547843344715 -0.0029495293992021316 0 -0.0031483628529599228 -0.0030417311338340339 0 -0.0029062356921492078 -0.0030561415931093351 0 -0.0030324547843344715 -0.0029495293992021316 0 -0.0031506195523296277 -0.0029347952273257013 0 -0.0030709055062823408 -0.0029200628155227368 0 -0.0030324547843344715 -0.0029495293992021316 0 -0.0031483628529599228 -0.0030417311338340339 0 -0.0031506195523296277 -0.0029347952273257013 0 -0.0033678865089934677 -0.0029009963859765093 0 -0.0031483628529599228 -0.0030417311338340339 0 -0.0031506195523296277 -0.0029347952273257013 0 -0.0033678865089934677 -0.0029009963859765093 0 -0.0030003470135083932 -0.0029296699624376155 0 -0.0031506195523296277 -0.0029347952273257013 0 -0.0033678865089934677 -0.0029009963859765093 0 -0.0028955954503104399 -0.0028661901429468486 0 -0.0030003470135083932 -0.0029296699624376155 0 -0.0030003470135083932 -0.0029296699624376155 0 -0.0031506195523296277 -0.0029347952273257013 0 -0.0030709055062823408 -0.0029200628155227368 0 -0.0030709055062823408 -0.0029200628155227368 0 -0.0028000788471107731 -0.0030345679083745572 0 -0.0030134098240198626 -0.002919703152879918 0 -0.0030003470135083932 -0.0029296699624376155 0 -0.0030709055062823408 -0.0029200628155227368 0 -0.0028000788471107731 -0.0030345679083745572 0 -0.0028000788471107731 -0.0030345679083745572 0 -0.0029022851802863593 -0.0032921059632336257 0 -0.0026824842841961676 -0.0032672601369193774 0 -0.0028000788471107731 -0.0030345679083745572 0 -0.0030134098240198626 -0.002919703152879918 0 -0.0030170306521099173 -0.0028859059299764438 0 -0.0027939688896639449 -0.003000586807803407 0 -0.0029684420804409885 -0.0031210311638932842 0 -0.0030709055062823408 -0.0029200628155227368 0 -0.0030134098240198626 -0.002919703152879918 0 -0.0030081635266345956 -0.002872877244738311 0 -0.0030134098240198626 -0.002919703152879918 0 -0.0030323216117453485 -0.0028251529773321397 0 -0.0030170306521099173 -0.0028859059299764438 0 -0.0030134098240198626 -0.002919703152879918 0 -0.0030081635266345956 -0.002872877244738311 0 -0.0030323216117453485 -0.0028251529773321397 0 -0.0030081635266345956 -0.002872877244738311 0 -0.0029496317292203251 -0.0028786711765765439 0 -0.0029272432367554329 -0.0027925418368682803 0 -0.0030081635266345956 -0.002872877244738311 0 -0.0029272432367554329 -0.0027925418368682803 0 -0.0030323216117453485 -0.0028251529773321397 0 -0.0030324547843344715 -0.0029495293992021316 0 -0.0030709055062823408 -0.0029200628155227368 0 -0.0029496317292203251 -0.0028786711765765439 0 -0.0030709055062823408 -0.0029200628155227368 0 -0.0030081635266345956 -0.002872877244738311 0 -0.0029496317292203251 -0.0028786711765765439 0 -0.0030324547843344715 -0.0029495293992021316 0 -0.0029496317292203251 -0.0028786711765765439 0 -0.0028098968491712009 -0.0028911181597609135 0 -0.0029496317292203251 -0.0028786711765765439 0 -0.0029272432367554329 -0.0027925418368682803 0 -0.0027986308026205862 -0.0027785757383058276 0 -0.0029272432367554329 -0.0027925418368682803 0 -0.0027986308026205862 -0.0027785757383058276 0 -0.002747267149472459 -0.0026826215387070864 0 -0.0027986308026205862 -0.0027785757383058276 0 -0.0026864648889900543 -0.002790036206879426 0 -0.002598341609335753 -0.0026388394828590041 0 -0.0025237643374557387 -0.0027122081812430798 0 -0.0026864648889900543 -0.002790036206879426 0 -0.002598341609335753 -0.0026388394828590041 0 -0.0025237643374557387 -0.0027122081812430798 0 -0.0026864648889900543 -0.002790036206879426 0 -0.0025901486923962879 -0.0028666111089508104 0 -0.0026864648889900543 -0.002790036206879426 0 -0.0025901486923962879 -0.0028666111089508104 0 -0.0028098968491712009 -0.0028911181597609135 0 -0.0029496317292203251 -0.0028786711765765439 0 -0.0027986308026205862 -0.0027785757383058276 0 -0.0028098968491712009 -0.0028911181597609135 0 -0.0027986308026205862 -0.0027785757383058276 0 -0.0026864648889900543 -0.002790036206879426 0 -0.0028098968491712009 -0.0028911181597609135 0 -0.0030324547843344715 -0.0029495293992021316 0 -0.0028098968491712009 -0.0028911181597609135 0 -0.0029062356921492078 -0.0030561415931093351 0 -0.0025901486923962879 -0.0028666111089508104 0 -0.0028098968491712009 -0.0028911181597609135 0 -0.0029062356921492078 -0.0030561415931093351 0 -0.0025901486923962879 -0.0028666111089508104 0 -0.0029062356921492078 -0.0030561415931093351 0 -0.0025621276485720446 -0.0030329779618400322 0 -0.0029062356921492078 -0.0030561415931093351 0 -0.0025621276485720446 -0.0030329779618400322 0 -0.0027250524139655506 -0.0032054554105898658 0 -0.0024352443017203657 -0.0031421705541110814 0 -0.0022979412413089984 -0.0030253617538712704 0 -0.002208246349042999 -0.0031432855051673242 0 -0.0024352443017203657 -0.0031421705541110814 0 -0.0025621276485720446 -0.0030329779618400322 0 -0.0022979412413089984 -0.0030253617538712704 0 -0.0024352443017203657 -0.0031421705541110814 0 -0.0025621276485720446 -0.0030329779618400322 0 -0.0027250524139655506 -0.0032054554105898658 0 -0.0025901486923962879 -0.0028666111089508104 0 -0.0025621276485720446 -0.0030329779618400322 0 -0.002368756107306419 -0.0029195126018637606 0 -0.0025621276485720446 -0.0030329779618400322 0 -0.002368756107306419 -0.0029195126018637606 0 -0.0022979412413089984 -0.0030253617538712704 0 -0.002368756107306419 -0.0029195126018637606 0 -0.0022979412413089984 -0.0030253617538712704 0 -0.0021982082531292373 -0.0029043367277868317 0 -0.002368756107306419 -0.0029195126018637606 0 -0.0021803250195557094 -0.0027740029808278827 0 -0.0021982082531292373 -0.0029043367277868317 0 -0.0023835873036416239 -0.0028075720065771741 0 -0.0022580903980012855 -0.0027142606779814744 0 -0.0021803250195557094 -0.0027740029808278827 0 -0.002368756107306419 -0.0029195126018637606 0 -0.0023835873036416239 -0.0028075720065771741 0 -0.0021803250195557094 -0.0027740029808278827 0 -0.0025901486923962879 -0.0028666111089508104 0 -0.0023835873036416239 -0.0028075720065771741 0 -0.0024140163423619731 -0.0027293576154038416 0 -0.0025901486923962879 -0.0028666111089508104 0 -0.002368756107306419 -0.0029195126018637606 0 -0.0023835873036416239 -0.0028075720065771741 0 -0.0024140163423619731 -0.0027293576154038416 0 -0.002301023490868108 -0.0026552741347687708 0 -0.0023271455856105024 -0.0025908933050288767 0 -0.0025237643374557387 -0.0027122081812430798 0 -0.0024140163423619731 -0.0027293576154038416 0 -0.0023271455856105024 -0.0025908933050288767 0 -0.0025237643374557387 -0.0027122081812430798 0 -0.0025901486923962879 -0.0028666111089508104 0 -0.0024140163423619731 -0.0027293576154038416 0 -0.0022580903980012855 -0.0027142606779814744 0 -0.0021449931705959007 -0.0026428951286922662 0 -0.0021803250195557094 -0.0027740029808278827 0 -0.0024140163423619731 -0.0027293576154038416 0 -0.0022580903980012855 -0.0027142606779814744 0 -0.002301023490868108 -0.0026552741347687708 0 -0.0023835873036416239 -0.0028075720065771741 0 -0.0024140163423619731 -0.0027293576154038416 0 -0.0022580903980012855 -0.0027142606779814744 0 -0.0022580903980012855 -0.0027142606779814744 0 -0.002301023490868108 -0.0026552741347687708 0 -0.0022087506229055043 -0.0025960334596844183 0 -0.0022580903980012855 -0.0027142606779814744 0 -0.0021449931705959007 -0.0026428951286922662 0 -0.0022087506229055043 -0.0025960334596844183 0 -0.0021449931705959007 -0.0026428951286922662 0 -0.0020690616745505722 -0.0026725675431971043 0 -0.0021803250195557094 -0.0027740029808278827 0 -0.0021449931705959007 -0.0026428951286922662 0 -0.0020690616745505722 -0.0026725675431971043 0 -0.002007159936974466 -0.0026167919021687202 0 -0.0018352528026669773 -0.0026579365277059051 0 -0.0019093540694783389 -0.0025857343360280124 0 -0.001871529624501711 -0.002841428942590974 0 -0.0020690616745505722 -0.0026725675431971043 0 -0.002007159936974466 -0.0026167919021687202 0 -0.002034316559186448 -0.0027457434052838058 0 -0.0019517511638827785 -0.0026076998800101821 0 -0.0018788486404529674 -0.0028348095072578774 0 -0.0018352528026669773 -0.0026579365277059051 0 -0.001871529624501711 -0.002841428942590974 0 -0.0018000712690546615 -0.0029440893633306303 0 -0.0017191101983596549 -0.0025396036612051558 0 -0.0017876493513749147 -0.0029339113011870935 0 -0.002007159936974466 -0.0026167919021687202 0 -0.001871529624501711 -0.002841428942590974 0 -0.002034316559186448 -0.0027457434052838058 0 -0.001871529624501711 -0.002841428942590974 0 -0.0020499589601993429 -0.0028498632145431023 0 -0.002034316559186448 -0.0027457434052838058 0 -0.0020499589601993429 -0.0028498632145431023 0 -0.0021803250195557094 -0.0027740029808278827 0 -0.0021982082531292373 -0.0029043367277868317 0 -0.0020690616745505722 -0.0026725675431971043 0 -0.0021803250195557094 -0.0027740029808278827 0 -0.002034316559186448 -0.0027457434052838058 0 -0.0020499589601993429 -0.0028498632145431023 0 -0.0021803250195557094 -0.0027740029808278827 0 -0.002034316559186448 -0.0027457434052838058 0 -0.0012307739337318461 -0.0023689634301144128 0 -0.001172854766359695 -0.0027016186682665413 0 -0.00069771802736535461 -0.0022622679919022514 0 -0.0012307739337318461 -0.0023689634301144128 0 -0.00093548984232364179 -0.0019679024236976699 0 -0.00069771802736535461 -0.0022622679919022514 0 -0.0016059037149915786 -0.0023905034724559879 0 -0.0012307739337318461 -0.0023689634301144128 0 -0.0012873665408689042 -0.0020807771318205655 0 -0.0016059037149915786 -0.0023905034724559879 0 -0.0012307739337318461 -0.0023689634301144128 0 -0.0014890344950218288 -0.0026813388937492032 0 -0.0012307739337318461 -0.0023689634301144128 0 -0.0012873665408689042 -0.0020807771318205655 0 -0.00093548984232364179 -0.0019679024236976699 0 -0.0014890344950218288 -0.0026813388937492032 0 -0.001172854766359695 -0.0027016186682665413 0 -0.0015407289539187514 -0.0028794971746189794 0 -0.0016059037149915786 -0.0023905034724559879 0 -0.0014890344950218288 -0.0026813388937492032 0 -0.0018000712690546615 -0.0029440893633306303 0 -0.0012307739337318461 -0.0023689634301144128 0 -0.0014890344950218288 -0.0026813388937492032 0 -0.001172854766359695 -0.0027016186682665413 0 -0.001172854766359695 -0.0027016186682665413 0 -0.0013956050537884462 -0.0028668934183853196 0 -0.0015407289539187514 -0.0028794971746189794 0 -0.001172854766359695 -0.0027016186682665413 0 -0.0013956050537884462 -0.0028668934183853196 0 -0.0013212030792597454 -0.0028464176169640536 0 -0.0014890344950218288 -0.0026813388937492032 0 -0.0015407289539187514 -0.0028794971746189794 0 -0.0018000712690546615 -0.0029440893633306303 0 -0.0013956050537884462 -0.0028668934183853196 0 -0.0015407289539187514 -0.0028794971746189794 0 -0.0016853820330704069 -0.0030403441731076618 0 -0.0015407289539187514 -0.0028794971746189794 0 -0.0016853820330704069 -0.0030403441731076618 0 -0.0018000712690546615 -0.0029440893633306303 0 -0.0016853820330704069 -0.0030403441731076618 0 -0.0019442008206040228 -0.0030797449622677235 0 -0.0018359761627013823 -0.003218408940492867 0 -0.0016853820330704069 -0.0030403441731076618 0 -0.0016175038506496607 -0.0032282846353942261 0 -0.0018359761627013823 -0.003218408940492867 0 -0.0014420715384916595 -0.0028876807135497918 0 -0.001693388794352965 -0.0031780688483481335 0 -0.0013956050537884462 -0.0028668934183853196 0 -0.0017922374990395401 -0.003123522515040568 0 -0.0014524822943128141 -0.0029948100097836813 0 -0.0017922374990395401 -0.003123522515040568 0 -0.0015730734286328299 -0.0032100100726803198 0 -0.0014524822943128141 -0.0029948100097836813 0 -0.0013956050537884462 -0.0028668934183853196 0 -0.0016853820330704069 -0.0030403441731076618 0 -0.0016175038506496607 -0.0032282846353942261 0 -0.0022979412413089984 -0.0030253617538712704 0 -0.0020995680010575425 -0.0029787673828458594 0 -0.0021982082531292373 -0.0029043367277868317 0 -0.0020499589601993429 -0.0028498632145431023 0 -0.0020995680010575425 -0.0029787673828458594 0 -0.0021982082531292373 -0.0029043367277868317 0 -0.001871529624501711 -0.002841428942590974 0 -0.0020499589601993429 -0.0028498632145431023 0 -0.0019556083892047151 -0.0029354028918594684 0 -0.0020499589601993429 -0.0028498632145431023 0 -0.0020995680010575425 -0.0029787673828458594 0 -0.0019556083892047151 -0.0029354028918594684 0 -0.001871529624501711 -0.002841428942590974 0 -0.0019556083892047151 -0.0029354028918594684 0 -0.0018000712690546615 -0.0029440893633306303 0 -0.0016853820330704069 -0.0030403441731076618 0 -0.0018000712690546615 -0.0029440893633306303 0 -0.0019442008206040228 -0.0030797449622677235 0 -0.0019556083892047151 -0.0029354028918594684 0 -0.0018000712690546615 -0.0029440893633306303 0 -0.0019442008206040228 -0.0030797449622677235 0 -0.0020995680010575425 -0.0029787673828458594 0 -0.0019556083892047151 -0.0029354028918594684 0 -0.0019442008206040228 -0.0030797449622677235 0 -0.0019442008206040228 -0.0030797449622677235 0 -0.0020545538066246952 -0.0033004309045240794 0 -0.0018359761627013823 -0.003218408940492867 0 -0.0019442008206040228 -0.0030797449622677235 0 -0.002208246349042999 -0.0031432855051673242 0 -0.0020545538066246952 -0.0033004309045240794 0 -0.0020995680010575425 -0.0029787673828458594 0 -0.0019442008206040228 -0.0030797449622677235 0 -0.002208246349042999 -0.0031432855051673242 0 -0.0022979412413089984 -0.0030253617538712704 0 -0.0020995680010575425 -0.0029787673828458594 0 -0.002208246349042999 -0.0031432855051673242 0 -0.002208246349042999 -0.0031432855051673242 0 -0.0020545538066246952 -0.0033004309045240794 0 -0.0023881968511723708 -0.0033188424221944806 0 -0.0020545538066246952 -0.0033004309045240794 0 -0.0018359761627013823 -0.003218408940492867 0 -0.0018460776383286996 -0.0035008961786834624 0 -0.0020545538066246952 -0.0033004309045240794 0 -0.0021563008998107479 -0.0035539830123511641 0 -0.0018460776383286996 -0.0035008961786834624 0 -0.0020545538066246952 -0.0033004309045240794 0 -0.0021563008998107479 -0.0035539830123511641 0 -0.0023881968511723708 -0.0033188424221944806 0 -0.0017922374990395401 -0.003123522515040568 0 -0.0017627455199455203 -0.0034121760608183229 0 -0.0015730734286328299 -0.0032100100726803198 0 -0.0017922374990395401 -0.003123522515040568 0 -0.0020012507787679932 -0.0034634763279503007 0 -0.0017627455199455203 -0.0034121760608183229 0 -0.001693388794352965 -0.0031780688483481335 0 -0.0019193834561860705 -0.0034784011476151882 0 -0.0016175038506496607 -0.0032282846353942261 0 -0.0018359761627013823 -0.003218408940492867 0 -0.0018460776383286996 -0.0035008961786834624 0 -0.0020012507787679932 -0.0034634763279503007 0 -0.0017627455199455203 -0.0034121760608183229 0 -0.0018994923862867363 -0.0036049037562162363 0 -0.0019193834561860705 -0.0034784011476151882 0 -0.0020359213489929365 -0.0036783490850692238 0 -0.0020012507787679932 -0.0034634763279503007 0 -0.0018994923862867363 -0.0036049037562162363 0 -0.0020508625679883288 -0.0036958967150917802 0 -0.0018994923862867363 -0.0036049037562162363 0 -0.0020377600070459892 -0.0037207941922042802 0 -0.0020508625679883288 -0.0036958967150917802 0 -0.0020613604163318327 -0.0037646486158767517 0 -0.0020377600070459892 -0.0037207941922042802 0 -0.0020508625679883288 -0.0036958967150917802 0 -0.0018994923862867363 -0.0036049037562162363 0 -0.0020377600070459892 -0.0037207941922042802 0 -0.0019549615288604752 -0.0036673322725491947 0 -0.0018994923862867363 -0.0036049037562162363 0 -0.0019549615288604752 -0.0036673322725491947 0 -0.001847584347313917 -0.0036230444499434494 0 -0.0021563008998107479 -0.0035539830123511641 0 -0.0022455344326792262 -0.0038237309430949533 0 -0.0024073696667006482 -0.0036022642397191534 0 -0.0021563008998107479 -0.0035539830123511641 0 -0.0018460776383286996 -0.0035008961786834624 0 -0.0020508625679883288 -0.0036958967150917802 0 -0.0021563008998107479 -0.0035539830123511641 0 -0.0020508625679883288 -0.0036958967150917802 0 -0.0022455344326792262 -0.0038237309430949533 0 -0.0020613604163318327 -0.0037646486158767517 0 -0.0020508625679883288 -0.0036958967150917802 0 -0.0022455344326792262 -0.0038237309430949533 0 -0.0029734744829866358 -0.0035858581466529909 0 -0.0032498493019448992 -0.0036532312794682288 0 -0.0022455344326792262 -0.0038237309430949533 0 -0.0024073696667006482 -0.0036022642397191534 0 -0.002618007688842084 -0.0038162472876938636 0 -0.0039402227885742339 -0.0035156508460292678 0 -0.0037167621159416714 -0.0033352771861147735 0 -0.0039038485934072753 -0.0035306928602162986 0 -0.002618007688842084 -0.0038162472876938636 0 -0.0032524307497723889 -0.0036179164721103023 0 -0.0027286465763753133 -0.0034416585300282069 0 -0.0024073696667006482 -0.0036022642397191534 0 -0.002618007688842084 -0.0038162472876938636 0 -0.0027286465763753133 -0.0034416585300282069 0 -0.0037026098354606888 -0.0035447196870327831 0 -0.0039038485934072753 -0.0035306928602162986 0 -0.0032524307497723889 -0.0036179164721103023 0 -0.0037026098354606888 -0.0035447196870327831 0 -0.003377784611687197 -0.003568624252972232 0 -0.0032524307497723889 -0.0036179164721103023 0 -0.0032699966535114774 -0.0034746621739774417 0 -0.0032524307497723889 -0.0036179164721103023 0 -0.0030623868963914262 -0.0033385280534522044 0 -0.0032699966535114774 -0.0034746621739774417 0 -0.003377784611687197 -0.003568624252972232 0 -0.0032524307497723889 -0.0036179164721103023 0 -0.0032498493019448992 -0.0036532312794682288 0 -0.0032725338339661498 -0.0036255580505419158 0 -0.0032524307497723889 -0.0036179164721103023 0 -0.0030623868963914262 -0.0033385280534522044 0 -0.0027286465763753133 -0.0034416585300282069 0 -0.0030623868963914262 -0.0033385280534522044 0 -0.0027250524139655506 -0.0032054554105898658 0 -0.0027286465763753133 -0.0034416585300282069 0 -0.0031294473618280424 -0.0032259413142884715 0 -0.0029062356921492078 -0.0030561415931093351 0 -0.0030623868963914262 -0.0033385280534522044 0 -0.0029062356921492078 -0.0030561415931093351 0 -0.0030623868963914262 -0.0033385280534522044 0 -0.0027250524139655506 -0.0032054554105898658 0 -0.0024352443017203657 -0.0031421705541110814 0 -0.0027250524139655506 -0.0032054554105898658 0 -0.0023881968511723708 -0.0033188424221944806 0 -0.0027250524139655506 -0.0032054554105898658 0 -0.0023881968511723708 -0.0033188424221944806 0 -0.0027286465763753133 -0.0034416585300282069 0 -0.0024352443017203657 -0.0031421705541110814 0 -0.002208246349042999 -0.0031432855051673242 0 -0.0023881968511723708 -0.0033188424221944806 0 -0.0021563008998107479 -0.0035539830123511641 0 -0.0024073696667006482 -0.0036022642397191534 0 -0.0023881968511723708 -0.0033188424221944806 0 -0.0024073696667006482 -0.0036022642397191534 0 -0.0023881968511723708 -0.0033188424221944806 0 -0.0027286465763753133 -0.0034416585300282069 0 0.005207571251225316 -0.00011844845286592318 0 0.0057855121441643502 -0.00018402655624008839 0 0.0051786557304522411 -0.00086842067104647063 0 0.0053322146046958013 -0.00069919059059685487 0 0.0079925398287666281 -0.00028978579070356987 0 0.0053562675805913758 -0.00098641247174284215 0 0.0053742543875907782 -0.0018393451203160801 0 0.0042767799077055553 -0.0010966471118019755 0 0.0057855121441643502 -0.00018402655624008839 0 0.0051786557304522411 -0.00086842067104647063 0 0.0064520052439732316 6.3019720657489494e-08 0 0.0077570412994374177 -5.8869729935734554e-07 0 0.0077447696302232758 -1.706028958220923e-09 0 0.0064583045393127479 -9.4218126033934979e-10 0 0.0077570412994374177 -5.8869729935734554e-07 0 0.0078175783071152104 -1.2295748047984731e-06 0 0.0064583045393127479 -9.4218126033934979e-10 0 0.0079925398287666281 -0.00028978579070356987 0 0.00645369324329465 -1.0093221748810707e-06 0 0.010808072059155356 -0.0014833468960646341 0 0.010656469900724054 1.5346168986014578e-06 0 0.0090368331541356688 -1.3380627100218623e-06 0 0.0077570412994374177 -5.8869729935734554e-07 0 0.0077447696302232758 -1.706028958220923e-09 0 0.0090312312729756861 2.2531699763688772e-09 0 0.0077570412994374177 -5.8869729935734554e-07 0 0.0078175783071152104 -1.2295748047984731e-06 0 0.0090312312729756861 2.2531699763688772e-09 0 0.0079925398287666281 -0.00028978579070356987 0 0.0090358605739981022 -1.3139830283065676e-06 0 0.011746775813228728 0.0030184923616259299 0 0.011533858499494017 0.0024772071528420666 0 0.011911263158105366 0.0021181679529571821 0 0.0079925398287666281 -0.00028978579070356987 0 0.011529860467214515 0.001209169209309222 0 0.011746775813228728 0.0030184923616259299 0 0.010846109216629653 0.0023758033629461073 0 0.011533858499494017 0.0024772071528420666 0 0.0066814179851597657 -0.00053876423107383157 0 0.0066988301685163279 -0.00045935129942237517 0 0.0067424022474710486 -0.00031887395424185384 0 0.0066814179851597657 -0.00053876423107383157 0 0.0066988301685163279 -0.00045935129942237517 0 0.0065676392373388483 -0.0004633977057552716 0 0.0079925398287666281 -0.00028978579070356987 0 0.0091049888270607216 0.0013449586332130747 0 0.0066988301685163279 -0.00045935129942237517 0 0.0069606021369720333 -0.00050454991648757959 0 0.0067424022474710486 -0.00031887395424185384 0 0.0066988301685163279 -0.00045935129942237517 0 0.0065503328074111361 -0.00047627378771163359 0 0.0065676392373388483 -0.0004633977057552716 0 0.0069606021369720333 -0.00050454991648757959 0 0.0070674144377848936 -0.00091383418292098433 0 0.0073812080994191103 -0.00030931978634215714 0 0.0068697906184417125 -0.00055418886709750182 0 0.0056398319169191202 -0.001422296712280271 0 0.0066988301685163279 -0.00045935129942237517 0 0.0069606021369720333 -0.00050454991648757959 0 0.0070674144377848936 -0.00091383418292098433 0 0.0060072599737529117 -0.00086660923770638958 0 0.0065676392373388483 -0.0004633977057552716 0 0.0058671809989269304 -0.00013203392593154472 0 0.0056398319169191202 -0.001422296712280271 0 0.0065896268501168817 -0.00064115106011053955 0 0.0065676392373388483 -0.0004633977057552716 0 0.0058671809989269304 -0.00013203392593154472 0 0.0066493948795916386 -0.00029649156776931839 0 0.0079925398287666281 -0.00028978579070356987 0 0.0050925941081750112 -0.00068952432407785999 0 0.0066814179851597657 -0.00053876423107383157 0 0.0065676392373388483 -0.0004633977057552716 0 0.0066493948795916386 -0.00029649156776931839 0 0.0053562675805913758 -0.00098641247174284215 0 0.0042767799077055553 -0.0010966471118019755 0 0.0044266911172263952 -0.0002636979655027271 0 0.0044266911172263952 -0.0002636979655027271 0 0.0037904739309081816 0.00031568007230574027 0 0.0031638428725024445 -0.00034479468659285618 0 0.0050925941081750112 -0.00068952432407785999 0 0.0045844421841478456 0.00023488018440405759 0 0.0042767799077055553 -0.0010966471118019755 0 0.0044266911172263952 -0.0002636979655027271 0 0.0031638428725024445 -0.00034479468659285618 0 0.0058671809989269304 -0.00013203392593154472 0 0.0066493948795916386 -0.00029649156776931839 0 0.0053969810063766669 0.00076216791908350311 0 0.0037904739309081816 0.00031568007230574027 0 0.0030302739528809187 0.00035376070910269963 0 0.0031638428725024445 -0.00034479468659285618 0 0.0037904739309081816 0.00031568007230574027 0 0.0037323049104279818 0.00062348485798241363 0 0.004254883449462999 0.00026026100923161582 0 0.0032638723040389729 0.00020178619696994187 0 0.0031193044330767154 -0.00011697769655523869 0 0.0037904739309081816 0.00031568007230574027 0 0.0037306218527694609 0.00062794330292697978 0 0.0030302739528809187 0.00035376070910269963 0 0.0031193044330767154 -0.00011697769655523869 0 0.0036415973042080874 0.00019515481583572627 0 0.0044266911172263952 -0.0002636979655027271 0 0.0047250523514730811 0.00053137443576214537 0 0.0052872965031106542 -0.00016946163372185359 0 0.0037323049104279818 0.00062348485798241363 0 0.004254883449462999 0.00026026100923161582 0 0.0047250523514730811 0.00053137443576214537 0 0.0044266911172263952 -0.0002636979655027271 0 0.0037904739309081816 0.00031568007230574027 0 0.004254883449462999 0.00026026100923161582 0 0.0044266911172263952 -0.0002636979655027271 0 0.004254883449462999 0.00026026100923161582 0 0.0047250523514730811 0.00053137443576214537 0 0.0036415973042080874 0.00019515481583572627 0 0.0039580177846239694 7.6439052173605623e-05 0 0.0026673104556736698 0.00042294291628240823 0 0.002621135196454676 0.00042616256656412998 0 0.0026610284357531755 0.00035809675812558902 0 0.0058485477365929879 -0.00012576970436309378 0 0.0057263057138198306 9.9178961908008749e-05 0 0.0056346932566957129 0.00013785342938479523 0 0.0040193492324432367 0.0003091649741239394 0 0.0043808517950570955 0.00027527711570505945 0 0.0044179584158823828 -0.00018752364066376096 0 0.0036415973042080874 0.00019515481583572627 0 0.0050692949837438158 -2.2305979692889793e-06 0 0.0039580177846239694 7.6439052173605623e-05 0 0.0050692949837438158 -2.2305979692889793e-06 0 0.0053562675805913758 -0.00098641247174284215 0 0.0044266911172263952 -0.0002636979655027271 0 0.0052872965031106542 -0.00016946163372185359 0 0.0057855121441643502 -0.00018402655624008839 0 0.0057263057138198306 9.9178961908008749e-05 0 0.0056346932566957129 0.00013785342938479523 0 0.005207571251225316 -0.00011844845286592318 0 0.0057855121441643502 -0.00018402655624008839 0 0.0051550267478985765 0.00059344055698047832 0 0.0058138174909888578 -9.3589214952466242e-05 0 0.0050692949837438158 -2.2305979692889793e-06 0 0.0053322146046958013 -0.00069919059059685487 0 0.0050692949837438158 -2.2305979692889793e-06 0 0.0064520052439732316 6.3019720657489494e-08 0 0.0056346932566957129 0.00013785342938479523 0 0.004958730836754785 -5.9274408079843188e-08 0 0.0057855121441643502 -0.00018402655624008839 0 0.0064520052439732316 6.3019720657489494e-08 0 0.0056346932566957129 0.00013785342938479523 0 0.0058485477365929879 -0.00012576970436309378 0 0.0056346932566957129 0.00013785342938479523 0 0.004958730836754785 -5.9274408079843188e-08 0 0.0027294298875365323 -0.00051827044622978504 0 0.0049519164576254339 -1.8352927101514449e-06 0 0.0033354693465562366 0.00010999118796509568 0 0.0039580177846239694 7.6439052173605623e-05 0 0.0049552549364572478 -3.5906984330274605e-07 0 0.0049519164576254339 -1.8352927101514449e-06 0 0.0033354693465562366 0.00010999118796509568 0 0.0031888595264451861 1.2361321489163256e-06 0 0.0033354693465562366 0.00010999118796509568 0 0.0031888595264451861 1.2361321489163256e-06 0 0.0027528513617363541 0.00021758281639632496 0 0.0027294298875365323 -0.00051827044622978504 0 0.0033354693465562366 0.00010999118796509568 0 0.0026162083930252921 0.00030612849757919228 0 0.002621135196454676 0.00042616256656412998 0 0.0026162083930252921 0.00030612849757919228 0 0.0026610284357531755 0.00035809675812558902 0 0.0039580177846239694 7.6439052173605623e-05 0 0.002427525892603827 0.00025903804868504781 0 0.0033354693465562366 0.00010999118796509568 0 0.0026162083930252921 0.00030612849757919228 0 0.0027528513617363541 0.00021758281639632496 0 0.0026162083930252921 0.00030612849757919228 0 0.0022473928754580697 0.00018559450710410756 0 0.0025654756766287745 0.00015707106030289839 0 0.0026162083930252921 0.00030612849757919228 0 0.0027528513617363541 0.00021758281639632496 0 0.0022473928754580697 0.00018559450710410756 0 0.0031888595264451861 1.2361321489163256e-06 0 0.0027528513617363541 0.00021758281639632496 0 0.001421840357957122 -6.32088084214291e-07 0 0.001421840357957122 -6.32088084214291e-07 0 0.0015901885644708134 -5.5924733993897309e-06 0 0.0022473928754580697 0.00018559450710410756 0 0.0027528513617363541 0.00021758281639632496 0 0.001421840357957122 -6.32088084214291e-07 0 0.0022473928754580697 0.00018559450710410756 0 0.001421840357957122 -6.32088084214291e-07 0 0.0015901885644708134 -5.5924733993897309e-06 0 0.0005911664628097447 -0.00030199332365721449 0 0.0015901885644708134 -5.5924733993897309e-06 0 0.0022473928754580697 0.00018559450710410756 0 0.0023442905708869624 -0.00042692639585804583 0 0.0022473928754580697 0.00018559450710410756 0 0.0023442905708869624 -0.00042692639585804583 0 0.0025576800007569927 -0.00015547987205349225 0 0.0022473928754580697 0.00018559450710410756 0 0.0025576800007569927 -0.00015547987205349225 0 0.0025654756766287745 0.00015707106030289839 0 -0.0012112142504961724 -0.00018318147909927537 0 -0.0019891120183846457 -0.0011059770167107556 0 0.0005911664628097447 -0.00030199332365721449 0 9.4169008936812661e-05 -0.00068537253616129121 0 0.00049532047733125216 -0.00043408267927316053 0 0.0015901885644708134 -5.5924733993897309e-06 0 0.0023442905708869624 -0.00042692639585804583 0 0.0005911664628097447 -0.00030199332365721449 0 -0.00034503249480704164 -7.8135522456922736e-07 0 0.001421840357957122 -6.32088084214291e-07 0 0.0005911664628097447 -0.00030199332365721449 0 -0.00034503249480704164 -7.8135522456922736e-07 0 -0.0012112142504961724 -0.00018318147909927537 0 0.0005911664628097447 -0.00030199332365721449 0 -9.1257270132901478e-05 -0.00072549746512733711 0 -0.0023397089765625884 -0.00067343549226852684 0 -0.0038984511121679072 -0.00073831040323448828 0 -0.0033006399660518099 -0.0011910271636834688 0 -0.0042226694975488364 -0.0010878968267777028 0 0.0026889875686175423 -0.00024257249782627508 0 0.0026810471009075 -0.00026773436505993009 0 0.0020065017342164202 -0.00012824498155701716 0 0.0026810471009075 -0.00026773436505993009 0 0.0027908836043842242 -0.00010364618360850949 0 0.0029708745418100943 -0.00016383930911779222 0 0.0032895425900838727 -0.00012070460563221274 0 0.00068462333256186507 -0.00051526490662001526 0 0.0026810471009075 -0.00026773436505993009 0 0.0020065017342164202 -0.00012824498155701716 0 0.002063770433016008 -0.00044797982099641477 0 0.0026810471009075 -0.00026773436505993009 0 0.0026960720971933878 -0.00013057464170814222 0 0.0027908836043842242 -0.00010364618360850949 0 0.0023442905708869624 -0.00042692639585804583 0 0.0026889875686175423 -0.00024257249782627508 0 0.0025576800007569927 -0.00015547987205349225 0 9.4169008936812661e-05 -0.00068537253616129121 0 -9.1257270132901478e-05 -0.00072549746512733711 0 -0.0030920548058627974 -0.00060484934711345036 0 -0.0019891120183846457 -0.0011059770167107556 0 -0.0033006399660518099 -0.0011910271636834688 0 0.0026810471009075 -0.00026773436505993009 0 0.0026960720971933878 -0.00013057464170814222 0 0.0025576800007569927 -0.00015547987205349225 0 0.0026889875686175423 -0.00024257249782627508 0 0.0026810471009075 -0.00026773436505993009 0 0.0025576800007569927 -0.00015547987205349225 0 0.0026960720971933878 -0.00013057464170814222 0 0.0025576800007569927 -0.00015547987205349225 0 0.0027121711622617511 1.3900089022243388e-05 0 0.0025576800007569927 -0.00015547987205349225 0 0.0027121711622617511 1.3900089022243388e-05 0 0.0025654756766287745 0.00015707106030289839 0 0.0027121711622617511 1.3900089022243388e-05 0 0.0027908836043842242 -0.00010364618360850949 0 0.0028422966258487741 4.162963040736399e-05 0 0.0013006872779262912 -0.00023303218274242779 0 0.00068462333256186507 -0.00051526490662001526 0 0.0028422966258487741 4.162963040736399e-05 0 0.0028905266355052609 0.00017446948419010458 0 0.0029708745418100943 -0.00016383930911779222 0 0.0026960720971933878 -0.00013057464170814222 0 0.0027121711622617511 1.3900089022243388e-05 0 0.0027908836043842242 -0.00010364618360850949 0 0.0027908836043842242 -0.00010364618360850949 0 0.0028422966258487741 4.162963040736399e-05 0 0.0029708745418100943 -0.00016383930911779222 0 0.0027121711622617511 1.3900089022243388e-05 0 0.0028754019558271632 0.00023494908203550589 0 0.0026789064326684015 0.00025207702011466278 0 0.0028754019558271632 0.00023494908203550589 0 0.0026789064326684015 0.00025207702011466278 0 0.0027336598368128419 0.00035473335126790222 0 0.0028422966258487741 4.162963040736399e-05 0 0.0028905266355052609 0.00017446948419010458 0 0.0028829519152469276 0.00020813893423592594 0 0.0027121711622617511 1.3900089022243388e-05 0 0.0028422966258487741 4.162963040736399e-05 0 0.0028829519152469276 0.00020813893423592594 0 0.0030022143173572672 0.00026448899766850435 0 0.0018941789924859854 -0.00017244596384849786 0 -0.00035946325352435995 -0.00062602773749549862 0 -0.00032245107292426284 -0.00082161942522241327 0 -0.0010130949663731677 -0.00090840654914484543 0 0.0013006872779262912 -0.00023303218274242779 0 0.0018941789924859854 -0.00017244596384849786 0 0.0027121711622617511 1.3900089022243388e-05 0 0.0025654756766287745 0.00015707106030289839 0 0.0026789064326684015 0.00025207702011466278 0 0.0026162083930252921 0.00030612849757919228 0 0.0025654756766287745 0.00015707106030289839 0 0.0026789064326684015 0.00025207702011466278 0 0.0027862253505038319 -0.00017477029185825906 0 0.0031356145738295734 -0.00020507216930814204 0 0.0029205391907834882 5.6566978627390089e-05 0 0.0026162083930252921 0.00030612849757919228 0 0.0026789064326684015 0.00025207702011466278 0 0.0026610284357531755 0.00035809675812558902 0 0.0026789064326684015 0.00025207702011466278 0 0.0026610284357531755 0.00035809675812558902 0 0.0027336598368128419 0.00035473335126790222 0 0.0036415973042080874 0.00019515481583572627 0 0.0028228998191329878 0.00022041384448752465 0 0.0026673104556736698 0.00042294291628240823 0 0.0026610284357531755 0.00035809675812558902 0 0.0027336598368128419 0.00035473335126790222 0 0.0019615029230606006 -0.0011235400230794666 0 0.0017392248012504418 3.6380197559540457e-05 0 0.0012623644119948588 -0.00049096512955032045 0 0.0027862253505038319 -0.00017477029185825906 0 0.0026885570476083 0.00029949965026552578 0 0.0029205391907834882 5.6566978627390089e-05 0 0.0031193044330767154 -0.00011697769655523869 0 0.0018941789924859854 -0.00017244596384849786 0 0.0018941789924859854 -0.00017244596384849786 0 0.0028228998191329878 0.00022041384448752465 0 0.0019615029230606006 -0.0011235400230794666 0 0.0012623644119948588 -0.00049096512955032045 0 0.00078395053368669656 -0.0010198683755244685 0 -8.5830991406993525e-05 -0.00133176114637058 0 0.00038041598573255623 -0.0011218157292385326 0 -0.0010993173209901284 -0.0016748534844157571 0 -0.0018672703895970817 -0.0018353104979091359 0 -0.0018592911815126156 -0.0024964588925899035 0 -0.0010993173209901284 -0.0016748534844157571 0 -0.0018672703895970817 -0.0018353104979091359 0 -0.0017373301858034569 -0.0011514988396473772 0 -0.0022544276084727087 -0.0022654836717838299 0 -0.0018672703895970817 -0.0018353104979091359 0 -0.0018592911815126156 -0.0024964588925899035 0 -0.0022544276084727087 -0.0022654836717838299 0 -0.0021319644232779679 -0.0024610614556548954 0 -0.0018592911815126156 -0.0024964588925899035 0 -0.0022544276084727087 -0.0022654836717838299 0 -0.0018672703895970817 -0.0018353104979091359 0 -0.0022984471877994799 -0.0014748241483319637 0 -0.0018672703895970817 -0.0018353104979091359 0 -0.0022984471877994799 -0.0014748241483319637 0 -0.0017373301858034569 -0.0011514988396473772 0 -0.0022544276084727087 -0.0022654836717838299 0 -0.0022984471877994799 -0.0014748241483319637 0 -0.0030709793658130536 -0.001347726583489417 0 -0.002589019878141488 -0.00074893908150345319 0 -0.001564371216361304 -0.00025154303597102571 0 -0.0031219015337345525 0.00053015729160412264 0 -0.0022984471877994799 -0.0014748241483319637 0 -0.002589019878141488 -0.00074893908150345319 0 -0.0030709793658130536 -0.001347726583489417 0 -0.0022984471877994799 -0.0014748241483319637 0 -0.002589019878141488 -0.00074893908150345319 0 -0.0017373301858034569 -0.0011514988396473772 0 -0.002589019878141488 -0.00074893908150345319 0 -0.0017373301858034569 -0.0011514988396473772 0 -0.001564371216361304 -0.00025154303597102571 0 -0.00035946325352435995 -0.00062602773749549862 0 -0.0010130949663731677 -0.00090840654914484543 0 -0.001564371216361304 -0.00025154303597102571 0 0.0018941789924859854 -0.00017244596384849786 0 -8.5830991406993525e-05 -0.00133176114637058 0 -0.00032245107292426284 -0.00082161942522241327 0 -0.0010993173209901284 -0.0016748534844157571 0 -0.0010130949663731677 -0.00090840654914484543 0 -0.0010993173209901284 -0.0016748534844157571 0 -0.0010130949663731677 -0.00090840654914484543 0 -0.0017373301858034569 -0.0011514988396473772 0 -0.0010130949663731677 -0.00090840654914484543 0 -0.0017373301858034569 -0.0011514988396473772 0 -0.001564371216361304 -0.00025154303597102571 0 3.0775247711023625e-05 -0.0010547469330603294 0 -0.0005767630808437464 -0.00032411908817887327 0 -0.0001403650866038941 -0.00021103514141708625 0 -0.00035946325352435995 -0.00062602773749549862 0 -0.001564371216361304 -0.00025154303597102571 0 -0.0016005009814761186 0.00091249031084025053 0 0.0013006872779262912 -0.00023303218274242779 0 -0.0028497481082470988 -0.00092788719818705646 0 -0.0028497481082470988 -0.00092788719818705646 0 0.00068462333256186507 -0.00051526490662001526 0 -0.005487674887065034 -0.0022828603016921225 0 -0.006213412210664189 -0.0019327948790979143 0 -0.0064616605393219293 -0.0025191789126912389 0 -0.0028497481082470988 -0.00092788719818705646 0 -0.0049285228776675153 -0.00099926657151353242 0 -0.001564371216361304 -0.00025154303597102571 0 -0.0016005009814761186 0.00091249031084025053 0 -0.0031219015337345525 0.00053015729160412264 0 -0.0028497481082470988 -0.00092788719818705646 0 -0.0053746524687987773 -0.00087619286704942729 0 -0.0030201536413716483 -0.0015030424219777396 0 -0.0043014312760743028 9.5307715886703e-05 0 -0.0027357829959248677 -0.00066623851711063186 0 -0.005487674887065034 -0.0022828603016921225 0 -0.006213412210664189 -0.0019327948790979143 0 -0.0060411332106787945 -0.0016248952343622801 0 -0.006213412210664189 -0.0019327948790979143 0 -0.0060411332106787945 -0.0016248952343622801 0 -0.006417326750825075 -0.0016800617318005566 0 -0.0061818794029694429 -0.0014331084002052233 0 -0.0060411332106787945 -0.0016248952343622801 0 -0.006417326750825075 -0.0016800617318005566 0 -0.0056042569104742665 -0.0010924446252384449 0 -0.0053746524687987773 -0.00087619286704942729 0 -0.0053746524687987773 -0.00087619286704942729 0 -0.0023397089765625884 -0.00067343549226852684 0 -0.0043014312760743028 9.5307715886703e-05 0 -0.0019119321737088362 -9.6097868380172252e-05 0 -0.0027357829959248677 -0.00066623851711063186 0 -0.0019119321737088362 -9.6097868380172252e-05 0 -0.0017086654039196114 -0.0011617517674232232 0 -0.0027357829959248677 -0.00066623851711063186 0 -0.0023397089765625884 -0.00067343549226852684 0 0.00068462333256186507 -0.00051526490662001526 0 -0.0030201536413716483 -0.0015030424219777396 0 -0.0017086654039196114 -0.0011617517674232232 0 -0.0027357829959248677 -0.00066623851711063186 0 -0.0073642358105285438 -0.0021384271839366806 0 -0.0075374448011369223 -0.0016517009130370861 0 -0.0068029986768327194 -0.0018802864840619434 0 -0.0073642358105285438 -0.0021384271839366806 0 -0.0075374448011369223 -0.0016517009130370861 0 -0.0080501253354518763 -0.0022019061791226221 0 -0.0067268548973220812 -0.0013547257185598722 0 -0.0075374448011369223 -0.0016517009130370861 0 -0.0068029986768327194 -0.0018802864840619434 0 -0.0073642358105285438 -0.0021384271839366806 0 -0.0068029986768327194 -0.0018802864840619434 0 -0.0064616605393219293 -0.0025191789126912389 0 -0.006213412210664189 -0.0019327948790979143 0 -0.006417326750825075 -0.0016800617318005566 0 -0.0068029986768327194 -0.0018802864840619434 0 -0.0067268548973220812 -0.0013547257185598722 0 -0.006417326750825075 -0.0016800617318005566 0 -0.0068029986768327194 -0.0018802864840619434 0 -0.006213412210664189 -0.0019327948790979143 0 -0.0068029986768327194 -0.0018802864840619434 0 -0.0064616605393219293 -0.0025191789126912389 0 -0.0073642358105285438 -0.0021384271839366806 0 -0.0064616605393219293 -0.0025191789126912389 0 -0.0074693281825473634 -0.0026480677693151823 0 -0.0049285228776675153 -0.00099926657151353242 0 -0.0059639130108012561 -0.0012197996038374969 0 -0.0031219015337345525 0.00053015729160412264 0 -0.0046794924296599512 0.00014313269890164036 0 -0.0036173592898618729 -0.00059383071834826667 0 -0.0073642358105285438 -0.0021384271839366806 0 -0.0074693281825473634 -0.0026480677693151823 0 -0.0080501253354518763 -0.0022019061791226221 0 -0.0046794924296599512 0.00014313269890164036 0 -0.0036173592898618729 -0.00059383071834826667 0 -0.0043498615435656725 -0.0015802943925138113 0 -0.0043528072536287111 -0.0012970701655391106 0 -0.0056342237568043282 -0.00015274454635151529 0 -0.0046794924296599512 0.00014313269890164036 0 -0.0043498615435656725 -0.0015802943925138113 0 -0.0062611722015530761 -0.00027269530867197567 0 -0.0043528072536287111 -0.0012970701655391106 0 -0.0076159649128513651 -0.0015214862811860496 0 -0.0036173592898618729 -0.00059383071834826667 0 -0.0030709793658130536 -0.001347726583489417 0 -0.0043498615435656725 -0.0015802943925138113 0 -0.002589019878141488 -0.00074893908150345319 0 -0.0031219015337345525 0.00053015729160412264 0 -0.0036173592898618729 -0.00059383071834826667 0 -0.002589019878141488 -0.00074893908150345319 0 -0.0036173592898618729 -0.00059383071834826667 0 -0.0030709793658130536 -0.001347726583489417 0 -0.0022544276084727087 -0.0022654836717838299 0 -0.0030884082693648125 -0.002232519358741396 0 -0.0039408657641357755 -0.0016085802623479306 0 -0.0022443284720950829 -0.0023315727132616989 0 -0.0043528072536287111 -0.0012970701655391106 0 -0.0022544276084727087 -0.0022654836717838299 0 -0.0030709793658130536 -0.001347726583489417 0 -0.0043498615435656725 -0.0015802943925138113 0 -0.0018096802232774355 -0.00057512581175513295 0 -0.0043528072536287111 -0.0012970701655391106 0 -0.00046819916951724907 0.0010245819427242829 0 -0.0014664246924625908 0.0017288534354681739 0 -0.0014673754385776151 0.00070347628945460891 0 -0.0014664246924625908 0.0017288534354681739 0 -0.002782240850757733 0.0011815007078213673 0 -0.0031028065741984128 0.0022934149625556217 0 -0.0014664246924625908 0.0017288534354681739 0 -0.0014673754385776151 0.00070347628945460891 0 -0.002782240850757733 0.0011815007078213673 0 -0.0024055382828458999 9.6587334093100206e-05 0 -0.0014673754385776151 0.00070347628945460891 0 -0.002782240850757733 0.0011815007078213673 0 -0.0024055382828458999 9.6587334093100206e-05 0 -0.0016831412971893773 -0.0007465353793104318 0 -0.0010620312301417179 -0.00013667829241227226 0 -0.0024055382828458999 9.6587334093100206e-05 0 -0.0014673754385776151 0.00070347628945460891 0 -0.0010620312301417179 -0.00013667829241227226 0 -0.0016831412971893773 -0.0007465353793104318 0 -0.0012449437433226199 -0.0017134899722145438 0 -0.0029579013965779981 -0.0014413253620639663 0 -0.0024055382828458999 9.6587334093100206e-05 0 -0.0016831412971893773 -0.0007465353793104318 0 -0.0029579013965779981 -0.0014413253620639663 0 -0.0016831412971893773 -0.0007465353793104318 0 -0.00093605256726491933 -0.00094404233946653265 0 -0.0010620312301417179 -0.00013667829241227226 0 -0.0016831412971893773 -0.0007465353793104318 0 -0.00093605256726491933 -0.00094404233946653265 0 -0.0012449437433226199 -0.0017134899722145438 0 -0.00037927434472604017 -0.0014303592077015159 0 -0.00093605256726491933 -0.00094404233946653265 0 -0.00017688920467800543 -0.0006925944268405933 0 -0.00037927434472604017 -0.0014303592077015159 0 -0.00017688920467800543 -0.0006925944268405933 0 0.00033738734677249172 -0.0013055800043804599 0 -0.00037927434472604017 -0.0014303592077015159 0 -0.00093605256726491933 -0.00094404233946653265 0 -0.0012449437433226199 -0.0017134899722145438 0 -0.00093605256726491933 -0.00094404233946653265 0 -0.00017688920467800543 -0.0006925944268405933 0 -0.0010620312301417179 -0.00013667829241227226 0 -0.00017688920467800543 -0.0006925944268405933 0 -0.0010620312301417179 -0.00013667829241227226 0 0.00010985605888578878 -0.00036817490833471411 0 0.00024130413667359398 -0.00037326368952104289 0 0.00076267940966917623 0.00015757200502177732 0 -0.0014673754385776151 0.00070347628945460891 0 -0.0010620312301417179 -0.00013667829241227226 0 0.00010985605888578878 -0.00036817490833471411 0 -0.0014673754385776151 0.00070347628945460891 0 -0.00038370133702180751 0.00042738390213935756 0 -0.00010905248386257206 -0.00035367862667141676 0 -0.0015519104643513975 0.00058197366419643121 0 0.00076267940966917623 0.00015757200502177732 0 -0.00046819916951724907 0.0010245819427242829 0 -0.0014673754385776151 0.00070347628945460891 0 -0.00038370133702180751 0.00042738390213935756 0 -0.0022544276084727087 -0.0022654836717838299 0 -0.0030884082693648125 -0.002232519358741396 0 -0.0022206553352667807 -0.0028528511372425671 0 -0.0018096802232774355 -0.00057512581175513295 0 0.0011595102541480373 0.00014294288776334126 0 -0.00046819916951724907 0.0010245819427242829 0 -0.00038370133702180751 0.00042738390213935756 0 0.00051157171545030149 0.00033538940950280716 0 -0.0022544276084727087 -0.0022654836717838299 0 -0.0021319644232779679 -0.0024610614556548954 0 -0.0022206553352667807 -0.0028528511372425671 0 -0.0021319644232779679 -0.0024610614556548954 0 -0.0018778942660115623 -0.0024817297171288036 0 -0.0022206553352667807 -0.0028528511372425671 0 0.00038041598573255623 -0.0011218157292385326 0 0.0011595102541480373 0.00014294288776334126 0 -0.00060681926961523886 -0.0012419401696197316 0 0.00038041598573255623 -0.0011218157292385326 0 0.0038516138511057924 0.0018440090807509792 0 0.0031863324805607505 0.0011049562192101199 0 0.0042534276540732753 0.00092605892455416511 0 -0.00038370133702180751 0.00042738390213935756 0 0.00051157171545030149 0.00033538940950280716 0 -0.00010905248386257206 -0.00035367862667141676 0 0.0011595102541480373 0.00014294288776334126 0 0.00076267940966917623 0.00015757200502177732 0 0.0011595102541480373 0.00014294288776334126 0 0.0045844421841478456 0.00023488018440405759 0 0.0038516138511057924 0.0018440090807509792 0 0.0053969810063766669 0.00076216791908350311 0 0.0042534276540732753 0.00092605892455416511 0 0.0023210602363543166 0.00075513784221723792 0 0.0020270169021595788 0.00042814549108785175 0 0.0030302739528809187 0.00035376070910269963 0 0.0020270169021595788 0.00042814549108785175 0 0.0030302739528809187 0.00035376070910269963 0 0.0031638428725024445 -0.00034479468659285618 0 0.0037306218527694609 0.00062794330292697978 0 0.0023210602363543166 0.00075513784221723792 0 0.0030302739528809187 0.00035376070910269963 0 0.0031193044330767154 -0.00011697769655523869 0 0.00038041598573255623 -0.0011218157292385326 0 0.0058671809989269304 -0.00013203392593154472 0 0.0053969810063766669 0.00076216791908350311 0 0.00466664681025391 3.6632962811152851e-05 0 0.0053969810063766669 0.00076216791908350311 0 0.00466664681025391 3.6632962811152851e-05 0 0.0042534276540732753 0.00092605892455416511 0 0.0017676438057270933 -0.0015210010463048895 0 0.00014860265607619016 -0.00033376118825029168 0 0.00033738734677249172 -0.0013055800043804599 0 0.0032150273917395558 -0.00075515277828418887 0 0.00076267940966917623 0.00015757200502177732 0 0.00466664681025391 3.6632962811152851e-05 0 0.0031863324805607505 0.0011049562192101199 0 0.0042534276540732753 0.00092605892455416511 0 -0.00017688920467800543 -0.0006925944268405933 0 0.00014860265607619016 -0.00033376118825029168 0 0.00033738734677249172 -0.0013055800043804599 0 0.0017676438057270933 -0.0015210010463048895 0 0.00033738734677249172 -0.0013055800043804599 0 0.00014619093831701857 -0.0024956855979479929 0 0.0017676438057270933 -0.0015210010463048895 0 0.00014619093831701857 -0.0024956855979479929 0 0.0014148875394152482 -0.0038816152895797748 0 0.0056398319169191202 -0.001422296712280271 0 0.0032150273917395558 -0.00075515277828418887 0 0.0060072599737529117 -0.00086660923770638958 0 0.0058671809989269304 -0.00013203392593154472 0 0.00466664681025391 3.6632962811152851e-05 0 0.0033857693998423418 -0.0027305092478679661 0 0.0017676438057270933 -0.0015210010463048895 0 0.0014148875394152482 -0.0038816152895797748 0 0.0070674144377848936 -0.00091383418292098433 0 0.0078823338372006318 -0.00048675932156437926 0 0.0073812080994191103 -0.00030931978634215714 0 0.0056398319169191202 -0.001422296712280271 0 0.0049888629827752953 -0.0021144992226961967 0 0.00014619093831701857 -0.0024956855979479929 0 0.0014148875394152482 -0.0038816152895797748 0 -0.00051773737453384946 -0.0050007459710312563 0 0.00014619093831701857 -0.0024956855979479929 0 -0.0017684427407436238 -0.0032062790678725724 0 -0.00051773737453384946 -0.0050007459710312563 0 -0.0039847190062362991 -0.0032021680502889072 0 0.0017652116589885922 -0.0028123881454402838 0 -0.0054277175135202449 -0.0033222704397911969 0 -0.0058223265186733196 -0.0029448871144791976 0 -0.0055950598039792004 -0.0039035277191242822 0 -0.0054277175135202449 -0.0033222704397911969 0 -0.0051893358593287156 -0.0028591728923178534 0 -0.0050017593747527641 -0.0038381638654532034 0 -0.0051893358593287156 -0.0028591728923178534 0 -0.0061003538702274042 -0.0024687586113264419 0 -0.0058223265186733196 -0.0029448871144791976 0 -0.0054277175135202449 -0.0033222704397911969 0 -0.0051893358593287156 -0.0028591728923178534 0 -0.0058223265186733196 -0.0029448871144791976 0 -0.0017684427407436238 -0.0032062790678725724 0 -0.0012449437433226199 -0.0017134899722145438 0 -0.0029579013965779981 -0.0014413253620639663 0 -0.0039847190062362991 -0.0032021680502889072 0 -0.0045034667174968512 -0.0016176959479196344 0 -0.00037927434472604017 -0.0014303592077015159 0 0.00014619093831701857 -0.0024956855979479929 0 -0.0012449437433226199 -0.0017134899722145438 0 0.00014619093831701857 -0.0024956855979479929 0 -0.0017684427407436238 -0.0032062790678725724 0 -0.0012449437433226199 -0.0017134899722145438 0 -0.00037927434472604017 -0.0014303592077015159 0 0.00033738734677249172 -0.0013055800043804599 0 0.00014619093831701857 -0.0024956855979479929 0 -0.007092484230264943 -0.0023064081037622204 0 -0.0071411966102245695 -0.0019804228094556643 0 -0.0072080568115637711 -0.0019318069464241941 0 -0.0071223556814674679 -0.0019231080758762965 0 -0.0072438871244842294 -0.0019297437754375198 0 -0.0066197786255339976 -0.0020481112073425629 0 -0.0065870404067243085 -0.0027157811535670419 0 -0.0072438871244842294 -0.0019297437754375198 0 -0.0051893358593287156 -0.0028591728923178534 0 -0.0061003538702274042 -0.0024687586113264419 0 -0.0062133072552187051 -0.0018125967545532841 0 -0.0066197786255339976 -0.0020481112073425629 0 -0.0061003538702274042 -0.0024687586113264419 0 -0.0062133072552187051 -0.0018125967545532841 0 -0.0066197786255339976 -0.0020481112073425629 0 -0.0061003538702274042 -0.0024687586113264419 0 -0.0065870404067243085 -0.0027157811535670419 0 -0.0065870404067243085 -0.0027157811535670419 0 -0.0058223265186733196 -0.0029448871144791976 0 -0.0055950598039792004 -0.0039035277191242822 0 -0.0071223556814674679 -0.0019231080758762965 0 -0.0070926779412722402 -0.0019782550593340168 0 -0.0069980952769286694 -0.0019842154124372065 0 -0.007092484230264943 -0.0023064081037622204 0 -0.004596627040582133 -0.0024943905268754378 0 -0.0061003538702274042 -0.0024687586113264419 0 -0.0065870404067243085 -0.0027157811535670419 0 -0.0058223265186733196 -0.0029448871144791976 0 -0.0072080568115637711 -0.0019318069464241941 0 -0.0071223556814674679 -0.0019231080758762965 0 -0.0071581397452573185 -0.0019565861196347888 0 -0.0071223556814674679 -0.0019231080758762965 0 -0.0071581397452573185 -0.0019565861196347888 0 -0.0070926779412722402 -0.0019782550593340168 0 -0.0072080568115637711 -0.0019318069464241941 0 -0.0071581397452573185 -0.0019565861196347888 0 -0.0071908682574182217 -0.0019716195356619722 0 -0.0071581397452573185 -0.0019565861196347888 0 -0.0071908682574182217 -0.0019716195356619722 0 -0.0071612301980340598 -0.0019781084297866673 0 -0.0071908682574182217 -0.0019716195356619722 0 -0.0072641534385718375 -0.0019283054107857923 0 -0.0072612729331890929 -0.0019484266316223023 0 -0.0071908682574182217 -0.0019716195356619722 0 -0.0072612729331890929 -0.0019484266316223023 0 -0.007152882444612132 -0.0019993218638130563 0 -0.0072080568115637711 -0.0019318069464241941 0 -0.0071908682574182217 -0.0019716195356619722 0 -0.0072641534385718375 -0.0019283054107857923 0 -0.0072612729331890929 -0.0019484266316223023 0 -0.0073768644420935479 -0.0019068669419778827 0 -0.0073025164282699657 -0.0020364601200942582 0 -0.0072641534385718375 -0.0019283054107857923 0 -0.0072612729331890929 -0.0019484266316223023 0 -0.0073320597363457007 -0.001896610355041226 0 -0.0072612729331890929 -0.0019484266316223023 0 -0.0073320597363457007 -0.001896610355041226 0 -0.0073768644420935479 -0.0019068669419778827 0 -0.0073320597363457007 -0.001896610355041226 0 -0.0073957624817529502 -0.0018491580412024406 0 -0.0073768644420935479 -0.0019068669419778827 0 -0.0073320597363457007 -0.001896610355041226 0 -0.0073957624817529502 -0.0018491580412024406 0 -0.0074018845637582121 -0.0018437527174397892 0 -0.0072080568115637711 -0.0019318069464241941 0 -0.0073028109671537519 -0.0019060018677528577 0 -0.0072438871244842294 -0.0019297437754375198 0 -0.0072080568115637711 -0.0019318069464241941 0 -0.0072641534385718375 -0.0019283054107857923 0 -0.0073028109671537519 -0.0019060018677528577 0 -0.0072641534385718375 -0.0019283054107857923 0 -0.0073320597363457007 -0.001896610355041226 0 -0.0073028109671537519 -0.0019060018677528577 0 -0.0073320597363457007 -0.001896610355041226 0 -0.0073028109671537519 -0.0019060018677528577 0 -0.0074018845637582121 -0.0018437527174397892 0 -0.007376180154641027 -0.0018564735168503722 0 -0.0073771557970084617 -0.0018047222943381922 0 -0.0072438871244842294 -0.0019297437754375198 0 -0.0073028109671537519 -0.0019060018677528577 0 -0.007376180154641027 -0.0018564735168503722 0 -0.0072438871244842294 -0.0019297437754375198 0 -0.0073028109671537519 -0.0019060018677528577 0 -0.007376180154641027 -0.0018564735168503722 0 -0.0074018845637582121 -0.0018437527174397892 0 -0.007376180154641027 -0.0018564735168503722 0 -0.0074857611809090495 -0.0017868099160093518 0 -0.0074018845637582121 -0.0018437527174397892 0 -0.0074857611809090495 -0.0017868099160093518 0 -0.0073771557970084617 -0.0018047222943381922 0 -0.0075744278618331646 -0.0017414061808922116 0 -0.007376180154641027 -0.0018564735168503722 0 -0.0074857611809090495 -0.0017868099160093518 0 -0.0073771557970084617 -0.0018047222943381922 0 -0.0073957624817529502 -0.0018491580412024406 0 -0.0074372414231972436 -0.00181002609398906 0 -0.007427562360111154 -0.0018126634438704169 0 -0.0073957624817529502 -0.0018491580412024406 0 -0.0074018845637582121 -0.0018437527174397892 0 -0.0074372414231972436 -0.00181002609398906 0 -0.0074857611809090495 -0.0017868099160093518 0 -0.0074372414231972436 -0.00181002609398906 0 -0.007470070732725086 -0.0018066345598429245 0 -0.0074857611809090495 -0.0017868099160093518 0 -0.0074018845637582121 -0.0018437527174397892 0 -0.0074372414231972436 -0.00181002609398906 0 -0.0074372414231972436 -0.00181002609398906 0 -0.007470070732725086 -0.0018066345598429245 0 -0.007427562360111154 -0.0018126634438704169 0 -0.0084115195438329363 -0.0018647216219570021 0 -0.0077993604084018548 -0.0016660985810637175 0 -0.0082146121281697036 -0.0016153399583998037 0 -0.007988317588882474 -0.0018402809433054061 0 -0.007758912559179861 -0.0016697771414092139 0 -0.0084115195438329363 -0.0018647216219570021 0 -0.0084523194024062106 -0.0016244445687983793 0 -0.0085650977707156309 -0.001707679845961425 0 -0.0074857611809090495 -0.0017868099160093518 0 -0.007470070732725086 -0.0018066345598429245 0 -0.0075744278618331646 -0.0017414061808922116 0 -0.007470070732725086 -0.0018066345598429245 0 -0.0075744278618331646 -0.0017414061808922116 0 -0.0077993604084018548 -0.0016660985810637175 0 -0.0073771557970084617 -0.0018047222943381922 0 -0.0075744278618331646 -0.0017414061808922116 0 -0.0073786514688386259 -0.0016818053096292647 0 -0.0075744278618331646 -0.0017414061808922116 0 -0.0073786514688386259 -0.0016818053096292647 0 -0.0077993604084018548 -0.0016660985810637175 0 -0.0068421574223574439 -0.0009188809860477741 0 -0.0071407165378529142 -0.00097359017690118064 0 -0.0073428265720856195 -0.00021426782951571821 0 -0.0066568670745398174 -0.0020433673930681114 0 -0.0072396444488317373 -0.0013606809862385389 0 -0.0066197786255339976 -0.0020481112073425629 0 -0.0073771557970084617 -0.0018047222943381922 0 -0.0073786514688386259 -0.0016818053096292647 0 -0.0066197786255339976 -0.0020481112073425629 0 -0.0068421574223574439 -0.0009188809860477741 0 -0.0071407165378529142 -0.00097359017690118064 0 -0.0066197786255339976 -0.0020481112073425629 0 -0.0073771557970084617 -0.0018047222943381922 0 -0.0072438871244842294 -0.0019297437754375198 0 -0.0054642055422485332 -0.00039318321905031935 0 -0.0045034667174968512 -0.0016176959479196344 0 -0.0066197786255339976 -0.0020481112073425629 0 -0.0068421574223574439 -0.0009188809860477741 0 -0.0062133072552187051 -0.0018125967545532841 0 -0.0024055382828458999 9.6587334093100206e-05 0 -0.0040802616282753484 0.00022345457558307032 0 -0.002782240850757733 0.0011815007078213673 0 -0.0024055382828458999 9.6587334093100206e-05 0 -0.0040802616282753484 0.00022345457558307032 0 -0.0029579013965779981 -0.0014413253620639663 0 -0.0040802616282753484 0.00022345457558307032 0 -0.002782240850757733 0.0011815007078213673 0 -0.0039734937677039098 0.0016726869847575997 0 -0.002782240850757733 0.0011815007078213673 0 -0.0039734937677039098 0.0016726869847575997 0 -0.0031028065741984128 0.0022934149625556217 0 -0.0054642055422485332 -0.00039318321905031935 0 -0.0062276785520095851 0.0010464055329283276 0 -0.0040802616282753484 0.00022345457558307032 0 -0.0039734937677039098 0.0016726869847575997 0 -0.0051744749541125529 0.0018166726004653737 0 -0.0087280433127022248 -0.0024047738887984825 0 -0.0082437063791504245 -0.0024490969416157303 0 -0.0084351082341655829 -0.0023783511375270235 0 -0.0039734937677039098 0.0016726869847575997 0 -0.0047043289498516615 0.0028203489318778486 0 -0.0031028065741984128 0.0022934149625556217 0 -0.0066752812067950289 0.00022203894366793522 0 -0.0056342237568043282 -0.00015274454635151529 0 -0.0039734937677039098 0.0016726869847575997 0 -0.0047043289498516615 0.0028203489318778486 0 -0.0051744749541125529 0.0018166726004653737 0 -0.0072457784571179646 -0.0029468675529969782 0 -0.0081195304628125468 -0.0027438693486353748 0 -0.0082437063791504245 -0.0024490969416157303 0 -0.0087280433127022248 -0.0024047738887984825 0 -0.0081195304628125468 -0.0027438693486353748 0 -0.0082437063791504245 -0.0024490969416157303 0 -0.0074693281825473634 -0.0026480677693151823 0 -0.0082481518931333611 -0.0026011316899788089 0 -0.0080501253354518763 -0.0022019061791226221 0 -0.0059639130108012561 -0.0012197996038374969 0 -0.0076159649128513651 -0.0015214862811860496 0 -0.0080501253354518763 -0.0022019061791226221 0 -0.0084351082341655829 -0.0023783511375270235 0 -0.0084825171153199673 -0.0020764019453440464 0 -0.0082481518931333611 -0.0026011316899788089 0 -0.0080501253354518763 -0.0022019061791226221 0 -0.0084351082341655829 -0.0023783511375270235 0 -0.0076159649128513651 -0.0015214862811860496 0 -0.0079528348498164453 -0.0018830996717324037 0 -0.0087280433127022248 -0.0024047738887984825 0 -0.0084351082341655829 -0.0023783511375270235 0 -0.0086871717031530814 -0.0021402266093630477 0 -0.0084351082341655829 -0.0023783511375270235 0 -0.0086871717031530814 -0.0021402266093630477 0 -0.0084825171153199673 -0.0020764019453440464 0 -0.0084825171153199673 -0.0020764019453440464 0 -0.008771712444888809 -0.0019127363623507999 0 -0.0084250746634535172 -0.0016918118800505252 0 -0.0088844318029999061 -0.0017585987049452963 0 -0.008771712444888809 -0.0019127363623507999 0 -0.0084250746634535172 -0.0016918118800505252 0 -0.0086871717031530814 -0.0021402266093630477 0 -0.0084825171153199673 -0.0020764019453440464 0 -0.008771712444888809 -0.0019127363623507999 0 -0.0075374448011369223 -0.0016517009130370861 0 -0.0080501253354518763 -0.0022019061791226221 0 -0.0084250746634535172 -0.0016918118800505252 0 -0.0080501253354518763 -0.0022019061791226221 0 -0.0084825171153199673 -0.0020764019453440464 0 -0.0084250746634535172 -0.0016918118800505252 0 -0.0090601538342637098 -0.0018685535514430473 0 -0.0089741474802674664 -0.0018929860499293585 0 -0.0089225574736772686 -0.0018791820234137393 0 -0.008965137965698965 -0.0019016839280576177 0 -0.0089741474802674664 -0.0018929860499293585 0 -0.0088739684797419574 -0.0017920737892375945 0 -0.008965137965698965 -0.0019016839280576177 0 -0.0089741474802674664 -0.0018929860499293585 0 -0.0089503601369230485 -0.001886541994765839 0 -0.0089741474802674664 -0.0018929860499293585 0 -0.0088739684797419574 -0.0017920737892375945 0 -0.0089225574736772686 -0.0018791820234137393 0 -0.0090601538342637098 -0.0018685535514430473 0 -0.0089741474802674664 -0.0018929860499293585 0 -0.0089503601369230485 -0.001886541994765839 0 -0.0088844318029999061 -0.0017585987049452963 0 -0.008771712444888809 -0.0019127363623507999 0 -0.0089503601369230485 -0.001886541994765839 0 -0.008771712444888809 -0.0019127363623507999 0 -0.0089503601369230485 -0.001886541994765839 0 -0.0089164656120960511 -0.0019738571233163847 0 -0.008965137965698965 -0.0019016839280576177 0 -0.0089503601369230485 -0.001886541994765839 0 -0.0089164656120960511 -0.0019738571233163847 0 -0.0087280433127022248 -0.0024047738887984825 0 -0.0089164656120960511 -0.0019738571233163847 0 -0.0089693424879751689 -0.0020198739699902081 0 -0.0066752812067950289 0.00022203894366793522 0 -0.0076990094605361688 0.00039800004698785108 0 -0.0087280433127022248 -0.0024047738887984825 0 -0.0086871717031530814 -0.0021402266093630477 0 -0.0089164656120960511 -0.0019738571233163847 0 -0.0086871717031530814 -0.0021402266093630477 0 -0.008771712444888809 -0.0019127363623507999 0 -0.0089164656120960511 -0.0019738571233163847 0 -0.0088739684797419574 -0.0017920737892375945 0 -0.0087969945444327808 -0.0017463663212231291 0 -0.0085004720296615495 -0.0015958555649625416 0 -0.0076990094605361688 0.00039800004698785108 0 -0.0077904389712152309 -0.00075426146169306593 0 -0.0076990094605361688 0.00039800004698785108 0 -0.0080799746637215709 -0.00046320089176434204 0 -0.0090591359923490617 -0.0016998231625469946 0 -0.0089568332926307989 -0.0018641251209540566 0 -0.0088986580857941203 -0.0017592892491184945 0 -0.008965137965698965 -0.0019016839280576177 0 -0.0089164656120960511 -0.0019738571233163847 0 -0.0089568332926307989 -0.0018641251209540566 0 -0.0089164656120960511 -0.0019738571233163847 0 -0.0089693424879751689 -0.0020198739699902081 0 -0.0089568332926307989 -0.0018641251209540566 0 -0.008965137965698965 -0.0019016839280576177 0 -0.0089568332926307989 -0.0018641251209540566 0 -0.0088739684797419574 -0.0017920737892375945 0 -0.0089568332926307989 -0.0018641251209540566 0 -0.0088739684797419574 -0.0017920737892375945 0 -0.0088986580857941203 -0.0017592892491184945 0 -0.0080695539052790168 -0.0008221681707898525 0 -0.0080799746637215709 -0.00046320089176434204 0 -0.0088739684797419574 -0.0017920737892375945 0 -0.0085482690029220487 -0.001585546102877883 0 -0.008704809708624377 -0.0016585462404323499 0 -0.0077901433778420712 0.00042429458778843118 0 -0.0079604783826443901 0.000475991324793208 0 -0.007585008730438529 -0.00015973855801606384 0 -0.0087969945444327808 -0.0017463663212231291 0 -0.0085004720296615495 -0.0015958555649625416 0 -0.0082079149454498315 -0.0015113607776971079 0 -0.0080799746637215709 -0.00046320089176434204 0 -0.0079110021840166096 -0.00088941552822391682 0 -0.0088739684797419574 -0.0017920737892375945 0 -0.0085004720296615495 -0.0015958555649625416 0 -0.0085482690029220487 -0.001585546102877883 0 -0.0085004720296615495 -0.0015958555649625416 0 -0.0085482690029220487 -0.001585546102877883 0 -0.0083686914248256514 -0.0015709838494030819 0 -0.0085004720296615495 -0.0015958555649625416 0 -0.0082079149454498315 -0.0015113607776971079 0 -0.0083686914248256514 -0.0015709838494030819 0 -0.0047043289498516615 0.0028203489318778486 0 -0.0062508038892231067 0.0033397933913680558 0 -0.0051744749541125529 0.0018166726004653737 0 -0.0076990094605361688 0.00039800004698785108 0 -0.0062276785520095851 0.0010464055329283276 0 -0.0077901433778420712 0.00042429458778843118 0 -0.007585008730438529 -0.00015973855801606384 0 -0.0073428265720856195 -0.00021426782951571821 0 -0.0073786514688386259 -0.0016818053096292647 0 -0.0082079149454498315 -0.0015113607776971079 0 -0.0077993604084018548 -0.0016660985810637175 0 -0.0071407165378529142 -0.00097359017690118064 0 -0.007585008730438529 -0.00015973855801606384 0 -0.0073428265720856195 -0.00021426782951571821 0 -0.0072396444488317373 -0.0013606809862385389 0 -0.0079110021840166096 -0.00088941552822391682 0 -0.0082079149454498315 -0.0015113607776971079 0 -0.0077993604084018548 -0.0016660985810637175 0 -0.0082146121281697036 -0.0016153399583998037 0 -0.0084115195438329363 -0.0018647216219570021 0 -0.0082146121281697036 -0.0016153399583998037 0 -0.0084523194024062106 -0.0016244445687983793 0 -0.0085482690029220487 -0.001585546102877883 0 -0.0083686914248256514 -0.0015709838494030819 0 -0.0084523194024062106 -0.0016244445687983793 0 -0.0083686914248256514 -0.0015709838494030819 0 -0.0082146121281697036 -0.0016153399583998037 0 -0.0084523194024062106 -0.0016244445687983793 0 -0.0082079149454498315 -0.0015113607776971079 0 -0.0083686914248256514 -0.0015709838494030819 0 -0.0082146121281697036 -0.0016153399583998037 0 -0.0086457491454876925 -0.0016223615948255173 0 -0.0086074226894839283 -0.0015842739917501431 0 -0.0085650977707156309 -0.001707679845961425 0 -0.0084523194024062106 -0.0016244445687983793 0 -0.0086074226894839283 -0.0015842739917501431 0 -0.0085650977707156309 -0.001707679845961425 0 -0.0085482690029220487 -0.001585546102877883 0 -0.0084523194024062106 -0.0016244445687983793 0 -0.0086074226894839283 -0.0015842739917501431 0 -0.0086457491454876925 -0.0016223615948255173 0 -0.008608478627631087 -0.0015551248129124895 0 -0.0086074226894839283 -0.0015842739917501431 0 -0.0086457491454876925 -0.0016223615948255173 0 -0.008608478627631087 -0.0015551248129124895 0 -0.0084271045555130101 -0.0014882361779337734 0 -0.008608478627631087 -0.0015551248129124895 0 -0.0086074226894839283 -0.0015842739917501431 0 -0.0087487726365310086 -0.0016884940777619508 0 -0.0086074226894839283 -0.0015842739917501431 0 -0.008704809708624377 -0.0016585462404323499 0 -0.0087487726365310086 -0.0016884940777619508 0 -0.0085482690029220487 -0.001585546102877883 0 -0.0086074226894839283 -0.0015842739917501431 0 -0.008704809708624377 -0.0016585462404323499 0 -0.008704809708624377 -0.0016585462404323499 0 -0.0088104760197942767 -0.0017523677311040596 0 -0.0087487726365310086 -0.0016884940777619508 0 -0.0088739684797419574 -0.0017920737892375945 0 -0.008704809708624377 -0.0016585462404323499 0 -0.0088104760197942767 -0.0017523677311040596 0 -0.0088739684797419574 -0.0017920737892375945 0 -0.0088104760197942767 -0.0017523677311040596 0 -0.0089225574736772686 -0.0018791820234137393 0 -0.0088104760197942767 -0.0017523677311040596 0 -0.0087487726365310086 -0.0016884940777619508 0 -0.0089225574736772686 -0.0018791820234137393 0 -0.008608478627631087 -0.0015551248129124895 0 -0.0087487726365310086 -0.0016884940777619508 0 -0.0084998471584969305 -0.0017069143554716761 0 -0.0087487726365310086 -0.0016884940777619508 0 -0.0089832208608231212 -0.0019978552214951163 0 -0.0084998471584969305 -0.0017069143554716761 0 -0.0090601538342637098 -0.0018685535514430473 0 -0.0089832208608231212 -0.0019978552214951163 0 -0.0089225574736772686 -0.0018791820234137393 0 -0.0087487726365310086 -0.0016884940777619508 0 -0.0089832208608231212 -0.0019978552214951163 0 -0.0089225574736772686 -0.0018791820234137393 0 -0.0082276857841190824 -0.0027068169093698497 0 -0.0084998471584969305 -0.0017069143554716761 0 -0.0078248111636378681 -0.0017220004519730909 0 -0.0082276857841190824 -0.0027068169093698497 0 -0.0089832208608231212 -0.0019978552214951163 0 -0.0084998471584969305 -0.0017069143554716761 0 -0.0084998471584969305 -0.0017069143554716761 0 -0.0078248111636378681 -0.0017220004519730909 0 -0.0084271045555130101 -0.0014882361779337734 0 -0.0072941748046076553 -0.0019723064825530566 0 -0.0075447376755060462 -0.0018073615978554003 0 -0.0066603418388011086 -0.0020817501188916086 0 -0.006771641259165872 -0.0021300881021110046 0 -0.0066886032422508067 -0.0021003318440685685 0 -0.0066603418388011086 -0.0020817501188916086 0 -0.0065574577893985232 -0.0020526956166036499 0 -0.0066886032422508067 -0.0021003318440685685 0 -0.008608478627631087 -0.0015551248129124895 0 -0.0084998471584969305 -0.0017069143554716761 0 -0.0084271045555130101 -0.0014882361779337734 0 -0.0067748460282451971 -0.0020214906414969783 0 -0.0066886032422508067 -0.0021003318440685685 0 -0.0065358079348464557 -0.0019995662250049595 0 -0.0077139093386976209 -0.0018338463355692734 0 -0.0075447376755060462 -0.0018073615978554003 0 -0.0065574577893985232 -0.0020526956166036499 0 -0.0066886032422508067 -0.0021003318440685685 0 -0.0065358079348464557 -0.0019995662250049595 0 -0.0062750472214225996 -0.0017886519798329123 0 -0.0065358079348464557 -0.0019995662250049595 0 -0.0065367929292742388 -0.0017930596184161775 0 -0.0065358079348464557 -0.0019995662250049595 0 -0.0065367929292742388 -0.0017930596184161775 0 -0.0067406753558023206 -0.0018903619309358476 0 -0.0065367929292742388 -0.0017930596184161775 0 -0.0067406753558023206 -0.0018903619309358476 0 -0.0067229419424049263 -0.0017327953050622707 0 -0.0067748460282451971 -0.0020214906414969783 0 -0.0065358079348464557 -0.0019995662250049595 0 -0.0067406753558023206 -0.0018903619309358476 0 -0.0067748460282451971 -0.0020214906414969783 0 -0.0067406753558023206 -0.0018903619309358476 0 -0.006913798609238242 -0.0018587223293098556 0 -0.0086457491454876925 -0.0016223615948255173 0 -0.0085650977707156309 -0.001707679845961425 0 -0.0085944268210386247 -0.0018793755700213285 0 -0.0077139093386976209 -0.0018338463355692734 0 -0.007635027352233305 -0.0017926435660508098 0 -0.007988317588882474 -0.0018402809433054061 0 -0.007635027352233305 -0.0017926435660508098 0 -0.0084115195438329363 -0.0018647216219570021 0 -0.0085650977707156309 -0.001707679845961425 0 -0.0085944268210386247 -0.0018793755700213285 0 -0.007470070732725086 -0.0018066345598429245 0 -0.0073806640548167738 -0.0018382145768640679 0 -0.007427562360111154 -0.0018126634438704169 0 -0.0073789455774939307 -0.0018206643259316457 0 -0.0073806640548167738 -0.0018382145768640679 0 -0.007427562360111154 -0.0018126634438704169 0 -0.0075659735063740713 -0.0018441097229820811 0 -0.007635027352233305 -0.0017926435660508098 0 -0.0073789455774939307 -0.0018206643259316457 0 -0.007338200743081948 -0.0018819696105839604 0 -0.0072542610095247817 -0.0017283112876302314 0 -0.0073568134069514485 -0.0017474979611131691 0 -0.007427562360111154 -0.0018126634438704169 0 -0.0073545017542968319 -0.0016209537174931763 0 -0.0073789455774939307 -0.0018206643259316457 0 -0.0073568134069514485 -0.0017474979611131691 0 -0.0072542610095247817 -0.0017283112876302314 0 -0.0073789455774939307 -0.0018206643259316457 0 -0.0073568134069514485 -0.0017474979611131691 0 -0.007427562360111154 -0.0018126634438704169 0 -0.007635027352233305 -0.0017926435660508098 0 -0.0067107693947109906 -0.0017017765937141422 0 -0.007338200743081948 -0.0018819696105839604 0 -0.0072542610095247817 -0.0017283112876302314 0 -0.0069245529543526555 -0.0017102274903110697 0 -0.0067406753558023206 -0.0018903619309358476 0 -0.006913798609238242 -0.0018587223293098556 0 -0.0067229419424049263 -0.0017327953050622707 0 -0.007145790684150174 -0.0016207150543834138 0 -0.0073545017542968319 -0.0016209537174931763 0 -0.0071072310363362382 -0.0014028636167478156 0 -0.0072542610095247817 -0.0017283112876302314 0 -0.007145790684150174 -0.0016207150543834138 0 -0.0069245529543526555 -0.0017102274903110697 0 -0.007145790684150174 -0.0016207150543834138 0 -0.0071072310363362382 -0.0014028636167478156 0 -0.0069245529543526555 -0.0017102274903110697 0 -0.0072542610095247817 -0.0017283112876302314 0 -0.007145790684150174 -0.0016207150543834138 0 -0.0073545017542968319 -0.0016209537174931763 0 -0.007427562360111154 -0.0018126634438704169 0 -0.0073545017542968319 -0.0016209537174931763 0 -0.0074745008472689653 -0.0014558638990171734 0 -0.0074133214192763685 -0.0018397724704258378 0 -0.0074707434532870799 -0.0015918765754377455 0 -0.0073545017542968319 -0.0016209537174931763 0 -0.0074745008472689653 -0.0014558638990171734 0 -0.0071072310363362382 -0.0014028636167478156 0 -0.0073957624817529502 -0.0018491580412024406 0 -0.007427562360111154 -0.0018126634438704169 0 -0.0073768644420935479 -0.0019068669419778827 0 -0.0073568134069514485 -0.0017474979611131691 0 -0.0072542610095247817 -0.0017283112876302314 0 -0.0073545017542968319 -0.0016209537174931763 0 -0.00736617247984807 -0.0012656272060287326 0 -0.0074745008472689653 -0.0014558638990171734 0 -0.0075036652761697057 -0.0011175245416439562 0 -0.0074707434532870799 -0.0015918765754377455 0 -0.0070162441902253915 -0.0019509153876578352 0 -0.00736617247984807 -0.0012656272060287326 0 -0.0074745008472689653 -0.0014558638990171734 0 -0.0071072310363362382 -0.0014028636167478156 0 -0.0071072310363362382 -0.0014028636167478156 0 -0.0067973689935067021 -0.001441189834947113 0 -0.0067318595031903312 -0.0011907283552813482 0 -0.0067973689935067021 -0.001441189834947113 0 -0.0067318595031903312 -0.0011907283552813482 0 -0.0064559368773516425 -0.0014990248194864007 0 -0.0064038585406059369 -0.0010594501562648986 0 -0.0067318595031903312 -0.0011907283552813482 0 -0.0064559368773516425 -0.0014990248194864007 0 -0.0065109855064618702 -0.0015222622012931986 0 -0.0067107693947109906 -0.0017017765937141422 0 -0.0065367929292742388 -0.0017930596184161775 0 -0.0064559368773516425 -0.0014990248194864007 0 -0.0067229419424049263 -0.0017327953050622707 0 -0.0067973689935067021 -0.001441189834947113 0 -0.0064559368773516425 -0.0014990248194864007 0 -0.0069245529543526555 -0.0017102274903110697 0 -0.0071072310363362382 -0.0014028636167478156 0 -0.0067973689935067021 -0.001441189834947113 0 -0.0069245529543526555 -0.0017102274903110697 0 -0.0061875382804308671 -0.0015707316962313416 0 -0.0052414411395289174 -0.0013577173618167788 0 -0.0044787047306435795 -0.0016844766666323594 0 -0.0045807384069474376 -0.0017341681469367834 0 -0.0045316948872775806 -0.0017776479777043897 0 -0.0061875382804308671 -0.0015707316962313416 0 -0.0052610693056495059 -0.0021074976518857679 0 -0.0044787047306435795 -0.0016844766666323594 0 -0.0045316948872775806 -0.0017776479777043897 0 -0.0044803964236063741 -0.0018045289426435651 0 -0.0044787047306435795 -0.0016844766666323594 0 -0.0045807384069474376 -0.0017341681469367834 0 -0.0046208870262696424 -0.0017026760789521833 0 -0.0045807384069474376 -0.0017341681469367834 0 -0.0046359594485463999 -0.0017509078655691605 0 -0.0046327204091999238 -0.0016919634126463712 0 -0.0045807384069474376 -0.0017341681469367834 0 -0.0046359594485463999 -0.0017509078655691605 0 -0.0045866382781031721 -0.0017795614373754026 0 -0.0045995099101261176 -0.0017875308527472806 0 -0.0052414411395289174 -0.0013577173618167788 0 -0.0064038585406059369 -0.0010594501562648986 0 -0.0067318595031903312 -0.0011907283552813482 0 -0.0066509665973636884 -0.00096297438077381559 0 -0.0070219399048578063 -0.00085328740857762279 0 -0.0064482884555305386 -0.00074913004302047442 0 -0.0066509665973636884 -0.00096297438077381559 0 -0.0064038585406059369 -0.0010594501562648986 0 -0.0064482884555305386 -0.00074913004302047442 0 -0.0066509665973636884 -0.00096297438077381559 0 -0.0071072310363362382 -0.0014028636167478156 0 -0.0067318595031903312 -0.0011907283552813482 0 -0.0070219399048578063 -0.00085328740857762279 0 -0.0067318595031903312 -0.0011907283552813482 0 -0.0070219399048578063 -0.00085328740857762279 0 -0.0066509665973636884 -0.00096297438077381559 0 -0.0061875382804308671 -0.0015707316962313416 0 -0.0069278796216442045 -0.0018406682978969844 0 -0.0071072310363362382 -0.0014028636167478156 0 -0.0070487627019577065 -0.0010468690325682582 0 -0.0072745955507667404 -0.0010812612519662513 0 -0.00736617247984807 -0.0012656272060287326 0 -0.0071072310363362382 -0.0014028636167478156 0 -0.0072745955507667404 -0.0010812612519662513 0 -0.0073050001634063508 -0.0011409072411348428 0 -0.0061875382804308671 -0.0015707316962313416 0 -0.00736617247984807 -0.0012656272060287326 0 -0.0072745955507667404 -0.0010812612519662513 0 -0.0075036652761697057 -0.0011175245416439562 0 -0.0069278796216442045 -0.0018406682978969844 0 -0.0070162441902253915 -0.0019509153876578352 0 -0.0064300677331408252 -0.0023040215670640796 0 -0.0067714020477841769 -0.0021286577631917801 0 -0.0066993053830481661 -0.0026183443186312211 0 -0.0064203934552215557 -0.0025753134222837614 0 -0.0064300677331408252 -0.0023040215670640796 0 -0.0066993053830481661 -0.0026183443186312211 0 -0.0061364916155496087 -0.0025299533666901762 0 -0.0064203934552215557 -0.0025753134222837614 0 -0.0064300677331408252 -0.0023040215670640796 0 -0.0061364916155496087 -0.0025299533666901762 0 -0.0064300677331408252 -0.0023040215670640796 0 -0.0060670193687387252 -0.0021648709083074754 0 -0.006329605025822649 -0.0020506089589508278 0 -0.0062348192340466683 -0.0018782356045913273 0 -0.0060670193687387252 -0.0021648709083074754 0 -0.0064300677331408252 -0.0023040215670640796 0 -0.006329605025822649 -0.0020506089589508278 0 -0.0060670193687387252 -0.0021648709083074754 0 -0.0065327894074525264 -0.0020482223712356513 0 -0.0066683690428924417 -0.001866967163188276 0 -0.0067714020477841769 -0.0021286577631917801 0 -0.0064300677331408252 -0.0023040215670640796 0 -0.0065327894074525264 -0.0020482223712356513 0 -0.0067714020477841769 -0.0021286577631917801 0 -0.0064300677331408252 -0.0023040215670640796 0 -0.006329605025822649 -0.0020506089589508278 0 -0.0065327894074525264 -0.0020482223712356513 0 -0.0065327894074525264 -0.0020482223712356513 0 -0.0064616209266860382 -0.0018830998103709182 0 -0.0066683690428924417 -0.001866967163188276 0 -0.006329605025822649 -0.0020506089589508278 0 -0.0065327894074525264 -0.0020482223712356513 0 -0.0064616209266860382 -0.0018830998103709182 0 -0.0064616209266860382 -0.0018830998103709182 0 -0.0065778796466064221 -0.0017505574458089308 0 -0.0063964107284950125 -0.001691320923374184 0 -0.0066683690428924417 -0.001866967163188276 0 -0.0065778796466064221 -0.0017505574458089308 0 -0.0067442306085426212 -0.0017210358805509118 0 -0.0064616209266860382 -0.0018830998103709182 0 -0.0066683690428924417 -0.001866967163188276 0 -0.0065778796466064221 -0.0017505574458089308 0 -0.0062348192340466683 -0.0018782356045913273 0 -0.0059892575885868394 -0.0017856971198216948 0 -0.0063964107284950125 -0.001691320923374184 0 -0.0046856317224397504 -0.0017146032393724777 0 -0.004852767369605584 -0.0017066306430401058 0 -0.006329605025822649 -0.0020506089589508278 0 -0.0064616209266860382 -0.0018830998103709182 0 -0.0062348192340466683 -0.0018782356045913273 0 -0.0064616209266860382 -0.0018830998103709182 0 -0.0062348192340466683 -0.0018782356045913273 0 -0.0063964107284950125 -0.001691320923374184 0 -0.0046856317224397504 -0.0017146032393724777 0 -0.004390678615163659 -0.0019265683066326548 0 -0.0044893783080603685 -0.0019077948092788854 0 -0.0045180575515321696 -0.0018535025400602829 0 -0.0044803964236063741 -0.0018045289426435651 0 -0.0046856317224397504 -0.0017146032393724777 0 -0.0052610693056495059 -0.0021074976518857679 0 -0.0062348192340466683 -0.0018782356045913273 0 -0.0059892575885868394 -0.0017856971198216948 0 -0.0060670193687387252 -0.0021648709083074754 0 -0.0044893783080603685 -0.0019077948092788854 0 -0.0045180575515321696 -0.0018535025400602829 0 -0.0045371480215537748 -0.00190527476905142 0 -0.0045180575515321696 -0.0018535025400602829 0 -0.0045316948872775806 -0.0017776479777043897 0 -0.0044803964236063741 -0.0018045289426435651 0 -0.0046328602287085243 -0.0018143935630272779 0 -0.0046359594485463999 -0.0017509078655691605 0 -0.0045866382781031721 -0.0017795614373754026 0 -0.0045807384069474376 -0.0017341681469367834 0 -0.0045316948872775806 -0.0017776479777043897 0 -0.0045866382781031721 -0.0017795614373754026 0 -0.0045316948872775806 -0.0017776479777043897 0 -0.0045866382781031721 -0.0017795614373754026 0 -0.0045599751609388802 -0.0018270393180081221 0 -0.0045180575515321696 -0.0018535025400602829 0 -0.0045316948872775806 -0.0017776479777043897 0 -0.0045599751609388802 -0.0018270393180081221 0 -0.0046328602287085243 -0.0018143935630272779 0 -0.0045866382781031721 -0.0017795614373754026 0 -0.0045599751609388802 -0.0018270393180081221 0 -0.0046328602287085243 -0.0018143935630272779 0 -0.0045599751609388802 -0.0018270393180081221 0 -0.0045371480215537748 -0.00190527476905142 0 -0.0042110904855804316 -0.0019259486558405163 0 -0.0045371480215537748 -0.00190527476905142 0 -0.0043909093536349149 -0.0020677325288781813 0 -0.0045180575515321696 -0.0018535025400602829 0 -0.0045599751609388802 -0.0018270393180081221 0 -0.0045371480215537748 -0.00190527476905142 0 -0.0045725183429974683 -0.0020921251605826533 0 -0.0043909093536349149 -0.0020677325288781813 0 -0.0042175958628146602 -0.0023953053580604419 0 -0.0045371480215537748 -0.00190527476905142 0 -0.0045725183429974683 -0.0020921251605826533 0 -0.0043909093536349149 -0.0020677325288781813 0 -0.0046856317224397504 -0.0017146032393724777 0 -0.0041067290148325891 -0.0023412828293180505 0 -0.0040783094389210024 -0.0015021146752390978 0 -0.0039609015206090994 -0.002122032565627156 0 -0.0042175958628146602 -0.0023953053580604419 0 -0.0042110904855804316 -0.0019259486558405163 0 -0.0043909093536349149 -0.0020677325288781813 0 -0.0042175958628146602 -0.0023953053580604419 0 -0.0040783094389210024 -0.0015021146752390978 0 -0.0039609015206090994 -0.002122032565627156 0 -0.0037905935269106836 -0.0019946231030712617 0 -0.0039609015206090994 -0.002122032565627156 0 -0.0037686219939403716 -0.0022246252552664872 0 -0.0037905935269106836 -0.0019946231030712617 0 -0.0039609015206090994 -0.002122032565627156 0 -0.0039359529630001982 -0.002429727526201915 0 -0.0042175958628146602 -0.0023953053580604419 0 -0.0039609015206090994 -0.002122032565627156 0 -0.0039359529630001982 -0.002429727526201915 0 -0.0037686219939403716 -0.0022246252552664872 0 -0.0039359529630001982 -0.002429727526201915 0 -0.0042175958628146602 -0.0023953053580604419 0 -0.0042014685627282302 -0.0025484718414861347 0 -0.0039359529630001982 -0.002429727526201915 0 -0.0042014685627282302 -0.0025484718414861347 0 -0.0037380454970841566 -0.00270002383353496 0 -0.0018038969452932713 -0.0028558508953005044 0 -0.0017711445976633343 -0.0026841272203754641 0 -0.0016307740246813821 -0.0029256508786828124 0 -0.0031725995793478652 -0.0023954724888373153 0 -0.0027532659883202815 -0.0027673914766017603 0 -0.0045725183429974683 -0.0020921251605826533 0 -0.0042175958628146602 -0.0023953053580604419 0 -0.0042014685627282302 -0.0025484718414861347 0 -0.0017711445976633343 -0.0026841272203754641 0 -0.0013893155043975675 -0.0029535783448966057 0 -0.0016307740246813821 -0.0029256508786828124 0 -0.0016307740246813821 -0.0029256508786828124 0 -0.0015623395496705342 -0.003069668062278904 0 -0.0014907806899148877 -0.0030150751259870943 0 -0.0013893155043975675 -0.0029535783448966057 0 -0.0016307740246813821 -0.0029256508786828124 0 -0.0014907806899148877 -0.0030150751259870943 0 -0.0017613810205269413 -0.0029797675345430595 0 -0.0018038969452932713 -0.0028558508953005044 0 -0.0016307740246813821 -0.0029256508786828124 0 -0.0017613810205269413 -0.0029797675345430595 0 -0.0016307740246813821 -0.0029256508786828124 0 -0.0015623395496705342 -0.003069668062278904 0 -0.0017613810205269413 -0.0029797675345430595 0 -0.0017250642869791083 -0.0031240600448404154 0 -0.0015623395496705342 -0.003069668062278904 0 -0.0017250642869791083 -0.0031240600448404154 0 -0.0015623395496705342 -0.003069668062278904 0 -0.0014900151657854825 -0.0032182996200250508 0 -0.0015623395496705342 -0.003069668062278904 0 -0.0013801759508821412 -0.0031288205717356098 0 -0.0014900151657854825 -0.0032182996200250508 0 -0.0015623395496705342 -0.003069668062278904 0 -0.0014907806899148877 -0.0030150751259870943 0 -0.0013801759508821412 -0.0031288205717356098 0 -0.0013893155043975675 -0.0029535783448966057 0 -0.0013801759508821412 -0.0031288205717356098 0 -0.0011703893290313989 -0.0032007805764589759 0 -0.0042014685627282302 -0.0025484718414861347 0 -0.0035779405603777567 -0.0033041136011091104 0 -0.0037380454970841566 -0.00270002383353496 0 -0.0013893155043975675 -0.0029535783448966057 0 -0.0014907806899148877 -0.0030150751259870943 0 -0.0013801759508821412 -0.0031288205717356098 0 -0.0027532659883202815 -0.0027673914766017603 0 -0.0026463065960412552 -0.0032781565787880105 0 -0.0013350144562780746 -0.003271469084553614 0 -0.0011703893290313989 -0.0032007805764589759 0 -0.0012500935106147188 -0.0033772514663879668 0 -0.0013801759508821412 -0.0031288205717356098 0 -0.0013350144562780746 -0.003271469084553614 0 -0.0011703893290313989 -0.0032007805764589759 0 -0.0013350144562780746 -0.003271469084553614 0 -0.0014900151657854825 -0.0032182996200250508 0 -0.001357275780811525 -0.0033851046688864596 0 -0.0015947950376018281 -0.0032625981534971519 0 -0.0014900151657854825 -0.0032182996200250508 0 -0.001357275780811525 -0.0033851046688864596 0 -0.0013801759508821412 -0.0031288205717356098 0 -0.0013350144562780746 -0.003271469084553614 0 -0.0014900151657854825 -0.0032182996200250508 0 -0.00066924806359026424 -0.0031285970840664993 0 -5.9980278333510562e-05 -0.0029808709244589933 0 -0.0030276216994776354 -0.0034987151879961732 0 -0.0035779405603777567 -0.0033041136011091104 0 -0.0029347424179208062 -0.0040350715154961409 0 -0.0030276216994776354 -0.0034987151879961732 0 -0.0025411055572571116 -0.0034629815177835946 0 -0.0029347424179208062 -0.0040350715154961409 0 -0.0030276216994776354 -0.0034987151879961732 0 -0.0035779405603777567 -0.0033041136011091104 0 -0.0030570326210693478 -0.0031925599249350367 0 -0.0030276216994776354 -0.0034987151879961732 0 -0.0030570326210693478 -0.0031925599249350367 0 -0.0025411055572571116 -0.0034629815177835946 0 -0.0011703893290313989 -0.0032007805764589759 0 -0.0011583950194256362 -0.003368907055959069 0 -0.0012500935106147188 -0.0033772514663879668 0 -0.0011703893290313989 -0.0032007805764589759 0 -0.0011583950194256362 -0.003368907055959069 0 -0.0010738538311491489 -0.0033481729737397299 0 -0.0011703893290313989 -0.0032007805764589759 0 -0.0010738538311491489 -0.0033481729737397299 0 -0.0010372460830931688 -0.0033497235870255755 0 -0.0026463065960412552 -0.0032781565787880105 0 -5.9980278333510562e-05 -0.0029808709244589933 0 -0.0035779405603777567 -0.0033041136011091104 0 -0.0033550326030135245 -0.0028047978951914795 0 -0.0030570326210693478 -0.0031925599249350367 0 -0.0035779405603777567 -0.0033041136011091104 0 -0.0033550326030135245 -0.0028047978951914795 0 -0.0037380454970841566 -0.00270002383353496 0 -0.0033550326030135245 -0.0028047978951914795 0 -0.0030570326210693478 -0.0031925599249350367 0 -0.0028980983446128157 -0.0026957139015566203 0 -0.0030458893296192832 -0.0023740551189917365 0 -0.0028525386188006825 -0.0024620276393156689 0 -0.0028331315626366487 -0.0028160020976173584 0 -0.0030570326210693478 -0.0031925599249350367 0 -0.0028980983446128157 -0.0026957139015566203 0 -0.0025411055572571116 -0.0034629815177835946 0 -0.0031896167656389938 -0.0024338191320170659 0 -0.00066924806359026424 -0.0031285970840664993 0 -0.0031896167656389938 -0.0024338191320170659 0 -0.0031893597438810216 -0.0020319350313355682 0 -0.0030458893296192832 -0.0023740551189917365 0 -0.0029919520356185385 -0.0020860932325333812 0 -0.0032677314982024531 -0.0019390304151623307 0 -0.0028980983446128157 -0.0026957139015566203 0 -0.0033361835556514887 -0.002403114809446175 0 -0.0032677314982024531 -0.0019390304151623307 0 -0.0033550326030135245 -0.0028047978951914795 0 -0.0028980983446128157 -0.0026957139015566203 0 -0.0033361835556514887 -0.002403114809446175 0 -0.0030458893296192832 -0.0023740551189917365 0 -0.0029919520356185385 -0.0020860932325333812 0 -0.0027536163226249493 -0.0021782057801601851 0 -0.0039359529630001982 -0.002429727526201915 0 -0.0037380454970841566 -0.00270002383353496 0 -0.0036158622160170845 -0.0024324950961984982 0 -0.0033550326030135245 -0.0028047978951914795 0 -0.0037380454970841566 -0.00270002383353496 0 -0.0036158622160170845 -0.0024324950961984982 0 -0.0033550326030135245 -0.0028047978951914795 0 -0.0036158622160170845 -0.0024324950961984982 0 -0.0033361835556514887 -0.002403114809446175 0 -0.0036158622160170845 -0.0024324950961984982 0 -0.0033361835556514887 -0.002403114809446175 0 -0.0035364386576246976 -0.0021487667536976012 0 -0.0033361835556514887 -0.002403114809446175 0 -0.0035364386576246976 -0.0021487667536976012 0 -0.0032677314982024531 -0.0019390304151623307 0 -0.0036158622160170845 -0.0024324950961984982 0 -0.0037686219939403716 -0.0022246252552664872 0 -0.0035364386576246976 -0.0021487667536976012 0 -0.0039359529630001982 -0.002429727526201915 0 -0.0036158622160170845 -0.0024324950961984982 0 -0.0037686219939403716 -0.0022246252552664872 0 -0.0040783094389210024 -0.0015021146752390978 0 -0.0035795751510714958 -0.001862606780992513 0 -0.0032810178514695362 -0.0017228268892831129 0 -0.0037905935269106836 -0.0019946231030712617 0 -0.0035364386576246976 -0.0021487667536976012 0 -0.0035795751510714958 -0.001862606780992513 0 -0.0037686219939403716 -0.0022246252552664872 0 -0.0037905935269106836 -0.0019946231030712617 0 -0.0035364386576246976 -0.0021487667536976012 0 -0.0035364386576246976 -0.0021487667536976012 0 -0.0035795751510714958 -0.001862606780992513 0 -0.0032677314982024531 -0.0019390304151623307 0 -0.0035795751510714958 -0.001862606780992513 0 -0.0032677314982024531 -0.0019390304151623307 0 -0.0032810178514695362 -0.0017228268892831129 0 -0.0040783094389210024 -0.0015021146752390978 0 -0.0037905935269106836 -0.0019946231030712617 0 -0.0035795751510714958 -0.001862606780992513 0 -0.0032810178514695362 -0.0017228268892831129 0 -0.0030506266498527951 -0.0018660800848547448 0 -0.0027683265088025702 -0.0018897954756759037 0 -0.004852767369605584 -0.0017066306430401058 0 -0.0051224967876870075 -0.0016958971022843958 0 -0.0065778796466064221 -0.0017505574458089308 0 -0.0063964107284950125 -0.001691320923374184 0 -0.0068497796230268422 -0.0016269106886990063 0 -0.0030844190368178952 -0.0019277286722774768 0 -0.0031707943053817661 -0.0018619118783341887 0 -0.0030506266498527951 -0.0018660800848547448 0 -0.0030844190368178952 -0.0019277286722774768 0 -0.0029512210393688085 -0.0019280824656274266 0 -0.0030506266498527951 -0.0018660800848547448 0 -0.0029919520356185385 -0.0020860932325333812 0 -0.0030844190368178952 -0.0019277286722774768 0 -0.0029512210393688085 -0.0019280824656274266 0 -0.0029919520356185385 -0.0020860932325333812 0 -0.0029512210393688085 -0.0019280824656274266 0 -0.0028711389096851281 -0.0019701711725916577 0 -0.0029919520356185385 -0.0020860932325333812 0 -0.0030844190368178952 -0.0019277286722774768 0 -0.0032677314982024531 -0.0019390304151623307 0 -0.0030844190368178952 -0.0019277286722774768 0 -0.0032677314982024531 -0.0019390304151623307 0 -0.0031707943053817661 -0.0018619118783341887 0 -0.0031707943053817661 -0.0018619118783341887 0 -0.0032810178514695362 -0.0017228268892831129 0 -0.0030506266498527951 -0.0018660800848547448 0 -0.0032677314982024531 -0.0019390304151623307 0 -0.0031707943053817661 -0.0018619118783341887 0 -0.0032810178514695362 -0.0017228268892831129 0 -0.0065778796466064221 -0.0017505574458089308 0 -0.0067442306085426212 -0.0017210358805509118 0 -0.0068497796230268422 -0.0016269106886990063 0 -0.0066683690428924417 -0.001866967163188276 0 -0.0067442306085426212 -0.0017210358805509118 0 -0.0068739349590817098 -0.0016388966342726372 0 -0.0067442306085426212 -0.0017210358805509118 0 -0.0068497796230268422 -0.0016269106886990063 0 -0.0068739349590817098 -0.0016388966342726372 0 -0.0027683265088025702 -0.0018897954756759037 0 -0.002644342910649306 -0.0020333834337275124 0 -0.0028069317724496649 -0.0020290004731223412 0 -0.0029512210393688085 -0.0019280824656274266 0 -0.0027683265088025702 -0.0018897954756759037 0 -0.0028711389096851281 -0.0019701711725916577 0 -0.0029512210393688085 -0.0019280824656274266 0 -0.0030506266498527951 -0.0018660800848547448 0 -0.0027683265088025702 -0.0018897954756759037 0 -0.0029919520356185385 -0.0020860932325333812 0 -0.0028069317724496649 -0.0020290004731223412 0 -0.0028711389096851281 -0.0019701711725916577 0 -0.0027683265088025702 -0.0018897954756759037 0 -0.0028069317724496649 -0.0020290004731223412 0 -0.0028711389096851281 -0.0019701711725916577 0 -0.0068497796230268422 -0.0016269106886990063 0 -0.0068739349590817098 -0.0016388966342726372 0 -0.0070197202866673393 -0.0016128504461743718 0 -0.0027683265088025702 -0.0018897954756759037 0 -0.002644342910649306 -0.0020333834337275124 0 -0.0023080202357558923 -0.0020047513100072039 0 -0.002644342910649306 -0.0020333834337275124 0 -0.0023080202357558923 -0.0020047513100072039 0 -0.0025545799718820527 -0.0021201994643609079 0 -0.0051224967876870075 -0.0016958971022843958 0 -0.0030603068289774566 -0.0020272317804117456 0 -0.0068739349590817098 -0.0016388966342726372 0 -0.0070197202866673393 -0.0016128504461743718 0 -0.0070090724299350753 -0.0017239701771775962 0 -0.00052578329100405152 -0.002060479047765372 0 -0.00074030873560642892 -0.0023754218327728272 0 -0.0005759952111382417 -0.0023924071709039217 0 -0.0030603068289774566 -0.0020272317804117456 0 -0.0015927898040106812 -0.0022980626855383071 0 -0.0023080202357558923 -0.0020047513100072039 0 -0.0025545799718820527 -0.0021201994643609079 0 -0.0024977578628988476 -0.0022923353619663618 0 -0.0024977578628988476 -0.0022923353619663618 0 -0.0027536163226249493 -0.0021782057801601851 0 -0.0028525386188006825 -0.0024620276393156689 0 -0.0029919520356185385 -0.0020860932325333812 0 -0.0028069317724496649 -0.0020290004731223412 0 -0.0027536163226249493 -0.0021782057801601851 0 -0.002644342910649306 -0.0020333834337275124 0 -0.0028069317724496649 -0.0020290004731223412 0 -0.0027536163226249493 -0.0021782057801601851 0 -0.0025545799718820527 -0.0021201994643609079 0 -0.0024977578628988476 -0.0022923353619663618 0 -0.0027536163226249493 -0.0021782057801601851 0 -0.002644342910649306 -0.0020333834337275124 0 -0.0025545799718820527 -0.0021201994643609079 0 -0.0027536163226249493 -0.0021782057801601851 0 -0.0030458893296192832 -0.0023740551189917365 0 -0.0027536163226249493 -0.0021782057801601851 0 -0.0028525386188006825 -0.0024620276393156689 0 -0.0028525386188006825 -0.0024620276393156689 0 -0.0027572718645626714 -0.0026487659205437211 0 -0.0028331315626366487 -0.0028160020976173584 0 -0.0024977578628988476 -0.0022923353619663618 0 -0.0028525386188006825 -0.0024620276393156689 0 -0.0026891418819827134 -0.0025908229426814863 0 -0.0027572718645626714 -0.0026487659205437211 0 -0.0026805906938762013 -0.0025906089209430309 0 -0.0028331315626366487 -0.0028160020976173584 0 -0.0028525386188006825 -0.0024620276393156689 0 -0.0027572718645626714 -0.0026487659205437211 0 -0.0026891418819827134 -0.0025908229426814863 0 -0.0015716105684372649 -0.002895249823228386 0 -0.00076591498636419575 -0.0025357685781938056 0 -0.0015927898040106812 -0.0022980626855383071 0 -0.00076591498636419575 -0.0025357685781938056 0 -0.00074030873560642892 -0.0023754218327728272 0 -0.0005759952111382417 -0.0023924071709039217 0 -0.00094323191419345574 -0.0026531081835318971 0 0.0014309847600435651 -0.0020463700011986732 0 -0.00076591498636419575 -0.0025357685781938056 0 0.0029416802390280165 -0.0018868283728854288 0 0.0021048036095786811 -0.0025057648165130392 0 0.0028144125576386415 -0.0026324612640923179 0 0.0029416802390280165 -0.0018868283728854288 0 0.0028144125576386415 -0.0026324612640923179 0 0.0032037762832199741 -0.0023064799142081364 0 0.0021048036095786811 -0.0025057648165130392 0 0.0028144125576386415 -0.0026324612640923179 0 0.002396806781119159 -0.0029183302438789294 0 0.0028144125576386415 -0.0026324612640923179 0 0.002396806781119159 -0.0029183302438789294 0 0.0028643590063013829 -0.0033312166403865712 0 0.0028144125576386415 -0.0026324612640923179 0 0.0028643590063013829 -0.0033312166403865712 0 0.0035302798851018953 -0.002654990856175426 0 0.002396806781119159 -0.0029183302438789294 0 0.0028643590063013829 -0.0033312166403865712 0 0.0023140540839448921 -0.0033075506107351372 0 0.0023140540839448921 -0.0033075506107351372 0 0.0017703626054934992 -0.002985215863430893 0 0.0022233430951450806 -0.0039934754580685317 0 -0.00076591498636419575 -0.0025357685781938056 0 -0.00066924806359026424 -0.0031285970840664993 0 0.002396806781119159 -0.0029183302438789294 0 0.0023140540839448921 -0.0033075506107351372 0 0.0017703626054934992 -0.002985215863430893 0 0.0021048036095786811 -0.0025057648165130392 0 0.002396806781119159 -0.0029183302438789294 0 0.0017703626054934992 -0.002985215863430893 0 0.0066098062433344535 -0.0025498094236527532 0 0.0054612511062679244 -0.002264301956502175 0 0.0041534093161871349 -0.0024290846005071056 0 0.0043440407816758364 -0.0023539979696603477 0 0.0044834220843340804 -0.0025215858047089412 0 0.0041534093161871349 -0.0024290846005071056 0 0.0044834220843340804 -0.0025215858047089412 0 0.0039647184915127609 -0.0026937592409437979 0 0.0041534093161871349 -0.0024290846005071056 0 0.0043440407816758364 -0.0023539979696603477 0 0.0042125526178977647 -0.0022322532938272772 0 0.0038646724739936555 -0.0027726503406775606 0 0.0054612511062679244 -0.002264301956502175 0 0.0041534093161871349 -0.0024290846005071056 0 0.0039824288844988939 -0.0024833620297457391 0 0.0039796755745655386 -0.0026447775941385409 0 0.0038070059109026233 -0.0025486258831277139 0 0.0039824288844988939 -0.0024833620297457391 0 0.0039796755745655386 -0.0026447775941385409 0 0.0031826248377442774 -0.0030797351834723815 0 0.0038021414492458569 -0.0024320513882327578 0 0.0038070059109026233 -0.0025486258831277139 0 0.0039824288844988939 -0.0024833620297457391 0 0.0040004763207901004 -0.0023055098056028573 0 0.0041534093161871349 -0.0024290846005071056 0 0.0039824288844988939 -0.0024833620297457391 0 0.0040004763207901004 -0.0023055098056028573 0 0.0028144125576386415 -0.0026324612640923179 0 0.0035302798851018953 -0.002654990856175426 0 0.0032037762832199741 -0.0023064799142081364 0 0.0029416802390280165 -0.0018868283728854288 0 0.0032037762832199741 -0.0023064799142081364 0 0.0035616560741960563 -0.0020235706104638723 0 0.0035302798851018953 -0.002654990856175426 0 0.0032037762832199741 -0.0023064799142081364 0 0.0035616560741960563 -0.0020235706104638723 0 0.0035302798851018953 -0.002654990856175426 0 0.0041925693182761781 -0.0019491310027336586 0 0.0035616560741960563 -0.0020235706104638723 0 0.0040004763207901004 -0.0023055098056028573 0 0.0042125526178977647 -0.0022322532938272772 0 0.0041925693182761781 -0.0019491310027336586 0 0.0038021414492458569 -0.0024320513882327578 0 0.004156164288375762 -0.0020100862829104549 0 0.0041534093161871349 -0.0024290846005071056 0 0.0040004763207901004 -0.0023055098056028573 0 0.0042125526178977647 -0.0022322532938272772 0 0.0043440407816758364 -0.0023539979696603477 0 0.0042125526178977647 -0.0022322532938272772 0 0.0045384307806197498 -0.0021323045957999209 0 0.0042125526178977647 -0.0022322532938272772 0 0.0041925693182761781 -0.0019491310027336586 0 0.0045384307806197498 -0.0021323045957999209 0 0.0041925693182761781 -0.0019491310027336586 0 0.0035616560741960563 -0.0020235706104638723 0 0.003769524332314104 -0.0013278317743619934 0 0.0041925693182761781 -0.0019491310027336586 0 0.0042691391314610104 -0.0013954431903677846 0 0.003769524332314104 -0.0013278317743619934 0 0.0041925693182761781 -0.0019491310027336586 0 0.0042691391314610104 -0.0013954431903677846 0 0.0046298025959918311 -0.0014683049653633543 0 0.0014309847600435651 -0.0020463700011986732 0 0.0015922597256516091 -0.0018032504016476693 0 -0.0005759952111382417 -0.0023924071709039217 0 -0.00031734599882919781 -0.0021064796981977814 0 -0.00012701053706429757 -0.0021058720560479184 0 0.0029416802390280165 -0.0018868283728854288 0 0.0035616560741960563 -0.0020235706104638723 0 0.003769524332314104 -0.0013278317743619934 0 -0.00052578329100405152 -0.002060479047765372 0 -0.0005759952111382417 -0.0023924071709039217 0 -0.00031734599882919781 -0.0021064796981977814 0 -0.0070197202866673393 -0.0016128504461743718 0 -0.0070890592080566127 -0.0017352487375136858 0 -0.0070090724299350753 -0.0017239701771775962 0 -0.0030603068289774566 -0.0020272317804117456 0 -0.0039934795033819146 -0.0018307563861098056 0 -0.00057468076579991355 -0.0020407554938730245 0 -0.00031734599882919781 -0.0021064796981977814 0 -8.662035865780641e-05 -0.0018621014261835144 0 -0.00057468076579991355 -0.0020407554938730245 0 -8.662035865780641e-05 -0.0018621014261835144 0 -0.00022328357439763241 -0.0015712689385663403 0 -0.0030603068289774566 -0.0020272317804117456 0 -0.0004340871850799165 -0.0023558729612562254 0 -0.00031734599882919781 -0.0021064796981977814 0 -0.00012701053706429757 -0.0021058720560479184 0 -8.662035865780641e-05 -0.0018621014261835144 0 -0.00012701053706429757 -0.0021058720560479184 0 -8.662035865780641e-05 -0.0018621014261835144 0 0.00060838069698682595 -0.0016146957942379911 0 0.0042691391314610104 -0.0013954431903677846 0 0.003769524332314104 -0.0013278317743619934 0 0.0044835747030692649 -0.00083439558451553876 0 0.0015922597256516091 -0.0018032504016476693 0 0.0037938988717615635 -0.0012966778000371355 0 0.00026623212172432732 -0.0015836515472881442 0 -0.00096917167501536707 -0.0014069318085334426 0 -8.662035865780641e-05 -0.0018621014261835144 0 3.2449067665282571e-05 -0.0011516701378266108 0 -0.00022328357439763241 -0.0015712689385663403 0 0.0002556156927671956 -0.0007164191686329863 0 0.00039349283311130304 -0.00070082106951657622 0 0.00060838069698682595 -0.0016146957942379911 0 -8.662035865780641e-05 -0.0018621014261835144 0 0.0002556156927671956 -0.0007164191686329863 0 0.00060838069698682595 -0.0016146957942379911 0 -0.00096917167501536707 -0.0014069318085334426 0 -0.0039934795033819146 -0.0018307563861098056 0 0.0033736275673562533 -0.00014884646124996358 0 0.0037938988717615635 -0.0012966778000371355 0 -0.0070718188108930382 -0.001786684456884087 0 -0.0071062251056133166 -0.001805935031901722 0 -0.0070696182056611849 -0.0017699399671468748 0 0.0002556156927671956 -0.0007164191686329863 0 0.00039349283311130304 -0.00070082106951657622 0 0.0003021590737248514 -0.00055446364254325932 0 0.0033736275673562533 -0.00014884646124996358 0 0.0036899248224730209 -2.5866134980858955e-05 0 -0.0070718188108930382 -0.001786684456884087 0 -0.0070629071324245897 -0.0017792264132716403 0 -0.0070696182056611849 -0.0017699399671468748 0 0.00081138153410822533 -5.1382152491712214e-05 0 -0.0052943409975096624 -0.0010763526684892603 0 0.0071030095750250479 0.001087486117069002 0 0.006924464135887369 0.00098476195795109628 0 0.0070966726010313974 0.0015412481989337751 0 0.00081138153410822533 -5.1382152491712214e-05 0 -0.00020397432744744475 -0.00013066343788549004 0 0.0071030095750250479 0.001087486117069002 0 0.0074061186126196821 0.0010530694065841763 0 0.0073367040115225922 0.0012532635257474626 0 0.007059460504314375 0.00080253638454116634 0 0.0071030095750250479 0.001087486117069002 0 0.0074061186126196821 0.0010530694065841763 0 -0.00096917167501536707 -0.0014069318085334426 0 0.00081138153410822533 -5.1382152491712214e-05 0 0.0070477783289972689 0.00078612261797349507 0 0.0070147831586848813 0.00095362834240403404 0 0.006927284658351289 0.00098966337740758327 0 0.0033736275673562533 -0.00014884646124996358 0 0.00081138153410822533 -5.1382152491712214e-05 0 0.007059460504314375 0.00080253638454116634 0 0.0071030095750250479 0.001087486117069002 0 0.0070147831586848813 0.00095362834240403404 0 0.0071030095750250479 0.001087486117069002 0 0.0070147831586848813 0.00095362834240403404 0 0.006927284658351289 0.00098966337740758327 0 0.0029443275588077284 0.00093011676781338246 0 0.00081138153410822533 -5.1382152491712214e-05 0 -0.0070718188108930382 -0.001786684456884087 0 -0.0071062251056133166 -0.001805935031901722 0 -0.0070890592080566127 -0.0017352487375136858 0 -0.0071062251056133166 -0.001805935031901722 0 -0.0072029412749798852 -0.0018542176065416338 0 -0.0071437361440139019 -0.0018749182345241672 0 -0.0075773871618319728 -0.0021165914100276964 0 -0.0052943409975096624 -0.0010763526684892603 0 -0.0071062251056133166 -0.001805935031901722 0 -0.0070671336315627706 -0.0017693376303093296 0 -0.0070550896811319283 -0.0018037676807144065 0 -0.0071062251056133166 -0.001805935031901722 0 -0.0070671336315627706 -0.0017693376303093296 0 -0.0070890592080566127 -0.0017352487375136858 0 -0.0070671336315627706 -0.0017693376303093296 0 -0.0070890592080566127 -0.0017352487375136858 0 -0.0070090724299350753 -0.0017239701771775962 0 -0.0070671336315627706 -0.0017693376303093296 0 -0.0070090724299350753 -0.0017239701771775962 0 -0.0070550896811319283 -0.0018037676807144065 0 -0.0068739349590817098 -0.0016388966342726372 0 -0.0070090724299350753 -0.0017239701771775962 0 -0.0069635509729581036 -0.0018221710957316681 0 -0.0066683690428924417 -0.001866967163188276 0 -0.0068739349590817098 -0.0016388966342726372 0 -0.0067714020477841769 -0.0021286577631917801 0 -0.0068881537808112856 -0.0016103930736940109 0 -0.006840886313613838 -0.0020515721937099888 0 -0.0071062251056133166 -0.001805935031901722 0 -0.0070550896811319283 -0.0018037676807144065 0 -0.0071051379906926695 -0.001900116654072162 0 -0.0069635509729581036 -0.0018221710957316681 0 -0.0070550896811319283 -0.0018037676807144065 0 -0.0071051379906926695 -0.001900116654072162 0 -0.0070090724299350753 -0.0017239701771775962 0 -0.0069635509729581036 -0.0018221710957316681 0 -0.0070550896811319283 -0.0018037676807144065 0 -0.006840886313613838 -0.0020515721937099888 0 -0.0070162441902253915 -0.0019509153876578352 0 -0.0069635509729581036 -0.0018221710957316681 0 -0.0071051379906926695 -0.001900116654072162 0 -0.0070294209061209645 -0.00197686975219273 0 -0.0072612729331890929 -0.0019484266316223023 0 -0.0073025164282699657 -0.0020364601200942582 0 -0.007152882444612132 -0.0019993218638130563 0 -0.0071051379906926695 -0.001900116654072162 0 -0.0070294209061209645 -0.00197686975219273 0 -0.007152882444612132 -0.0019993218638130563 0 -0.0070162441902253915 -0.0019509153876578352 0 -0.0072023564199261104 -0.0020069680332751665 0 -0.0071051379906926695 -0.001900116654072162 0 -0.0071452604533856802 -0.0019649921372631609 0 -0.007152882444612132 -0.0019993218638130563 0 -0.0071908682574182217 -0.0019716195356619722 0 -0.0071452604533856802 -0.0019649921372631609 0 -0.007152882444612132 -0.0019993218638130563 0 -0.0071908682574182217 -0.0019716195356619722 0 -0.0071452604533856802 -0.0019649921372631609 0 -0.0071612301980340598 -0.0019781084297866673 0 -0.0071452604533856802 -0.0019649921372631609 0 -0.0071612301980340598 -0.0019781084297866673 0 -0.0071673550613496236 -0.001934508265208834 0 -0.0071442353153724223 -0.0019835683544997033 0 -0.0071064328087598379 -0.0019189345177873566 0 -0.0071581397452573185 -0.0019565861196347888 0 -0.0071612301980340598 -0.0019781084297866673 0 -0.0070926779412722402 -0.0019782550593340168 0 -0.0071612301980340598 -0.0019781084297866673 0 -0.0070926779412722402 -0.0019782550593340168 0 -0.0070960356819696115 -0.002029203143590637 0 -0.0070389879746817373 -0.0020181606512151653 0 -0.0070030748580278968 -0.00205153837213938 0 -0.0069980952769286694 -0.0019842154124372065 0 -0.00020397432744744475 -0.00013066343788549004 0 -0.004596627040582133 -0.0024943905268754378 0 -0.0070926779412722402 -0.0019782550593340168 0 -0.0070389879746817373 -0.0020181606512151653 0 -0.0069980952769286694 -0.0019842154124372065 0 -0.0070926779412722402 -0.0019782550593340168 0 -0.0070389879746817373 -0.0020181606512151653 0 -0.0070960356819696115 -0.002029203143590637 0 -0.0070389879746817373 -0.0020181606512151653 0 -0.0070331823055740823 -0.0020677476314123018 0 -0.0070960356819696115 -0.002029203143590637 0 -0.00089417438420825535 -0.00063111590258913366 0 -0.00090236142163772285 -0.00066141323671391997 0 -0.00088994096685502929 -0.00065059828087394537 0 -0.0070389879746817373 -0.0020181606512151653 0 -0.0070030748580278968 -0.00205153837213938 0 -0.0070331823055740823 -0.0020677476314123018 0 0.0071030095750250479 0.001087486117069002 0 0.0070966726010313974 0.0015412481989337751 0 0.0073367040115225922 0.0012532635257474626 0 -0.00020397432744744475 -0.00013066343788549004 0 -0.0052943409975096624 -0.0010763526684892603 0 -0.0052943409975096624 -0.0010763526684892603 0 -0.0071064328087598379 -0.0019189345177873566 0 -0.0071051379906926695 -0.001900116654072162 0 -0.0071452604533856802 -0.0019649921372631609 0 -0.0071673550613496236 -0.001934508265208834 0 -0.0072029412749798852 -0.0018542176065416338 0 -0.0071437361440139019 -0.0018749182345241672 0 -0.0071673550613496236 -0.001934508265208834 0 -0.0071051379906926695 -0.001900116654072162 0 -0.0071437361440139019 -0.0018749182345241672 0 -0.0071673550613496236 -0.001934508265208834 0 -0.0071062251056133166 -0.001805935031901722 0 -0.0071051379906926695 -0.001900116654072162 0 -0.0071437361440139019 -0.0018749182345241672 0 0.0079122735994968923 0.0019830853575286281 0 0.0088425955891459473 0.00088039783307463499 0 0.0081630987291674111 0.00097361738037426342 0 0.0085979970480114087 0.00030056502965685697 0 0.0088010744076836567 0.00024276595937335494 0 0.0083070887321865204 0.0006957602828798514 0 0.0085979970480114087 0.00030056502965685697 0 0.0084126379581542197 0.00044301994263186325 0 0.0083070887321865204 0.0006957602828798514 0 0.0034193405641352406 -0.00049017698051255856 0 0.0093821862445882427 0.00085642070474737395 0 0.0085979970480114087 0.00030056502965685697 0 0.0084040279656432525 0.00024166507640929167 0 0.0085576236181932174 2.8815477124384992e-05 0 0.0085979970480114087 0.00030056502965685697 0 0.0084040279656432525 0.00024166507640929167 0 0.0084126379581542197 0.00044301994263186325 0 -0.00052920833991432713 -0.00077870197398635166 0 -0.00079602695613263468 -0.00094524747831633963 0 -0.00064565996298649657 -0.0011599839228185463 0 0.007729563620498813 0.0013246680218579373 0 0.0079122735994968923 0.0019830853575286281 0 0.0081630987291674111 0.00097361738037426342 0 0.0070966726010313974 0.0015412481989337751 0 0.007729563620498813 0.0013246680218579373 0 0.0073367040115225922 0.0012532635257474626 0 0.0070966726010313974 0.0015412481989337751 0 0.007729563620498813 0.0013246680218579373 0 0.0079122735994968923 0.0019830853575286281 0 -0.00020397432744744475 -0.00013066343788549004 0 0.0034193405641352406 -0.00049017698051255856 0 -0.0048230421456114704 -0.0047764681861265429 0 -0.0055571234400673001 -0.003958480320961094 0 -0.0050017593747527641 -0.0038381638654532034 0 -0.0048230421456114704 -0.0047764681861265429 0 -0.0050017593747527641 -0.0038381638654532034 0 -0.0040121994352121859 -0.0042988326074425275 0 -0.0051893358593287156 -0.0028591728923178534 0 -0.0050017593747527641 -0.0038381638654532034 0 -0.0040121994352121859 -0.0042988326074425275 0 0.0034193405641352406 -0.00049017698051255856 0 -0.004596627040582133 -0.0024943905268754378 0 -0.0054277175135202449 -0.0033222704397911969 0 -0.0055571234400673001 -0.003958480320961094 0 -0.0050017593747527641 -0.0038381638654532034 0 -0.0052705412206787445 -0.0036766005262261485 0 -0.004596627040582133 -0.0024943905268754378 0 0.0084040279656432525 0.00024166507640929167 0 0.0085576236181932174 2.8815477124384992e-05 0 0.0081368783123571334 7.7227923160259131e-05 0 0.0034193405641352406 -0.00049017698051255856 0 0.0017652116589885922 -0.0028123881454402838 0 0.0085979970480114087 0.00030056502965685697 0 0.0088010744076836567 0.00024276595937335494 0 0.0085576236181932174 2.8815477124384992e-05 0 0.0049888629827752953 -0.0021144992226961967 0 0.0017652116589885922 -0.0028123881454402838 0 0.0078823338372006318 -0.00048675932156437926 0 0.0085576236181932174 2.8815477124384992e-05 0 0.0081368783123571334 7.7227923160259131e-05 0 0.0078823338372006318 -0.00048675932156437926 0 0.0081368783123571334 7.7227923160259131e-05 0 0.0073812080994191103 -0.00030931978634215714 0 0.0081368783123571334 7.7227923160259131e-05 0 0.0073812080994191103 -0.00030931978634215714 0 0.0075119112048920144 0.0003276605065770974 0 0.0085539958248064679 0.00090499328989963965 0 0.0084949982187088966 0.00079386251267918827 0 0.0081368783123571334 7.7227923160259131e-05 0 0.0075119112048920144 0.0003276605065770974 0 0.0081625017442577916 0.00041466055861667935 0 0.0075119112048920144 0.0003276605065770974 0 0.0081625017442577916 0.00041466055861667935 0 0.0084754363624368854 0.00074964964072066047 0 0.0081368783123571334 7.7227923160259131e-05 0 0.0082965292786058784 0.00034044182474372609 0 0.0081625017442577916 0.00041466055861667935 0 0.0084040279656432525 0.00024166507640929167 0 0.0081368783123571334 7.7227923160259131e-05 0 0.0082965292786058784 0.00034044182474372609 0 0.0084040279656432525 0.00024166507640929167 0 0.0084126379581542197 0.00044301994263186325 0 0.0082965292786058784 0.00034044182474372609 0 0.0081625017442577916 0.00041466055861667935 0 0.0083687207061113184 0.00056714236151905945 0 0.0084754363624368854 0.00074964964072066047 0 0.0082965292786058784 0.00034044182474372609 0 0.0081625017442577916 0.00041466055861667935 0 0.0083687207061113184 0.00056714236151905945 0 0.0084126379581542197 0.00044301994263186325 0 0.0082965292786058784 0.00034044182474372609 0 0.0083687207061113184 0.00056714236151905945 0 0.0084126379581542197 0.00044301994263186325 0 0.0083687207061113184 0.00056714236151905945 0 0.0083070887321865204 0.0006957602828798514 0 0.0083687207061113184 0.00056714236151905945 0 0.0084754363624368854 0.00074964964072066047 0 0.0083070887321865204 0.0006957602828798514 0 0.0084754363624368854 0.00074964964072066047 0 0.0091989967590454906 -0.00045742689582787291 0 0.0083070887321865204 0.0006957602828798514 0 0.0097549175707152581 0.0016699721405709226 0 0.0084754363624368854 0.00074964964072066047 0 0.010019697978297777 0.00046197231988219197 0 0.0091989967590454906 -0.00045742689582787291 0 0.01040859265171214 -0.00051697753087153798 0 0.010019697978297777 0.00046197231988219197 0 0.0084754363624368854 0.00074964964072066047 0 0.0091989967590454906 -0.00045742689582787291 0 0.010019697978297777 0.00046197231988219197 0 0.0092654803970322469 -0.00019895442607082087 0 0.0093821862445882427 0.00085642070474737395 0 0.0095594777749075897 -1.4800396398328887e-05 0 0.0088173881126056234 0.00014811538134705592 0 0.0088425955891459473 0.00088039783307463499 0 0.0088173881126056234 0.00014811538134705592 0 0.0083621622520045468 0.00046916136891140051 0 0.0088425955891459473 0.00088039783307463499 0 0.0088173881126056234 0.00014811538134705592 0 0.0083919053736909149 -3.8559985588988299e-05 0 0.0083621622520045468 0.00046916136891140051 0 0.0083919053736909149 -3.8559985588988299e-05 0 0.0083621622520045468 0.00046916136891140051 0 0.0079700844522498336 0.00012736014943935081 0 0.0083621622520045468 0.00046916136891140051 0 0.0088425955891459473 0.00088039783307463499 0 0.0081630987291674111 0.00097361738037426342 0 0.0083621622520045468 0.00046916136891140051 0 0.0081630987291674111 0.00097361738037426342 0 0.0080024773791414431 0.00043395748655352968 0 0.007729563620498813 0.0013246680218579373 0 0.0074061186126196821 0.0010530694065841763 0 0.0077576995489420991 0.00070982139547253766 0 0.007729563620498813 0.0013246680218579373 0 0.0074061186126196821 0.0010530694065841763 0 0.0073367040115225922 0.0012532635257474626 0 0.007729563620498813 0.0013246680218579373 0 0.0081630987291674111 0.00097361738037426342 0 0.0077576995489420991 0.00070982139547253766 0 0.0081630987291674111 0.00097361738037426342 0 0.0077576995489420991 0.00070982139547253766 0 0.0080024773791414431 0.00043395748655352968 0 0.007059460504314375 0.00080253638454116634 0 0.0074061186126196821 0.0010530694065841763 0 0.0077576995489420991 0.00070982139547253766 0 0.0042343071555057 5.6174714854200609e-05 0 0.0047082359186905575 -0.00067779830677553614 0 0.0044843043866279984 -0.00091236405332334393 0 0.0033736275673562533 -0.00014884646124996358 0 0.0071857564840950277 -0.00015429204340138027 0 0.0077275232178660369 0.00066383902212598892 0 0.0071857564840950277 -0.00015429204340138027 0 0.007059460504314375 0.00080253638454116634 0 0.0077576995489420991 0.00070982139547253766 0 0.0076998827330835183 -0.00018240899235677543 0 0.0077576995489420991 0.00070982139547253766 0 0.0080024773791414431 0.00043395748655352968 0 0.0078532504251757878 9.6736827719832362e-05 0 0.0083621622520045468 0.00046916136891140051 0 0.0080024773791414431 0.00043395748655352968 0 0.0079700844522498336 0.00012736014943935081 0 0.0083919053736909149 -3.8559985588988299e-05 0 0.0079700844522498336 0.00012736014943935081 0 0.0078504014896209808 9.8734859863770512e-05 0 0.0080024773791414431 0.00043395748655352968 0 0.0079700844522498336 0.00012736014943935081 0 0.0078532504251757878 9.6736827719832362e-05 0 0.0074081835102401744 -9.4574426267052979e-05 0 0.0071857564840950277 -0.00015429204340138027 0 0.0047082359186905575 -0.00067779830677553614 0 0.0047043798710954821 -0.00074611553013494017 0 0.0044843043866279984 -0.00091236405332334393 0 0.0071857564840950277 -0.00015429204340138027 0 0.0067529699071825133 -0.0004200770538675809 0 0.0067529699071825133 -0.0004200770538675809 0 0.0037938988717615635 -0.0012966778000371355 0 0.0042691391314610104 -0.0013954431903677846 0 0.0044835747030692649 -0.00083439558451553876 0 0.0046298025959918311 -0.0014683049653633543 0 0.0037938988717615635 -0.0012966778000371355 0 0.0063216754027513025 -0.0010740367937139899 0 0.0067529699071825133 -0.0004200770538675809 0 0.0063216754027513025 -0.0010740367937139899 0 0.0059096393634820547 -0.00098482363569982949 0 0.0058779737136543334 -0.0010076227489637826 0 0.0059019104427005583 -0.001099344802358133 0 0.0080292293437707 -2.8674041023161763e-05 0 0.0083047603831616443 -0.00039321560409167022 0 0.0080164274522225888 -0.000652419867976094 0 0.0083919053736909149 -3.8559985588988299e-05 0 0.0078504014896209808 9.8734859863770512e-05 0 0.0083047603831616443 -0.00039321560409167022 0 0.0071857564840950277 -0.00015429204340138027 0 0.0082449718137012178 -0.00041280355376536201 0 0.0080308673771791479 2.0482284934521105e-05 0 0.0080292293437707 -2.8674041023161763e-05 0 0.0083047603831616443 -0.00039321560409167022 0 0.0083047603831616443 -0.00039321560409167022 0 0.0086553322996276733 -0.00090622978683004007 0 0.0089175678259841122 -0.00040663986009181687 0 0.0083919053736909149 -3.8559985588988299e-05 0 0.0083047603831616443 -0.00039321560409167022 0 0.0089175678259841122 -0.00040663986009181687 0 0.0088173881126056234 0.00014811538134705592 0 0.0083919053736909149 -3.8559985588988299e-05 0 0.0089175678259841122 -0.00040663986009181687 0 0.0083047603831616443 -0.00039321560409167022 0 0.0086553322996276733 -0.00090622978683004007 0 0.0083044971071310272 -0.00085536252198486454 0 0.0086553322996276733 -0.00090622978683004007 0 0.0092075566631651066 -0.0010030115519324163 0 0.0089175678259841122 -0.00040663986009181687 0 0.0086553322996276733 -0.00090622978683004007 0 0.0084310130538044932 -0.0010737359460454953 0 0.0083044971071310272 -0.00085536252198486454 0 0.0086553322996276733 -0.00090622978683004007 0 0.0084310130538044932 -0.0010737359460454953 0 0.0085934564106039096 -0.001240973760898873 0 0.0086553322996276733 -0.00090622978683004007 0 0.0089469046216366418 -0.001261001253538995 0 0.0092075566631651066 -0.0010030115519324163 0 0.0080164274522225888 -0.000652419867976094 0 0.0083044971071310272 -0.00085536252198486454 0 0.0082330017071724527 -0.0013237079516333231 0 0.0066548316400379592 -0.0010295887682724412 0 0.0066227152091744221 -0.0017452212497672008 0 0.0068482166161436733 -0.0017730999296523722 0 0.0063216754027513025 -0.0010740367937139899 0 0.007604338556086063 -0.0015150824259980173 0 0.0041925693182761781 -0.0019491310027336586 0 0.0046298025959918311 -0.0014683049653633543 0 0.0045384307806197498 -0.0021323045957999209 0 0.0063216754027513025 -0.0010740367937139899 0 0.0055126005293480154 -0.0019632461693076773 0 0.0083047603831616443 -0.00039321560409167022 0 0.0080164274522225888 -0.000652419867976094 0 0.0083044971071310272 -0.00085536252198486454 0 0.0084310130538044932 -0.0010737359460454953 0 0.0083044971071310272 -0.00085536252198486454 0 0.0082330017071724527 -0.0013237079516333231 0 0.0055126005293480154 -0.0019632461693076773 0 0.0066098062433344535 -0.0025498094236527532 0 0.0066227152091744221 -0.0017452212497672008 0 0.0068482166161436733 -0.0017730999296523722 0 0.0069867785199813539 -0.0023126929148291229 0 0.007604338556086063 -0.0015150824259980173 0 0.0079070331147272216 -0.0021732149752353579 0 0.0082330017071724527 -0.0013237079516333231 0 0.008553664671322108 -0.0017012967870453095 0 0.0083596058405022156 -0.0018311965156958365 0 0.0082330017071724527 -0.0013237079516333231 0 0.0085934564106039096 -0.001240973760898873 0 0.008551587192082306 -0.0014800496659026475 0 0.0084310130538044932 -0.0010737359460454953 0 0.0082330017071724527 -0.0013237079516333231 0 0.0085934564106039096 -0.001240973760898873 0 0.0085934564106039096 -0.001240973760898873 0 0.0089469046216366418 -0.001261001253538995 0 0.008854257055268511 -0.0016092555926040483 0 0.0086553322996276733 -0.00090622978683004007 0 0.0085934564106039096 -0.001240973760898873 0 0.0089469046216366418 -0.001261001253538995 0 0.0085934564106039096 -0.001240973760898873 0 0.008854257055268511 -0.0016092555926040483 0 0.008551587192082306 -0.0014800496659026475 0 0.0082330017071724527 -0.0013237079516333231 0 0.008551587192082306 -0.0014800496659026475 0 0.008553664671322108 -0.0017012967870453095 0 0.008854257055268511 -0.0016092555926040483 0 0.008551587192082306 -0.0014800496659026475 0 0.008553664671322108 -0.0017012967870453095 0 0.008553664671322108 -0.0017012967870453095 0 0.0083789028906044154 -0.0020382649105050461 0 0.0083596058405022156 -0.0018311965156958365 0 0.008553664671322108 -0.0017012967870453095 0 0.0087547598550161386 -0.0019305236954808942 0 0.0083789028906044154 -0.0020382649105050461 0 0.008854257055268511 -0.0016092555926040483 0 0.008553664671322108 -0.0017012967870453095 0 0.0087547598550161386 -0.0019305236954808942 0 0.008854257055268511 -0.0016092555926040483 0 0.0087547598550161386 -0.0019305236954808942 0 0.0091755377406074756 -0.0020089900111894998 0 0.0087547598550161386 -0.0019305236954808942 0 0.0091755377406074756 -0.0020089900111894998 0 0.0087983391661508037 -0.0024138493911315755 0 0.0087547598550161386 -0.0019305236954808942 0 0.0083789028906044154 -0.0020382649105050461 0 0.0087983391661508037 -0.0024138493911315755 0 0.0066227152091744221 -0.0017452212497672008 0 0.0065880044140687764 -0.0024609878259990049 0 0.0069867785199813539 -0.0023126929148291229 0 0.0083772282113794075 -0.0022293818206442547 0 0.0078339001623309555 -0.0021598623446786543 0 0.0083140466513693338 -0.0019837356524652406 0 0.0043440407816758364 -0.0023539979696603477 0 0.0045384307806197498 -0.0021323045957999209 0 0.0044834220843340804 -0.0025215858047089412 0 0.008212903036750277 -0.0022307711315776549 0 0.0079070331147272216 -0.0021732149752353579 0 0.0066098062433344535 -0.0025498094236527532 0 0.0079070331147272216 -0.0021732149752353579 0 0.011038280053086874 -0.0013215519877663108 0 0.0091755377406074756 -0.0020089900111894998 0 0.010646633057669672 -0.0024668084638591031 0 0.008854257055268511 -0.0016092555926040483 0 0.0091755377406074756 -0.0020089900111894998 0 0.0093324246979730203 -0.0014884969047568751 0 0.0099354926663386238 -0.0017827402952111371 0 0.0091755377406074756 -0.0020089900111894998 0 0.0093324246979730203 -0.0014884969047568751 0 0.010441102231810611 -0.0015227159476179752 0 0.0092622355994499729 -0.0019806647096986189 0 0.0093324246979730203 -0.0014884969047568751 0 0.0097734073958703985 -0.0011833675639847971 0 0.0092075566631651066 -0.0010030115519324163 0 0.0089469046216366418 -0.001261001253538995 0 0.008854257055268511 -0.0016092555926040483 0 0.0093324246979730203 -0.0014884969047568751 0 0.0089469046216366418 -0.001261001253538995 0 0.0093324246979730203 -0.0014884969047568751 0 0.0092075566631651066 -0.0010030115519324163 0 0.0099354926663386238 -0.0017827402952111371 0 0.0093324246979730203 -0.0014884969047568751 0 0.0097734073958703985 -0.0011833675639847971 0 0.0097734073958703985 -0.0011833675639847971 0 0.0095374374060072948 -0.00068610414474689577 0 0.010204678443267657 -0.00079798095767774884 0 0.0097734073958703985 -0.0011833675639847971 0 0.0095374374060072948 -0.00068610414474689577 0 0.0092075566631651066 -0.0010030115519324163 0 0.0095374374060072948 -0.00068610414474689577 0 0.0092075566631651066 -0.0010030115519324163 0 0.0089175678259841122 -0.00040663986009181687 0 0.0095594777749075897 -1.4800396398328887e-05 0 0.0088173881126056234 0.00014811538134705592 0 0.0089175678259841122 -0.00040663986009181687 0 0.0095594777749075897 -1.4800396398328887e-05 0 0.0095374374060072948 -0.00068610414474689577 0 0.0089175678259841122 -0.00040663986009181687 0 0.0092654803970322469 -0.00019895442607082087 0 0.010111448193515896 -0.0013364792176270464 0 0.0095594777749075897 -1.4800396398328887e-05 0 0.0095374374060072948 -0.00068610414474689577 0 0.010204678443267657 -0.00079798095767774884 0 0.0091989967590454906 -0.00045742689582787291 0 0.01040859265171214 -0.00051697753087153798 0 0.010268702172573425 -0.0016676609107850137 0 0.01040859265171214 -0.00051697753087153798 0 0.011185440465327871 -0.0010176043745647161 0 0.010268702172573425 -0.0016676609107850137 0 0.01040859265171214 -0.00051697753087153798 0 0.011185440465327871 -0.0010176043745647161 0 0.011318227099768364 6.1765582531678672e-05 0 0.011185440465327871 -0.0010176043745647161 0 0.012367831115591739 -0.0010937324574349487 0 0.011318227099768364 6.1765582531678672e-05 0 0.011185440465327871 -0.0010176043745647161 0 0.011571802480028693 -0.0018470275864126686 0 0.012367831115591739 -0.0010937324574349487 0 0.011185440465327871 -0.0010176043745647161 0 0.011571802480028693 -0.0018470275864126686 0 0.010268702172573425 -0.0016676609107850137 0 0.011571802480028693 -0.0018470275864126686 0 0.010268702172573425 -0.0016676609107850137 0 0.011322391668235888 -0.0028961219867335349 0 0.0097734073958703985 -0.0011833675639847971 0 0.010204678443267657 -0.00079798095767774884 0 0.010832204447618132 -0.0015431937051134284 0 0.0099354926663386238 -0.0017827402952111371 0 0.0097734073958703985 -0.0011833675639847971 0 0.010832204447618132 -0.0015431937051134284 0 0.010111448193515896 -0.0013364792176270464 0 0.012100998232820561 -0.0014879398471740186 0 0.011571802480028693 -0.0018470275864126686 0 0.011322391668235888 -0.0028961219867335349 0 0.012356016097815942 -0.0026038980757706167 0 0.012943864367740381 -0.00075681120264041565 0 0.012410896598797273 -0.0021048404788467853 0 0.013768102915963386 -0.0017279783062790377 0 0.012100998232820561 -0.0014879398471740186 0 0.013777683869640785 -0.0015619623163880597 0 0.011038280053086874 -0.0013215519877663108 0 0.012943864367740381 -0.00075681120264041565 0 0.012410896598797273 -0.0021048404788467853 0 0.010441102231810611 -0.0015227159476179752 0 0.012100998232820561 -0.0014879398471740186 0 0.011038280053086874 -0.0013215519877663108 0 0.012410896598797273 -0.0021048404788467853 0 0.010646633057669672 -0.0024668084638591031 0 0.015764790507949579 -0.00033319960644440533 0 0.015624412044562309 -0.0014671963053814715 0 0.016698883218547206 6.5341444132275708e-07 0 0.017390169032940064 7.3626987921684042e-06 0 0.017865769855365449 -7.0689031641048538e-07 0 0.016972268271420659 1.9094453320810137e-05 0 0.016698883218547206 6.5341444132275708e-07 0 0.017390169032940064 7.3626987921684042e-06 0 0.014470594604164912 -0.0011936297762152968 0 0.013785658697386788 -0.0013905839028136317 0 0.014214087360825928 -0.0018897734127481815 0 0.014470594604164912 -0.0011936297762152968 0 0.013785658697386788 -0.0013905839028136317 0 0.014045993861837424 -0.00069251896206057057 0 0.013352829725756615 -0.00088733787941878191 0 0.013785658697386788 -0.0013905839028136317 0 0.014045993861837424 -0.00069251896206057057 0 0.012100998232820561 -0.0014879398471740186 0 0.013089651082811132 -0.0017105632438782386 0 0.014470594604164912 -0.0011936297762152968 0 0.014045993861837424 -0.00069251896206057057 0 0.014730374183082042 -0.00050034990849358025 0 0.016972268271420659 1.9094453320810137e-05 0 0.016698883218547206 6.5341444132275708e-07 0 0.015653695590854177 -1.9842811452159339e-05 0 0.012356016097815942 -0.0026038980757706167 0 0.01339545355919469 -0.0023024019802556739 0 0.013425304336007596 -0.0022225701486169249 0 0.015764790507949579 -0.00033319960644440533 0 0.014696815742469518 -0.0006853193261164072 0 0.016698883218547206 6.5341444132275708e-07 0 0.015529954538574862 -6.3955136315285054e-07 0 0.015653695590854177 -1.9842811452159339e-05 0 0.013089651082811132 -0.0017105632438782386 0 0.014696815742469518 -0.0006853193261164072 0 0.014696815742469518 -0.0006853193261164072 0 0.014990614993328502 -0.00034734734391190673 0 0.01552748469802003 -1.1162320361461726e-06 0 0.014990614993328502 -0.00034734734391190673 0 0.015528507998301468 -4.5667260534343454e-11 0 0.015358183983134753 -5.645295508715068e-07 0 0.015403517697952132 -7.5015782174098258e-10 0 0.014990614993328502 -0.00034734734391190673 0 0.015401944028970249 -1.6583197972715818e-06 0 0.015529954538574862 -6.3955136315285054e-07 0 0.015653695590854177 -1.9842811452159339e-05 0 0.015630976657630375 -7.9841394767999645e-05 0 0.014990614993328502 -0.00034734734391190673 0 0.014948039649266751 -1.6072464733510672e-07 0 0.014990614993328502 -0.00034734734391190673 0 0.012378748336055104 -0.00068411506687916963 0 0.012356016097815942 -0.0026038980757706167 0 0.013425304336007596 -0.0022225701486169249 0 0.012367831115591739 -0.0010937324574349487 0 0.015357717882912094 -1.885029125761449e-07 0 0.015402592814356996 -2.8315277698885182e-10 0 0.01494827957138125 -4.5746529756711931e-10 0 0.01484066915906997 -0.00033921071200119531 0 0.014944494014364713 -1.8904775204659763e-06 0 0.012676106140332865 -0.00014957326226662556 0 0.011571802480028693 -0.0018470275864126686 0 0.012356016097815942 -0.0026038980757706167 0 0.012367831115591739 -0.0010937324574349487 0 0.012378748336055104 -0.00068411506687916963 0 0.011416772671905452 0.00011448296696427096 0 0.014944494014364713 -1.8904775204659763e-06 0 0.012676106140332865 -0.00014957326226662556 0 0.012976959743764734 7.8437550084911487e-07 0 0.012976959743764734 7.8437550084911487e-07 0 0.011004617478820429 7.8834385674745892e-07 0 0.012117135680215054 0.00020662716778127753 0 0.012676106140332865 -0.00014957326226662556 0 0.012976959743764734 7.8437550084911487e-07 0 0.012117135680215054 0.00020662716778127753 0 0.011004617478820429 7.8834385674745892e-07 0 0.012117135680215054 0.00020662716778127753 0 0.011006910993377391 0.00016425692640162373 0 0.011965635367161508 0.00032319731619377998 0 0.011565182941174404 0.00066479627569900068 0 0.01162106985468509 0.00065651629428510778 0 0.012117135680215054 0.00020662716778127753 0 0.012054473817296553 0.0011505540530755123 0 0.01162106985468509 0.00065651629428510778 0 0.012117135680215054 0.00020662716778127753 0 0.011318227099768364 6.1765582531678672e-05 0 0.012676106140332865 -0.00014957326226662556 0 0.012117135680215054 0.00020662716778127753 0 0.011318227099768364 6.1765582531678672e-05 0 0.01040859265171214 -0.00051697753087153798 0 0.011318227099768364 6.1765582531678672e-05 0 0.010019697978297777 0.00046197231988219197 0 0.011318227099768364 6.1765582531678672e-05 0 0.010019697978297777 0.00046197231988219197 0 0.010954637466898395 0.0012579809418994186 0 0.01162106985468509 0.00065651629428510778 0 0.011318227099768364 6.1765582531678672e-05 0 0.010954637466898395 0.0012579809418994186 0 0.01162106985468509 0.00065651629428510778 0 0.010954637466898395 0.0012579809418994186 0 0.012054473817296553 0.0011505540530755123 0 0.010954637466898395 0.0012579809418994186 0 0.011356142147990727 0.0018602548161428393 0 0.012054473817296553 0.0011505540530755123 0 0.0097549175707152581 0.0016699721405709226 0 0.010954637466898395 0.0012579809418994186 0 0.010846109216629653 0.0023758033629461073 0 0.0097549175707152581 0.0016699721405709226 0 0.010019697978297777 0.00046197231988219197 0 0.010954637466898395 0.0012579809418994186 0 0.0069606021369720333 -0.00050454991648757959 0 0.0073812080994191103 -0.00030931978634215714 0 0.0067424022474710486 -0.00031887395424185384 0 0.0085539958248064679 0.00090499328989963965 0 0.0091049888270607216 0.0013449586332130747 0 0.0073812080994191103 -0.00030931978634215714 0 0.0075119112048920144 0.0003276605065770974 0 0.0067424022474710486 -0.00031887395424185384 0 0.011356142147990727 0.0018602548161428393 0 0.010846109216629653 0.0023758033629461073 0 0.011533858499494017 0.0024772071528420666 0 0.010954637466898395 0.0012579809418994186 0 0.011356142147990727 0.0018602548161428393 0 0.010846109216629653 0.0023758033629461073 0 0.011356142147990727 0.0018602548161428393 0 0.011533858499494017 0.0024772071528420666 0 0.011911263158105366 0.0021181679529571821 0 0.010656469900724054 1.5346168986014578e-06 0 0.0090368331541356688 -1.3380627100218623e-06 0 0.010405273426112133 0.00013373385342023704 0 0.011004617478820429 7.8834385674745892e-07 0 0.010405273426112133 0.00013373385342023704 0 0.011006910993377391 0.00016425692640162373 0 0.011004617478820429 7.8834385674745892e-07 0 0.0090368331541356688 -1.3380627100218623e-06 0 0.010405273426112133 0.00013373385342023704 0 0.010656469900724054 1.5346168986014578e-06 0 0.010405273426112133 0.00013373385342023704 0 0.011006910993377391 0.00016425692640162373 0 0.011356142147990727 0.0018602548161428393 0 0.011911263158105366 0.0021181679529571821 0 0.012054473817296553 0.0011505540530755123 0 0.011529860467214515 0.001209169209309222 0 0.011565182941174404 0.00066479627569900068 0 0.023806025787756681 0.00010602499161339863 0 0.02294512956566452 0.00023055011385533363 0 0.023590795582699317 0.00017925779138789138 0 0.023480884423398501 -0.0005832425636376617 0 0.023270769008156902 -0.00033751948160256771 0 0.023806025787756681 0.00010602499161339863 0 0.024753162772182733 8.5250052854556268e-06 0 0.023590795582699317 0.00017925779138789138 0 0.024638847999283377 4.318543510688075e-07 0 0.024753162772182733 8.5250052854556268e-06 0 0.023590795582699317 0.00017925779138789138 0 0.024638847999283377 4.318543510688075e-07 0 0.024753162772182733 8.5250052854556268e-06 0 0.026320782307758899 -0.00013252501439598157 0 0.024638847999283377 4.318543510688075e-07 0 0.026320782307758899 -0.00013252501439598157 0 0.026573427160818265 -9.8698985041194331e-07 0 0.024753162772182733 8.5250052854556268e-06 0 0.024451417480943382 -0.00065389132660271566 0 0.026320782307758899 -0.00013252501439598157 0 0.023480884423398501 -0.0005832425636376617 0 0.025720984858983355 -0.00089549487057747289 0 0.023464379267487762 -0.0013274314164931165 0 0.023210518429663932 -0.001445134983143193 0 0.023584897346397748 -0.001710387103791732 0 0.023806025787756681 0.00010602499161339863 0 0.024753162772182733 8.5250052854556268e-06 0 0.024451417480943382 -0.00065389132660271566 0 0.023210518429663932 -0.001445134983143193 0 0.023238642379516911 -0.0017162286179619017 0 0.023584897346397748 -0.001710387103791732 0 0.023210518429663932 -0.001445134983143193 0 0.022900410901181889 -0.0017191736741494052 0 0.023238642379516911 -0.0017162286179619017 0 0.021047821186976977 -0.0022280722879251301 0 0.023804457592839359 -0.0018943019396057254 0 0.021047821186976977 -0.0022280722879251301 0 0.020669855547148997 -0.0026703897449512678 0 0.023210518429663932 -0.001445134983143193 0 0.02296651209558586 -0.0013208072591958052 0 0.022900410901181889 -0.0017191736741494052 0 0.021641796336214252 -0.0025293610705293119 0 0.021798869208533245 -0.0017986087719877096 0 0.021924460601528611 -0.0017986150117418338 0 0.019528469946950087 -0.0026352556042594502 0 0.019021217909723359 -0.002745665207442456 0 0.019146986090636656 -0.0036348165740055336 0 0.019529649500213707 -0.002632929487139227 0 0.019569991517100378 -0.0024386292485958794 0 0.019838949462932253 -0.0018286833684890398 0 0.016799005434253778 -0.0031901083517892372 0 0.016073214751588304 -0.0033873066145007928 0 0.016242618031269251 -0.0039584545870790834 0 0.01798717738721305 -0.0026918040179095813 0 0.017719104625514216 -0.0032951370340518868 0 0.019569991517100378 -0.0024386292485958794 0 0.019595344005429876 -0.0018810614487413185 0 0.019021217909723359 -0.002745665207442456 0 0.021047821186976977 -0.0022280722879251301 0 0.021581349179232483 -0.001219279330113617 0 0.019528469946950087 -0.0026352556042594502 0 0.019569991517100378 -0.0024386292485958794 0 0.019021217909723359 -0.002745665207442456 0 0.021047821186976977 -0.0022280722879251301 0 0.020743427555000478 -0.0024700900240978868 0 0.023464379267487762 -0.0013274314164931165 0 0.023211798854226889 -0.0012068062428231257 0 0.023339751888339665 -0.00095648960201580855 0 0.02296651209558586 -0.0013208072591958052 0 0.023211798854226889 -0.0012068062428231257 0 0.023077948283203958 -0.0009911047868797233 0 0.023464379267487762 -0.0013274314164931165 0 0.023210518429663932 -0.001445134983143193 0 0.023211798854226889 -0.0012068062428231257 0 0.023210518429663932 -0.001445134983143193 0 0.02296651209558586 -0.0013208072591958052 0 0.023211798854226889 -0.0012068062428231257 0 0.019838949462932253 -0.0018286833684890398 0 0.019595344005429876 -0.0018810614487413185 0 0.020152984865491014 -0.001051269550546467 0 0.023077948283203958 -0.0009911047868797233 0 0.023339751888339665 -0.00095648960201580855 0 0.023178623192837759 -0.00067562710497555086 0 0.023211798854226889 -0.0012068062428231257 0 0.023077948283203958 -0.0009911047868797233 0 0.023339751888339665 -0.00095648960201580855 0 0.016799005434253778 -0.0031901083517892372 0 0.016485604183112425 -0.002609269460540587 0 0.016073214751588304 -0.0033873066145007928 0 0.019569991517100378 -0.0024386292485958794 0 0.019838949462932253 -0.0018286833684890398 0 0.019595344005429876 -0.0018810614487413185 0 0.016485604183112425 -0.002609269460540587 0 0.016853401590045568 -0.002037941427147819 0 0.01625534389344371 -0.0019057445859991392 0 0.016485604183112425 -0.002609269460540587 0 0.017366352665057164 -0.0023311472659372522 0 0.016853401590045568 -0.002037941427147819 0 0.016799005434253778 -0.0031901083517892372 0 0.016485604183112425 -0.002609269460540587 0 0.017366352665057164 -0.0023311472659372522 0 0.023339751888339665 -0.00095648960201580855 0 0.023178623192837759 -0.00067562710497555086 0 0.023220627422148973 -0.00060061864640487486 0 0.01798717738721305 -0.0026918040179095813 0 0.020248073889951559 -0.0012928853424465407 0 0.023270769008156902 -0.00033751948160256771 0 0.021253443224594281 -0.00038208059660476209 0 0.021581349179232483 -0.001219279330113617 0 0.020248073889951559 -0.0012928853424465407 0 0.017366352665057164 -0.0023311472659372522 0 0.017160452526383249 -0.0019396557200007805 0 0.016853401590045568 -0.002037941427147819 0 0.017366352665057164 -0.0023311472659372522 0 0.017160452526383249 -0.0019396557200007805 0 0.017474999976901748 -0.0020547786534435841 0 0.020248073889951559 -0.0012928853424465407 0 0.020343673017528669 -0.00084035690130966785 0 0.020248073889951559 -0.0012928853424465407 0 0.021253443224594281 -0.00038208059660476209 0 0.020233497656854036 -0.0010548215524615822 0 0.020491823173006438 -0.00065301244855365777 0 0.020451489858581771 -0.00048692284043298307 0 0.021253443224594281 -0.00038208059660476209 0 0.020343673017528669 -0.00084035690130966785 0 0.02294512956566452 0.00023055011385533363 0 0.0224388876994434 0.00019620397630591767 0 0.022597909405954516 0.00021993780197872138 0 0.0224388876994434 0.00019620397630591767 0 0.022249800727537836 0.00019430394012859593 0 0.022597909405954516 0.00021993780197872138 0 0.022249800727537836 0.00019430394012859593 0 0.022597909405954516 0.00021993780197872138 0 0.022055304380959512 0.0001896295505110337 0 0.02294512956566452 0.00023055011385533363 0 0.022597909405954516 0.00021993780197872138 0 0.023590795582699317 0.00017925779138789138 0 0.022597909405954516 0.00021993780197872138 0 0.023590795582699317 0.00017925779138789138 0 0.022705194509188623 3.2984246560531229e-07 0 0.024638847999283377 4.318543510688075e-07 0 0.023590795582699317 0.00017925779138789138 0 0.022705194509188623 3.2984246560531229e-07 0 0.022597909405954516 0.00021993780197872138 0 0.022705194509188623 3.2984246560531229e-07 0 0.022055304380959512 0.0001896295505110337 0 0.022705194509188623 3.2984246560531229e-07 0 0.022055304380959512 0.0001896295505110337 0 0.020770755273101956 9.2069710663851971e-07 0 0.021377035930095722 0.00011307035016747675 0 0.022055304380959512 0.0001896295505110337 0 0.020770755273101956 9.2069710663851971e-07 0 0.021586726938156421 7.0830540500772785e-05 0 0.021438624250954962 0.00011337734522902406 0 0.021714250965463977 0.00045850862709816386 0 0.0224388876994434 0.00019620397630591767 0 0.021899166267917169 0.00017016766716162736 0 0.021438624250954962 0.00011337734522902406 0 0.021253443224594281 -0.00038208059660476209 0 0.02184010135311357 0.00047758073036045508 0 0.0224388876994434 0.00019620397630591767 0 0.022249800727537836 0.00019430394012859593 0 0.021899166267917169 0.00017016766716162736 0 0.022249800727537836 0.00019430394012859593 0 0.022055304380959512 0.0001896295505110337 0 0.021899166267917169 0.00017016766716162736 0 0.021377035930095722 0.00011307035016747675 0 0.022055304380959512 0.0001896295505110337 0 0.021899166267917169 0.00017016766716162736 0 0.021377035930095722 0.00011307035016747675 0 0.021899166267917169 0.00017016766716162736 0 0.021438624250954962 0.00011337734522902406 0 0.021438624250954962 0.00011337734522902406 0 0.020358785286928627 -1.4213092140949956e-06 0 0.020981791427221539 -0.00065120955953807476 0 0.021586726938156421 7.0830540500772785e-05 0 0.021438624250954962 0.00011337734522902406 0 0.020981791427221539 -0.00065120955953807476 0 0.021377035930095722 0.00011307035016747675 0 0.021438624250954962 0.00011337734522902406 0 0.02095175394890603 6.1724849024208123e-05 0 0.020770755273101956 9.2069710663851971e-07 0 0.020358785286928627 -1.4213092140949956e-06 0 0.018839536537483357 -2.1162916069576044e-06 0 0.020770755273101956 9.2069710663851971e-07 0 0.02095175394890603 6.1724849024208123e-05 0 0.020358785286928627 -1.4213092140949956e-06 0 0.021377035930095722 0.00011307035016747675 0 0.020770755273101956 9.2069710663851971e-07 0 0.02095175394890603 6.1724849024208123e-05 0 0.021438624250954962 0.00011337734522902406 0 0.02095175394890603 6.1724849024208123e-05 0 0.020358785286928627 -1.4213092140949956e-06 0 0.018832203828467411 -6.070802941315496e-08 0 0.018686053500740936 -2.3846671533339351e-05 0 0.018691980936671196 -8.146317888164542e-06 0 0.018838471407571389 -1.0790615449866521e-07 0 0.018479292455356393 -0.00040047572968813323 0 0.020358785286928627 -1.4213092140949956e-06 0 0.018839536537483357 -2.1162916069576044e-06 0 0.020981791427221539 -0.00065120955953807476 0 0.019733276036210903 -0.00047976692218424505 0 0.018479292455356393 -0.00040047572968813323 0 0.017840731649439744 -0.0010975838830592512 0 0.018066851857075194 -0.00013263849012044903 0 0.018203566020887685 -0.00012863718711757639 0 0.017840731649439744 -0.0010975838830592512 0 0.018066851857075194 -0.00013263849012044903 0 0.017420340384680093 -0.00051805044620462852 0 0.016928482388335948 -0.00088007264319836932 0 0.017477274124968432 -0.00046533814152383083 0 0.014082927520357199 -0.0035119826594681752 0 0.014354985901770539 -0.0033458613729854779 0 0.013809277135358761 -0.0027786573871649992 0 0.016928482388335948 -0.00088007264319836932 0 0.018479292455356393 -0.00040047572968813323 0 0.018479292455356393 -0.00040047572968813323 0 0.017449727875451113 -0.00089893944936070389 0 0.016928482388335948 -0.00088007264319836932 0 0.017449727875451113 -0.00089893944936070389 0 0.017645005553967471 -0.00051679086240311164 0 0.017782886801183246 -0.00051378592012647371 0 0.017821549732410916 -0.00041433143341174442 0 0.017449727875451113 -0.00089893944936070389 0 0.015624412044562309 -0.0014671963053814715 0 0.017007949182930703 -0.00042577688323467843 0 0.017157153656639362 -8.4072574097758215e-05 0 0.017244759048687171 -0.00018619521051863069 0 0.014354985901770539 -0.0033458613729854779 0 0.014595508389922043 -0.0026928464377841375 0 0.013809277135358761 -0.0027786573871649992 0 0.015624412044562309 -0.0014671963053814715 0 0.015811559402041774 -0.0013323215790125163 0 0.013768102915963386 -0.0017279783062790377 0 0.014595508389922043 -0.0026928464377841375 0 0.013809277135358761 -0.0027786573871649992 0 0.013777683869640785 -0.0015619623163880597 0 0.015624412044562309 -0.0014671963053814715 0 0.017007949182930703 -0.00042577688323467843 0 0.017865769855365449 -7.0689031641048538e-07 0 0.017244759048687171 -0.00018619521051863069 0 0.017449727875451113 -0.00089893944936070389 0 0.01786866658643229 6.0313024259704886e-07 0 0.017390169032940064 7.3626987921684042e-06 0 0.017865769855365449 -7.0689031641048538e-07 0 0.017244759048687171 -0.00018619521051863069 0 0.016972268271420659 1.9094453320810137e-05 0 0.017267664217420119 -8.0883081231046186e-05 0 0.017390169032940064 7.3626987921684042e-06 0 0.018832203828467411 -6.070802941315496e-08 0 0.018691980936671196 -8.146317888164542e-06 0 0.017872041582126637 4.9666307610265247e-08 0 0.017267664217420119 -8.0883081231046186e-05 0 0.017390169032940064 7.3626987921684042e-06 0 0.017244759048687171 -0.00018619521051863069 0 0.012410896598797273 -0.0021048404788467853 0 0.012268378033801854 -0.0035746348691399234 0 0.010646633057669672 -0.0024668084638591031 0 0.012410896598797273 -0.0021048404788467853 0 0.013768102915963386 -0.0017279783062790377 0 0.013809277135358761 -0.0027786573871649992 0 0.012410896598797273 -0.0021048404788467853 0 0.013809277135358761 -0.0027786573871649992 0 0.012268378033801854 -0.0035746348691399234 0 0.014082927520357199 -0.0035119826594681752 0 0.013809277135358761 -0.0027786573871649992 0 0.012268378033801854 -0.0035746348691399234 0 0.016928482388335948 -0.00088007264319836932 0 0.01432488846788701 -0.0020417130878912677 0 0.017228129786135922 -0.00058105844985469795 0 0.016842985425634414 -0.00029080692216223981 0 0.016747603510597099 -0.00092533118172980541 0 0.017703247575678184 -0.00030757028111252802 0 0.017228129786135922 -0.00058105844985469795 0 0.016842985425634414 -0.00029080692216223981 0 0.01432488846788701 -0.0020417130878912677 0 0.013177137097624378 -0.0019102238078334782 0 0.016842985425634414 -0.00029080692216223981 0 0.016747603510597099 -0.00092533118172980541 0 0.015797058506647796 -0.00026633525865954894 0 0.016747603510597099 -0.00092533118172980541 0 0.016463428278628425 -0.001451975590750025 0 0.015743294415043123 -0.001185733573234299 0 0.016747603510597099 -0.00092533118172980541 0 0.016463428278628425 -0.001451975590750025 0 0.017013088395258114 -0.0014971271757357216 0 0.017840731649439744 -0.0010975838830592512 0 0.017420340384680093 -0.00051805044620462852 0 0.017302136183845615 -0.0010587420976944653 0 0.017477274124968432 -0.00046533814152383083 0 0.016764903826815322 -0.00090514292697657206 0 0.017420340384680093 -0.00051805044620462852 0 0.016747603510597099 -0.00092533118172980541 0 0.017302136183845615 -0.0010587420976944653 0 0.016747603510597099 -0.00092533118172980541 0 0.017302136183845615 -0.0010587420976944653 0 0.017013088395258114 -0.0014971271757357216 0 0.017302136183845615 -0.0010587420976944653 0 0.017361876620342664 -0.0014397404211645571 0 0.017013088395258114 -0.0014971271757357216 0 0.017840731649439744 -0.0010975838830592512 0 0.017302136183845615 -0.0010587420976944653 0 0.017361876620342664 -0.0014397404211645571 0 0.019733276036210903 -0.00047976692218424505 0 0.020343673017528669 -0.00084035690130966785 0 0.017840731649439744 -0.0010975838830592512 0 0.017361876620342664 -0.0014397404211645571 0 0.017431115392318969 -0.0018788470145243731 0 0.017840731649439744 -0.0010975838830592512 0 0.017431115392318969 -0.0018788470145243731 0 0.017478306036974051 -0.0020567410021184057 0 0.02170690108769097 0.00049028082073868746 0 0.021438624250954962 0.00011337734522902406 0 0.021714250965463977 0.00045850862709816386 0 0.017231685684839956 -0.0016838856604498237 0 0.017361876620342664 -0.0014397404211645571 0 0.017431115392318969 -0.0018788470145243731 0 0.017231685684839956 -0.0016838856604498237 0 0.017160452526383249 -0.0019396557200007805 0 0.017013088395258114 -0.0014971271757357216 0 0.017231685684839956 -0.0016838856604498237 0 0.017361876620342664 -0.0014397404211645571 0 0.017013088395258114 -0.0014971271757357216 0 0.017160452526383249 -0.0019396557200007805 0 0.017431115392318969 -0.0018788470145243731 0 0.017474999976901748 -0.0020547786534435841 0 0.017231685684839956 -0.0016838856604498237 0 0.017160452526383249 -0.0019396557200007805 0 0.017431115392318969 -0.0018788470145243731 0 0.019944361553538546 -0.0011125295511624361 0 0.020343673017528669 -0.00084035690130966785 0 0.016463428278628425 -0.001451975590750025 0 0.017013088395258114 -0.0014971271757357216 0 0.016853401590045568 -0.002037941427147819 0 0.017160452526383249 -0.0019396557200007805 0 0.017013088395258114 -0.0014971271757357216 0 0.016853401590045568 -0.002037941427147819 0 0.016463428278628425 -0.001451975590750025 0 0.016853401590045568 -0.002037941427147819 0 0.01625534389344371 -0.0019057445859991392 0 0.016463428278628425 -0.001451975590750025 0 0.01625534389344371 -0.0019057445859991392 0 0.015743294415043123 -0.001185733573234299 0 0.01625534389344371 -0.0019057445859991392 0 0.015743294415043123 -0.001185733573234299 0 0.015794434242740938 -0.0023000683162093857 0 0.015238863092897627 -0.0018941171012914939 0 0.015743294415043123 -0.001185733573234299 0 0.014729659141964366 -0.0013380456264533464 0 0.015238863092897627 -0.0018941171012914939 0 0.015743294415043123 -0.001185733573234299 0 0.015794434242740938 -0.0023000683162093857 0 0.015177013648762994 -0.0007597044235835564 0 0.015743294415043123 -0.001185733573234299 0 0.014729659141964366 -0.0013380456264533464 0 0.015177013648762994 -0.0007597044235835564 0 0.015743294415043123 -0.001185733573234299 0 0.015797058506647796 -0.00026633525865954894 0 0.016747603510597099 -0.00092533118172980541 0 0.015743294415043123 -0.001185733573234299 0 0.015797058506647796 -0.00026633525865954894 0 0.013177137097624378 -0.0019102238078334782 0 0.011826533763033937 -0.0018706744294052266 0 0.015177013648762994 -0.0007597044235835564 0 0.015797058506647796 -0.00026633525865954894 0 0.014640654565905907 -0.00023353625470707754 0 0.010476065385881269 -0.0035940485612148084 0 0.0096305178377296789 -0.0029033294793482469 0 0.0089013696346810622 -0.0034816345469889055 0 0.0091755377406074756 -0.0020089900111894998 0 0.0096305178377296789 -0.0029033294793482469 0 0.010646633057669672 -0.0024668084638591031 0 0.0096305178377296789 -0.0029033294793482469 0 0.0090421116698313677 -0.0028749086515719962 0 0.0089013696346810622 -0.0034816345469889055 0 0.0091755377406074756 -0.0020089900111894998 0 0.0096305178377296789 -0.0029033294793482469 0 0.0090421116698313677 -0.0028749086515719962 0 0.010476065385881269 -0.0035940485612148084 0 0.0096305178377296789 -0.0029033294793482469 0 0.010646633057669672 -0.0024668084638591031 0 0.012268378033801854 -0.0035746348691399234 0 0.010476065385881269 -0.0035940485612148084 0 0.010646633057669672 -0.0024668084638591031 0 0.0083772282113794075 -0.0022293818206442547 0 0.0078339001623309555 -0.0021598623446786543 0 0.0086084362665947052 -0.0031321137645075434 0 0.0066098062433344535 -0.0025498094236527532 0 0.010309699939349357 -0.0017250664147421321 0 0.0078339001623309555 -0.0021598623446786543 0 0.0086084362665947052 -0.0031321137645075434 0 0.0077689139441274079 -0.0034376494712714529 0 0.0083789028906044154 -0.0020382649105050461 0 0.0087983391661508037 -0.0024138493911315755 0 0.0086084362665947052 -0.0031321137645075434 0 0.008212903036750277 -0.0022307711315776549 0 0.0086101183778312038 -0.0030311964820998482 0 0.0091755377406074756 -0.0020089900111894998 0 0.0087983391661508037 -0.0024138493911315755 0 0.0090421116698313677 -0.0028749086515719962 0 0.0087983391661508037 -0.0024138493911315755 0 0.0090421116698313677 -0.0028749086515719962 0 0.0086084362665947052 -0.0031321137645075434 0 0.015177013648762994 -0.0007597044235835564 0 0.014640654565905907 -0.00023353625470707754 0 0.01410897406778922 -0.00067128604802301351 0 0.0086084362665947052 -0.0031321137645075434 0 0.0089013696346810622 -0.0034816345469889055 0 0.0077689139441274079 -0.0034376494712714529 0 0.0090421116698313677 -0.0028749086515719962 0 0.0086084362665947052 -0.0031321137645075434 0 0.0089013696346810622 -0.0034816345469889055 0 0.014640654565905907 -0.00023353625470707754 0 0.013393299819511562 -0.00018518488290208729 0 0.01410897406778922 -0.00067128604802301351 0 0.013393299819511562 -0.00018518488290208729 0 0.013711313524069393 -0.00067577711045704902 0 0.01410897406778922 -0.00067128604802301351 0 0.011826533763033937 -0.0018706744294052266 0 0.010309699939349357 -0.0017250664147421321 0 0.010309699939349357 -0.0017250664147421321 0 0.010986979523145682 -0.00083077878772565186 0 0.013393299819511562 -0.00018518488290208729 0 0.013386360836139397 -0.00041816660884915131 0 0.013711313524069393 -0.00067577711045704902 0 0.013386360836139397 -0.00041816660884915131 0 0.013711313524069393 -0.00067577711045704902 0 0.013318656372563721 -0.0008986776707685675 0 0.013711313524069393 -0.00067577711045704902 0 0.013318656372563721 -0.0008986776707685675 0 0.013633867646048582 -0.0012310989926925279 0 0.013711313524069393 -0.00067577711045704902 0 0.01410897406778922 -0.00067128604802301351 0 0.013633867646048582 -0.0012310989926925279 0 0.01410897406778922 -0.00067128604802301351 0 0.013633867646048582 -0.0012310989926925279 0 0.014157286305934831 -0.0013037006771802683 0 0.013318656372563721 -0.0008986776707685675 0 0.013633867646048582 -0.0012310989926925279 0 0.012954065570460692 -0.0013046138757780198 0 0.015177013648762994 -0.0007597044235835564 0 0.01410897406778922 -0.00067128604802301351 0 0.014729659141964366 -0.0013380456264533464 0 0.01410897406778922 -0.00067128604802301351 0 0.014157286305934831 -0.0013037006771802683 0 0.014729659141964366 -0.0013380456264533464 0 0.014729659141964366 -0.0013380456264533464 0 0.014676883839468823 -0.002129716636409719 0 0.014097386866049574 -0.00188689084158614 0 0.015238863092897627 -0.0018941171012914939 0 0.014729659141964366 -0.0013380456264533464 0 0.014676883839468823 -0.002129716636409719 0 0.014157286305934831 -0.0013037006771802683 0 0.014729659141964366 -0.0013380456264533464 0 0.014097386866049574 -0.00188689084158614 0 0.013633867646048582 -0.0012310989926925279 0 0.014097386866049574 -0.00188689084158614 0 0.01298830013285315 -0.0018373369611700636 0 0.014097386866049574 -0.00188689084158614 0 0.013423479023685916 -0.00259461688951583 0 0.01298830013285315 -0.0018373369611700636 0 0.013633867646048582 -0.0012310989926925279 0 0.014157286305934831 -0.0013037006771802683 0 0.014097386866049574 -0.00188689084158614 0 0.014056722618974204 -0.0019410849078858965 0 0.013501677713350535 -0.0025388623244890227 0 0.013682045968415693 -0.0023803259078938261 0 0.014095777265787824 -0.0029947031357638204 0 0.013186958169791877 -0.0028940935770639894 0 0.014097386866049574 -0.00188689084158614 0 0.013682045968415693 -0.0023803259078938261 0 0.014206789520400241 -0.002455330870850985 0 0.013682045968415693 -0.0023803259078938261 0 0.014206789520400241 -0.002455330870850985 0 0.014095777265787824 -0.0029947031357638204 0 0.014095777265787824 -0.0029947031357638204 0 0.014021474368069945 -0.0039076179786704888 0 0.013186958169791877 -0.0028940935770639894 0 0.015319224578281531 -0.003611412023624006 0 0.013600317033732752 -0.0029264388175547934 0 0.014095777265787824 -0.0029947031357638204 0 0.014021474368069945 -0.0039076179786704888 0 0.014789318066161629 -0.0034733104213480266 0 0.014745190824002384 -0.0028657094944682204 0 0.01539188314222778 -0.0032025018007915199 0 0.014789318066161629 -0.0034733104213480266 0 0.014095777265787824 -0.0029947031357638204 0 0.014745190824002384 -0.0028657094944682204 0 0.014789318066161629 -0.0034733104213480266 0 0.014676883839468823 -0.002129716636409719 0 0.014745190824002384 -0.0028657094944682204 0 0.015270229686890577 -0.0025355704344367349 0 0.014676883839468823 -0.002129716636409719 0 0.014206789520400241 -0.002455330870850985 0 0.014745190824002384 -0.0028657094944682204 0 0.014206789520400241 -0.002455330870850985 0 0.014095777265787824 -0.0029947031357638204 0 0.014745190824002384 -0.0028657094944682204 0 0.014676883839468823 -0.002129716636409719 0 0.014097386866049574 -0.00188689084158614 0 0.014206789520400241 -0.002455330870850985 0 0.015238863092897627 -0.0018941171012914939 0 0.014676883839468823 -0.002129716636409719 0 0.015270229686890577 -0.0025355704344367349 0 0.015238863092897627 -0.0018941171012914939 0 0.015270229686890577 -0.0025355704344367349 0 0.015794434242740938 -0.0023000683162093857 0 0.015270229686890577 -0.0025355704344367349 0 0.015794434242740938 -0.0023000683162093857 0 0.015804651456140937 -0.0028508398513573006 0 0.016485604183112425 -0.002609269460540587 0 0.01625534389344371 -0.0019057445859991392 0 0.015794434242740938 -0.0023000683162093857 0 0.016485604183112425 -0.002609269460540587 0 0.015794434242740938 -0.0023000683162093857 0 0.015804651456140937 -0.0028508398513573006 0 0.016073214751588304 -0.0033873066145007928 0 0.015804651456140937 -0.0028508398513573006 0 0.01539188314222778 -0.0032025018007915199 0 0.016485604183112425 -0.002609269460540587 0 0.016073214751588304 -0.0033873066145007928 0 0.015804651456140937 -0.0028508398513573006 0 0.014745190824002384 -0.0028657094944682204 0 0.015270229686890577 -0.0025355704344367349 0 0.01539188314222778 -0.0032025018007915199 0 0.015270229686890577 -0.0025355704344367349 0 0.015804651456140937 -0.0028508398513573006 0 0.01539188314222778 -0.0032025018007915199 0 0.015686131210750132 -0.0038329432428322327 0 0.014844066414459805 -0.0040596601679081454 0 0.014789318066161629 -0.0034733104213480266 0 0.01539188314222778 -0.0032025018007915199 0 0.015686131210750132 -0.0038329432428322327 0 0.014789318066161629 -0.0034733104213480266 0 0.016073214751588304 -0.0033873066145007928 0 0.015686131210750132 -0.0038329432428322327 0 0.016242618031269251 -0.0039584545870790834 0 0.016073214751588304 -0.0033873066145007928 0 0.01539188314222778 -0.0032025018007915199 0 0.015686131210750132 -0.0038329432428322327 0 0.015686131210750132 -0.0038329432428322327 0 0.016242618031269251 -0.0039584545870790834 0 0.015793368782245267 -0.0042121768244071309 0 0.016242618031269251 -0.0039584545870790834 0 0.015793368782245267 -0.0042121768244071309 0 0.015881676718567161 -0.0044566427619101385 0 0.019021217909723359 -0.002745665207442456 0 0.018434620861241258 -0.0036408690968521475 0 0.019146986090636656 -0.0036348165740055336 0 0.017719104625514216 -0.0032951370340518868 0 0.016717035277811099 -0.0039965475221008431 0 0.015686131210750132 -0.0038329432428322327 0 0.014844066414459805 -0.0040596601679081454 0 0.014920403920781427 -0.0050020228460614068 0 0.015059912421355947 -0.0039855688731559435 0 0.017077158425765532 -0.0047867089320693303 0 0.015793368782245267 -0.0042121768244071309 0 0.015431543065668957 -0.0044491707196758689 0 0.015813900566278166 -0.0044484450249560933 0 0.015686131210750132 -0.0038329432428322327 0 0.015793368782245267 -0.0042121768244071309 0 0.015431543065668957 -0.0044491707196758689 0 0.015793368782245267 -0.0042121768244071309 0 0.015813900566278166 -0.0044484450249560933 0 0.015881676718567161 -0.0044566427619101385 0 0.015319224578281531 -0.003611412023624006 0 0.017077158425765532 -0.0047867089320693303 0 0.014021474368069945 -0.0039076179786704888 0 0.014844066414459805 -0.0040596601679081454 0 0.014920403920781427 -0.0050020228460614068 0 0.01633614503629852 -0.0048638245931304598 0 0.01663102055173088 -0.0034323280902402204 0 0.015144540140848111 -0.0040741476522512966 0 0.01633614503629852 -0.0048638245931304598 0 0.01663102055173088 -0.0034323280902402204 0 0.017964491410411173 -0.005001670713354155 0 0.014021474368069945 -0.0039076179786704888 0 0.014844066414459805 -0.0040596601679081454 0 0.014789318066161629 -0.0034733104213480266 0 0.013965866463359209 -0.0032916507034473639 0 0.015144540140848111 -0.0040741476522512966 0 0.015318919613454841 -0.0018787145894565533 0 0.01663102055173088 -0.0034323280902402204 0 0.015144540140848111 -0.0040741476522512966 0 0.015318919613454841 -0.0018787145894565533 0 0.013502654207622072 -0.0031815012344508643 0 0.016119032596861413 -0.0038000079194725036 0 0.018620560659586765 -0.0046455354680964896 0 0.01677005762567723 -0.0034519455476712227 0 0.016819047793906281 -0.0053004686682801647 0 0.017183919398934596 -0.0047279804881569477 0 0.016119032596861413 -0.0038000079194725036 0 0.014899528511857399 -0.0022394298116121857 0 0.01677005762567723 -0.0034519455476712227 0 0.01525106608280017 -0.0039597464102047461 0 0.01677005762567723 -0.0034519455476712227 0 0.01525106608280017 -0.0039597464102047461 0 0.016819047793906281 -0.0053004686682801647 0 0.01525106608280017 -0.0039597464102047461 0 0.014122935921510279 -0.0045331095974284648 0 0.014906872932987043 -0.0053976725608677698 0 0.01525106608280017 -0.0039597464102047461 0 0.014122935921510279 -0.0045331095974284648 0 0.013767752736023908 -0.0034435588808846094 0 0.014899528511857399 -0.0022394298116121857 0 0.01525106608280017 -0.0039597464102047461 0 0.013767752736023908 -0.0034435588808846094 0 0.014122935921510279 -0.0045331095974284648 0 0.013767752736023908 -0.0034435588808846094 0 0.01275482817161692 -0.0043461973910994562 0 0.011720952150036277 -0.0045873245844634727 0 0.011482378166082803 -0.0037555164688489492 0 0.011059626893540829 -0.0044074288807469247 0 0.011720952150036277 -0.0045873245844634727 0 0.01275482817161692 -0.0043461973910994562 0 0.011482378166082803 -0.0037555164688489492 0 0.01275482817161692 -0.0043461973910994562 0 0.011482378166082803 -0.0037555164688489492 0 0.012365048361828918 -0.0030242087487815394 0 0.013767752736023908 -0.0034435588808846094 0 0.01275482817161692 -0.0043461973910994562 0 0.012365048361828918 -0.0030242087487815394 0 0.011482378166082803 -0.0037555164688489492 0 0.012365048361828918 -0.0030242087487815394 0 0.011077821876757071 -0.0029639576437465883 0 0.012365048361828918 -0.0030242087487815394 0 0.011522417512104815 -0.0023492868125856623 0 0.011077821876757071 -0.0029639576437465883 0 0.012365048361828918 -0.0030242087487815394 0 0.012372620500747094 -0.0017242395913730398 0 0.013444827449800145 -0.0024156394072023806 0 0.012372620500747094 -0.0017242395913730398 0 0.011522417512104815 -0.0023492868125856623 0 0.011324394648101348 -0.0015182318506187435 0 0.012365048361828918 -0.0030242087487815394 0 0.012372620500747094 -0.0017242395913730398 0 0.011522417512104815 -0.0023492868125856623 0 0.011522417512104815 -0.0023492868125856623 0 0.011324394648101348 -0.0015182318506187435 0 0.01073856370957774 -0.0019738537414154484 0 0.013502654207622072 -0.0031815012344508643 0 0.014224981918277813 -0.0029188671047666787 0 0.014871089410611328 -0.0023278179992350166 0 0.013767752736023908 -0.0034435588808846094 0 0.013444827449800145 -0.0024156394072023806 0 0.013767752736023908 -0.0034435588808846094 0 0.012365048361828918 -0.0030242087487815394 0 0.013444827449800145 -0.0024156394072023806 0 0.012372620500747094 -0.0017242395913730398 0 0.013444827449800145 -0.0024156394072023806 0 0.013399058489962741 -0.0012615859151990151 0 0.014871089410611328 -0.0023278179992350166 0 0.013444827449800145 -0.0024156394072023806 0 0.013399058489962741 -0.0012615859151990151 0 0.013502654207622072 -0.0031815012344508643 0 0.012110184574685925 -0.0027047663850509598 0 0.011411512435190221 -0.0045610669200983889 0 0.010450509183361743 -0.0039372667458761603 0 0.010981303824118951 -0.0035525850257587875 0 0.010450509183361743 -0.0039372667458761603 0 0.010518697288354762 -0.0030835593945675445 0 0.010981303824118951 -0.0035525850257587875 0 0.010518697288354762 -0.0030835593945675445 0 0.010981303824118951 -0.0035525850257587875 0 0.011195387332026623 -0.0025337156296859147 0 0.010981303824118951 -0.0035525850257587875 0 0.011195387332026623 -0.0025337156296859147 0 0.011620946432443083 -0.0034092764898806939 0 0.012372620500747094 -0.0017242395913730398 0 0.011324394648101348 -0.0015182318506187435 0 0.0118046390431192 0.0001572618039279169 0 0.012110184574685925 -0.0027047663850509598 0 0.0074055020618286702 -0.0035183419347953808 0 0.012372620500747094 -0.0017242395913730398 0 0.013399058489962741 -0.0012615859151990151 0 0.0118046390431192 0.0001572618039279169 0 0.010450509183361743 -0.0039372667458761603 0 0.010518697288354762 -0.0030835593945675445 0 0.0094723206251234784 -0.0033033675014142584 0 0.0074055020618286702 -0.0035183419347953808 0 0.0083318830517361813 -0.0033740368367548043 0 0.010518697288354762 -0.0030835593945675445 0 0.0094723206251234784 -0.0033033675014142584 0 0.010307896962703683 -0.0025204814817559205 0 0.0043363673256014007 -0.0046849928562227227 0 0.0043751362343414013 -0.0038760795204462336 0 0.0050512916242970432 -0.0040616779732993618 0 0.011195387332026623 -0.0025337156296859147 0 0.010318848034162402 -0.0025326346350640636 0 0.011370022200596455 -0.0015501174003017192 0 0.0083318830517361813 -0.0033740368367548043 0 0.010908177723225845 -0.0022537405187406487 0 0.0094862065122902593 -0.0032489539368615325 0 0.0083318830517361813 -0.0033740368367548043 0 0.010518697288354762 -0.0030835593945675445 0 0.011195387332026623 -0.0025337156296859147 0 0.010318848034162402 -0.0025326346350640636 0 0.011195387332026623 -0.0025337156296859147 0 0.01205227300174911 -0.0023651030761670847 0 0.011370022200596455 -0.0015501174003017192 0 0.011195387332026623 -0.0025337156296859147 0 0.01205227300174911 -0.0023651030761670847 0 0.011620946432443083 -0.0034092764898806939 0 0.01205227300174911 -0.0023651030761670847 0 0.011620946432443083 -0.0034092764898806939 0 0.012735178672739324 -0.0031806883025296303 0 0.013502654207622072 -0.0031815012344508643 0 0.013600317033732752 -0.0029264388175547934 0 0.011411512435190221 -0.0045610669200983889 0 0.010981303824118951 -0.0035525850257587875 0 0.011620946432443083 -0.0034092764898806939 0 0.011411512435190221 -0.0045610669200983889 0 0.011620946432443083 -0.0034092764898806939 0 0.012735178672739324 -0.0031806883025296303 0 0.013423479023685916 -0.00259461688951583 0 0.012236644320131711 -0.0025720100108573844 0 0.01298830013285315 -0.0018373369611700636 0 0.013501677713350535 -0.0025388623244890227 0 0.013600317033732752 -0.0029264388175547934 0 0.013423479023685916 -0.00259461688951583 0 0.012236644320131711 -0.0025720100108573844 0 0.012795102523140721 -0.0032446168740269659 0 0.012114203283867236 -0.0024307015890366306 0 0.013600317033732752 -0.0029264388175547934 0 0.012236644320131711 -0.0025720100108573844 0 0.01298830013285315 -0.0018373369611700636 0 0.012307155254389116 -0.0019120414743936109 0 0.01298830013285315 -0.0018373369611700636 0 0.012307155254389116 -0.0019120414743936109 0 0.012311128174126261 -0.0013343794512954191 0 0.01298830013285315 -0.0018373369611700636 0 0.012311128174126261 -0.0013343794512954191 0 0.012954065570460692 -0.0013046138757780198 0 0.013633867646048582 -0.0012310989926925279 0 0.01298830013285315 -0.0018373369611700636 0 0.012954065570460692 -0.0013046138757780198 0 0.012114203283867236 -0.0024307015890366306 0 0.010908177723225845 -0.0022537405187406487 0 0.012236644320131711 -0.0025720100108573844 0 0.01169128052626207 -0.0019089017217892943 0 0.012307155254389116 -0.0019120414743936109 0 0.01169128052626207 -0.0019089017217892943 0 0.012307155254389116 -0.0019120414743936109 0 0.012311128174126261 -0.0013343794512954191 0 0.010908177723225845 -0.0022537405187406487 0 0.012098461572248425 -0.001528764647482741 0 0.010797662921855331 -0.0027924902352142855 0 0.011837513784405602 -0.0018095138149180454 0 0.010943097075717511 -0.0010711345439712782 0 0.011837513784405602 -0.0018095138149180454 0 0.011935952655312408 -0.00087235068591125871 0 0.010943097075717511 -0.0010711345439712782 0 0.012311128174126261 -0.0013343794512954191 0 0.012954065570460692 -0.0013046138757780198 0 0.012846688381512639 -0.00079659810750831576 0 0.011837513784405602 -0.0018095138149180454 0 0.011935952655312408 -0.00087235068591125871 0 0.012846688381512639 -0.00079659810750831576 0 0.012098461572248425 -0.001528764647482741 0 0.012740724018085904 -0.00091299514917248328 0 0.013318656372563721 -0.0008986776707685675 0 0.012954065570460692 -0.0013046138757780198 0 0.012846688381512639 -0.00079659810750831576 0 0.013386360836139397 -0.00041816660884915131 0 0.013318656372563721 -0.0008986776707685675 0 0.012846688381512639 -0.00079659810750831576 0 0.013418128145342042 -5.0726886924637956e-05 0 0.013386360836139397 -0.00041816660884915131 0 0.012846688381512639 -0.00079659810750831576 0 0.013418128145342042 -5.0726886924637956e-05 0 0.012846688381512639 -0.00079659810750831576 0 0.011823727101105271 1.7735889289203148e-05 0 0.010309699939349357 -0.0017250664147421321 0 0.010183176868787235 -0.00091143172603898532 0 0.0078633070763533004 -0.001969371071695303 0 0.0079583135395459095 -0.0019645494831963895 0 0.0079057099708662332 -0.0020307390207123907 0 0.011935952655312408 -0.00087235068591125871 0 0.012846688381512639 -0.00079659810750831576 0 0.011823727101105271 1.7735889289203148e-05 0 0.0079583135395459095 -0.0019645494831963895 0 0.0079715858216014152 -0.0020664733631860573 0 0.0080519110359763731 -0.0019573138754006743 0 0.010183176868787235 -0.00091143172603898532 0 0.0077558979818393966 -0.0015143179381931049 0 0.010943097075717511 -0.0010711345439712782 0 0.011823727101105271 1.7735889289203148e-05 0 0.0099774616468073004 -1.7612638773691124e-05 0 0.011935952655312408 -0.00087235068591125871 0 0.010943097075717511 -0.0010711345439712782 0 0.011823727101105271 1.7735889289203148e-05 0 0.0079583135395459095 -0.0019645494831963895 0 0.0079715858216014152 -0.0020664733631860573 0 0.0079057099708662332 -0.0020307390207123907 0 0.0078293151716226413 -0.0021244252599144711 0 0.0079715858216014152 -0.0020664733631860573 0 0.0079057099708662332 -0.0020307390207123907 0 0.0078293151716226413 -0.0021244252599144711 0 0.0078633070763533004 -0.001969371071695303 0 0.0079057099708662332 -0.0020307390207123907 0 -0.00066924806359026424 -0.0031285970840664993 0 0.0038106647786321779 -0.0027832723600293057 0 0.0015518736944740796 -0.002747828629587707 0 0.0016901335807132283 -0.003008575925962795 0 0.0015757265210920386 -0.0029760670997704634 0 0.0016901335807132283 -0.003008575925962795 0 0.0016614716217783817 -0.0030389687621392054 0 0.0015757265210920386 -0.0029760670997704634 0 0.005427778645438165 -0.0019992237575263776 0 0.0053970392299898043 -0.0020338608399386418 0 0.0053952616518162374 -0.0020884334133634149 0 0.0038106647786321779 -0.0027832723600293057 0 0.0035662442098468197 -0.0026385776839474382 0 0.0015757265210920386 -0.0029760670997704634 0 0.0015656331007228175 -0.0030747062622289005 0 0.0014790336731628287 -0.0029802214021516851 0 0.0016614716217783817 -0.0030389687621392054 0 0.0015757265210920386 -0.0029760670997704634 0 0.0015656331007228175 -0.0030747062622289005 0 0.0054612511062679244 -0.002264301956502175 0 0.0038106647786321779 -0.0027832723600293057 0 0.0038070059109026233 -0.0025486258831277139 0 0.0039796755745655386 -0.0026447775941385409 0 0.0036096088157261895 -0.0027572683922934371 0 0.0028643590063013829 -0.0033312166403865712 0 0.0023140540839448921 -0.0033075506107351372 0 0.0022233430951450806 -0.0039934754580685317 0 0.0054612511062679244 -0.002264301956502175 0 0.0077558979818393966 -0.0015143179381931049 0 0.0031826248377442774 -0.0030797351834723815 0 0.0038106647786321779 -0.0027832723600293057 0 0.0057175706649780179 -0.0019996105580295099 0 0.0054741335646440866 -0.0020691745990338009 0 0.005587506984094142 -0.0021757024597595098 0 0.0038106647786321779 -0.0027832723600293057 0 0.0055672009474515595 -0.0021719480522759101 0 0.0054741335646440866 -0.0020691745990338009 0 0.0055373769960813495 -0.0021781018077442382 0 0.0055457744621579047 -0.0022222636006552863 0 0.0054741335646440866 -0.0020691745990338009 0 0.005587506984094142 -0.0021757024597595098 0 0.0055373769960813495 -0.0021781018077442382 0 0.0056057213792073107 -0.0021625083830985555 0 0.0055457744621579047 -0.0022222636006552863 0 0.0054984303571916898 -0.002298459103838081 0 0.0077558979818393966 -0.0015143179381931049 0 0.0069509444058379003 -0.0017393299397280623 0 0.0055457744621579047 -0.0022222636006552863 0 0.0054439536890497761 -0.0021454321511530567 0 0.0054984303571916898 -0.002298459103838081 0 0.0077558979818393966 -0.0015143179381931049 0 0.006358055560729073 -0.0016947124941199241 0 0.0056057213792073107 -0.0021625083830985555 0 0.0055373769960813495 -0.0021781018077442382 0 0.0055457744621579047 -0.0022222636006552863 0 0.0044311291702396026 -0.0019437151702933128 0 0.0047092569617211951 -0.0027818243366582443 0 0.0043248325589929177 -0.0017547663876449869 0 0.0040265226970097679 -0.0021605246617228072 0 0.0069509444058379003 -0.0017393299397280623 0 0.0054439536890497761 -0.0021454321511530567 0 0.0053212411470042638 -0.002113851319145731 0 0.0054984303571916898 -0.002298459103838081 0 0.0041169105387314758 -0.0030855741855536942 0 0.003670711487471807 -0.0022056620819811386 0 0.0037354423895545265 -0.0021811856348505766 0 0.005427778645438165 -0.0019992237575263776 0 0.0055457744621579047 -0.0022222636006552863 0 0.0054439536890497761 -0.0021454321511530567 0 0.0054439536890497761 -0.0021454321511530567 0 0.0053952616518162374 -0.0020884334133634149 0 0.0053212411470042638 -0.002113851319145731 0 0.005427778645438165 -0.0019992237575263776 0 0.0054439536890497761 -0.0021454321511530567 0 0.0053952616518162374 -0.0020884334133634149 0 0.0053970392299898043 -0.0020338608399386418 0 0.0053952616518162374 -0.0020884334133634149 0 0.0053212411470042638 -0.002113851319145731 0 0.0035662442098468197 -0.0026385776839474382 0 0.0031617213625173943 -0.0023789439311103309 0 0.0035868488182740853 -0.002571601985350073 0 0.0037949848150151851 -0.0024915031645627267 0 0.0037337470264314347 -0.002416322025633382 0 0.0031617213625173943 -0.0023789439311103309 0 0.0040265226970097679 -0.0021605246617228072 0 0.0031617213625173943 -0.0023789439311103309 0 0.0033998661977520466 -0.0021648232957571702 0 0.0035662442098468197 -0.0026385776839474382 0 0.0040265226970097679 -0.0021605246617228072 0 0.0040265226970097679 -0.0021605246617228072 0 0.0042214915295872698 -0.0019926265511341665 0 0.0044537723001735422 -0.0017076134671082635 0 0.0045460542915901616 -0.0018193553153047666 0 0.0044311291702396026 -0.0019437151702933128 0 0.0044537723001735422 -0.0017076134671082635 0 0.0044311291702396026 -0.0019437151702933128 0 0.0043248325589929177 -0.0017547663876449869 0 0.0045533773485538099 -0.0018161594557418177 0 0.0044311291702396026 -0.0019437151702933128 0 0.0050192162227502514 -0.0023636600303994105 0 0.0049256910972522491 -0.0027168678234224522 0 0.0033998661977520466 -0.0021648232957571702 0 0.0044311291702396026 -0.0019437151702933128 0 0.0047092569617211951 -0.0027818243366582443 0 0.0050192162227502514 -0.0023636600303994105 0 0.0049256910972522491 -0.0027168678234224522 0 0.0069509444058379003 -0.0017393299397280623 0 0.0089439994252362241 -0.0027357991154887138 0 0.0073127239560955319 -0.0020963630636954733 0 0.0078257318889464553 -0.0014037618579473574 0 0.010797662921855331 -0.0027924902352142855 0 0.010943097075717511 -0.0010711345439712782 0 0.0092690400818220761 -0.00096936086481408444 0 0.010908177723225845 -0.0022537405187406487 0 0.0069509444058379003 -0.0017393299397280623 0 0.010943097075717511 -0.0010711345439712782 0 0.0099774616468073004 -1.7612638773691124e-05 0 0.0092690400818220761 -0.00096936086481408444 0 0.0079034777109077293 -0.0037111654163320424 0 0.0089439994252362241 -0.0027357991154887138 0 0.0073127239560955319 -0.0020963630636954733 0 0.0043751362343414013 -0.0038760795204462336 0 0.0045575536687839577 -0.0026794670564122139 0 0.0035579703333389113 -0.00404791526749778 0 0.0083318830517361813 -0.0033740368367548043 0 0.0049256910972522491 -0.0027168678234224522 0 0.0043751362343414013 -0.0038760795204462336 0 0.0050512916242970432 -0.0040616779732993618 0 0.0045575536687839577 -0.0026794670564122139 0 0.0041169105387314758 -0.0030855741855536942 0 0.0035038632026727291 -0.0034107234624921839 0 0.0035579703333389113 -0.00404791526749778 0 0.0049256910972522491 -0.0027168678234224522 0 0.0033663022300931328 -0.0041101949887459941 0 0.0035038632026727291 -0.0034107234624921839 0 0.0032228745154304294 -0.0028915986709555056 0 0.0030782574386818114 -0.0038795274903087366 0 0.00015584816020849403 -0.0037680804218187501 0 0.0015139125294767921 -0.004305044092181934 0 -0.00099138222924594673 -0.0036029212488456345 0 -0.00080581398846583724 -0.0034325475252167401 0 -0.00085546173350147718 -0.0038688599080672977 0 0.0013101415713546965 -0.003001261857459209 0 0.0015139125294767921 -0.004305044092181934 0 -0.00099138222924594673 -0.0036029212488456345 0 -0.0011432669116423556 -0.0036354924713683755 0 -0.00085546173350147718 -0.0038688599080672977 0 -0.00080581398846583724 -0.0034325475252167401 0 -0.00094123845084737186 -0.0031770797635769432 0 -0.0011345412182019825 -0.0034758216717342629 0 -0.00099138222924594673 -0.0036029212488456345 0 -0.00080581398846583724 -0.0034325475252167401 0 -0.0011345412182019825 -0.0034758216717342629 0 -0.0011233674499263279 -0.003452472447081115 0 -0.0010985329634537512 -0.0034156073240878735 0 0.0041169105387314758 -0.0030855741855536942 0 0.0035038632026727291 -0.0034107234624921839 0 0.0032228745154304294 -0.0028915986709555056 0 0.0041169105387314758 -0.0030855741855536942 0 0.0032228745154304294 -0.0028915986709555056 0 0.003670711487471807 -0.0022056620819811386 0 0.0013101415713546965 -0.003001261857459209 0 5.7879783015860741e-05 -0.0027399483796604436 0 0.0032228745154304294 -0.0028915986709555056 0 0.003670711487471807 -0.0022056620819811386 0 0.003287508382472886 -0.0019979015262713597 0 0.003670711487471807 -0.0022056620819811386 0 0.0037300893460456299 -0.0021830456019188631 0 0.0036002983249724132 -0.0018753538860893564 0 0.0034356744190477692 -0.0021566869885195068 0 0.0033998661977520466 -0.0021648232957571702 0 -0.00080581398846583724 -0.0034325475252167401 0 -0.00094123845084737186 -0.0031770797635769432 0 -0.00072756154198696512 -0.0028954587452081505 0 -0.0011486260929078123 -0.0034651365069795432 0 -0.0011800750726917448 -0.0034236663132965225 0 -0.001087066596491391 -0.003403529031434204 0 -0.0011233674499263279 -0.003452472447081115 0 5.7879783015860741e-05 -0.0027399483796604436 0 -0.0011800750726917448 -0.0034236663132965225 0 -0.0011583950194256362 -0.003368907055959069 0 -0.001087066596491391 -0.003403529031434204 0 -0.0011583950194256362 -0.003368907055959069 0 -0.0010738538311491489 -0.0033481729737397299 0 -0.001087066596491391 -0.003403529031434204 0 -0.0011800750726917448 -0.0034236663132965225 0 -0.0011583950194256362 -0.003368907055959069 0 -0.0012500935106147188 -0.0033772514663879668 0 0.0015518736944740796 -0.002747828629587707 0 0.0015757265210920386 -0.0029760670997704634 0 0.0014601907544383014 -0.0029360831542433203 0 0.0015518736944740796 -0.002747828629587707 0 0.0014333080876569352 -0.002929517892168582 0 0.0014601907544383014 -0.0029360831542433203 0 0.0014333080876569352 -0.002929517892168582 0 0.0014601907544383014 -0.0029360831542433203 0 0.0014781416881459262 -0.0029765174769371275 0 -5.9980278333510562e-05 -0.0029808709244589933 0 0.0019968603964512356 -0.0027425531425234835 0 0.003670711487471807 -0.0022056620819811386 0 0.0036002983249724132 -0.0018753538860893564 0 0.003287508382472886 -0.0019979015262713597 0 0.0028388155862044766 -0.0026174579498573045 0 0.0027403493856612646 -0.0026544430084623209 0 0.0026374368109558879 -0.0023801879227387762 0 0.0015757265210920386 -0.0029760670997704634 0 0.0014601907544383014 -0.0029360831542433203 0 0.0014790336731628287 -0.0029802214021516851 0 0.0033998661977520466 -0.0021648232957571702 0 0.0019968603964512356 -0.0027425531425234835 0 0.0031617213625173943 -0.0023789439311103309 0 0.0019968603964512356 -0.0027425531425234835 0 0.0019217494264432504 -0.0027777182829848714 0 0.0019968603964512356 -0.0027425531425234835 0 -5.9980278333510562e-05 -0.0029808709244589933 0 5.7879783015860741e-05 -0.0027399483796604436 0 -0.00052523525668910994 -0.0034045475367314396 0 5.7879783015860741e-05 -0.0027399483796604436 0 0.0034720877917957262 -0.0017337939525420806 0 0.0036002983249724132 -0.0018753538860893564 0 0.003287508382472886 -0.0019979015262713597 0 -0.0010738538311491489 -0.0033481729737397299 0 -0.0010372460830931688 -0.0033497235870255755 0 -0.0010717703568668962 -0.0033954483085550467 0 -0.0013350144562780746 -0.003271469084553614 0 -0.001357275780811525 -0.0033851046688864596 0 -0.0012500935106147188 -0.0033772514663879668 0 -0.001357275780811525 -0.0033851046688864596 0 -0.0012500935106147188 -0.0033772514663879668 0 -0.0012149834483749359 -0.0034606614714634593 0 -0.0011486260929078123 -0.0034651365069795432 0 -0.0012149834483749359 -0.0034606614714634593 0 -0.0011345412182019825 -0.0034758216717342629 0 -0.0011486260929078123 -0.0034651365069795432 0 -0.0011800750726917448 -0.0034236663132965225 0 -0.0012149834483749359 -0.0034606614714634593 0 -0.0011800750726917448 -0.0034236663132965225 0 -0.0012500935106147188 -0.0033772514663879668 0 -0.0012149834483749359 -0.0034606614714634593 0 -0.001357275780811525 -0.0033851046688864596 0 -0.0012149834483749359 -0.0034606614714634593 0 -0.0012386589279989265 -0.0034892828808513257 0 -0.0012149834483749359 -0.0034606614714634593 0 -0.0012386589279989265 -0.0034892828808513257 0 -0.0012336947651379784 -0.0034595576142889719 0 -0.0012386589279989265 -0.0034892828808513257 0 -0.0012336947651379784 -0.0034595576142889719 0 -0.00098910798754508534 -0.003480964994899445 0 -0.0012336947651379784 -0.0034595576142889719 0 -0.0011345412182019825 -0.0034758216717342629 0 -0.0011432669116423556 -0.0036354924713683755 0 -0.0012149834483749359 -0.0034606614714634593 0 -0.0012336947651379784 -0.0034595576142889719 0 -0.0011345412182019825 -0.0034758216717342629 0 0.0016402318775984648 -0.0039741668250193639 0 0.00044566899483969454 -0.0042857048676077812 0 0.0012719115259732603 -0.0045690788684518042 0 -0.00034706843363699016 -0.0035868603727512278 0 0.00015584816020849403 -0.0037680804218187501 0 -0.00099138222924594673 -0.0036029212488456345 0 -0.0011345412182019825 -0.0034758216717342629 0 -0.0011432669116423556 -0.0036354924713683755 0 0.00046775101308514725 -0.0036068306779529729 0 0.00044566899483969454 -0.0042857048676077812 0 -0.00047982212565594585 -0.0039598344608088275 0 0.00046775101308514725 -0.0036068306779529729 0 0.0016402318775984648 -0.0039741668250193639 0 0.00044566899483969454 -0.0042857048676077812 0 0.00044566899483969454 -0.0042857048676077812 0 0.00062687173232769066 -0.0048981479433711662 0 -0.00034348829883150184 -0.0045094218579219813 0 0.00062687173232769066 -0.0048981479433711662 0 0.0016484141312305288 -0.0050831268727057725 0 0.0012719115259732603 -0.0045690788684518042 0 0.00044566899483969454 -0.0042857048676077812 0 0.00062687173232769066 -0.0048981479433711662 0 0.0012719115259732603 -0.0045690788684518042 0 0.00062687173232769066 -0.0048981479433711662 0 0.00099678577379861723 -0.0054784371694529405 0 0.0016484141312305288 -0.0050831268727057725 0 0.00062687173232769066 -0.0048981479433711662 0 0.00099678577379861723 -0.0054784371694529405 0 0.00018202134704250041 -0.0055652823777616834 0 0.00099678577379861723 -0.0054784371694529405 0 0.00063533728438631585 -0.0060887182500217393 0 0.00018202134704250041 -0.0055652823777616834 0 0.00099678577379861723 -0.0054784371694529405 0 0.0016190148634672402 -0.0055715602815316883 0 0.0012317306735252032 -0.0060478655057132633 0 0.0016190148634672402 -0.0055715602815316883 0 0.0022820647248632539 -0.0054493493294344893 0 0.0020846092103446292 -0.005893230055478981 0 0.0016190148634672402 -0.0055715602815316883 0 0.0016484141312305288 -0.0050831268727057725 0 0.0022820647248632539 -0.0054493493294344893 0 0.00099678577379861723 -0.0054784371694529405 0 0.0016190148634672402 -0.0055715602815316883 0 0.0016484141312305288 -0.0050831268727057725 0 0.0016484141312305288 -0.0050831268727057725 0 0.0022650051473133916 -0.0049346012557776103 0 0.0022820647248632539 -0.0054493493294344893 0 0.0016484141312305288 -0.0050831268727057725 0 0.0019259066017060906 -0.0045720442393426377 0 0.0022650051473133916 -0.0049346012557776103 0 0.0016484141312305288 -0.0050831268727057725 0 0.0012719115259732603 -0.0045690788684518042 0 0.0019259066017060906 -0.0045720442393426377 0 0.0016402318775984648 -0.0039741668250193639 0 0.0012719115259732603 -0.0045690788684518042 0 0.0019259066017060906 -0.0045720442393426377 0 0.0015139125294767921 -0.004305044092181934 0 0.0028141474944705465 -0.0051877535725970746 0 0.0028608879952212803 -0.0042704688379536018 0 0.0031598029824940988 -0.0049657381564369484 0 0.002758414484565719 -0.0052706914089759686 0 0.0019259066017060906 -0.0045720442393426377 0 0.0026404717760600692 -0.0044622903522805587 0 0.0022650051473133916 -0.0049346012557776103 0 0.0026404717760600692 -0.0044622903522805587 0 0.0022650051473133916 -0.0049346012557776103 0 0.002758414484565719 -0.0052706914089759686 0 0.0016402318775984648 -0.0039741668250193639 0 0.0019259066017060906 -0.0045720442393426377 0 0.0026404717760600692 -0.0044622903522805587 0 0.0035038632026727291 -0.0034107234624921839 0 0.0030782574386818114 -0.0038795274903087366 0 0.0035579703333389113 -0.00404791526749778 0 0.0040844791498358514 -0.0050906748303514802 0 0.0028608879952212803 -0.0042704688379536018 0 0.0031598029824940988 -0.0049657381564369484 0 0.0074055020618286702 -0.0035183419347953808 0 0.0015139125294767921 -0.004305044092181934 0 0.0043363673256014007 -0.0046849928562227227 0 0.0030782574386818114 -0.0038795274903087366 0 0.0035579703333389113 -0.00404791526749778 0 0.0043363673256014007 -0.0046849928562227227 0 0.0043751362343414013 -0.0038760795204462336 0 0.0035579703333389113 -0.00404791526749778 0 0.0040844791498358514 -0.0050906748303514802 0 0.0031598029824940988 -0.0049657381564369484 0 0.0034459660479648955 -0.0052850160707680564 0 0.0031598029824940988 -0.0049657381564369484 0 0.0034459660479648955 -0.0052850160707680564 0 0.0031730725452372259 -0.0054106860013411837 0 0.0031730725452372259 -0.0054106860013411837 0 0.0031493423150747474 -0.005716036895786398 0 0.0033857762013017566 -0.0056471472935640367 0 0.0034459660479648955 -0.0052850160707680564 0 0.0031730725452372259 -0.0054106860013411837 0 0.0033857762013017566 -0.0056471472935640367 0 0.0118046390431192 0.0001572618039279169 0 0.010055899531835968 -0.0016948510020077395 0 0.0093923440461848879 -0.0016178727959814095 0 0.0074055020618286702 -0.0035183419347953808 0 0.0063256906633312156 -0.0036398201649321519 0 0.011324394648101348 -0.0015182318506187435 0 0.0118046390431192 0.0001572618039279169 0 0.010055899531835968 -0.0016948510020077395 0 0.0040844791498358514 -0.0050906748303514802 0 0.0034459660479648955 -0.0052850160707680564 0 0.0033857762013017566 -0.0056471472935640367 0 0.0022650051473133916 -0.0049346012557776103 0 0.002758414484565719 -0.0052706914089759686 0 0.0022820647248632539 -0.0054493493294344893 0 0.0031598029824940988 -0.0049657381564369484 0 0.0031730725452372259 -0.0054106860013411837 0 0.002758414484565719 -0.0052706914089759686 0 0.0031730725452372259 -0.0054106860013411837 0 0.002877480870703351 -0.0055776441324870947 0 0.0031493423150747474 -0.005716036895786398 0 0.0031730725452372259 -0.0054106860013411837 0 0.002758414484565719 -0.0052706914089759686 0 0.002877480870703351 -0.0055776441324870947 0 0.002877480870703351 -0.0055776441324870947 0 0.0022820647248632539 -0.0054493493294344893 0 0.0027047097506226743 -0.0058622293201728909 0 0.002758414484565719 -0.0052706914089759686 0 0.002877480870703351 -0.0055776441324870947 0 0.0022820647248632539 -0.0054493493294344893 0 0.0022820647248632539 -0.0054493493294344893 0 0.0027047097506226743 -0.0058622293201728909 0 0.0020846092103446292 -0.005893230055478981 0 0.0032481399075138247 -0.005975133635737497 0 0.0093923440461848879 -0.0016178727959814095 0 0.0036172448595229363 -0.0070579611156201399 0 0.0027047097506226743 -0.0058622293201728909 0 0.0025492869357579724 -0.0062978040887089826 0 0.0020846092103446292 -0.005893230055478981 0 0.002877480870703351 -0.0055776441324870947 0 0.0031493423150747474 -0.005716036895786398 0 0.0029980333555629421 -0.0057945181065715235 0 0.002877480870703351 -0.0055776441324870947 0 0.0027047097506226743 -0.0058622293201728909 0 0.0029980333555629421 -0.0057945181065715235 0 0.0031493423150747474 -0.005716036895786398 0 0.0029980333555629421 -0.0057945181065715235 0 0.0032481399075138247 -0.005975133635737497 0 0.0027047097506226743 -0.0058622293201728909 0 0.0029980333555629421 -0.0057945181065715235 0 0.0032481399075138247 -0.005975133635737497 0 0.0032481399075138247 -0.005975133635737497 0 0.0025492869357579724 -0.0062978040887089826 0 0.0036172448595229363 -0.0070579611156201399 0 0.0027047097506226743 -0.0058622293201728909 0 0.0032481399075138247 -0.005975133635737497 0 0.0025492869357579724 -0.0062978040887089826 0 0.010055899531835968 -0.0016948510020077395 0 0.0093923440461848879 -0.0016178727959814095 0 0.0036172448595229363 -0.0070579611156201399 0 0.011324394648101348 -0.0015182318506187435 0 0.01073856370957774 -0.0019738537414154484 0 0.010055899531835968 -0.0016948510020077395 0 0.010055899531835968 -0.0016948510020077395 0 0.010322127500919967 -0.0022191106307625375 0 0.010120124100185207 -0.0026952530639510444 0 0.011522417512104815 -0.0023492868125856623 0 0.010778081867845131 -0.0023959041631011835 0 0.01073856370957774 -0.0019738537414154484 0 0.010778081867845131 -0.0023959041631011835 0 0.01073856370957774 -0.0019738537414154484 0 0.010322127500919967 -0.0022191106307625375 0 0.01073856370957774 -0.0019738537414154484 0 0.010055899531835968 -0.0016948510020077395 0 0.010322127500919967 -0.0022191106307625375 0 0.010778081867845131 -0.0023959041631011835 0 0.010322127500919967 -0.0022191106307625375 0 0.010510040930612474 -0.0026628994245762524 0 0.0035960618940225021 -0.0058531893654349149 0 0.0063256906633312156 -0.0036398201649321519 0 0.0031493423150747474 -0.005716036895786398 0 0.0032481399075138247 -0.005975133635737497 0 0.0033857762013017566 -0.0056471472935640367 0 0.0096998780275185485 -0.0019343143003668053 0 0.0068853503031615524 -0.0048518488680442794 0 0.010014430288796663 -0.0031860867344861575 0 0.010120124100185207 -0.0026952530639510444 0 0.0094997278865595631 -0.0033559518601621098 0 0.010055899531835968 -0.0016948510020077395 0 0.010120124100185207 -0.0026952530639510444 0 0.0094997278865595631 -0.0033559518601621098 0 0.010014430288796663 -0.0031860867344861575 0 0.010399898942770644 -0.0030352746867570303 0 0.010259199297793294 -0.0033830988638554734 0 0.010014430288796663 -0.0031860867344861575 0 0.010120124100185207 -0.0026952530639510444 0 0.010399898942770644 -0.0030352746867570303 0 0.010322127500919967 -0.0022191106307625375 0 0.010120124100185207 -0.0026952530639510444 0 0.010510040930612474 -0.0026628994245762524 0 0.010120124100185207 -0.0026952530639510444 0 0.010510040930612474 -0.0026628994245762524 0 0.010399898942770644 -0.0030352746867570303 0 0.010510040930612474 -0.0026628994245762524 0 0.010399898942770644 -0.0030352746867570303 0 0.011077821876757071 -0.0029639576437465883 0 0.010399898942770644 -0.0030352746867570303 0 0.011077821876757071 -0.0029639576437465883 0 0.010696084294195021 -0.003499396821266204 0 0.010778081867845131 -0.0023959041631011835 0 0.010510040930612474 -0.0026628994245762524 0 0.011077821876757071 -0.0029639576437465883 0 0.011522417512104815 -0.0023492868125856623 0 0.010778081867845131 -0.0023959041631011835 0 0.011077821876757071 -0.0029639576437465883 0 0.011482378166082803 -0.0037555164688489492 0 0.011077821876757071 -0.0029639576437465883 0 0.010696084294195021 -0.003499396821266204 0 0.011482378166082803 -0.0037555164688489492 0 0.010696084294195021 -0.003499396821266204 0 0.010707221883053543 -0.0040081399997310869 0 0.010399898942770644 -0.0030352746867570303 0 0.010696084294195021 -0.003499396821266204 0 0.010259199297793294 -0.0033830988638554734 0 0.010696084294195021 -0.003499396821266204 0 0.010707221883053543 -0.0040081399997310869 0 0.010255743372263071 -0.0038519604100791444 0 0.010255743372263071 -0.0038519604100791444 0 0.010259199297793294 -0.0033830988638554734 0 0.0099617623917751547 -0.0034882512492087135 0 0.010696084294195021 -0.003499396821266204 0 0.010255743372263071 -0.0038519604100791444 0 0.010259199297793294 -0.0033830988638554734 0 0.010014430288796663 -0.0031860867344861575 0 0.0099617623917751547 -0.0034882512492087135 0 0.0094997278865595631 -0.0033559518601621098 0 0.010014430288796663 -0.0031860867344861575 0 0.010259199297793294 -0.0033830988638554734 0 0.0099617623917751547 -0.0034882512492087135 0 0.010255743372263071 -0.0038519604100791444 0 0.0099617623917751547 -0.0034882512492087135 0 0.0098076459084438083 -0.0038619263118272401 0 0.010255743372263071 -0.0038519604100791444 0 0.0099490377996505879 -0.0044088873251330292 0 0.0098076459084438083 -0.0038619263118272401 0 0.0099490377996505879 -0.0044088873251330292 0 0.010524789705903445 -0.0044426446362341278 0 0.010199510546547419 -0.0049437389772919293 0 0.010707221883053543 -0.0040081399997310869 0 0.010255743372263071 -0.0038519604100791444 0 0.010524789705903445 -0.0044426446362341278 0 0.010255743372263071 -0.0038519604100791444 0 0.0099490377996505879 -0.0044088873251330292 0 0.010524789705903445 -0.0044426446362341278 0 0.010707221883053543 -0.0040081399997310869 0 0.010524789705903445 -0.0044426446362341278 0 0.011059626893540829 -0.0044074288807469247 0 0.010524789705903445 -0.0044426446362341278 0 0.011059626893540829 -0.0044074288807469247 0 0.010999202868810558 -0.0050386323197548124 0 0.011720952150036277 -0.0045873245844634727 0 0.011059626893540829 -0.0044074288807469247 0 0.010999202868810558 -0.0050386323197548124 0 0.011482378166082803 -0.0037555164688489492 0 0.010707221883053543 -0.0040081399997310869 0 0.011059626893540829 -0.0044074288807469247 0 0.0036172448595229363 -0.0070579611156201399 0 0.0023457840136637252 -0.0068746635827031501 0 0.0022621240677140456 -0.0075748314910187046 0 0.0025492869357579724 -0.0062978040887089826 0 0.0036172448595229363 -0.0070579611156201399 0 0.0023457840136637252 -0.0068746635827031501 0 0.0094997278865595631 -0.0033559518601621098 0 0.0098076459084438083 -0.0038619263118272401 0 0.0093983411060380422 -0.0043355984831300234 0 0.0099617623917751547 -0.0034882512492087135 0 0.0094997278865595631 -0.0033559518601621098 0 0.0098076459084438083 -0.0038619263118272401 0 0.0099490377996505879 -0.0044088873251330292 0 0.0093983411060380422 -0.0043355984831300234 0 0.0094688060437425094 -0.0051624585049947647 0 0.0099490377996505879 -0.0044088873251330292 0 0.0098076459084438083 -0.0038619263118272401 0 0.0093983411060380422 -0.0043355984831300234 0 0.0068853503031615524 -0.0048518488680442794 0 0.004849128413762005 -0.006741879361648496 0 0.0094997278865595631 -0.0033559518601621098 0 0.0093983411060380422 -0.0043355984831300234 0 0.0084050747704273419 -0.0048045284846526424 0 0.0093983411060380422 -0.0043355984831300234 0 0.0084050747704273419 -0.0048045284846526424 0 0.0094688060437425094 -0.0051624585049947647 0 0.0023457840136637252 -0.0068746635827031501 0 0.0014773633221741738 -0.0069281008667810848 0 0.0022621240677140456 -0.0075748314910187046 0 0.0023457840136637252 -0.0068746635827031501 0 0.0014773633221741738 -0.0069281008667810848 0 0.0018323704693609172 -0.0064130293864506447 0 0.0014773633221741738 -0.0069281008667810848 0 0.0014088536963727078 -0.0075928828940229247 0 0.0022621240677140456 -0.0075748314910187046 0 0.0010995099418872035 -0.007166528387004557 0 0.00071249088343928492 -0.0074563631660340959 0 0.0014088536963727078 -0.0075928828940229247 0 0.0014773633221741738 -0.0069281008667810848 0 0.0010995099418872035 -0.007166528387004557 0 0.0014088536963727078 -0.0075928828940229247 0 0.0010995099418872035 -0.007166528387004557 0 0.00079628736332308376 -0.0066950721973901553 0 0.00071249088343928492 -0.0074563631660340959 0 0.0014773633221741738 -0.0069281008667810848 0 0.0010995099418872035 -0.007166528387004557 0 0.00079628736332308376 -0.0066950721973901553 0 0.0014773633221741738 -0.0069281008667810848 0 0.00079628736332308376 -0.0066950721973901553 0 0.0012317306735252032 -0.0060478655057132633 0 0.00079628736332308376 -0.0066950721973901553 0 0.00063533728438631585 -0.0060887182500217393 0 0.0012317306735252032 -0.0060478655057132633 0 0.00099678577379861723 -0.0054784371694529405 0 0.00063533728438631585 -0.0060887182500217393 0 0.0012317306735252032 -0.0060478655057132633 0 0.0016190148634672402 -0.0055715602815316883 0 0.0012317306735252032 -0.0060478655057132633 0 0.0020846092103446292 -0.005893230055478981 0 0.0014773633221741738 -0.0069281008667810848 0 0.0012317306735252032 -0.0060478655057132633 0 0.0018323704693609172 -0.0064130293864506447 0 0.0012317306735252032 -0.0060478655057132633 0 0.0020846092103446292 -0.005893230055478981 0 0.0018323704693609172 -0.0064130293864506447 0 0.0025492869357579724 -0.0062978040887089826 0 0.0023457840136637252 -0.0068746635827031501 0 0.0018323704693609172 -0.0064130293864506447 0 0.0025492869357579724 -0.0062978040887089826 0 0.0020846092103446292 -0.005893230055478981 0 0.0018323704693609172 -0.0064130293864506447 0 0.027995374758797126 0.0047849163581735075 0 0.027244952803261824 0.0048915099310461235 0 0.027476501562264031 0.0037325323486422772 0 0.0072877732023889624 -0.006219208924089655 0 0.0078459015007132701 -0.0067568196158894755 0 0.0083532510630320665 -0.0058187782271113507 0 0.019623769269905361 0.00019477036119104166 0 0.016784842297805212 0.0004627433915416409 0 0.013761764305725087 0.00060640811809227349 0 0.016186430252688726 -0.0017347461084840053 0 0.012353978985867197 -0.001085979736587612 0 0.0077028848867022994 -0.0051993282051617414 0 0.019623769269905361 0.00019477036119104166 0 0.027244952803261824 0.0048915099310461235 0 0.027476501562264031 0.0037325323486422772 0 0.026290683440184412 0.0036617056921048386 0 0.016784842297805212 0.0004627433915416409 0 0.011100466786932398 -0.0018109543776269248 0 0.016784842297805212 0.0004627433915416409 0 0.026948451888232819 0.0040633993958717335 0 0.00095863525131213549 -0.0067774991811291258 0 0.00091975365614178179 -0.0067745902716842199 0 0.00085037215928154429 -0.0066975219578488078 0 0.024804220392854265 0.0023236467427037027 0 0.024856820552710809 0.0023535228450302179 0 0.023862190023621003 0.0027284754758791318 0 0.024804220392854265 0.0023236467427037027 0 0.024856820552710809 0.0023535228450302179 0 0.024868326261381756 0.0022761590403751761 0 0.024804220392854265 0.0023236467427037027 0 0.024868326261381756 0.0022761590403751761 0 0.024877268328757331 0.0023048659531858862 0 0.024804220392854265 0.0023236467427037027 0 0.024890013475539173 0.0023123036516479898 0 0.024877268328757331 0.0023048659531858862 0 0.024804220392854265 0.0023236467427037027 0 0.024890013475539173 0.0023123036516479898 0 0.024933573992072331 0.0023187634388105428 0 0.024438947103011376 0.0023981525228663112 0 0.025048477415151368 0.0019825265632334383 0 0.0077028848867022994 -0.0051993282051617414 0 0.016784842297805212 0.0004627433915416409 0 0.00092676890668566471 -0.0067423654578929095 0 0.00095863525131213549 -0.0067774991811291258 0 0.00091975365614178179 -0.0067745902716842199 0 0.00089960839743265339 -0.0068169768315819298 0 0.00087817288195918958 -0.0069656558563718617 0 0.00085037215928154429 -0.0066975219578488078 0 0.0077028848867022994 -0.0051993282051617414 0 8.9165539014575084e-05 -0.007028622179493787 0 0.00092676890668566471 -0.0067423654578929095 0 0.00089960839743265339 -0.0068169768315819298 0 0.00087817288195918958 -0.0069656558563718617 0 0.00092676890668566471 -0.0067423654578929095 0 0.00091975365614178179 -0.0067745902716842199 0 0.00089960839743265339 -0.0068169768315819298 0 0.00091975365614178179 -0.0067745902716842199 0 0.00089960839743265339 -0.0068169768315819298 0 0.00085037215928154429 -0.0066975219578488078 0 0.0015721561317006919 -0.0083043842105877345 0 0.00071249088343928492 -0.0074563631660340959 0 0.0014088536963727078 -0.0075928828940229247 0 0.0015721561317006919 -0.0083043842105877345 0 0.0014088536963727078 -0.0075928828940229247 0 0.0022621240677140456 -0.0075748314910187046 0 0.0072877732023889624 -0.006219208924089655 0 0.0083532510630320665 -0.0058187782271113507 0 0.0084050747704273419 -0.0048045284846526424 0 0.0077028848867022994 -0.0051993282051617414 0 0.004849128413762005 -0.006741879361648496 0 0.0078459015007132701 -0.0067568196158894755 0 0.0083532510630320665 -0.0058187782271113507 0 0.0091419747848799325 -0.0060317562843143335 0 0.0083532510630320665 -0.0058187782271113507 0 0.0084050747704273419 -0.0048045284846526424 0 0.0094688060437425094 -0.0051624585049947647 0 0.0099490377996505879 -0.0044088873251330292 0 0.0094688060437425094 -0.0051624585049947647 0 0.010199510546547419 -0.0049437389772919293 0 0.0094688060437425094 -0.0051624585049947647 0 0.0091419747848799325 -0.0060317562843143335 0 0.010246774317487261 -0.0057279007579561971 0 0.0091419747848799325 -0.0060317562843143335 0 0.010246774317487261 -0.0057279007579561971 0 0.0096932482521718058 -0.0065061990155284664 0 0.0083532510630320665 -0.0058187782271113507 0 0.0094688060437425094 -0.0051624585049947647 0 0.0091419747848799325 -0.0060317562843143335 0 0.010999202868810558 -0.0050386323197548124 0 0.0111453790018777 -0.0058165391617218216 0 0.012033758834915269 -0.0053819920285193027 0 0.0094688060437425094 -0.0051624585049947647 0 0.010199510546547419 -0.0049437389772919293 0 0.010246774317487261 -0.0057279007579561971 0 0.010999202868810558 -0.0050386323197548124 0 0.010199510546547419 -0.0049437389772919293 0 0.010246774317487261 -0.0057279007579561971 0 0.010524789705903445 -0.0044426446362341278 0 0.010999202868810558 -0.0050386323197548124 0 0.010199510546547419 -0.0049437389772919293 0 0.010246774317487261 -0.0057279007579561971 0 0.0111453790018777 -0.0058165391617218216 0 0.010874779935961965 -0.0065530436070875527 0 0.010999202868810558 -0.0050386323197548124 0 0.010246774317487261 -0.0057279007579561971 0 0.0111453790018777 -0.0058165391617218216 0 0.010874779935961965 -0.0065530436070875527 0 0.010475568108849097 -0.0073957728351002235 0 0.01417322515521433 -0.0079591137781576896 0 0.0111453790018777 -0.0058165391617218216 0 0.010874779935961965 -0.0065530436070875527 0 0.012067921155764619 -0.0064330022766921711 0 0.010246774317487261 -0.0057279007579561971 0 0.010874779935961965 -0.0065530436070875527 0 0.0096932482521718058 -0.0065061990155284664 0 0.010874779935961965 -0.0065530436070875527 0 0.010475568108849097 -0.0073957728351002235 0 0.0096932482521718058 -0.0065061990155284664 0 0.0078459015007132701 -0.0067568196158894755 0 0.010475568108849097 -0.0073957728351002235 0 0.0096932482521718058 -0.0065061990155284664 0 0.0078459015007132701 -0.0067568196158894755 0 0.0091419747848799325 -0.0060317562843143335 0 0.0096932482521718058 -0.0065061990155284664 0 0.027655240077175909 0.0050290841425545763 0 0.03026379209332555 0.0046315144175341268 0 0.029666125137130624 0.0033735981567018986 0 0.019623769269905361 0.00019477036119104166 0 0.020613277782437416 -0.0013005142429384495 0 0.019623769269905361 0.00019477036119104166 0 0.032071889585356991 0.0043887680896896337 0 0.027995374758797126 0.0047849163581735075 0 0.029666125137130624 0.0033735981567018986 0 0.028524802470331102 0.0029188168394989932 0 0.03026379209332555 0.0046315144175341268 0 0.030668628722666715 0.0033975204360287147 0 0.031501020342045584 0.0035800164444347617 0 0.03026379209332555 0.0046315144175341268 0 0.029666125137130624 0.0033735981567018986 0 0.030668628722666715 0.0033975204360287147 0 0.029666125137130624 0.0033735981567018986 0 0.030668628722666715 0.0033975204360287147 0 0.030144816377592108 0.0025673548902002386 0 0.030668628722666715 0.0033975204360287147 0 0.030144816377592108 0.0025673548902002386 0 0.031510573143103744 0.0028332579665976245 0 0.030144816377592108 0.0025673548902002386 0 0.031306553577496031 0.0020837279362485345 0 0.031510573143103744 0.0028332579665976245 0 0.030144816377592108 0.0025673548902002386 0 0.031306553577496031 0.0020837279362485345 0 0.030521586264334162 0.0017227560620229183 0 0.030144816377592108 0.0025673548902002386 0 0.029386525666803286 0.0019494096893840592 0 0.030521586264334162 0.0017227560620229183 0 0.030144816377592108 0.0025673548902002386 0 0.029386525666803286 0.0019494096893840592 0 0.028524802470331102 0.0029188168394989932 0 0.029666125137130624 0.0033735981567018986 0 0.030144816377592108 0.0025673548902002386 0 0.028524802470331102 0.0029188168394989932 0 0.029386525666803286 0.0019494096893840592 0 0.028518120474472303 0.0019755755758232478 0 0.028524802470331102 0.0029188168394989932 0 0.027757554337777289 0.0021041248834521098 0 0.028524802470331102 0.0029188168394989932 0 0.027312491281810701 0.0027979652312795146 0 0.028518120474472303 0.0019755755758232478 0 0.027757554337777289 0.0021041248834521098 0 0.028524802470331102 0.0029188168394989932 0 0.027995374758797126 0.0047849163581735075 0 0.028524802470331102 0.0029188168394989932 0 0.027476501562264031 0.0037325323486422772 0 0.028524802470331102 0.0029188168394989932 0 0.027476501562264031 0.0037325323486422772 0 0.027312491281810701 0.0027979652312795146 0 0.027476501562264031 0.0037325323486422772 0 0.026290683440184412 0.0036617056921048386 0 0.027312491281810701 0.0027979652312795146 0 0.026290683440184412 0.0036617056921048386 0 0.026450569939112954 0.0022727566959147081 0 0.027312491281810701 0.0027979652312795146 0 0.026450569939112954 0.0022727566959147081 0 0.027312491281810701 0.0027979652312795146 0 0.027019005555606299 0.0018586886727291151 0 0.027757554337777289 0.0021041248834521098 0 0.027312491281810701 0.0027979652312795146 0 0.027019005555606299 0.0018586886727291151 0 0.026450569939112954 0.0022727566959147081 0 0.027019005555606299 0.0018586886727291151 0 0.026435494788632982 0.0013064897607325892 0 0.027757554337777289 0.0021041248834521098 0 0.027019005555606299 0.0018586886727291151 0 0.027364555774292084 0.0012378022619252899 0 0.027019005555606299 0.0018586886727291151 0 0.026435494788632982 0.0013064897607325892 0 0.027364555774292084 0.0012378022619252899 0 0.026435494788632982 0.0013064897607325892 0 0.027364555774292084 0.0012378022619252899 0 0.026991085555049501 0.00075739894424272118 0 0.027364555774292084 0.0012378022619252899 0 0.026991085555049501 0.00075739894424272118 0 0.027688008262493766 0.00070796856982434245 0 0.026435494788632982 0.0013064897607325892 0 0.026991085555049501 0.00075739894424272118 0 0.026432079278096442 0.0006969731713162737 0 0.028518120474472303 0.0019755755758232478 0 0.027757554337777289 0.0021041248834521098 0 0.028252722817725125 0.0012822640642412239 0 0.028518120474472303 0.0019755755758232478 0 0.028252722817725125 0.0012822640642412239 0 0.029159711284955307 0.0010725116904020855 0 0.027757554337777289 0.0021041248834521098 0 0.027364555774292084 0.0012378022619252899 0 0.028252722817725125 0.0012822640642412239 0 0.027364555774292084 0.0012378022619252899 0 0.028252722817725125 0.0012822640642412239 0 0.027688008262493766 0.00070796856982434245 0 0.028252722817725125 0.0012822640642412239 0 0.027688008262493766 0.00070796856982434245 0 0.028746197422624548 0.00013752521979634429 0 0.02865811164499946 0.0006193174055139966 0 0.029813930721745742 0.00019869732185596886 0 0.030235506644472269 0.0010658406218425642 0 0.02824247038345376 0.00050752156854819391 0 0.028300239737960618 0.00091797764039017648 0 0.029695763095604889 0.0010442081292876321 0 0.027645218147594131 0.00053300670496802128 0 0.02976701284139632 0.00080135629007937841 0 0.027688008262493766 0.00070796856982434245 0 0.027160045215348809 0.00015658689541613358 0 0.028746197422624548 0.00013752521979634429 0 0.028465055304153303 0.00057487189205813463 0 0.02976701284139632 0.00080135629007937841 0 0.02824247038345376 0.00050752156854819391 0 0.028300239737960618 0.00091797764039017648 0 0.026874138457668121 0.00079667985066640646 0 0.027645218147594131 0.00053300670496802128 0 0.026404054005125951 0.0005627548672231512 0 0.026432079278096442 0.0006969731713162737 0 0.027160045215348809 0.00015658689541613358 0 0.025872449906518404 0.00035667542487608661 0 0.026991085555049501 0.00075739894424272118 0 0.026432079278096442 0.0006969731713162737 0 0.027160045215348809 0.00015658689541613358 0 0.026991085555049501 0.00075739894424272118 0 0.027688008262493766 0.00070796856982434245 0 0.027160045215348809 0.00015658689541613358 0 0.02865811164499946 0.0006193174055139966 0 0.028126371134672545 -0.00067379077962902048 0 0.026764071818192375 -6.1924890932909437e-05 0 0.028465055304153303 0.00057487189205813463 0 0.026872406445661589 -2.3307788308616296e-05 0 0.02865811164499946 0.0006193174055139966 0 0.028126371134672545 -0.00067379077962902048 0 0.029813930721745742 0.00019869732185596886 0 0.028126371134672545 -0.00067379077962902048 0 0.029813930721745742 0.00019869732185596886 0 0.030202894257887646 -0.00074534447740976189 0 0.034992157033300372 2.1320330167824964e-05 0 0.034999967524752776 -6.0410990296631164e-09 0 0.034988360881415645 2.1919421303630589e-06 0 0.031637980579580012 -0.00031635866253404909 0 0.032556170233753033 -0.00036645316566264521 0 0.034992157033300372 2.1320330167824964e-05 0 0.034999967524752776 -6.0410990296631164e-09 0 0.035000031289436441 5.1064113508421686e-08 0 0.034994488807373464 -6.5418041964799697e-08 0 0.034999984357531211 7.1650932046516885e-10 0 0.034988360881415645 2.1919421303630589e-06 0 0.033391302374232781 -0.00035629666488761326 0 0.032556170233753033 -0.00036645316566264521 0 0.03179769238580045 -0.0007178118068052043 0 0.030202894257887646 -0.00074534447740976189 0 0.03085430573442044 9.1856176320598715e-05 0 0.034999967524752776 -6.0410990296631164e-09 0 0.034999984357531211 7.1650932046516885e-10 0 0.034988360881415645 2.1919421303630589e-06 0 0.029813930721745742 0.00019869732185596886 0 0.03085430573442044 9.1856176320598715e-05 0 0.03079354392424714 0.00067490308384435141 0 0.029813930721745742 0.00019869732185596886 0 0.030202894257887646 -0.00074534447740976189 0 0.03085430573442044 9.1856176320598715e-05 0 0.03085430573442044 9.1856176320598715e-05 0 0.031569375675187021 0.00039777274838611449 0 0.03079354392424714 0.00067490308384435141 0 0.03179769238580045 -0.0007178118068052043 0 0.03085430573442044 9.1856176320598715e-05 0 0.031569375675187021 0.00039777274838611449 0 0.03179769238580045 -0.0007178118068052043 0 0.031569375675187021 0.00039777274838611449 0 0.032414697615916421 0.00028199574677848773 0 0.031569375675187021 0.00039777274838611449 0 0.031755134918353051 0.00090152943492061632 0 0.032414697615916421 0.00028199574677848773 0 0.031569375675187021 0.00039777274838611449 0 0.031255158820757308 0.00099302376032710097 0 0.031755134918353051 0.00090152943492061632 0 0.0312313845603585 0.0011581817003594056 0 0.031755134918353051 0.00090152943492061632 0 0.031726411211145479 0.0012884456401847752 0 0.031569375675187021 0.00039777274838611449 0 0.031255158820757308 0.00099302376032710097 0 0.03079354392424714 0.00067490308384435141 0 0.031255158820757308 0.00099302376032710097 0 0.0312313845603585 0.0011581817003594056 0 0.031755134918353051 0.00090152943492061632 0 0.030131434089026455 0.00055923021927343163 0 0.028746197422624548 0.00013752521979634429 0 0.029159711284955307 0.0010725116904020855 0 0.030665137990006017 0.00086923998785770271 0 0.02976701284139632 0.00080135629007937841 0 0.031255158820757308 0.00099302376032710097 0 0.0312313845603585 0.0011581817003594056 0 0.030564243031296796 0.00092331528184459158 0 0.031255158820757308 0.00099302376032710097 0 0.03079354392424714 0.00067490308384435141 0 0.030235506644472269 0.0010658406218425642 0 0.031347169790904607 0.0010284455384151413 0 0.02976701284139632 0.00080135629007937841 0 0.029813930721745742 0.00019869732185596886 0 0.03079354392424714 0.00067490308384435141 0 0.030235506644472269 0.0010658406218425642 0 0.028252722817725125 0.0012822640642412239 0 0.028746197422624548 0.00013752521979634429 0 0.029159711284955307 0.0010725116904020855 0 0.030131434089026455 0.00055923021927343163 0 0.029159711284955307 0.0010725116904020855 0 0.029816829365533443 0.0013125185298465524 0 0.029386525666803286 0.0019494096893840592 0 0.029816829365533443 0.0013125185298465524 0 0.030521586264334162 0.0017227560620229183 0 0.029386525666803286 0.0019494096893840592 0 0.029159711284955307 0.0010725116904020855 0 0.029816829365533443 0.0013125185298465524 0 0.029386525666803286 0.0019494096893840592 0 0.028518120474472303 0.0019755755758232478 0 0.029159711284955307 0.0010725116904020855 0 0.030665137990006017 0.00086923998785770271 0 0.031598803611199641 0.001227500601739282 0 0.030131434089026455 0.00055923021927343163 0 0.030521586264334162 0.0017227560620229183 0 0.031726411211145479 0.0012884456401847752 0 0.030131434089026455 0.00055923021927343163 0 0.029816829365533443 0.0013125185298465524 0 0.030521586264334162 0.0017227560620229183 0 0.031306553577496031 0.0020837279362485345 0 0.030521586264334162 0.0017227560620229183 0 0.031726411211145479 0.0012884456401847752 0 0.031726411211145479 0.0012884456401847752 0 0.032661008247030394 0.0010284507250056813 0 0.032445534060022208 0.0019992004570049209 0 0.031306553577496031 0.0020837279362485345 0 0.031726411211145479 0.0012884456401847752 0 0.032445534060022208 0.0019992004570049209 0 0.033413360520841769 0.0014203930989988985 0 0.033461721689379775 0.002188760757495549 0 0.032445534060022208 0.0019992004570049209 0 0.033413360520841769 0.0014203930989988985 0 0.032661008247030394 0.0010284507250056813 0 0.032445534060022208 0.0019992004570049209 0 0.032661008247030394 0.0010284507250056813 0 0.032414697615916421 0.00028199574677848773 0 0.033387271465798347 0.00026284003797128906 0 0.032661008247030394 0.0010284507250056813 0 0.033387271465798347 0.00026284003797128906 0 0.033628796488256708 0.00082345349398575576 0 0.033413360520841769 0.0014203930989988985 0 0.032661008247030394 0.0010284507250056813 0 0.033628796488256708 0.00082345349398575576 0 0.031755134918353051 0.00090152943492061632 0 0.031726411211145479 0.0012884456401847752 0 0.032661008247030394 0.0010284507250056813 0 0.031755134918353051 0.00090152943492061632 0 0.032661008247030394 0.0010284507250056813 0 0.032414697615916421 0.00028199574677848773 0 0.033387271465798347 0.00026284003797128906 0 0.033383165470414616 -0.0005942193224905192 0 0.034446609792789608 0.00033487730863992468 0 0.032414697615916421 0.00028199574677848773 0 0.033387271465798347 0.00026284003797128906 0 0.033383165470414616 -0.0005942193224905192 0 0.034999989813643127 -2.0948522530236615e-09 0 0.034998568703571757 -2.3105587238629979e-07 0 0.034999999931942215 -5.4943161021800321e-10 0 0.033391302374232781 -0.00035629666488761326 0 0.034154550755261422 -0.0002713225941340041 0 0.034994488807373464 -6.5418041964799697e-08 0 0.034999984357531211 7.1650932046516885e-10 0 0.034999989813643127 -2.0948522530236615e-09 0 0.034994488807373464 -6.5418041964799697e-08 0 0.034999989813643127 -2.0948522530236615e-09 0 0.034998568703571757 -2.3105587238629979e-07 0 0.03179769238580045 -0.0007178118068052043 0 0.032414697615916421 0.00028199574677848773 0 0.033383165470414616 -0.0005942193224905192 0 0.034997868208306956 -1.6968441074565595e-06 0 0.034844180863175145 0.00013826058893365515 0 0.035000337004002874 6.0676481328955684e-07 0 0.034997868208306956 -1.6968441074565595e-06 0 0.034844180863175145 0.00013826058893365515 0 0.034446609792789608 0.00033487730863992468 0 0.033383165470414616 -0.0005942193224905192 0 0.034997868208306956 -1.6968441074565595e-06 0 0.034446609792789608 0.00033487730863992468 0 0.034154550755261422 -0.0002713225941340041 0 0.034999687417409123 -1.2067999541406965e-07 0 0.033387271465798347 0.00026284003797128906 0 0.034446609792789608 0.00033487730863992468 0 0.033628796488256708 0.00082345349398575576 0 0.034844180863175145 0.00013826058893365515 0 0.034446609792789608 0.00033487730863992468 0 0.034934537688843643 0.00032398024897855693 0 0.034446609792789608 0.00033487730863992468 0 0.03477109498537171 0.00080537325004762102 0 0.034156204934478553 0.0010108873775939271 0 0.034446609792789608 0.00033487730863992468 0 0.03477109498537171 0.00080537325004762102 0 0.034934537688843643 0.00032398024897855693 0 0.034446609792789608 0.00033487730863992468 0 0.034156204934478553 0.0010108873775939271 0 0.033628796488256708 0.00082345349398575576 0 0.033413360520841769 0.0014203930989988985 0 0.034156204934478553 0.0010108873775939271 0 0.033628796488256708 0.00082345349398575576 0 0.033413360520841769 0.0014203930989988985 0 0.034156204934478553 0.0010108873775939271 0 0.034018196452741623 0.0015878309253333238 0 0.034156204934478553 0.0010108873775939271 0 0.034018196452741623 0.0015878309253333238 0 0.034459377985235254 0.0012815795110473539 0 0.034018196452741623 0.0015878309253333238 0 0.034459377985235254 0.0012815795110473539 0 0.034316686344803046 0.0016833588632389218 0 0.034018196452741623 0.0015878309253333238 0 0.034210089268758494 0.0019246111333785527 0 0.033461721689379775 0.002188760757495549 0 0.034018196452741623 0.0015878309253333238 0 0.034316686344803046 0.0016833588632389218 0 0.034210089268758494 0.0019246111333785527 0 0.033413360520841769 0.0014203930989988985 0 0.034018196452741623 0.0015878309253333238 0 0.033461721689379775 0.002188760757495549 0 0.034987419213941627 0.00081030478301000175 0 0.032877746999327731 0.00112178353503155 0 0.03477109498537171 0.00080537325004762102 0 0.034156204934478553 0.0010108873775939271 0 0.034459377985235254 0.0012815795110473539 0 0.03477109498537171 0.00080537325004762102 0 0.034770708015641368 0.00072513252573400914 0 0.034754395192815001 0.00074673642766557745 0 0.03477109498537171 0.00080537325004762102 0 0.034459377985235254 0.0012815795110473539 0 0.034653921723787708 0.002024343274796813 0 0.034459377985235254 0.0012815795110473539 0 0.034316686344803046 0.0016833588632389218 0 0.034653921723787708 0.002024343274796813 0 0.034316686344803046 0.0016833588632389218 0 0.034653921723787708 0.002024343274796813 0 0.034210089268758494 0.0019246111333785527 0 0.034751355110415327 0.00072283229582303422 0 0.034770708015641368 0.00072513252573400914 0 0.034744454797215843 0.00070232732974380809 0 0.032877746999327731 0.00112178353503155 0 0.031175467735593227 -0.00023444321110880324 0 0.034751355110415327 0.00072283229582303422 0 0.034732458265258101 0.00071734242255251809 0 0.034754395192815001 0.00074673642766557745 0 0.034751355110415327 0.00072283229582303422 0 0.034770708015641368 0.00072513252573400914 0 0.034754395192815001 0.00074673642766557745 0 0.034751355110415327 0.00072283229582303422 0 0.034744454797215843 0.00070232732974380809 0 0.034732458265258101 0.00071734242255251809 0 0.034653921723787708 0.002024343274796813 0 0.034161988109153732 0.0023520426244614616 0 0.034210089268758494 0.0019246111333785527 0 0.032877746999327731 0.00112178353503155 0 0.028364920912183681 -0.0010384306416132557 0 0.031175467735593227 -0.00023444321110880324 0 0.028364920912183681 -0.0010384306416132557 0 0.034653921723787708 0.002024343274796813 0 0.034366356373302522 0.0029343375418486623 0 0.034161988109153732 0.0023520426244614616 0 0.030755382080582074 -9.7520393213212277e-05 0 0.030762785489335084 -8.2018682934355267e-05 0 0.030727734996543261 -7.2940844126144448e-05 0 0.031175467735593227 -0.00023444321110880324 0 0.03393582103470022 -0.0004289181193600896 0 0.031175467735593227 -0.00023444321110880324 0 0.026370267289274718 -0.0036738312036262914 0 0.025398362484032988 -0.0034384810471630015 0 0.025049094567830242 -0.0025524123035128208 0 0.027007269909086151 -0.0028694155998059303 0 0.026333082119509861 -0.0038895806697482505 0 0.025398362484032988 -0.0034384810471630015 0 0.027007269909086151 -0.0028694155998059303 0 0.016141357757548991 -0.0083528623602624787 0 0.017537202069240726 -0.0071094304906468963 0 0.018548887913059343 -0.0087238166977479086 0 0.019927194527102073 -0.005564255459224423 0 0.026370267289274718 -0.0036738312036262914 0 0.034366356373302522 0.0029343375418486623 0 0.033458988795215944 0.0034709288111450941 0 0.034161988109153732 0.0023520426244614616 0 0.028364920912183681 -0.0010384306416132557 0 0.029322313659280761 -0.00011898733344839921 0 0.02545632750941346 -0.0036362821247223004 0 0.023780890064239946 -0.0028178916477852728 0 0.025008289046591147 -0.0024734687448294342 0 0.028364920912183681 -0.0010384306416132557 0 0.019927194527102073 -0.005564255459224423 0 0.033458988795215944 0.0034709288111450941 0 0.034161988109153732 0.0023520426244614616 0 0.033461721689379775 0.002188760757495549 0 0.034161988109153732 0.0023520426244614616 0 0.034210089268758494 0.0019246111333785527 0 0.033461721689379775 0.002188760757495549 0 0.033461721689379775 0.002188760757495549 0 0.032445534060022208 0.0019992004570049209 0 0.03253273941705459 0.0030191332896397556 0 0.033458988795215944 0.0034709288111450941 0 0.033461721689379775 0.002188760757495549 0 0.03253273941705459 0.0030191332896397556 0 0.031306553577496031 0.0020837279362485345 0 0.032445534060022208 0.0019992004570049209 0 0.031510573143103744 0.0028332579665976245 0 0.032445534060022208 0.0019992004570049209 0 0.031510573143103744 0.0028332579665976245 0 0.03253273941705459 0.0030191332896397556 0 0.03026379209332555 0.0046315144175341268 0 0.031501020342045584 0.0035800164444347617 0 0.03244418389465669 0.0040912587592336989 0 0.030668628722666715 0.0033975204360287147 0 0.031510573143103744 0.0028332579665976245 0 0.031501020342045584 0.0035800164444347617 0 0.031510573143103744 0.0028332579665976245 0 0.031501020342045584 0.0035800164444347617 0 0.03253273941705459 0.0030191332896397556 0 0.031501020342045584 0.0035800164444347617 0 0.03253273941705459 0.0030191332896397556 0 0.03244418389465669 0.0040912587592336989 0 0.019927194527102073 -0.005564255459224423 0 0.020288562048575789 -0.003710594938354763 0 0.023780890064239946 -0.0028178916477852728 0 0.025008289046591147 -0.0024734687448294342 0 0.022103757421049336 -0.0019935292474872637 0 0.033458988795215944 0.0034709288111450941 0 0.03253273941705459 0.0030191332896397556 0 0.03244418389465669 0.0040912587592336989 0 0.029322313659280761 -0.00011898733344839921 0 0.020288562048575789 -0.003710594938354763 0 0.013291992578724527 -0.0078834957811875217 0 0.014026977943273988 -0.0064316433855145906 0 0.015456003673240034 -0.0068599630904008372 0 0.013291992578724527 -0.0078834957811875217 0 0.014026977943273988 -0.0064316433855145906 0 0.012981139809385932 -0.0063118547197488096 0 0.020613277782437416 -0.0013005142429384495 0 0.020288562048575789 -0.003710594938354763 0 0.008768638701193902 -0.0073462817597142981 0 0.020288562048575789 -0.003710594938354763 0 0.010874779935961965 -0.0065530436070875527 0 0.013291992578724527 -0.0078834957811875217 0 0.012067921155764619 -0.0064330022766921711 0 0.013291992578724527 -0.0078834957811875217 0 0.012981139809385932 -0.0063118547197488096 0 0.012067921155764619 -0.0064330022766921711 0 0.0111453790018777 -0.0058165391617218216 0 0.012067921155764619 -0.0064330022766921711 0 0.012033758834915269 -0.0053819920285193027 0 0.012981139809385932 -0.0063118547197488096 0 0.012033758834915269 -0.0053819920285193027 0 0.013488294340817903 -0.0054534588936410097 0 0.012981139809385932 -0.0063118547197488096 0 0.012067921155764619 -0.0064330022766921711 0 0.012033758834915269 -0.0053819920285193027 0 0.01275482817161692 -0.0043461973910994562 0 0.012033758834915269 -0.0053819920285193027 0 0.013488294340817903 -0.0054534588936410097 0 0.011720952150036277 -0.0045873245844634727 0 0.010999202868810558 -0.0050386323197548124 0 0.012033758834915269 -0.0053819920285193027 0 0.011720952150036277 -0.0045873245844634727 0 0.01275482817161692 -0.0043461973910994562 0 0.012033758834915269 -0.0053819920285193027 0 0.014026977943273988 -0.0064316433855145906 0 0.013488294340817903 -0.0054534588936410097 0 0.014906872932987043 -0.0053976725608677698 0 0.014026977943273988 -0.0064316433855145906 0 0.012981139809385932 -0.0063118547197488096 0 0.013488294340817903 -0.0054534588936410097 0 0.014122935921510279 -0.0045331095974284648 0 0.01275482817161692 -0.0043461973910994562 0 0.013488294340817903 -0.0054534588936410097 0 0.014122935921510279 -0.0045331095974284648 0 0.013488294340817903 -0.0054534588936410097 0 0.014906872932987043 -0.0053976725608677698 0 0.01525106608280017 -0.0039597464102047461 0 0.014906872932987043 -0.0053976725608677698 0 0.016819047793906281 -0.0053004686682801647 0 0.014906872932987043 -0.0053976725608677698 0 0.016819047793906281 -0.0053004686682801647 0 0.015539667522075609 -0.0068797942924696508 0 0.014026977943273988 -0.0064316433855145906 0 0.014906872932987043 -0.0053976725608677698 0 0.015456003673240034 -0.0068599630904008372 0 0.014992439247792635 -0.0055349920944418492 0 0.015722895721481455 -0.0069635337833404585 0 0.018620560659586765 -0.0046455354680964896 0 0.016819047793906281 -0.0053004686682801647 0 0.018666726454630009 -0.0060946149564497787 0 0.016819047793906281 -0.0053004686682801647 0 0.017537202069240726 -0.0071094304906468963 0 0.018666726454630009 -0.0060946149564497787 0 0.016819047793906281 -0.0053004686682801647 0 0.017537202069240726 -0.0071094304906468963 0 0.015539667522075609 -0.0068797942924696508 0 0.016041613832004226 -0.0083466919201487765 0 0.013291992578724527 -0.0078834957811875217 0 0.015456003673240034 -0.0068599630904008372 0 0.016141357757548991 -0.0083528623602624787 0 0.017537202069240726 -0.0071094304906468963 0 0.015539667522075609 -0.0068797942924696508 0 0.019927194527102073 -0.005564255459224423 0 0.015722895721481455 -0.0069635337833404585 0 0.022633068308312795 -0.00576403368265306 0 0.021307854884881551 -0.0044720564494316363 0 0.026475469951411899 -0.0033377911926959487 0 0.026341551028056628 -0.0033858379754347187 0 0.026446371106269222 -0.0032395363069975293 0 0.026446371106269222 -0.0032395363069975293 0 0.026588818467057906 -0.0033253709720848092 0 0.026577778592665923 -0.0033274454994466386 0 0.021307854884881551 -0.0044720564494316363 0 0.024001116549249395 -0.0042182564609533546 0 0.026475469951411899 -0.0033377911926959487 0 0.026446371106269222 -0.0032395363069975293 0 0.026577778592665923 -0.0033274454994466386 0 0.026548256446126635 -0.0033960944629011156 0 0.026490891965265134 -0.0034389393120418921 0 0.026660077088838458 -0.0034920629885551654 0 0.026475469951411899 -0.0033377911926959487 0 0.026548256446126635 -0.0033960944629011156 0 0.026577778592665923 -0.0033274454994466386 0 0.026475469951411899 -0.0033377911926959487 0 0.026548256446126635 -0.0033960944629011156 0 0.026490891965265134 -0.0034389393120418921 0 0.026475469951411899 -0.0033377911926959487 0 0.026490891965265134 -0.0034389393120418921 0 0.026341551028056628 -0.0033858379754347187 0 0.017537202069240726 -0.0071094304906468963 0 0.019486195847203288 -0.0072890723877175193 0 0.018666726454630009 -0.0060946149564497787 0 0.019486195847203288 -0.0072890723877175193 0 0.018666726454630009 -0.0060946149564497787 0 0.020445003831423298 -0.0058396755812627097 0 0.017537202069240726 -0.0071094304906468963 0 0.019486195847203288 -0.0072890723877175193 0 0.018548887913059343 -0.0087238166977479086 0 0.018620560659586765 -0.0046455354680964896 0 0.018666726454630009 -0.0060946149564497787 0 0.020445003831423298 -0.0058396755812627097 0 0.017183919398934596 -0.0047279804881569477 0 0.021307854884881551 -0.0044720564494316363 0 0.020006229599500984 -0.0042247576064045767 0 0.020330811590644465 -0.0037209866969331387 0 0.020974099424467148 -0.0044707910801925358 0 0.01633614503629852 -0.0048638245931304598 0 0.017540523771692219 -0.0056525849442808449 0 0.017964491410411173 -0.005001670713354155 0 0.021307854884881551 -0.0044720564494316363 0 0.017077158425765532 -0.0047867089320693303 0 0.015431543065668957 -0.0044491707196758689 0 0.015813900566278166 -0.0044484450249560933 0 0.015802418473991803 -0.0047903447753200939 0 0.015868836738606344 -0.0046926331234517157 0 0.016717035277811099 -0.0039965475221008431 0 0.015813900566278166 -0.0044484450249560933 0 0.015802418473991803 -0.0047903447753200939 0 0.015897320650089846 -0.0044445347799045055 0 0.016354709933205709 -0.0040564699253781457 0 0.016717035277811099 -0.0039965475221008431 0 0.015802418473991803 -0.0047903447753200939 0 0.016831584829520244 -0.0043581465602441812 0 0.015815078034413631 -0.0048900535298438312 0 0.015802418473991803 -0.0047903447753200939 0 0.016711366856808341 -0.0032353683298815355 0 0.016831584829520244 -0.0043581465602441812 0 0.015431543065668957 -0.0044491707196758689 0 0.015802418473991803 -0.0047903447753200939 0 0.015815078034413631 -0.0048900535298438312 0 0.017077158425765532 -0.0047867089320693303 0 0.018240753395016348 -0.0046817332731432229 0 0.016831584829520244 -0.0043581465602441812 0 0.017807703156048883 -0.0048948781273860653 0 0.015815078034413631 -0.0048900535298438312 0 0.023434426187038247 -0.0032268269347930805 0 0.023469521407472559 -0.0032404003507525525 0 0.023451913432485767 -0.0031461397971950036 0 0.016717035277811099 -0.0039965475221008431 0 0.020669855547148997 -0.0026703897449512678 0 0.016711366856808341 -0.0032353683298815355 0 0.016831584829520244 -0.0043581465602441812 0 0.018460555805583992 -0.0032231876127663734 0 0.016831584829520244 -0.0043581465602441812 0 0.017807703156048883 -0.0048948781273860653 0 0.018460555805583992 -0.0032231876127663734 0 0.020518017977564668 -0.004399241443674767 0 0.020669855547148997 -0.0026703897449512678 0 0.023470480209074895 -0.0033334964091977014 0 0.023434132080806958 -0.0033152936074511367 0 0.023469521407472559 -0.0032404003507525525 0 0.017807703156048883 -0.0048948781273860653 0 0.015815078034413631 -0.0048900535298438312 0 0.017173555572249255 -0.0066256122159284152 0 0.026014811077629683 -0.0028488063649369563 0 0.025193267381004421 -0.0022582120279753242 0 0.023434426187038247 -0.0032268269347930805 0 0.023420585678680442 -0.0033083883114748691 0 0.023469521407472559 -0.0032404003507525525 0 0.020518017977564668 -0.004399241443674767 0 0.023119539784124402 -0.0040683642780697353 0 0.023434132080806958 -0.0033152936074511367 0 0.023420585678680442 -0.0033083883114748691 0 0.023469521407472559 -0.0032404003507525525 0 0.020006229599500984 -0.0042247576064045767 0 0.020802136921821843 -0.0047478014756592926 0 0.020974099424467148 -0.0044707910801925358 0 0.026356252063551827 -0.003485295745459365 0 0.028003828963252899 -0.0024410800402714433 0 0.026588818467057906 -0.0033253709720848092 0 0.026577778592665923 -0.0033274454994466386 0 0.026575020716726509 -0.0033092925169229139 0 0.026588818467057906 -0.0033253709720848092 0 0.026562536348186824 -0.0033198314484567727 0 0.026575020716726509 -0.0033092925169229139 0 0.020802136921821843 -0.0047478014756592926 0 0.020974099424467148 -0.0044707910801925358 0 0.021616976292940678 -0.0052704427579683922 0 0.018240753395016348 -0.0046817332731432229 0 0.023119539784124402 -0.0040683642780697353 0 0.024001116549249395 -0.0042182564609533546 0 0.023119539784124402 -0.0040683642780697353 0 0.026548256446126635 -0.0033960944629011156 0 0.026577778592665923 -0.0033274454994466386 0 0.026660077088838458 -0.0034920629885551654 0 0.026660077088838458 -0.0034920629885551654 0 0.026840293405993868 -0.0036423768825087095 0 0.026515888164326637 -0.0035966104710613437 0 0.031435609109374048 -0.0007115302119353287 0 0.031323949203003229 -0.0013762771930976375 0 0.026577778592665923 -0.0033274454994466386 0 0.026660077088838458 -0.0034920629885551654 0 0.026875065323604754 -0.0035356609821997329 0 0.026660077088838458 -0.0034920629885551654 0 0.026840293405993868 -0.0036423768825087095 0 0.026875065323604754 -0.0035356609821997329 0 0.026047761263868173 -0.0028137261132593462 0 0.026014811077629683 -0.0028488063649369563 0 0.026014811077629683 -0.0028488063649369563 0 0.027207605474969566 -0.0023972368368615233 0 0.026865877120737396 -0.0017141212145279357 0 0.026836670998926438 -0.0016962056006399094 0 0.026828435466987297 -0.001741871889031397 0 0.026014811077629683 -0.0028488063649369563 0 0.024885666904773528 -0.0035223902993097808 0 0.027725672772122772 -0.0024349347870997709 0 0.027714590112863483 -0.002547497643719825 0 0.02762134014994921 -0.002414221656473065 0 0.026291749097891087 -0.0030075107018924662 0 0.025778401444490302 -0.0026699930933221155 0 0.026248002124162118 -0.0032277354091203489 0 0.024885666904773528 -0.0035223902993097808 0 0.027207605474969566 -0.0023972368368615233 0 0.027725672772122772 -0.0024349347870997709 0 0.027755791392540825 -0.0025794784098281528 0 0.027832025482676832 -0.002408506189760874 0 0.023119539784124402 -0.0040683642780697353 0 0.028003828963252899 -0.0024410800402714433 0 0.027725672772122772 -0.0024349347870997709 0 0.027714590112863483 -0.002547497643719825 0 0.027755791392540825 -0.0025794784098281528 0 0.024885666904773528 -0.0035223902993097808 0 0.023119539784124402 -0.0040683642780697353 0 0.027725672772122772 -0.0024349347870997709 0 0.027832025482676832 -0.002408506189760874 0 0.027689411253864944 -0.0022181116000720455 0 0.030021903354737586 -0.0014628148663505384 0 0.030201567544990704 -0.00097610590949771218 0 0.03075294684460219 -0.001584269739018629 0 0.028003828963252899 -0.0024410800402714433 0 0.032086881062676029 -0.00076995100281373877 0 0.031435609109374048 -0.0007115302119353287 0 0.028003828963252899 -0.0024410800402714433 0 0.029645332037436082 -0.0015445577009559526 0 0.029633815505815054 -0.0016163236270804115 0 0.029729223605649557 -0.0016325724289916385 0 0.027725672772122772 -0.0024349347870997709 0 0.02762134014994921 -0.002414221656473065 0 0.027689411253864944 -0.0022181116000720455 0 0.027207605474969566 -0.0023972368368615233 0 0.032086881062676029 -0.00076995100281373877 0 0.034946084433700085 0.00036024824224533726 0 0.035011110793669593 0.00040815315739776558 0 0.035055361662957849 0.00046625788006344527 0 0.032086881062676029 -0.00076995100281373877 0 0.035361754340587317 0.00031501367469816057 0 0.031435609109374048 -0.0007115302119353287 0 0.032086881062676029 -0.00076995100281373877 0 0.035007301235816711 0.0003482878594593653 0 0.034946084433700085 0.00036024824224533726 0 0.034977139492742171 0.00036998371746735901 0 0.034946084433700085 0.00036024824224533726 0 0.034977139492742171 0.00036998371746735901 0 0.035011110793669593 0.00040815315739776558 0 0.035007301235816711 0.0003482878594593653 0 0.034977139492742171 0.00036998371746735901 0 0.035011110793669593 0.00040815315739776558 0 0.034945114373142724 0.00074706231401061064 0 0.034912368076458207 0.00072503139574784867 0 0.03497391269178609 0.00066323368507198964 0 0.035007301235816711 0.0003482878594593653 0 0.035011110793669593 0.00040815315739776558 0 0.035050734634002198 0.00045211485313107478 0 0.031435609109374048 -0.0007115302119353287 0 0.035372645665700579 0.00095365953338869696 0 0.034945114373142724 0.00074706231401061064 0 0.034912368076458207 0.00072503139574784867 0 0.034844425147058919 0.00077401510507335363 0 0.034912368076458207 0.00072503139574784867 0 0.034912451026565303 0.00066683846199382156 0 0.03497391269178609 0.00066323368507198964 0 0.034912368076458207 0.00072503139574784867 0 0.034823190424500966 0.00072076032408172259 0 0.034844425147058919 0.00077401510507335363 0 0.034912368076458207 0.00072503139574784867 0 0.034823190424500966 0.00072076032408172259 0 0.034912451026565303 0.00066683846199382156 0 0.034823190424500966 0.00072076032408172259 0 0.034844425147058919 0.00077401510507335363 0 0.034772404411734438 0.00074793230883580804 0 0.026490891965265134 -0.0034389393120418921 0 0.026515888164326637 -0.0035966104710613437 0 0.026234268772052226 -0.0035541835086847027 0 0.026490891965265134 -0.0034389393120418921 0 0.026660077088838458 -0.0034920629885551654 0 0.026515888164326637 -0.0035966104710613437 0 0.031323949203003229 -0.0013762771930976375 0 0.026370267289274718 -0.0036738312036262914 0 0.026490891965265134 -0.0034389393120418921 0 0.026341551028056628 -0.0033858379754347187 0 0.026234268772052226 -0.0035541835086847027 0 0.034844425147058919 0.00077401510507335363 0 0.034692163974512323 0.00078457967753414715 0 0.034772404411734438 0.00074793230883580804 0 0.022633068308312795 -0.00576403368265306 0 0.026370267289274718 -0.0036738312036262914 0 0.03466612012420589 0.00072753618337264366 0 0.034692163974512323 0.00078457967753414715 0 0.034732458265258101 0.00071734242255251809 0 0.034692163974512323 0.00078457967753414715 0 0.034772404411734438 0.00074793230883580804 0 0.034732458265258101 0.00071734242255251809 0 0.034823190424500966 0.00072076032408172259 0 0.034772404411734438 0.00074793230883580804 0 0.034732458265258101 0.00071734242255251809 0 0.034823190424500966 0.00072076032408172259 0 0.034784657860844295 0.00071385366066160872 0 0.034732458265258101 0.00071734242255251809 0 0.034784657860844295 0.00071385366066160872 0 0.034732458265258101 0.00071734242255251809 0 0.034754395192815001 0.00074673642766557745 0 0.03477109498537171 0.00080537325004762102 0 0.034754395192815001 0.00074673642766557745 0 0.034878851288348833 0.00059834477902281067 0 0.034784657860844295 0.00071385366066160872 0 0.034754395192815001 0.00074673642766557745 0 0.034852264800385786 0.00066696238892399436 0 0.034754395192815001 0.00074673642766557745 0 0.034852264800385786 0.00066696238892399436 0 0.034878851288348833 0.00059834477902281067 0 0.034823190424500966 0.00072076032408172259 0 0.034784657860844295 0.00071385366066160872 0 0.034852264800385786 0.00066696238892399436 0 0.034912451026565303 0.00066683846199382156 0 0.034852264800385786 0.00066696238892399436 0 0.035020362885672542 0.00045632655643431313 0 0.034823190424500966 0.00072076032408172259 0 0.034912451026565303 0.00066683846199382156 0 0.034852264800385786 0.00066696238892399436 0 0.035020362885672542 0.00045632655643431313 0 0.034878851288348833 0.00059834477902281067 0 0.034934537688843643 0.00032398024897855693 0 0.034852264800385786 0.00066696238892399436 0 0.035020362885672542 0.00045632655643431313 0 0.034878851288348833 0.00059834477902281067 0 0.03477109498537171 0.00080537325004762102 0 0.034878851288348833 0.00059834477902281067 0 0.034934537688843643 0.00032398024897855693 0 0.035020362885672542 0.00045632655643431313 0 0.034934537688843643 0.00032398024897855693 0 0.035012854175205312 0.00020809920446246446 0 0.035012854175205312 0.00020809920446246446 0 0.035000337004002874 6.0676481328955684e-07 0 0.03500016388456284 -7.6841963194686637e-08 0 0.034934537688843643 0.00032398024897855693 0 0.035012854175205312 0.00020809920446246446 0 0.035000337004002874 6.0676481328955684e-07 0 0.034844180863175145 0.00013826058893365515 0 0.034934537688843643 0.00032398024897855693 0 0.035000337004002874 6.0676481328955684e-07 0 0.035000214957945044 -2.3287129796612302e-09 0 0.03494233324023132 -5.4180900358950975e-05 0 0.034999746135345136 -9.0588020746418493e-05 0 0.035000214957945044 -2.3287129796612302e-09 0 0.03494233324023132 -5.4180900358950975e-05 0 0.034999678140585133 9.0568321589729624e-09 0 0.035012854175205312 0.00020809920446246446 0 0.03500016388456284 -7.6841963194686637e-08 0 0.035132390842343389 0.00031456262118941989 0 0.035000063070480286 1.2158775978211747e-07 0 0.035010463921915556 5.9123171597454389e-05 0 0.035020362885672542 0.00045632655643431313 0 0.035012854175205312 0.00020809920446246446 0 0.035132390842343389 0.00031456262118941989 0 0.03494233324023132 -5.4180900358950975e-05 0 0.034999746135345136 -9.0588020746418493e-05 0 0.034862688607407571 -0.00017304539174726623 0 0.034999746135345136 -9.0588020746418493e-05 0 0.034954630687824076 -0.00025059459757983558 0 0.034862688607407571 -0.00017304539174726623 0 0.035010463921915556 5.9123171597454389e-05 0 0.035361754340587317 0.00031501367469816057 0 0.035020362885672542 0.00045632655643431313 0 0.035132390842343389 0.00031456262118941989 0 0.035055361662957849 0.00046625788006344527 0 0.035011110793669593 0.00040815315739776558 0 0.035050734634002198 0.00045211485313107478 0 0.035055361662957849 0.00046625788006344527 0 0.034912451026565303 0.00066683846199382156 0 0.035020362885672542 0.00045632655643431313 0 0.03497391269178609 0.00066323368507198964 0 0.035020362885672542 0.00045632655643431313 0 0.035050734634002198 0.00045211485313107478 0 0.035055361662957849 0.00046625788006344527 0 0.034915626558834241 0.00028403907294051673 0 0.035372645665700579 0.00095365953338869696 0 0.034954630687824076 -0.00025059459757983558 0 0.034882087539974023 -0.00027440705331927364 0 0.034862688607407571 -0.00017304539174726623 0 0.034894950924195763 -0.00041274584106338116 0 0.034954630687824076 -0.00025059459757983558 0 0.034882087539974023 -0.00027440705331927364 0 0.034882087539974023 -0.00027440705331927364 0 0.034818504456107131 -0.00030171817747556189 0 0.034862688607407571 -0.00017304539174726623 0 0.034500461960010824 -1.8020568907479733e-05 0 0.034694924106217204 -0.00017422851909618901 0 0.034665045257930197 -0.00018452075147404792 0 0.03105705548034806 -0.00075679613995610216 0 0.030891287254920304 -0.0005345351251265859 0 0.03093022488663482 -0.00092369230589333631 0 0.034906301400001595 -0.00017340775859015083 0 0.034577785411624609 -0.00013755834015034284 0 0.034348725841228632 -4.6245804422179505e-05 0 0.034500461960010824 -1.8020568907479733e-05 0 0.034694924106217204 -0.00017422851909618901 0 0.032926767605544055 -0.00044463512038804754 0 0.033227210991680377 -8.2738133835882474e-05 0 0.034694924106217204 -0.00017422851909618901 0 0.034803859861727522 -7.6687153563012329e-05 0 0.034665045257930197 -0.00018452075147404792 0 0.034694924106217204 -0.00017422851909618901 0 0.034862688607407571 -0.00017304539174726623 0 0.034803859861727522 -7.6687153563012329e-05 0 0.035112861040068832 1.0532661491865917e-05 0 0.033227210991680377 -8.2738133835882474e-05 0 0.034818504456107131 -0.00030171817747556189 0 0.034694924106217204 -0.00017422851909618901 0 0.034862688607407571 -0.00017304539174726623 0 0.03494233324023132 -5.4180900358950975e-05 0 0.034862688607407571 -0.00017304539174726623 0 0.034803859861727522 -7.6687153563012329e-05 0 0.034950874234430523 -6.6597511979833748e-06 0 0.035001543375213148 -6.1977521179161132e-07 0 0.034996607205304439 1.2267585636464805e-06 0 0.03494233324023132 -5.4180900358950975e-05 0 0.034803859861727522 -7.6687153563012329e-05 0 0.034999678140585133 9.0568321589729624e-09 0 0.035112861040068832 1.0532661491865917e-05 0 0.03499971815873295 -2.0137468047426541e-07 0 0.034950874234430523 -6.6597511979833748e-06 0 0.034996607205304439 1.2267585636464805e-06 0 0.034850363429010885 -2.4774956348222436e-05 0 0.034996607205304439 1.2267585636464805e-06 0 0.034553625265266168 -1.8259809527146503e-06 0 0.034850363429010885 -2.4774956348222436e-05 0 0.034950874234430523 -6.6597511979833748e-06 0 0.034850363429010885 -2.4774956348222436e-05 0 0.03488773499468506 -7.9056723237003188e-05 0 0.034547856758182546 2.0383737906801349e-07 0 0.033762407956363906 7.2020324174327036e-05 0 0.034546454416067136 -9.8711236715896152e-07 0 0.03254982120120363 2.2371583243414902e-05 0 0.032495350024672659 9.8492394762227427e-07 0 0.03254982120120363 2.2371583243414902e-05 0 0.032121202954138159 9.9625805893171717e-05 0 0.032495350024672659 9.8492394762227427e-07 0 0.032121202954138159 9.9625805893171717e-05 0 0.032495350024672659 9.8492394762227427e-07 0 0.031430057597138752 -8.1575277653541987e-06 0 0.033762407956363906 7.2020324174327036e-05 0 0.033227210991680377 -8.2738133835882474e-05 0 0.03254982120120363 2.2371583243414902e-05 0 0.032121202954138159 9.9625805893171717e-05 0 0.032333612720802637 9.1574242161213162e-05 0 0.033227210991680377 -8.2738133835882474e-05 0 0.029945017026668658 -0.0010131313054074719 0 0.030891287254920304 -0.0005345351251265859 0 0.030627599401875438 -0.00087414922486273223 0 0.03093022488663482 -0.00092369230589333631 0 0.032121202954138159 9.9625805893171717e-05 0 0.032333612720802637 9.1574242161213162e-05 0 0.031898524527214402 -0.00042987304921302064 0 0.032495350024672659 9.8492394762227427e-07 0 0.031430057597138752 -8.1575277653541987e-06 0 0.030444217843172215 -1.0022215337104565e-06 0 0.032121202954138159 9.9625805893171717e-05 0 0.031430057597138752 -8.1575277653541987e-06 0 0.031898524527214402 -0.00042987304921302064 0 0.031430057597138752 -8.1575277653541987e-06 0 0.030444217843172215 -1.0022215337104565e-06 0 0.030740110052839709 -7.2330542306003591e-05 0 0.030937186942366798 -3.0505631797450359e-05 0 0.029826826930136621 -0.00075118942680651047 0 0.030440320116234446 -9.3420516803406978e-07 0 0.029936999311709431 -4.1605438534189226e-05 0 0.028508024374252813 7.7895904131770707e-07 0 0.02797391679889898 -0.0020833544983464769 0 0.027861218282100298 -0.0020350223720593157 0 0.027802360112244913 -0.0015448188300248927 0 0.030441928721851846 -9.5403123389839639e-07 0 0.029826826930136621 -0.00075118942680651047 0 0.031430057597138752 -8.1575277653541987e-06 0 0.031611146579508656 -0.00041112798565459978 0 0.031898524527214402 -0.00042987304921302064 0 0.02797391679889898 -0.0020833544983464769 0 0.027861218282100298 -0.0020350223720593157 0 0.027841266726733489 -0.0020644469711752576 0 0.029826826930136621 -0.00075118942680651047 0 0.029945017026668658 -0.0010131313054074719 0 0.029746497219057949 -0.0012199255275665176 0 0.029945017026668658 -0.0010131313054074719 0 0.029936999311709431 -4.1605438534189226e-05 0 0.028508024374252813 7.7895904131770707e-07 0 0.028041178048678998 7.6018999478114871e-05 0 0.029826826930136621 -0.00075118942680651047 0 0.028028387516897971 -0.00065989685513471931 0 0.02765571604196454 -0.0018493488760522299 0 0.027354386394387333 -0.0015937389493002815 0 0.027802360112244913 -0.0015448188300248927 0 0.027861218282100298 -0.0020350223720593157 0 0.02765571604196454 -0.0018493488760522299 0 0.027802360112244913 -0.0015448188300248927 0 0.027839576944502977 -0.0020661906108747096 0 0.02765571604196454 -0.0018493488760522299 0 0.027422745683753632 -0.002010084381662087 0 0.029945017026668658 -0.0010131313054074719 0 0.028811752860662905 -0.0014784737479197423 0 0.027861218282100298 -0.0020350223720593157 0 0.027839576944502977 -0.0020661906108747096 0 0.02765571604196454 -0.0018493488760522299 0 0.03105705548034806 -0.00075679613995610216 0 0.03093022488663482 -0.00092369230589333631 0 0.031217441740769052 -0.00096876135943788392 0 0.028811752860662905 -0.0014784737479197423 0 0.030410653243294405 -0.0011285286757318088 0 0.027422745683753632 -0.002010084381662087 0 0.027020353712824088 -0.0019510628782514658 0 0.027113317618910705 -0.0017303678747303155 0 0.034348725841228632 -4.6245804422179505e-05 0 0.034500461960010824 -1.8020568907479733e-05 0 0.034204332326282075 0.0003170743608794339 0 0.032086881062676029 -0.00076995100281373877 0 0.034906301400001595 -0.00017340775859015083 0 0.033904245937207089 0.00035423687099857845 0 0.034348725841228632 -4.6245804422179505e-05 0 0.034204332326282075 0.0003170743608794339 0 0.034894950924195763 -0.00041274584106338116 0 0.034882087539974023 -0.00027440705331927364 0 0.034818504456107131 -0.00030171817747556189 0 0.032926767605544055 -0.00044463512038804754 0 0.030410653243294405 -0.0011285286757318088 0 0.032086881062676029 -0.00076995100281373877 0 0.030410653243294405 -0.0011285286757318088 0 0.027113317618910705 -0.0017303678747303155 0 0.027354386394387333 -0.0015937389493002815 0 0.026995407442402163 -0.001547064012835112 0 0.026865877120737396 -0.0017141212145279357 0 0.027020353712824088 -0.0019510628782514658 0 0.027113317618910705 -0.0017303678747303155 0 0.026865877120737396 -0.0017141212145279357 0 0.026828435466987297 -0.001741871889031397 0 0.027020353712824088 -0.0019510628782514658 0 0.027207605474969566 -0.0023972368368615233 0 0.030410653243294405 -0.0011285286757318088 0 0.026865877120737396 -0.0017141212145279357 0 0.026835385306502323 -0.0016955008483631392 0 0.026995407442402163 -0.001547064012835112 0 0.026865877120737396 -0.0017141212145279357 0 0.027113317618910705 -0.0017303678747303155 0 0.026995407442402163 -0.001547064012835112 0 0.02765571604196454 -0.0018493488760522299 0 0.027422745683753632 -0.002010084381662087 0 0.027354386394387333 -0.0015937389493002815 0 0.027422745683753632 -0.002010084381662087 0 0.027113317618910705 -0.0017303678747303155 0 0.027354386394387333 -0.0015937389493002815 0 0.027354386394387333 -0.0015937389493002815 0 0.027451712898771193 -0.0012878265951799144 0 0.027151747032713364 -0.001304007951823443 0 0.026835385306502323 -0.0016955008483631392 0 0.026995407442402163 -0.001547064012835112 0 0.026884283447985224 -0.001358706171120863 0 0.027354386394387333 -0.0015937389493002815 0 0.026995407442402163 -0.001547064012835112 0 0.027151747032713364 -0.001304007951823443 0 0.026995407442402163 -0.001547064012835112 0 0.027151747032713364 -0.001304007951823443 0 0.026884283447985224 -0.001358706171120863 0 0.025193267381004421 -0.0022582120279753242 0 0.023804457592839359 -0.0018943019396057254 0 0.027151747032713364 -0.001304007951823443 0 0.026884283447985224 -0.001358706171120863 0 0.026933065570278237 -0.0010199519287794488 0 0.023804457592839359 -0.0018943019396057254 0 0.02543801960569541 -0.0013622343370580973 0 0.027151747032713364 -0.001304007951823443 0 0.026933065570278237 -0.0010199519287794488 0 0.027289563098255684 -0.0010113064054369826 0 0.023469521407472559 -0.0032404003507525525 0 0.023473188670195273 -0.0031446949667019767 0 0.023451913432485767 -0.0031461397971950036 0 0.023804457592839359 -0.0018943019396057254 0 0.020669855547148997 -0.0026703897449512678 0 0.027451712898771193 -0.0012878265951799144 0 0.027151747032713364 -0.001304007951823443 0 0.027289563098255684 -0.0010113064054369826 0 0.027451712898771193 -0.0012878265951799144 0 0.027289563098255684 -0.0010113064054369826 0 0.027635155091341571 -0.0010052113925599275 0 0.025720984858983355 -0.00089549487057747289 0 0.028028387516897971 -0.00065989685513471931 0 0.027451712898771193 -0.0012878265951799144 0 0.027635155091341571 -0.0010052113925599275 0 0.027802360112244913 -0.0015448188300248927 0 0.02543801960569541 -0.0013622343370580973 0 0.025720984858983355 -0.00089549487057747289 0 0.025720984858983355 -0.00089549487057747289 0 0.026198577293146775 -0.00021351572240709766 0 0.026944222126512776 -0.00014192807162680072 0 0.026573427160818265 -9.8698985041194331e-07 0 0.028041178048678998 7.6018999478114871e-05 0 0.026944222126512776 -0.00014192807162680072 0 0.026320782307758899 -0.00013252501439598157 0 0.026573427160818265 -9.8698985041194331e-07 0 0.028508024374252813 7.7895904131770707e-07 0 0.026573427160818265 -9.8698985041194331e-07 0 0.028041178048678998 7.6018999478114871e-05 0 0.027354386394387333 -0.0015937389493002815 0 0.027451712898771193 -0.0012878265951799144 0 0.027802360112244913 -0.0015448188300248927 0 -0.0019210758590166137 -0.0027816750776810464 0 -0.0021038880306139588 -0.003096675707268111 0 -0.0021707514986984951 -0.0024533352285476466 0 -0.0016991608732336429 -0.001549242709931984 0 -0.0016091266796720001 -0.0015827467276060343 0 -0.0018264362692201044 -0.0018700462541576409 0 0.00054581985434982202 -0.0014211892680773871 0 -0.0015269422260997929 -0.0011847531242773657 0 -0.0016025638459068472 -0.0015726790952274299 0 -0.0016091266796720001 -0.0015827467276060343 0 -0.0016007512549477366 -0.0015614390572635404 0 -0.0016091266796720001 -0.0015827467276060343 0 -0.0015271472124009306 -0.0015657424679638846 0 -0.0016007512549477366 -0.0015614390572635404 0 -0.0016091266796720001 -0.0015827467276060343 0 -0.0015271472124009306 -0.0015657424679638846 0 -0.0015615926112399383 -0.0016427094461053239 0 -0.0015271472124009306 -0.0015657424679638846 0 -0.0015615926112399383 -0.0016427094461053239 0 -0.0014385308991302912 -0.0017057101978473336 0 -0.0015615926112399383 -0.0016427094461053239 0 -0.001621220397342944 -0.0017369833196140599 0 -0.0014385308991302912 -0.0017057101978473336 0 -0.0016091266796720001 -0.0015827467276060343 0 -0.0015615926112399383 -0.0016427094461053239 0 -0.001621220397342944 -0.0017369833196140599 0 -0.0016091266796720001 -0.0015827467276060343 0 -0.001621220397342944 -0.0017369833196140599 0 -0.0018264362692201044 -0.0018700462541576409 0 -0.001621220397342944 -0.0017369833196140599 0 -0.0014385308991302912 -0.0017057101978473336 0 -0.0015344954417702786 -0.0018142002907722081 0 -0.001621220397342944 -0.0017369833196140599 0 -0.0015344954417702786 -0.0018142002907722081 0 -0.0016474469144260361 -0.0019137153110579718 0 -0.001621220397342944 -0.0017369833196140599 0 -0.0018264362692201044 -0.0018700462541576409 0 -0.0016474469144260361 -0.0019137153110579718 0 -0.0021707514986984951 -0.0024533352285476466 0 -0.0018607897659136032 -0.0025505813758011386 0 -0.0019494088840123778 -0.0023635347413971486 0 -0.0019210758590166137 -0.0027816750776810464 0 -0.0021707514986984951 -0.0024533352285476466 0 -0.0018607897659136032 -0.0025505813758011386 0 0.00054581985434982202 -0.0014211892680773871 0 -0.0023150023977772404 -0.0023611017208732209 0 -0.0011421778156217688 -0.0022939316657799411 0 -0.0022753842228686321 -0.0023082275732465123 0 -0.0018607897659136032 -0.0025505813758011386 0 -0.0017096485129596611 -0.0026059063412217 0 -0.0019494088840123778 -0.0023635347413971486 0 -0.0017625728944683752 -0.0023909609713000709 0 -0.0011421778156217688 -0.0022939316657799411 0 -0.0019210758590166137 -0.0027816750776810464 0 -0.0018607897659136032 -0.0025505813758011386 0 -0.0015311201284344635 -0.0026452452929815124 0 -0.0024918325406221853 -0.0022310817765022217 0 -0.0025726600935639336 -0.0022095754531923002 0 -0.0025586253008714338 -0.0022572531999198063 0 -0.0024918325406221853 -0.0022310817765022217 0 -0.0025228893076454672 -0.0022787602126522377 0 -0.0025586253008714338 -0.0022572531999198063 0 -0.0011421778156217688 -0.0022939316657799411 0 0.0026043859823885809 -0.0035774748903326862 0 -0.0015311201284344635 -0.0026452452929815124 0 -0.0012003068709705148 -0.0031644471282436157 0 -0.001633240435520043 -0.0030219881794708485 0 -0.0011421778156217688 -0.0022939316657799411 0 -0.0002160505436566726 -0.0037753502104473586 0 0.0011235078076504723 -0.0026775550043585056 0 0.0016428625495175789 -0.0037502628399293946 0 0.0018894357026034451 -0.0033853016090804882 0 0.0011235078076504723 -0.0026775550043585056 0 0.0018894357026034451 -0.0033853016090804882 0 0.0025575443665630439 -0.003352380689302601 0 -0.0012003068709705148 -0.0031644471282436157 0 -0.001633240435520043 -0.0030219881794708485 0 -0.001342168132870058 -0.0033863056269812339 0 0.0026043859823885809 -0.0035774748903326862 0 0.002152516696163541 -0.0036956385189000941 0 0.001707646114206347 -0.0037290602962727171 0 0.0020786423491096456 -0.0037413165888250106 0 0.0018894357026034451 -0.0033853016090804882 0 -0.0021038880306139588 -0.003096675707268111 0 -0.001633240435520043 -0.0030219881794708485 0 -0.001342168132870058 -0.0033863056269812339 0 -0.0019210758590166137 -0.0027816750776810464 0 -0.0021038880306139588 -0.003096675707268111 0 -0.001633240435520043 -0.0030219881794708485 0 -0.0019210758590166137 -0.0027816750776810464 0 -0.0015311201284344635 -0.0026452452929815124 0 -0.001633240435520043 -0.0030219881794708485 0 0.00054581985434982202 -0.0014211892680773871 0 0.0056496389499561001 -0.0037034417661469857 0 0.014176055527787794 -0.0029696930770665314 0 0.0068559303173850936 -0.0014412468493664671 0 0.017098445986085543 -0.0015753763589832813 0 0.014126071357116722 -0.0028901840445326918 0 0.01365798926877658 -0.00013076216867806168 0 0.0086333773651065884 -0.0041302627433551205 0 0.0096299147880800767 -0.0026434946392658357 0 0.004380572687106463 -0.0023326052049901505 0 0.0041384271215568671 -0.00081821850148267581 0 0.0096299147880800767 -0.0026434946392658357 0 0.004380572687106463 -0.0023326052049901505 0 0.0026043859823885809 -0.0035774748903326862 0 0.0071846933936376683 -0.0035573727628527415 0 0.001707646114206347 -0.0037290602962727171 0 0.0020786423491096456 -0.0037413165888250106 0 0.0020204290385955007 -0.0042520926592263947 0 0.0050455836108438332 -0.0031949863279217652 0 0.0047083697508496581 -0.0037010550698607396 0 0.0054108926316062027 -0.0039328880783283887 0 0.0026043859823885809 -0.0035774748903326862 0 0.0056496389499561001 -0.0037034417661469857 0 0.0099476820377972664 -0.0033930908539127483 0 0.010355678892980572 -0.0027724108629242506 0 0.011271132230222308 -0.003074817567325105 0 0.014176055527787794 -0.0029696930770665314 0 0.0056496389499561001 -0.0037034417661469857 0 0.0056496389499561001 -0.0037034417661469857 0 0.0071846933936376683 -0.0035573727628527415 0 0.014176055527787794 -0.0029696930770665314 0 0.014485388113300222 -0.0034156644730339745 0 0.019839580049247438 -0.0030932773778995556 0 0.019692431765326143 -0.002629771965469767 0 0.018574253891799525 -0.0028863198730981949 0 0.02502554865935153 -0.0031963994874670307 0 0.019401960608528772 -0.0029281846917455705 0 0.0099476820377972664 -0.0033930908539127483 0 0.011271132230222308 -0.003074817567325105 0 0.011822644890729976 -0.0041839768370216064 0 0.02029955128323328 -0.0035999848000392554 0 0.019839580049247438 -0.0030932773778995556 0 0.018574253891799525 -0.0028863198730981949 0 0.02315305330293883 -0.0023080890916909826 0 0.02502554865935153 -0.0031963994874670307 0 0.019839580049247438 -0.0030932773778995556 0 0.019699842386916189 -0.0026241624256908517 0 0.02085504516222373 -0.00280857871546761 0 0.017098445986085543 -0.0015753763589832813 0 0.016011344459300067 -0.003206147394964126 0 0.014126071357116722 -0.0028901840445326918 0 0.024071632903946639 -0.0019333841863676321 0 0.01883307329523588 -0.0015155075484224107 0 0.02029955128323328 -0.0035999848000392554 0 0.019839580049247438 -0.0030932773778995556 0 0.02085504516222373 -0.00280857871546761 0 0.014176055527787794 -0.0029696930770665314 0 0.024071632903946639 -0.0019333841863676321 0 0.033070997910002418 -0.0023071025529189165 0 0.033826121353945325 -0.0024314705480465615 0 0.033428577334612415 -0.0018817983642964668 0 0.02502554865935153 -0.0031963994874670307 0 0.024071632903946639 -0.0019333841863676321 0 0.024071632903946639 -0.0019333841863676321 0 0.029629472831733041 -0.0010241712601590668 0 0.024648520747970845 -0.00096707079899685663 0 0.024992498473480281 -0.00028910586180642473 0 0.024626883604282133 -0.00058753309476949509 0 0.024415128698161457 -0.00092693720995235679 0 0.024626883604282133 -0.00058753309476949509 0 0.024379747149943884 -0.00040794876749959848 0 0.01883307329523588 -0.0015155075484224107 0 0.029629472831733041 -0.0010241712601590668 0 0.024119810938109949 -0.0017867634545009853 0 0.024568117457026112 -0.0018617481787569312 0 0.024508278525289133 -0.0012437618586602589 0 0.024648520747970845 -0.00096707079899685663 0 0.024415128698161457 -0.00092693720995235679 0 0.024626883604282133 -0.00058753309476949509 0 0.012127097465605141 -0.0011384844054360924 0 0.012142083753671016 -0.0010842258441304095 0 0.012281921290553718 -0.0011631971088444872 0 0.018464876863550795 -0.00096207830210397487 0 0.01883307329523588 -0.0015155075484224107 0 0.018464876863550795 -0.00096207830210397487 0 0.017812087550007825 -0.0014143983723386702 0 0.012117559328144463 -0.0011325761000743604 0 0.012142083753671016 -0.0010842258441304095 0 0.012080056328970632 -0.00098223228807162188 0 0.012142083753671016 -0.0010842258441304095 0 0.012281921290553718 -0.0011631971088444872 0 0.012167032365889677 -0.00082023425493452844 0 0.01883307329523588 -0.0015155075484224107 0 0.0068559303173850936 -0.0014412468493664671 0 0.012142083753671016 -0.0010842258441304095 0 0.012080056328970632 -0.00098223228807162188 0 0.012167032365889677 -0.00082023425493452844 0 0.012117559328144463 -0.0011325761000743604 0 0.012080056328970632 -0.00098223228807162188 0 0.011892718004088455 -0.00089251677453417604 0 0.012080056328970632 -0.00098223228807162188 0 0.012167032365889677 -0.00082023425493452844 0 0.011892718004088455 -0.00089251677453417604 0 0.00054581985434982202 -0.0014211892680773871 0 0.0068559303173850936 -0.0014412468493664671 0 0.011710161481821512 -0.00067877180165252452 0 0.011892718004088455 -0.00089251677453417604 0 0.011568997331789165 -0.0010023588132283786 0 0.012117559328144463 -0.0011325761000743604 0 0.011892718004088455 -0.00089251677453417604 0 0.011568997331789165 -0.0010023588132283786 0 0.011710161481821512 -0.00067877180165252452 0 0.012167032365889677 -0.00082023425493452844 0 0.011892718004088455 -0.00089251677453417604 0 0.0054202349046542191 -0.0011565950576618326 0 0.0068559303173850936 -0.0014412468493664671 0 0.018464876863550795 -0.00096207830210397487 0 0.025743740169994589 0.00025161676514718874 0 0.018464876863550795 -0.00096207830210397487 0 0.015089527648736471 -0.00067936429060771021 0 0.020961304905880579 -0.00095308812395387651 0 0.020307512533813406 -0.00098648008553016029 0 0.02123705330051396 -0.0014869155463217891 0 0.021513583683091756 -0.00077736850718136241 0 0.020961304905880579 -0.00095308812395387651 0 0.020468336286537853 -0.00059091765400479698 0 0.021513583683091756 -0.00077736850718136241 0 0.020961304905880579 -0.00095308812395387651 0 0.02123705330051396 -0.0014869155463217891 0 0.020961304905880579 -0.00095308812395387651 0 0.020468336286537853 -0.00059091765400479698 0 0.020307512533813406 -0.00098648008553016029 0 0.030210703972754122 0.00016346791511684858 0 0.031773339414805639 0.00024156703891961643 0 0.031935759364233214 -0.00090630898717088137 0 0.02658661276803749 -0.00063492022391198788 0 0.017927489660765846 -0.0012374307859333877 0 0.020468336286537853 -0.00059091765400479698 0 0.020307512533813406 -0.00098648008553016029 0 0.019306250760623079 -0.00042608698548129661 0 0.015089527648736471 -0.00067936429060771021 0 0.017927489660765846 -0.0012374307859333877 0 0.011568997331789165 -0.0010023588132283786 0 0.011200053166879533 -0.00093443282653892748 0 0.011345325390825087 -0.00057343258643806827 0 0.033661229658226433 0.00059099744049805579 0 0.032997909653800395 0.00063202945286439333 0 0.03372398038264604 -0.00041922659063495216 0 0.033661229658226433 0.00059099744049805579 0 0.033802673532491431 0.00071860311700164769 0 0.033828910872590476 0.00070061209685300921 0 0.033661229658226433 0.00059099744049805579 0 0.033652409856365056 0.00073938088846151365 0 0.033891092495071974 0.00072018908955452578 0 0.033225518469397523 0.0016939215451148763 0 0.033088755007705674 0.00059406780309761704 0 0.033652409856365056 0.00073938088846151365 0 0.032997909653800395 0.00063202945286439333 0 0.033477214648710639 0.00096646146858306629 0 0.033661229658226433 0.00059099744049805579 0 0.033652409856365056 0.00073938088846151365 0 0.032997909653800395 0.00063202945286439333 0 0.033225518469397523 0.0016939215451148763 0 0.017927489660765846 -0.0012374307859333877 0 0.032691405080913845 -8.9036340757911565e-06 0 0.031773339414805639 0.00024156703891961643 0 0.031935759364233214 -0.00090630898717088137 0 0.032997909653800395 0.00063202945286439333 0 0.032265465743238367 -0.00015702278948610346 0 0.032430213837565433 -0.0002445242731149582 0 0.032691405080913845 -8.9036340757911565e-06 0 0.031773339414805639 0.00024156703891961643 0 0.032425223171755446 0.00096697936392066105 0 -0.0004519217376891637 0.00012714851448211346 0 -0.0004260145660288405 0.00010556126812055488 0 -0.00049836773084367073 -7.6333878318700731e-05 0 0.017927489660765846 -0.0012374307859333877 0 0.016925296770700263 -0.00031880914037001816 0 0.017778938605672027 -0.00028123190812973065 0 0.015601963669565901 0.00010721457588366284 0 0.015420892465698971 0.0011135464087053911 0 0.033325684507093327 -7.1696881303317717e-05 0 0.024485861565056929 0.00050105441958434352 0 0.016925296770700263 -0.00031880914037001816 0 0.008999097789392287 0.0026311555022180667 0 0.032997909653800395 0.00063202945286439333 0 0.032430213837565433 -0.0002445242731149582 0 0.03372398038264604 -0.00041922659063495216 0 0.016925296770700263 -0.00031880914037001816 0 0.024485861565056929 0.00050105441958434352 0 -0.0004260145660288405 0.00010556126812055488 0 -0.00015030714140748438 -6.7494741520092956e-05 0 -0.00049836773084367073 -7.6333878318700731e-05 0 0.024485861565056929 0.00050105441958434352 0 0.008999097789392287 0.0026311555022180667 0 -0.00015030714140748438 -6.7494741520092956e-05 0 -0.00049836773084367073 -7.6333878318700731e-05 0 -0.00047227897895212219 -0.00032879134714791777 0 -0.0004519217376891637 0.00012714851448211346 0 -0.00049836773084367073 -7.6333878318700731e-05 0 -0.00072686710895689978 -0.00023046368738699485 0 -0.00049836773084367073 -7.6333878318700731e-05 0 -0.00062187046027935007 -0.0002593263620488077 0 -0.00047227897895212219 -0.00032879134714791777 0 -0.00049836773084367073 -7.6333878318700731e-05 0 -0.00062187046027935007 -0.0002593263620488077 0 -0.00072686710895689978 -0.00023046368738699485 0 -0.00062187046027935007 -0.0002593263620488077 0 -0.0007091231518467668 -0.00028231062628629374 0 -0.00072686710895689978 -0.00023046368738699485 0 -0.00062187046027935007 -0.0002593263620488077 0 -0.0007091231518467668 -0.00028231062628629374 0 -0.00070297532101287871 -0.00032965739706634033 0 -0.00069212790717327938 -0.00044616971000610323 0 -0.00080511439853174634 -0.0003279570619914187 0 -0.0010892999047398071 -0.00089871529760603749 0 -0.00069212790717327938 -0.00044616971000610323 0 -0.00047227897895212219 -0.00032879134714791777 0 -0.00064374408343866691 -0.0006822196275820836 0 -0.00062187046027935007 -0.0002593263620488077 0 -0.00070297532101287871 -0.00032965739706634033 0 -0.00069212790717327938 -0.00044616971000610323 0 -0.00070297532101287871 -0.00032965739706634033 0 -0.00069212790717327938 -0.00044616971000610323 0 -0.00080511439853174634 -0.0003279570619914187 0 -0.0007091231518467668 -0.00028231062628629374 0 -0.00070297532101287871 -0.00032965739706634033 0 -0.00080511439853174634 -0.0003279570619914187 0 -0.00062187046027935007 -0.0002593263620488077 0 -0.00069212790717327938 -0.00044616971000610323 0 -0.00047227897895212219 -0.00032879134714791777 0 -0.00047227897895212219 -0.00032879134714791777 0 -0.00064374408343866691 -0.0006822196275820836 0 -0.00019410712423510357 -0.00057959690270244213 0 -0.00015030714140748438 -6.7494741520092956e-05 0 -0.00047227897895212219 -0.00032879134714791777 0 -0.00019410712423510357 -0.00057959690270244213 0 0.0054202349046542191 -0.0011565950576618326 0 0.0017271150620302318 -0.0012146327940541772 0 -0.0015271472124009306 -0.0015657424679638846 0 -0.0012038439352366952 -0.0016561025735667922 0 -0.0014385308991302912 -0.0017057101978473336 0 0.011710161481821512 -0.00067877180165252452 0 0.011568997331789165 -0.0010023588132283786 0 0.011345325390825087 -0.00057343258643806827 0 -0.0004519217376891637 0.00012714851448211346 0 -0.00072686710895689978 -0.00023046368738699485 0 -0.00086701207910868121 -0.00026680234834491082 0 0.017927489660765846 -0.0012374307859333877 0 0.0017271150620302318 -0.0012146327940541772 0 -0.00072686710895689978 -0.00023046368738699485 0 -0.00086701207910868121 -0.00026680234834491082 0 -0.000723720500793941 -0.00033236143500915347 0 0.0017271150620302318 -0.0012146327940541772 0 -0.0010315424501778007 -0.0007725113783666964 0 -0.00094873309988352614 -0.00040911619961259783 0 -0.0010315424501778007 -0.0007725113783666964 0 -0.00072686710895689978 -0.00023046368738699485 0 -0.00075084710705004495 -0.00029041545943251919 0 -0.00080511439853174634 -0.0003279570619914187 0 -0.0007091231518467668 -0.00028231062628629374 0 -0.00075084710705004495 -0.00029041545943251919 0 -0.00080511439853174634 -0.0003279570619914187 0 -0.0007091231518467668 -0.00028231062628629374 0 -0.00072686710895689978 -0.00023046368738699485 0 -0.00075084710705004495 -0.00029041545943251919 0 -0.0018412272157760578 -0.0017712763168758754 0 -0.0018499155343572123 -0.0019710710120047774 0 -0.0020099504376673728 -0.0019921413974722728 0 -0.0018412272157760578 -0.0017712763168758754 0 -0.0017303525321238377 -0.0018233222158387295 0 -0.0018499155343572123 -0.0019710710120047774 0 -0.0017303525321238377 -0.0018233222158387295 0 -0.0018499155343572123 -0.0019710710120047774 0 -0.00178015061174594 -0.0021833816357119842 0 -0.0012038439352366952 -0.0016561025735667922 0 -0.0014131916530288127 -0.0019010329508983292 0 -0.0014385308991302912 -0.0017057101978473336 0 0.0017271150620302318 -0.0012146327940541772 0 -0.0020769256059115981 -0.0022364623485753099 0 -0.0014131916530288127 -0.0019010329508983292 0 -0.0015344954417702786 -0.0018142002907722081 0 -0.0016474469144260361 -0.0019137153110579718 0 -0.0014131916530288127 -0.0019010329508983292 0 -0.0014385308991302912 -0.0017057101978473336 0 -0.0015344954417702786 -0.0018142002907722081 0 -0.0020769256059115981 -0.0022364623485753099 0 -0.0018799117170236158 -0.0021045311897625023 0 -0.0020099504376673728 -0.0019921413974722728 0 -0.002021856949704531 -0.0021401610028963258 0 -0.0021554048583553287 -0.0022184056508248763 0 -0.002021856949704531 -0.0021401610028963258 0 -0.0019110063936483809 -0.0021039536357737275 0 -0.0019111070582347918 -0.002209921094038299 0 -0.0018499155343572123 -0.0019710710120047774 0 -0.0020099504376673728 -0.0019921413974722728 0 -0.0019110063936483809 -0.0021039536357737275 0 -0.0020099504376673728 -0.0019921413974722728 0 -0.002021856949704531 -0.0021401610028963258 0 -0.0019110063936483809 -0.0021039536357737275 0 -0.0018499155343572123 -0.0019710710120047774 0 -0.0019110063936483809 -0.0021039536357737275 0 -0.00178015061174594 -0.0021833816357119842 0 -0.0010315424501778007 -0.0007725113783666964 0 -0.0014667405588546945 -0.0016232709236207439 0 -0.0019110063936483809 -0.0021039536357737275 0 -0.00178015061174594 -0.0021833816357119842 0 -0.0019111070582347918 -0.002209921094038299 0 -0.0014667405588546945 -0.0016232709236207439 0 -0.0015850546513439805 -0.0020016150247663925 0 -0.00178015061174594 -0.0021833816357119842 0 -0.0019111070582347918 -0.002209921094038299 0 -0.0019408154562706511 -0.0023754177321970008 0 -0.0020230419755090942 -0.0021503892375169418 0 -0.0019836310193367267 -0.0023960421570992838 0 -0.002021856949704531 -0.0021401610028963258 0 -0.0021181943843799826 -0.0023580625963462625 0 -0.0021554048583553287 -0.0022184056508248763 0 -0.002021856949704531 -0.0021401610028963258 0 -0.0019111070582347918 -0.002209921094038299 0 -0.0019408154562706511 -0.0023754177321970008 0 -0.002021856949704531 -0.0021401610028963258 0 -0.0021181943843799826 -0.0023580625963462625 0 -0.0020219389454713735 -0.0024331489031127187 0 -0.00064374408343866691 -0.0006822196275820836 0 -0.00070934065524899561 -0.0011043841009535759 0 -0.00019410712423510357 -0.00057959690270244213 0 -0.00069212790717327938 -0.00044616971000610323 0 -0.0010892999047398071 -0.00089871529760603749 0 -0.00064374408343866691 -0.0006822196275820836 0 -0.0010892999047398071 -0.00089871529760603749 0 -0.00064374408343866691 -0.0006822196275820836 0 -0.00070934065524899561 -0.0011043841009535759 0 -0.0010892999047398071 -0.00089871529760603749 0 -0.00070934065524899561 -0.0011043841009535759 0 -0.0013694377791146435 -0.0015877843487803313 0 -0.00070934065524899561 -0.0011043841009535759 0 -0.00070112425888411978 -0.0015395627536323212 0 -0.00023319561582008035 -0.0011988327070363825 0 -0.00070934065524899561 -0.0011043841009535759 0 -0.00070112425888411978 -0.0015395627536323212 0 -0.0013694377791146435 -0.0015877843487803313 0 -0.0016059037149915786 -0.0023905034724559879 0 -0.0012873665408689042 -0.0020807771318205655 0 -0.0013694377791146435 -0.0015877843487803313 0 -0.0012873665408689042 -0.0020807771318205655 0 -0.00093548984232364179 -0.0019679024236976699 0 -0.0013694377791146435 -0.0015877843487803313 0 -0.00070112425888411978 -0.0015395627536323212 0 -0.00093548984232364179 -0.0019679024236976699 0 -0.0013694377791146435 -0.0015877843487803313 0 -0.00070112425888411978 -0.0015395627536323212 0 -0.00093548984232364179 -0.0019679024236976699 0 -0.0002159781929554164 -0.0018924892029428301 0 -0.0021206624313904617 -0.0024522696902023024 0 -0.0020219389454713735 -0.0024331489031127187 0 -0.002111267786522627 -0.0025390032631453893 0 -0.0021181943843799826 -0.0023580625963462625 0 -0.0021206624313904617 -0.0024522696902023024 0 -0.0020219389454713735 -0.0024331489031127187 0 -0.00178015061174594 -0.0021833816357119842 0 -0.0019408154562706511 -0.0023754177321970008 0 -0.0018133406623876789 -0.0024265002040398018 0 -0.0017191101983596549 -0.0025396036612051558 0 -0.0015850546513439805 -0.0020016150247663925 0 -0.0018352528026669773 -0.0026579365277059051 0 -0.0019093540694783389 -0.0025857343360280124 0 -0.0018133406623876789 -0.0024265002040398018 0 -0.0019517511638827785 -0.0026076998800101821 0 -0.0019836310193367267 -0.0023960421570992838 0 -0.0019093540694783389 -0.0025857343360280124 0 -0.0019408154562706511 -0.0023754177321970008 0 -0.0018133406623876789 -0.0024265002040398018 0 -0.002007159936974466 -0.0026167919021687202 0 -0.0020219389454713735 -0.0024331489031127187 0 -0.002111267786522627 -0.0025390032631453893 0 -0.0021449931705959007 -0.0026428951286922662 0 -0.002007159936974466 -0.0026167919021687202 0 -0.002111267786522627 -0.0025390032631453893 0 -0.0021206624313904617 -0.0024522696902023024 0 -0.002111267786522627 -0.0025390032631453893 0 -0.0021850115448151797 -0.0025107023992970482 0 -0.0021449931705959007 -0.0026428951286922662 0 -0.002111267786522627 -0.0025390032631453893 0 -0.0022087506229055043 -0.0025960334596844183 0 -0.0022087506229055043 -0.0025960334596844183 0 -0.0021850115448151797 -0.0025107023992970482 0 -0.0023271455856105024 -0.0025908933050288767 0 -0.002301023490868108 -0.0026552741347687708 0 -0.0022087506229055043 -0.0025960334596844183 0 -0.0023271455856105024 -0.0025908933050288767 0 -0.0021850115448151797 -0.0025107023992970482 0 -0.0023271455856105024 -0.0025908933050288767 0 -0.0022611561607546078 -0.0024958733140959684 0 -0.002111267786522627 -0.0025390032631453893 0 -0.0022087506229055043 -0.0025960334596844183 0 -0.0021850115448151797 -0.0025107023992970482 0 -0.0025237643374557387 -0.0027122081812430798 0 -0.0023271455856105024 -0.0025908933050288767 0 -0.0024097689585082841 -0.0025599778665812926 0 -0.0023271455856105024 -0.0025908933050288767 0 -0.0024097689585082841 -0.0025599778665812926 0 -0.0022611561607546078 -0.0024958733140959684 0 -0.0024097689585082841 -0.0025599778665812926 0 -0.0022879262487107859 -0.0024394955273726537 0 -0.0024422855823286282 -0.0024542566958900679 0 -0.0024097689585082841 -0.0025599778665812926 0 -0.0022611561607546078 -0.0024958733140959684 0 -0.0022879262487107859 -0.0024394955273726537 0 -0.0022611561607546078 -0.0024958733140959684 0 -0.0021933806449038386 -0.0024097003121806761 0 -0.0022879262487107859 -0.0024394955273726537 0 -0.0021933806449038386 -0.0024097003121806761 0 -0.0022879262487107859 -0.0024394955273726537 0 -0.0022099084793101216 -0.0023726704759393651 0 -0.0022879262487107859 -0.0024394955273726537 0 -0.0022658577841391785 -0.0023548936571971984 0 -0.0024422855823286282 -0.0024542566958900679 0 -0.0021206624313904617 -0.0024522696902023024 0 -0.0021850115448151797 -0.0025107023992970482 0 -0.0021807547599603382 -0.0024359384469143995 0 -0.0021850115448151797 -0.0025107023992970482 0 -0.0022611561607546078 -0.0024958733140959684 0 -0.0021807547599603382 -0.0024359384469143995 0 -0.0021933806449038386 -0.0024097003121806761 0 -0.0021807547599603382 -0.0024359384469143995 0 -0.0021616236826249289 -0.0023603059050748263 0 -0.0022611561607546078 -0.0024958733140959684 0 -0.0021933806449038386 -0.0024097003121806761 0 -0.0021807547599603382 -0.0024359384469143995 0 -0.0021181943843799826 -0.0023580625963462625 0 -0.0021206624313904617 -0.0024522696902023024 0 -0.0021807547599603382 -0.0024359384469143995 0 -0.0021181943843799826 -0.0023580625963462625 0 -0.0021807547599603382 -0.0024359384469143995 0 -0.0021616236826249289 -0.0023603059050748263 0 -0.0021933806449038386 -0.0024097003121806761 0 -0.0021616236826249289 -0.0023603059050748263 0 -0.0021554048583553287 -0.0022184056508248763 0 -0.0021687344915203221 -0.0024080768077873742 0 -0.0018799117170236158 -0.0021045311897625023 0 -0.0021933806449038386 -0.0024097003121806761 0 -0.0020966660048729159 -0.0023151303331597614 0 -0.0017243260140411092 -0.0021494069397708718 0 -0.0021181943843799826 -0.0023580625963462625 0 -0.0021616236826249289 -0.0023603059050748263 0 -0.0021554048583553287 -0.0022184056508248763 0 -0.0021933806449038386 -0.0024097003121806761 0 -0.0020966660048729159 -0.0023151303331597614 0 -0.0022099084793101216 -0.0023726704759393651 0 -0.0022658577841391785 -0.0023548936571971984 0 -0.0021270515195694027 -0.0023509417512161432 0 -0.0019494088840123778 -0.0023635347413971486 0 -0.0022099084793101216 -0.0023726704759393651 0 -0.0022658577841391785 -0.0023548936571971984 0 -0.0021652410566176308 -0.0023438598748656263 0 -0.0020966660048729159 -0.0023151303331597614 0 -0.0022099084793101216 -0.0023726704759393651 0 -0.0021652410566176308 -0.0023438598748656263 0 -0.0022879262487107859 -0.0024394955273726537 0 -0.0022099084793101216 -0.0023726704759393651 0 -0.0022658577841391785 -0.0023548936571971984 0 -0.0022658577841391785 -0.0023548936571971984 0 -0.0021652410566176308 -0.0023438598748656263 0 -0.0021270515195694027 -0.0023509417512161432 0 -0.0020966660048729159 -0.0023151303331597614 0 -0.0021652410566176308 -0.0023438598748656263 0 -0.0021270515195694027 -0.0023509417512161432 0 -0.0021707514986984951 -0.0024533352285476466 0 -0.0020966660048729159 -0.0023151303331597614 0 -0.0021270515195694027 -0.0023509417512161432 0 -0.0023150023977772404 -0.0023611017208732209 0 -0.0019974626877390777 -0.0022564526618264681 0 -0.0021707514986984951 -0.0024533352285476466 0 -0.0021270515195694027 -0.0023509417512161432 0 -0.0019494088840123778 -0.0023635347413971486 0 -0.0018264362692201044 -0.0018700462541576409 0 -0.0020966660048729159 -0.0023151303331597614 0 -0.0017243260140411092 -0.0021494069397708718 0 -0.0014131916530288127 -0.0019010329508983292 0 -0.0016474469144260361 -0.0019137153110579718 0 -0.0017243260140411092 -0.0021494069397708718 0 -0.0018264362692201044 -0.0018700462541576409 0 -0.0016474469144260361 -0.0019137153110579718 0 -0.0017243260140411092 -0.0021494069397708718 0 -0.0025228893076454672 -0.0022787602126522377 0 -0.0024972887566306321 -0.002305508273907375 0 -0.0025525166899596158 -0.0023359896293977537 0 -0.0025228893076454672 -0.0022787602126522377 0 -0.0025525166899596158 -0.0023359896293977537 0 -0.0025759861649841905 -0.0023056189626371312 0 -0.0025228893076454672 -0.0022787602126522377 0 -0.0025759861649841905 -0.0023056189626371312 0 -0.0025586253008714338 -0.0022572531999198063 0 -0.0024918325406221853 -0.0022310817765022217 0 -0.0025228893076454672 -0.0022787602126522377 0 -0.0024428636098385126 -0.0022675492182226988 0 -0.0025228893076454672 -0.0022787602126522377 0 -0.0024428636098385126 -0.0022675492182226988 0 -0.0024972887566306321 -0.002305508273907375 0 -0.0024428636098385126 -0.0022675492182226988 0 -0.0024972887566306321 -0.002305508273907375 0 -0.0024718555621104118 -0.0023466518116890345 0 -0.0022658577841391785 -0.0023548936571971984 0 -0.0024428636098385126 -0.0022675492182226988 0 -0.0024718555621104118 -0.0023466518116890345 0 -0.0022193169511226249 -0.0023857169179515836 0 -0.0022753842228686321 -0.0023082275732465123 0 -0.0022658577841391785 -0.0023548936571971984 0 -0.0024718555621104118 -0.0023466518116890345 0 -0.0024422855823286282 -0.0024542566958900679 0 -0.0025525166899596158 -0.0023359896293977537 0 -0.0025850191787558912 -0.002441615214996291 0 -0.0026123688568216686 -0.0023639423396879973 0 -0.0024718555621104118 -0.0023466518116890345 0 -0.0025525166899596158 -0.0023359896293977537 0 -0.0025850191787558912 -0.002441615214996291 0 -0.0024972887566306321 -0.002305508273907375 0 -0.0024718555621104118 -0.0023466518116890345 0 -0.0025525166899596158 -0.0023359896293977537 0 -0.0025850191787558912 -0.002441615214996291 0 -0.0024422855823286282 -0.0024542566958900679 0 -0.002598341609335753 -0.0026388394828590041 0 -0.0024718555621104118 -0.0023466518116890345 0 -0.0025850191787558912 -0.002441615214996291 0 -0.0024422855823286282 -0.0024542566958900679 0 -0.0025237643374557387 -0.0027122081812430798 0 -0.0024097689585082841 -0.0025599778665812926 0 -0.002598341609335753 -0.0026388394828590041 0 -0.0024097689585082841 -0.0025599778665812926 0 -0.0024422855823286282 -0.0024542566958900679 0 -0.002598341609335753 -0.0026388394828590041 0 -0.0025850191787558912 -0.002441615214996291 0 -0.002598341609335753 -0.0026388394828590041 0 -0.002747267149472459 -0.0026826215387070864 0 -0.0025850191787558912 -0.002441615214996291 0 -0.002747267149472459 -0.0026826215387070864 0 -0.0028241863631362834 -0.0026327445812908998 0 -0.0027986308026205862 -0.0027785757383058276 0 -0.002598341609335753 -0.0026388394828590041 0 -0.002747267149472459 -0.0026826215387070864 0 -0.0029272432367554329 -0.0027925418368682803 0 -0.002747267149472459 -0.0026826215387070864 0 -0.0028241863631362834 -0.0026327445812908998 0 -0.0029272432367554329 -0.0027925418368682803 0 -0.0028241863631362834 -0.0026327445812908998 0 -0.0029472244775169765 -0.0026868594977707506 0 -0.0028241863631362834 -0.0026327445812908998 0 -0.0028789947211150372 -0.0025506945293165962 0 -0.0029472244775169765 -0.0026868594977707506 0 -0.0026002887687958782 -0.0023782202810774585 0 -0.0027821551824480772 -0.0026444050901048843 0 -0.0025850191787558912 -0.002441615214996291 0 -0.0028241863631362834 -0.0026327445812908998 0 -0.0028789947211150372 -0.0025506945293165962 0 -0.0025850191787558912 -0.002441615214996291 0 -0.0028789947211150372 -0.0025506945293165962 0 -0.0029405744356056124 -0.0024232310611172576 0 -0.0032317340187367882 -0.003620534828829609 0 -0.0029260739948066407 -0.0036045512166894486 0 -0.0032875295851880187 -0.0038213893460530544 0 -0.0030851412790284089 -0.0030312394680717687 0 -0.0029644448989676006 -0.0031957827794843259 0 -0.0030851412790284089 -0.0030312394680717687 0 -0.0027821551824480772 -0.0026444050901048843 0 -0.0028789947211150372 -0.0025506945293165962 0 -0.0030393347608134807 -0.0025550938250730438 0 -0.0029405744356056124 -0.0024232310611172576 0 -0.0030554386158082123 -0.003029900908245137 0 -0.0029131337246356974 -0.0028747215244039025 0 -0.0030099768034377553 -0.0028600569766471387 0 -0.0028789947211150372 -0.0025506945293165962 0 -0.0030393347608134807 -0.0025550938250730438 0 -0.0029472244775169765 -0.0026868594977707506 0 -0.0030393347608134807 -0.0025550938250730438 0 -0.0029472244775169765 -0.0026868594977707506 0 -0.0030323216117453485 -0.0028251529773321397 0 -0.0029272432367554329 -0.0027925418368682803 0 -0.0029472244775169765 -0.0026868594977707506 0 -0.0030323216117453485 -0.0028251529773321397 0 -0.0030851412790284089 -0.0030312394680717687 0 -0.003010873867420018 -0.0026857037978920656 0 -0.0029022851802863593 -0.0032921059632336257 0 -0.0027575909759038073 -0.0034247806867783851 0 -0.0029260739948066407 -0.0036045512166894486 0 -0.0030851412790284089 -0.0030312394680717687 0 -0.0029684420804409885 -0.0031210311638932842 0 -0.0032317340187367882 -0.003620534828829609 0 -0.0029022851802863593 -0.0032921059632336257 0 -0.0029260739948066407 -0.0036045512166894486 0 -0.0030393119512770223 -0.0028105551423783406 0 -0.0030323216117453485 -0.0028251529773321397 0 -0.0030170306521099173 -0.0028859059299764438 0 -0.0027575909759038073 -0.0034247806867783851 0 -0.0026824842841961676 -0.0032672601369193774 0 -0.0025454496051459949 -0.0035631280643572843 0 -0.0029022851802863593 -0.0032921059632336257 0 -0.0027575909759038073 -0.0034247806867783851 0 -0.0026824842841961676 -0.0032672601369193774 0 -0.0027575909759038073 -0.0034247806867783851 0 -0.0025454496051459949 -0.0035631280643572843 0 -0.0029260739948066407 -0.0036045512166894486 0 -0.0025454496051459949 -0.0035631280643572843 0 -0.0029260739948066407 -0.0036045512166894486 0 -0.0028057953379812817 -0.0039226130783409554 0 -0.0029260739948066407 -0.0036045512166894486 0 -0.0028057953379812817 -0.0039226130783409554 0 -0.0032875295851880187 -0.0038213893460530544 0 -0.002552275850386461 -0.0040007865752973481 0 -0.0029644448989676006 -0.0031957827794843259 0 -0.0022476718080876586 -0.0039319163173099411 0 -0.0026588796470079401 -0.0042985569409015271 0 -0.0029632256356911472 -0.0038098119800192066 0 -0.002552275850386461 -0.0040007865752973481 0 -0.0018637166956018696 -0.0040180792501828639 0 -0.0025454496051459949 -0.0035631280643572843 0 -0.0028057953379812817 -0.0039226130783409554 0 -0.0022042630475909578 -0.0040379064758273263 0 -0.0022476718080876586 -0.0039319163173099411 0 -0.0020805467023030768 -0.0044567864739342988 0 -0.0015578683609280828 -0.0040437584122191518 0 -0.0020805467023030768 -0.0044567864739342988 0 -0.0026588796470079401 -0.0042985569409015271 0 -0.0025990425514846693 -0.0049430510401077639 0 -0.0022476718080876586 -0.0039319163173099411 0 -0.0020805467023030768 -0.0044567864739342988 0 -0.0026588796470079401 -0.0042985569409015271 0 -0.0026588796470079401 -0.0042985569409015271 0 -0.003153412887754383 -0.0045523646709937282 0 -0.0029632256356911472 -0.0038098119800192066 0 -0.0026588796470079401 -0.0042985569409015271 0 -0.003153412887754383 -0.0045523646709937282 0 -0.0025990425514846693 -0.0049430510401077639 0 -0.002636671262999895 -0.0022957968442094702 0 -0.0025759861649841905 -0.0023056189626371312 0 -0.0025586253008714338 -0.0022572531999198063 0 -0.002636671262999895 -0.0022957968442094702 0 -0.0025759861649841905 -0.0023056189626371312 0 -0.0026123688568216686 -0.0023639423396879973 0 -0.0025525166899596158 -0.0023359896293977537 0 -0.0025759861649841905 -0.0023056189626371312 0 -0.0026123688568216686 -0.0023639423396879973 0 -0.0025850191787558912 -0.002441615214996291 0 -0.0026123688568216686 -0.0023639423396879973 0 -0.0026439824198750341 -0.0023988326983408748 0 -0.002636671262999895 -0.0022957968442094702 0 -0.0026123688568216686 -0.0023639423396879973 0 -0.0026887371857297719 -0.0024178380612284601 0 -0.0025631562076166418 -0.0023204108831507597 0 -0.0027821551824480772 -0.0026444050901048843 0 -0.0026123688568216686 -0.0023639423396879973 0 -0.0026597228099294336 -0.0024216278365436499 0 -0.0026887371857297719 -0.0024178380612284601 0 -0.003233050238565102 -0.0034610906080245621 0 -0.0029644448989676006 -0.0031957827794843259 0 -0.0027821551824480772 -0.0026444050901048843 0 -0.0029644448989676006 -0.0031957827794843259 0 -0.0012386589279989265 -0.0034892828808513257 0 -0.00098910798754508534 -0.003480964994899445 0 -0.0013518786047881466 -0.0034564070189735036 0 -0.0015947950376018281 -0.0032625981534971519 0 -0.001357275780811525 -0.0033851046688864596 0 -0.0015277716777581615 -0.0033625505890001258 0 -0.001357275780811525 -0.0033851046688864596 0 -0.0012386589279989265 -0.0034892828808513257 0 -0.0015277716777581615 -0.0033625505890001258 0 -0.0012386589279989265 -0.0034892828808513257 0 -0.0013518786047881466 -0.0034564070189735036 0 -0.0015277716777581615 -0.0033625505890001258 0 -0.0018318892550232358 -0.0032555325019144434 0 -0.0015277716777581615 -0.0033625505890001258 0 -0.0018099441295935561 -0.0033700254925353853 0 -0.0013518786047881466 -0.0034564070189735036 0 -0.0015277716777581615 -0.0033625505890001258 0 -0.0018099441295935561 -0.0033700254925353853 0 -0.00098910798754508534 -0.003480964994899445 0 -0.0013518786047881466 -0.0034564070189735036 0 -0.0015161728585197647 -0.0035989878228779647 0 -0.0013518786047881466 -0.0034564070189735036 0 -0.0018099441295935561 -0.0033700254925353853 0 -0.0015161728585197647 -0.0035989878228779647 0 -0.0015161728585197647 -0.0035989878228779647 0 -0.0020968961337450658 -0.0036014934293536033 0 -0.0022042630475909578 -0.0040379064758273263 0 -0.0018099441295935561 -0.0033700254925353853 0 -0.0015161728585197647 -0.0035989878228779647 0 -0.0020968961337450658 -0.0036014934293536033 0 -0.0018099441295935561 -0.0033700254925353853 0 -0.0020968961337450658 -0.0036014934293536033 0 -0.0023322324827639534 -0.0032919149455944144 0 -0.0025454496051459949 -0.0035631280643572843 0 -0.0020968961337450658 -0.0036014934293536033 0 -0.0023322324827639534 -0.0032919149455944144 0 -0.0026824842841961676 -0.0032672601369193774 0 -0.0025454496051459949 -0.0035631280643572843 0 -0.0023322324827639534 -0.0032919149455944144 0 -0.0025454496051459949 -0.0035631280643572843 0 -0.0020968961337450658 -0.0036014934293536033 0 -0.0022042630475909578 -0.0040379064758273263 0 -0.0020805467023030768 -0.0044567864739342988 0 -0.0015578683609280828 -0.0040437584122191518 0 -0.001367937697092458 -0.004557668807161918 0 -0.0015578683609280828 -0.0040437584122191518 0 -0.001367937697092458 -0.004557668807161918 0 -0.0011155388298976071 -0.0040274117329243747 0 -0.0018637166956018696 -0.0040180792501828639 0 -0.0011704284197740099 -0.004048563758766853 0 -0.0015161728585197647 -0.0035989878228779647 0 -0.0022042630475909578 -0.0040379064758273263 0 -0.0011155388298976071 -0.0040274117329243747 0 -0.00098910798754508534 -0.003480964994899445 0 -0.0015161728585197647 -0.0035989878228779647 0 -0.0011155388298976071 -0.0040274117329243747 0 -0.001367937697092458 -0.004557668807161918 0 -0.0011155388298976071 -0.0040274117329243747 0 -0.00087671569906243568 -0.0046317236356484097 0 -0.0011155388298976071 -0.0040274117329243747 0 -0.00034348829883150184 -0.0045094218579219813 0 -0.00087671569906243568 -0.0046317236356484097 0 -0.0011155388298976071 -0.0040274117329243747 0 -0.00034348829883150184 -0.0045094218579219813 0 -0.00047982212565594585 -0.0039598344608088275 0 0.00044566899483969454 -0.0042857048676077812 0 -0.00034348829883150184 -0.0045094218579219813 0 -0.00047982212565594585 -0.0039598344608088275 0 0.00046775101308514725 -0.0036068306779529729 0 -0.00098910798754508534 -0.003480964994899445 0 -0.00047982212565594585 -0.0039598344608088275 0 -0.00034706843363699016 -0.0035868603727512278 0 -0.00087501389410064422 -0.0034649036490557567 0 -0.00098910798754508534 -0.003480964994899445 0 -0.0011155388298976071 -0.0040274117329243747 0 -0.00047982212565594585 -0.0039598344608088275 0 0.00062687173232769066 -0.0048981479433711662 0 0.00018202134704250041 -0.0055652823777616834 0 -3.1072153215293686e-05 -0.0050376780545325541 0 0.00018202134704250041 -0.0055652823777616834 0 -3.1072153215293686e-05 -0.0050376780545325541 0 -0.00053155474929687753 -0.0051837026200445575 0 0.00062687173232769066 -0.0048981479433711662 0 -0.00034348829883150184 -0.0045094218579219813 0 -3.1072153215293686e-05 -0.0050376780545325541 0 -0.00034348829883150184 -0.0045094218579219813 0 -3.1072153215293686e-05 -0.0050376780545325541 0 -0.00053155474929687753 -0.0051837026200445575 0 -0.00087671569906243568 -0.0046317236356484097 0 -0.00053155474929687753 -0.0051837026200445575 0 -0.0012291741620191502 -0.0052441407871805833 0 -0.00034348829883150184 -0.0045094218579219813 0 -0.00087671569906243568 -0.0046317236356484097 0 -0.00053155474929687753 -0.0051837026200445575 0 -0.00053155474929687753 -0.0051837026200445575 0 -0.00088454866029306477 -0.0056892695510751337 0 -0.00037364954756450701 -0.0058245113535620409 0 0.00018202134704250041 -0.0055652823777616834 0 -0.00053155474929687753 -0.0051837026200445575 0 -0.00037364954756450701 -0.0058245113535620409 0 -0.00053155474929687753 -0.0051837026200445575 0 -0.0012291741620191502 -0.0052441407871805833 0 -0.00088454866029306477 -0.0056892695510751337 0 -0.0012291741620191502 -0.0052441407871805833 0 -0.0013488873338575438 -0.0059502432132195575 0 -0.00088454866029306477 -0.0056892695510751337 0 -0.001367937697092458 -0.004557668807161918 0 -0.00087671569906243568 -0.0046317236356484097 0 -0.0012291741620191502 -0.0052441407871805833 0 -0.001367937697092458 -0.004557668807161918 0 -0.0012291741620191502 -0.0052441407871805833 0 -0.0018926138461248612 -0.0050054306160071775 0 -0.0020805467023030768 -0.0044567864739342988 0 -0.001367937697092458 -0.004557668807161918 0 -0.0018926138461248612 -0.0050054306160071775 0 -0.0012291741620191502 -0.0052441407871805833 0 -0.0017688370892606012 -0.0055143445616666958 0 -0.0013488873338575438 -0.0059502432132195575 0 -0.0012291741620191502 -0.0052441407871805833 0 -0.0017688370892606012 -0.0055143445616666958 0 -0.0018926138461248612 -0.0050054306160071775 0 -0.0013722695563256429 -0.0063730474050842185 0 -0.0013488873338575438 -0.0059502432132195575 0 -0.002061623912545071 -0.0060002756735348384 0 -0.0017688370892606012 -0.0055143445616666958 0 -0.0013488873338575438 -0.0059502432132195575 0 -0.002061623912545071 -0.0060002756735348384 0 0.00034786518176153084 -0.0065565114937384955 0 0.0013690690595628385 -0.0050985997618126526 0 0.0046014835471349311 -0.0047700916344733009 0 0.0050524169961211696 -0.0047225533944829324 0 0.0042854777408391342 -0.0043478626350149019 0 0.0046014835471349311 -0.0047700916344733009 0 0.0040937168751423473 -0.0048637467307552709 0 0.0049669529771222236 -0.0051433450585272574 0 0.0046014835471349311 -0.0047700916344733009 0 0.0050524169961211696 -0.0047225533944829324 0 0.0049669529771222236 -0.0051433450585272574 0 0.00034786518176153084 -0.0065565114937384955 0 0.0066819307782887893 -0.0042953745801934161 0 0.00034786518176153084 -0.0065565114937384955 0 -0.0011696922562237874 -0.0060860994414512447 0 -0.001422157048709662 -0.0066821519299884507 0 -0.00093894001516727779 -0.0065188624808048519 0 -0.0013488873338575438 -0.0059502432132195575 0 0.00034786518176153084 -0.0065565114937384955 0 -0.0010913470436290373 -0.0067338045681850801 0 -0.00096403144997531034 -0.0068542024362694791 0 -0.00083913717883714323 -0.0070019498510633885 0 -0.00099486469933188757 -0.0071180140419174597 0 -0.00096403144997531034 -0.0068542024362694791 0 -0.00083913717883714323 -0.0070019498510633885 0 -0.00069865237777250514 -0.0069894789968312073 0 -0.00069865237777250514 -0.0069894789968312073 0 -0.00093894001516727779 -0.0065188624808048519 0 -0.00040793524256006665 -0.006690019718459209 0 -0.001422157048709662 -0.0066821519299884507 0 -0.00069865237777250514 -0.0069894789968312073 0 -0.00093894001516727779 -0.0065188624808048519 0 -0.0013488873338575438 -0.0059502432132195575 0 -0.00088454866029306477 -0.0056892695510751337 0 -0.00063588496064507615 -0.0061891561200115219 0 -0.00093894001516727779 -0.0065188624808048519 0 -0.0013488873338575438 -0.0059502432132195575 0 -0.00063588496064507615 -0.0061891561200115219 0 -0.00037364954756450701 -0.0058245113535620409 0 -0.00063588496064507615 -0.0061891561200115219 0 0.00010356254691981752 -0.0065142470770625004 0 -0.00088454866029306477 -0.0056892695510751337 0 -0.00037364954756450701 -0.0058245113535620409 0 -0.00063588496064507615 -0.0061891561200115219 0 -0.00063588496064507615 -0.0061891561200115219 0 -0.00040793524256006665 -0.006690019718459209 0 0.00010356254691981752 -0.0065142470770625004 0 -0.00093894001516727779 -0.0065188624808048519 0 -0.00063588496064507615 -0.0061891561200115219 0 -0.00040793524256006665 -0.006690019718459209 0 -0.00069865237777250514 -0.0069894789968312073 0 -0.00040793524256006665 -0.006690019718459209 0 -0.00052515268171246109 -0.0071810148712968206 0 -0.00040793524256006665 -0.006690019718459209 0 0.00022019027632685408 -0.0068132098337455385 0 -0.00052515268171246109 -0.0071810148712968206 0 -0.00040793524256006665 -0.006690019718459209 0 0.00010356254691981752 -0.0065142470770625004 0 0.00022019027632685408 -0.0068132098337455385 0 0.00079628736332308376 -0.0066950721973901553 0 0.00071249088343928492 -0.0074563631660340959 0 0.00010356254691981752 -0.0065142470770625004 0 0.00087817288195918958 -0.0069656558563718617 0 0.00010356254691981752 -0.0065142470770625004 0 0.00022019027632685408 -0.0068132098337455385 0 0.00087817288195918958 -0.0069656558563718617 0 0.00022019027632685408 -0.0068132098337455385 0 0.00066366697847389602 -0.0070499576179550673 0 8.9165539014575084e-05 -0.007028622179493787 0 0.00038728275266612384 -0.0067351822430573877 0 0.00018202134704250041 -0.0055652823777616834 0 -0.00037364954756450701 -0.0058245113535620409 0 0.00010356254691981752 -0.0065142470770625004 0 0.00079628736332308376 -0.0066950721973901553 0 0.00063533728438631585 -0.0060887182500217393 0 0.00010356254691981752 -0.0065142470770625004 0 0.00063533728438631585 -0.0060887182500217393 0 0.00018202134704250041 -0.0055652823777616834 0 0.00010356254691981752 -0.0065142470770625004 0 -0.0002160505436566726 -0.0037753502104473586 0 0.00030807766303864111 -0.0048416544360428649 0 -0.0033292110006664325 -0.0052986127317280066 0 -0.0025990425514846693 -0.0049430510401077639 0 -0.00270601233796158 -0.0056217132840198879 0 0.0025033981824600501 -0.003466398304643045 0 0.0034435734480855662 -0.0039211978309713668 0 0.002876421604266757 -0.0040491921458761411 0 0.0025033981824600501 -0.003466398304643045 0 0.002876421604266757 -0.0040491921458761411 0 0.0023948062218043394 -0.0038955260710709528 0 -0.0002160505436566726 -0.0037753502104473586 0 0.0016248608949089721 -0.003413679698799335 0 0.0020786423491096456 -0.0037413165888250106 0 0.0025575443665630439 -0.003352380689302601 0 0.0023948062218043394 -0.0038955260710709528 0 0.0020786423491096456 -0.0037413165888250106 0 0.0018894357026034451 -0.0033853016090804882 0 0.0025575443665630439 -0.003352380689302601 0 -0.002636671262999895 -0.0022957968442094702 0 -0.0025726600935639336 -0.0022095754531923002 0 -0.0025586253008714338 -0.0022572531999198063 0 -0.003233050238565102 -0.0034610906080245621 0 -0.0002160505436566726 -0.0037753502104473586 0 -0.003153412887754383 -0.0045523646709937282 0 -0.0033292110006664325 -0.0052986127317280066 0 -0.0025990425514846693 -0.0049430510401077639 0 -0.0025990425514846693 -0.0049430510401077639 0 -0.0018926138461248612 -0.0050054306160071775 0 -0.0022581377048050497 -0.0053652084300759816 0 -0.0020805467023030768 -0.0044567864739342988 0 -0.0025990425514846693 -0.0049430510401077639 0 -0.0018926138461248612 -0.0050054306160071775 0 -0.0017688370892606012 -0.0055143445616666958 0 -0.0018926138461248612 -0.0050054306160071775 0 -0.0022581377048050497 -0.0053652084300759816 0 -0.0025990425514846693 -0.0049430510401077639 0 -0.0022581377048050497 -0.0053652084300759816 0 -0.00270601233796158 -0.0056217132840198879 0 0.0034435734480855662 -0.0039211978309713668 0 0.0037480679069832293 -0.0044240907651751787 0 0.0042854777408391342 -0.0043478626350149019 0 0.00030807766303864111 -0.0048416544360428649 0 0.0013690690595628385 -0.0050985997618126526 0 0.0034435734480855662 -0.0039211978309713668 0 0.0037480679069832293 -0.0044240907651751787 0 0.00312601572858067 -0.0045772607946565408 0 -0.0022581377048050497 -0.0053652084300759816 0 -0.00270601233796158 -0.0056217132840198879 0 -0.002061623912545071 -0.0060002756735348384 0 -0.0017688370892606012 -0.0055143445616666958 0 -0.0022581377048050497 -0.0053652084300759816 0 -0.002061623912545071 -0.0060002756735348384 0 0.0046014835471349311 -0.0047700916344733009 0 0.0042854777408391342 -0.0043478626350149019 0 0.0040937168751423473 -0.0048637467307552709 0 0.0037480679069832293 -0.0044240907651751787 0 0.0042854777408391342 -0.0043478626350149019 0 0.0040937168751423473 -0.0048637467307552709 0 0.0070798599605676115 -0.0041672151447381522 0 0.0066886668432987696 -0.0040470793564140045 0 0.0037480679069832293 -0.0044240907651751787 0 0.0040937168751423473 -0.0048637467307552709 0 0.00312601572858067 -0.0045772607946565408 0 0.010387122267029534 -0.003452886722608641 0 0.010542417499159027 -0.0034785673843652485 0 0.0105548662956926 -0.0034177785121304294 0 0.010542417499159027 -0.0034785673843652485 0 0.010597955934511209 -0.0034635759620744856 0 0.0105548662956926 -0.0034177785121304294 0 0.019401960608528772 -0.0029281846917455705 0 0.01481314756089989 -0.0025446122511812784 0 0.0034435734480855662 -0.0039211978309713668 0 0.00312601572858067 -0.0045772607946565408 0 0.002876421604266757 -0.0040491921458761411 0 0.0020204290385955007 -0.0042520926592263947 0 0.002876421604266757 -0.0040491921458761411 0 0.0023948062218043394 -0.0038955260710709528 0 0.0020204290385955007 -0.0042520926592263947 0 0.00312601572858067 -0.0045772607946565408 0 0.002876421604266757 -0.0040491921458761411 0 0.0071846933936376683 -0.0035573727628527415 0 0.0066886668432987696 -0.0040470793564140045 0 0.0020786423491096456 -0.0037413165888250106 0 0.0020204290385955007 -0.0042520926592263947 0 0.0023948062218043394 -0.0038955260710709528 0 0.010587875980624339 -0.003485454150728992 0 0.010542417499159027 -0.0034785673843652485 0 0.010597955934511209 -0.0034635759620744856 0 0.016625193439750226 -0.0035294698648319096 0 0.016430449044311173 -0.0031196817200563835 0 0.015139105835320923 -0.0029090074437950948 0 0.019692431765326143 -0.002629771965469767 0 0.018574253891799525 -0.0028863198730981949 0 0.018350834535093907 -0.0024150371118697722 0 0.0071846933936376683 -0.0035573727628527415 0 0.014485388113300222 -0.0034156644730339745 0 0.014485388113300222 -0.0034156644730339745 0 0.01481314756089989 -0.0025446122511812784 0 0.014485388113300222 -0.0034156644730339745 0 0.019401960608528772 -0.0029281846917455705 0 0.022308167408614452 -0.0019024673548872408 0 0.021293568398388134 -0.0012700084048048663 0 0.024368483340276737 -0.0010810851127673316 0 0.027098617961959066 3.4036659093417658e-05 0 0.027002706601168307 -0.00087798197127546859 0 0.028317334859707489 -0.00080938934113103443 0 0.02267148827048427 -0.0026673032071110967 0 0.022308167408614452 -0.0019024673548872408 0 0.024368483340276737 -0.0010810851127673316 0 0.02406760089985063 -0.0010414370388650595 0 0.028017665984591929 -0.0012571473105546336 0 0.022655045682273101 -0.0026457909506395452 0 0.022308167408614452 -0.0019024673548872408 0 0.020122120654531866 -0.0022159736101714507 0 0.019401960608528772 -0.0029281846917455705 0 0.020414905858290366 -0.0029439757507670802 0 0.027098617961959066 3.4036659093417658e-05 0 0.027790558011263098 0.00087144766399282179 0 0.028317334859707489 -0.00080938934113103443 0 0.027098617961959066 3.4036659093417658e-05 0 0.027002706601168307 -0.00087798197127546859 0 0.025919011898466449 7.6199994200762142e-05 0 0.027098617961959066 3.4036659093417658e-05 0 0.025919011898466449 7.6199994200762142e-05 0 0.026473561313585532 0.00090667281017082005 0 0.02406760089985063 -0.0010414370388650595 0 0.020788671202876551 -0.0013757613844880884 0 0.027002706601168307 -0.00087798197127546859 0 0.025693939122256117 -0.00093948503179722424 0 0.025919011898466449 7.6199994200762142e-05 0 0.021293568398388134 -0.0012700084048048663 0 0.020122120654531866 -0.0022159736101714507 0 0.018331151428586958 -0.0014658705279470116 0 0.022308167408614452 -0.0019024673548872408 0 0.021293568398388134 -0.0012700084048048663 0 0.020122120654531866 -0.0022159736101714507 0 0.01481314756089989 -0.0025446122511812784 0 0.020788671202876551 -0.0013757613844880884 0 0.01481314756089989 -0.0025446122511812784 0 0.014687256023879665 -0.001857815278833428 0 0.016552042088152818 -0.002084555038370317 0 0.016381101124541692 -0.0020273592166600222 0 0.016180383516111545 -0.0020554664221109223 0 0.010387122267029534 -0.003452886722608641 0 0.0105548662956926 -0.0034177785121304294 0 0.010355104084111002 -0.0033728989841673505 0 0.020788671202876551 -0.0013757613844880884 0 0.014687256023879665 -0.001857815278833428 0 0.019610992945587727 -0.00055848194124266746 0 0.019275736159743512 -0.00041854041452027494 0 0.019321758588934521 -0.00057436948155897458 0 0.0070798599605676115 -0.0041672151447381522 0 0.0084808465996120269 -0.0040244979589222638 0 0.025693939122256117 -0.00093948503179722424 0 0.024649218563245021 -0.0004736210462264675 0 0.025124244453782047 2.7319814492368059e-05 0 0.010387122267029534 -0.003452886722608641 0 0.010355104084111002 -0.0033728989841673505 0 0.010130912369410994 -0.0034086562627300612 0 0.020788671202876551 -0.0013757613844880884 0 0.022083585816497095 -0.00051392279990919183 0 0.024649218563245021 -0.0004736210462264675 0 0.025124244453782047 2.7319814492368059e-05 0 0.024419813291230028 0.00050152925590704806 0 0.025124244453782047 2.7319814492368059e-05 0 0.025316293052764657 0.00036226414709008631 0 0.024984676409031379 0.00054358670177127942 0 0.025124244453782047 2.7319814492368059e-05 0 0.024419813291230028 0.00050152925590704806 0 0.024984676409031379 0.00054358670177127942 0 0.025693939122256117 -0.00093948503179722424 0 0.025124244453782047 2.7319814492368059e-05 0 0.025919011898466449 7.6199994200762142e-05 0 0.025316293052764657 0.00036226414709008631 0 0.025919011898466449 7.6199994200762142e-05 0 0.025237975886215382 0.00080178689387628882 0 0.025124244453782047 2.7319814492368059e-05 0 0.025316293052764657 0.00036226414709008631 0 0.025919011898466449 7.6199994200762142e-05 0 0.025919011898466449 7.6199994200762142e-05 0 0.025237975886215382 0.00080178689387628882 0 0.026473561313585532 0.00090667281017082005 0 0.033320288860106094 0.0013455234259141951 0 0.032261688597218667 0.00056160915985457925 0 0.031980882573113718 0.0013624381490496065 0 0.028576846619346487 0.00049113288928244545 0 0.028991314641618145 0.0012240363726200949 0 0.025237975886215382 0.00080178689387628882 0 0.025178644518738424 0.00093383378262723506 0 0.026473561313585532 0.00090667281017082005 0 0.028223641910513665 0.0003495017920742437 0 0.028126962566143669 0.00056425720878156059 0 0.027963302760528878 0.00036043774399035567 0 0.024419813291230028 0.00050152925590704806 0 0.025177891920200236 0.00093212153420722539 0 0.023704425244908754 0.00097338020364697801 0 0.028576846619346487 0.00049113288928244545 0 0.025017020460787416 0.0011726847486220415 0 0.024419813291230028 0.00050152925590704806 0 0.024984676409031379 0.00054358670177127942 0 0.025177891920200236 0.00093212153420722539 0 0.025316293052764657 0.00036226414709008631 0 0.024984676409031379 0.00054358670177127942 0 0.025237975886215382 0.00080178689387628882 0 0.024984676409031379 0.00054358670177127942 0 0.025237975886215382 0.00080178689387628882 0 0.025177891920200236 0.00093212153420722539 0 0.028256343618800181 0.00075975742974064315 0 0.028576846619346487 0.00049113288928244545 0 0.033320288860106094 0.0013455234259141951 0 0.033368960994010599 0.00045265520812463222 0 0.033960242095598184 -2.5118180181089032e-05 0 0.028576846619346487 0.00049113288928244545 0 0.031498373323586328 0.00019453795967952728 0 0.033368960994010599 0.00045265520812463222 0 0.033960242095598184 -2.5118180181089032e-05 0 0.033890503993043941 -5.9442219005360801e-05 0 0.033368960994010599 0.00045265520812463222 0 0.032261688597218667 0.00056160915985457925 0 0.033890503993043941 -5.9442219005360801e-05 0 0.033784891745415262 5.9395206082662169e-05 0 0.033837697285712218 -2.818416088926597e-05 0 0.033890503993043941 -5.9442219005360801e-05 0 0.033320288860106094 0.0013455234259141951 0 0.033368960994010599 0.00045265520812463222 0 0.032261688597218667 0.00056160915985457925 0 0.033016057105280223 0.00037777055408451724 0 0.033848411137059442 -6.1669970108059349e-05 0 0.033784891745415262 5.9395206082662169e-05 0 0.033785119658906904 -2.0880457670602073e-05 0 0.033837697285712218 -2.818416088926597e-05 0 0.033698305147156118 2.6732770097879232e-05 0 0.033737814882422466 -5.6021871451211578e-05 0 0.033785119658906904 -2.0880457670602073e-05 0 0.033784891745415262 5.9395206082662169e-05 0 0.033698305147156118 2.6732770097879232e-05 0 0.033541965764524485 0.00018379530204418881 0 0.033784891745415262 5.9395206082662169e-05 0 0.033698305147156118 2.6732770097879232e-05 0 0.033785119658906904 -2.0880457670602073e-05 0 0.033698305147156118 2.6732770097879232e-05 0 0.033618744903997237 8.9311295869568962e-07 0 0.033737814882422466 -5.6021871451211578e-05 0 0.03367352834791517 -0.00010031082367838921 0 0.032112584393631058 0.00029475573750596397 0 0.033577633779900654 -3.4602111952031499e-05 0 0.033752558955385412 -0.00026765763228529831 0 0.033690487131034078 -0.00036660030693323839 0 0.033698305147156118 2.6732770097879232e-05 0 0.033618744903997237 8.9311295869568962e-07 0 0.033541965764524485 0.00018379530204418881 0 0.033577633779900654 -3.4602111952031499e-05 0 0.033834351472740304 -3.0558144534154977e-05 0 0.033806218519767908 -0.00018341068182259858 0 0.033577633779900654 -3.4602111952031499e-05 0 0.033752558955385412 -0.00026765763228529831 0 0.033806218519767908 -0.00018341068182259858 0 0.030716555439410768 0.0012642309078204894 0 0.030675391856429379 0.0013876663864636736 0 0.031980882573113718 0.0013624381490496065 0 0.031096755537123651 0.00064385083404184704 0 0.028991314641618145 0.0012240363726200949 0 0.027098617961959066 3.4036659093417658e-05 0 0.027790558011263098 0.00087144766399282179 0 0.026473561313585532 0.00090667281017082005 0 0.033752558955385412 -0.00026765763228529831 0 0.033690487131034078 -0.00036660030693323839 0 0.033752114289008289 -0.000347446242886345 0 0.033690487131034078 -0.00036660030693323839 0 0.033752114289008289 -0.000347446242886345 0 0.03377065941323637 -0.00039589723613419649 0 0.032112584393631058 0.00029475573750596397 0 0.032851899681604596 0.00010761297688312852 0 0.031096755537123651 0.00064385083404184704 0 0.032851899681604596 0.00010761297688312852 0 0.031668482716091413 0.00077197845456358966 0 0.031768374974001125 0.00046975465041554441 0 0.032366010173349731 0.00045475884679755014 0 0.032112584393631058 0.00029475573750596397 0 0.031096755537123651 0.00064385083404184704 0 0.033016057105280223 0.00037777055408451724 0 0.032112584393631058 0.00029475573750596397 0 0.032261688597218667 0.00056160915985457925 0 0.030716555439410768 0.0012642309078204894 0 0.031980882573113718 0.0013624381490496065 0 0.02356993305919847 0.0024968237027993938 0 0.023862190023621003 0.0027284754758791318 0 0.021470056518066431 0.0031693927118393475 0 0.011100466786932398 -0.0018109543776269248 0 0.015718591925931502 -0.00091095281267813966 0 0.024868326261381756 0.0022761590403751761 0 0.024877268328757331 0.0023048659531858862 0 0.024923700745346718 0.0023000300004687867 0 0.024890013475539173 0.0023123036516479898 0 0.024923700745346718 0.0023000300004687867 0 0.024933573992072331 0.0023187634388105428 0 0.024890013475539173 0.0023123036516479898 0 0.024877268328757331 0.0023048659531858862 0 0.024923700745346718 0.0023000300004687867 0 0.024923700745346718 0.0023000300004687867 0 0.024921266104464268 0.0023309100731344285 0 0.024933573992072331 0.0023187634388105428 0 0.024923700745346718 0.0023000300004687867 0 0.024921266104464268 0.0023309100731344285 0 0.024986143259867324 0.0022707967833743015 0 0.024921266104464268 0.0023309100731344285 0 0.024933573992072331 0.0023187634388105428 0 0.024811732265501176 0.0024849869122937846 0 0.025048477415151368 0.0019825265632334383 0 0.015718591925931502 -0.00091095281267813966 0 0.024804220392854265 0.0023236467427037027 0 0.02356993305919847 0.0024968237027993938 0 0.023862190023621003 0.0027284754758791318 0 0.00087817288195918958 -0.0069656558563718617 0 0.00085037215928154429 -0.0066975219578488078 0 0.00066366697847389602 -0.0070499576179550673 0 0.00085037215928154429 -0.0066975219578488078 0 0.00066366697847389602 -0.0070499576179550673 0 0.0016215706365825774 -0.0064780827452157741 0 0.0010988508576636389 -0.0070525930044771394 0 -0.00029078675251659663 -0.0073956184110801583 0 0.00022019027632685408 -0.0068132098337455385 0 0.00066366697847389602 -0.0070499576179550673 0 -0.00052515268171246109 -0.0071810148712968206 0 0.00066366697847389602 -0.0070499576179550673 0 0.0016215706365825774 -0.0064780827452157741 0 0.0020970088048581927 -0.0072196711754212682 0 0.024921266104464268 0.0023309100731344285 0 0.024811732265501176 0.0024849869122937846 0 0.024872336587502656 0.0022728947228755694 0 0.024921266104464268 0.0023309100731344285 0 0.024872336587502656 0.0022728947228755694 0 0.024986143259867324 0.0022707967833743015 0 0.024496602493145052 0.002462610476325735 0 0.024605665283186421 0.0023132852931208067 0 0.024872336587502656 0.0022728947228755694 0 0.022615606576071305 0.0010926384640406138 0 0.025479784213669698 0.0025547956020318713 0 0.024811732265501176 0.0024849869122937846 0 0.024268830696030721 0.0023540723518070332 0 0.024872336587502656 0.0022728947228755694 0 0.0016215706365825774 -0.0064780827452157741 0 0.0020970088048581927 -0.0072196711754212682 0 0.003797726259140741 -0.0069523127667482695 0 -0.00029078675251659663 -0.0073956184110801583 0 0.0066819307782887893 -0.0042953745801934161 0 0.015380943438322008 -0.0027096377941327808 0 0.011280636887493433 -0.0020524476131439881 0 0.011329197521091027 -0.0014049392148396491 0 -0.00083913717883714323 -0.0070019498510633885 0 -0.00052515268171246109 -0.0071810148712968206 0 -0.00099486469933188757 -0.0071180140419174597 0 0.015718591925931502 -0.00091095281267813966 0 0.016681002717701905 -8.5494223046477181e-05 0 0.015718591925931502 -0.00091095281267813966 0 0.0066819307782887893 -0.0042953745801934161 0 0.024811732265501176 0.0024849869122937846 0 0.024248448385227495 0.002586341260487087 0 0.024268830696030721 0.0023540723518070332 0 -0.00083913717883714323 -0.0070019498510633885 0 -0.00069865237777250514 -0.0069894789968312073 0 -0.00052515268171246109 -0.0071810148712968206 0 0.019275736159743512 -0.00041854041452027494 0 0.018936093687429989 -0.00049585693270420568 0 0.018973131468524567 -0.00027645444714445778 0 0.014687256023879665 -0.001857815278833428 0 0.0084808465996120269 -0.0040244979589222638 0 0.014687256023879665 -0.001857815278833428 0 0.016681002717701905 -8.5494223046477181e-05 0 0.019275736159743512 -0.00041854041452027494 0 0.019321758588934521 -0.00057436948155897458 0 0.018936093687429989 -0.00049585693270420568 0 0.014364293663488632 -0.0013952127679310641 0 0.012966675110277949 -0.0011670052737634609 0 0.01306594554352224 -0.0014774445395903748 0 0.016681002717701905 -8.5494223046477181e-05 0 0.0066819307782887893 -0.0042953745801934161 0 0.012966675110277949 -0.0011670052737634609 0 0.012938835301716484 -0.0014356678988757525 0 0.01306594554352224 -0.0014774445395903748 0 0.0050524169961211696 -0.0047225533944829324 0 0.0050350708027243774 -0.0051660697216812214 0 0.0049669529771222236 -0.0051433450585272574 0 0.0066819307782887893 -0.0042953745801934161 0 0.0084808465996120269 -0.0040244979589222638 0 0.022083585816497095 -0.00051392279990919183 0 0.022615606576071305 0.0010926384640406138 0 0.024649218563245021 -0.0004736210462264675 0 0.024419813291230028 0.00050152925590704806 0 0.023608082355375561 -1.8810059091361783e-05 0 0.024419813291230028 0.00050152925590704806 0 0.023608082355375561 -1.8810059091361783e-05 0 0.023704425244908754 0.00097338020364697801 0 0.022615606576071305 0.0010926384640406138 0 0.025017020460787416 0.0011726847486220415 0 0.016681002717701905 -8.5494223046477181e-05 0 0.022615606576071305 0.0010926384640406138 0 0.024496602493145052 0.002462610476325735 0 0.024492137801897788 0.0022262774699842499 0 0.024605665283186421 0.0023132852931208067 0 0.024302206579244548 0.0022885509006674138 0 0.024159183711891841 0.0016109563165616666 0 0.02453785829734257 0.0019293667943417921 0 0.025017020460787416 0.0011726847486220415 0 0.025904454058153649 0.0011542318753472792 0 0.028126962566143669 0.00056425720878156059 0 0.027963302760528878 0.00036043774399035567 0 0.028004271796732705 0.0005684023645457513 0 0.02453785829734257 0.0019293667943417921 0 0.024893355022272953 0.0017948801584106125 0 0.024743903371046948 0.0011943482388236161 0 0.02453785829734257 0.0019293667943417921 0 0.024868288705992166 0.0021441971829132315 0 0.024893355022272953 0.0017948801584106125 0 0.02453785829734257 0.0019293667943417921 0 0.024633060848589589 0.0022467185630824864 0 0.024868288705992166 0.0021441971829132315 0 0.024633060848589589 0.0022467185630824864 0 0.024605665283186421 0.0023132852931208067 0 0.024872336587502656 0.0022728947228755694 0 0.025017020460787416 0.0011726847486220415 0 0.024462429844574994 0.0019133359545204368 0 0.024302206579244548 0.0022885509006674138 0 0.02453785829734257 0.0019293667943417921 0 0.024633060848589589 0.0022467185630824864 0 0.024492137801897788 0.0022262774699842499 0 0.024633060848589589 0.0022467185630824864 0 0.024605665283186421 0.0023132852931208067 0 0.024872336587502656 0.0022728947228755694 0 0.024868288705992166 0.0021441971829132315 0 0.02530280394317487 0.0021972491752109851 0 0.024633060848589589 0.0022467185630824864 0 0.024872336587502656 0.0022728947228755694 0 0.024868288705992166 0.0021441971829132315 0 0.024872336587502656 0.0022728947228755694 0 0.02530280394317487 0.0021972491752109851 0 0.024986143259867324 0.0022707967833743015 0 0.024893355022272953 0.0017948801584106125 0 0.02530280394317487 0.0021972491752109851 0 0.025272410160119007 0.0013800851465608746 0 0.024868288705992166 0.0021441971829132315 0 0.024893355022272953 0.0017948801584106125 0 0.02530280394317487 0.0021972491752109851 0 0.026290683440184412 0.0036617056921048386 0 0.026450569939112954 0.0022727566959147081 0 0.02530280394317487 0.0021972491752109851 0 0.02530280394317487 0.0021972491752109851 0 0.025766660526430438 0.0015636883612012581 0 0.025272410160119007 0.0013800851465608746 0 0.026450569939112954 0.0022727566959147081 0 0.02530280394317487 0.0021972491752109851 0 0.025766660526430438 0.0015636883612012581 0 0.026948451888232819 0.0040633993958717335 0 0.024820144959297824 0.0017959151812015713 0 0.024868326261381756 0.0022761590403751761 0 0.02530280394317487 0.0021972491752109851 0 0.024986143259867324 0.0022707967833743015 0 0.024868326261381756 0.0022761590403751761 0 0.024923700745346718 0.0023000300004687867 0 0.024986143259867324 0.0022707967833743015 0 0.026874138457668121 0.00079667985066640646 0 0.025207865846745614 0.00050664614537738052 0 0.026764071818192375 -6.1924890932909437e-05 0 0.02824247038345376 0.00050752156854819391 0 0.026874138457668121 0.00079667985066640646 0 0.026764071818192375 -6.1924890932909437e-05 0 0.025872449906518404 0.00035667542487608661 0 0.02581600669461151 0.0009570166515728575 0 0.025397767188772406 0.00081393339883699314 0 0.026432079278096442 0.0006969731713162737 0 0.025872449906518404 0.00035667542487608661 0 0.02581600669461151 0.0009570166515728575 0 0.026435494788632982 0.0013064897607325892 0 0.026432079278096442 0.0006969731713162737 0 0.02581600669461151 0.0009570166515728575 0 0.026435494788632982 0.0013064897607325892 0 0.025766660526430438 0.0015636883612012581 0 0.02581600669461151 0.0009570166515728575 0 0.026450569939112954 0.0022727566959147081 0 0.026435494788632982 0.0013064897607325892 0 0.025766660526430438 0.0015636883612012581 0 0.025766660526430438 0.0015636883612012581 0 0.02581600669461151 0.0009570166515728575 0 0.025272410160119007 0.0013800851465608746 0 0.02581600669461151 0.0009570166515728575 0 0.025272410160119007 0.0013800851465608746 0 0.025397767188772406 0.00081393339883699314 0 0.025272410160119007 0.0013800851465608746 0 0.025397767188772406 0.00081393339883699314 0 0.024743903371046948 0.0011943482388236161 0 0.024893355022272953 0.0017948801584106125 0 0.025272410160119007 0.0013800851465608746 0 0.024743903371046948 0.0011943482388236161 0 0.026404054005125951 0.0005627548672231512 0 0.025324418943758475 0.00050822027328445353 0 0.025872449906518404 0.00035667542487608661 0 0.025207865846745614 0.00050664614537738052 0 0.025397767188772406 0.00081393339883699314 0 0.025207865846745614 0.00050664614537738052 0 0.025397767188772406 0.00081393339883699314 0 0.024743903371046948 0.0011943482388236161 0 0.025207865846745614 0.00050664614537738052 0 0.02455679521733219 0.00062696218966923649 0 0.024743903371046948 0.0011943482388236161 0 0.025207865846745614 0.00050664614537738052 0 0.02455679521733219 0.00062696218966923649 0 0.024243476784618433 4.5537642897823073e-05 0 0.02455679521733219 0.00062696218966923649 0 0.024743903371046948 0.0011943482388236161 0 0.024030930573469854 0.00072347053843414811 0 0.024159183711891841 0.0016109563165616666 0 0.02453785829734257 0.0019293667943417921 0 0.024743903371046948 0.0011943482388236161 0 0.025904454058153649 0.0011542318753472792 0 0.02936869353251309 0.00040221139632319765 0 0.024159183711891841 0.0016109563165616666 0 0.024743903371046948 0.0011943482388236161 0 0.024030930573469854 0.00072347053843414811 0 0.028126962566143669 0.00056425720878156059 0 0.028004271796732705 0.0005684023645457513 0 0.028044003879711586 0.00075867966932214735 0 0.031498373323586328 0.00019453795967952728 0 0.02936869353251309 0.00040221139632319765 0 0.033960242095598184 -2.5118180181089032e-05 0 0.033864523751325114 -0.00013711925025209043 0 0.033919713178046589 -0.00011113621689354327 0 0.033864523751325114 -0.00013711925025209043 0 0.033919713178046589 -0.00011113621689354327 0 0.033927676551318092 -0.00012669528039106412 0 0.033875924762688754 -5.153775199778289e-05 0 0.033831971614902152 -9.8649374034100699e-05 0 0.033706620503629395 5.6738943830499736e-05 0 0.02936869353251309 0.00040221139632319765 0 0.031386951820626889 0.00063114485504699885 0 0.033827783280211951 -0.0001439226315383714 0 0.033831971614902152 -9.8649374034100699e-05 0 0.033706620503629395 5.6738943830499736e-05 0 0.02455679521733219 0.00062696218966923649 0 0.024030930573469854 0.00072347053843414811 0 0.024243476784618433 4.5537642897823073e-05 0 0.033864523751325114 -0.00013711925025209043 0 0.033831971614902152 -9.8649374034100699e-05 0 0.033927676551318092 -0.00012669528039106412 0 0.033875924762688754 -5.153775199778289e-05 0 0.033831971614902152 -9.8649374034100699e-05 0 0.033927676551318092 -0.00012669528039106412 0 0.02936869353251309 0.00040221139632319765 0 0.029789905938095759 0.00032735296137284629 0 0.031386951820626889 0.00063114485504699885 0 0.034596987430716826 1.7629591310568341e-07 0 0.034512743633299515 0.00016268117510638325 0 0.034456773158403134 9.5327841994083523e-05 0 0.034412275273179499 0.00011305127483803211 0 0.033875924762688754 -5.153775199778289e-05 0 0.033706620503629395 5.6738943830499736e-05 0 0.0339089893764715 2.7295551402862137e-05 0 0.034512743633299515 0.00016268117510638325 0 0.034456773158403134 9.5327841994083523e-05 0 0.034503320425215346 7.4441587560403368e-05 0 0.034512743633299515 0.00016268117510638325 0 0.034503320425215346 7.4441587560403368e-05 0 0.034650082302351511 7.8536296662615394e-05 0 0.034456773158403134 9.5327841994083523e-05 0 0.034430721742131222 6.341695356984207e-05 0 0.034503320425215346 7.4441587560403368e-05 0 0.034456773158403134 9.5327841994083523e-05 0 0.034412275273179499 0.00011305127483803211 0 0.03441694766896497 8.0716985946772078e-05 0 0.034456773158403134 9.5327841994083523e-05 0 0.034430721742131222 6.341695356984207e-05 0 0.03441694766896497 8.0716985946772078e-05 0 0.034430721742131222 6.341695356984207e-05 0 0.034449230121809962 -1.5038332986778837e-05 0 0.034503320425215346 7.4441587560403368e-05 0 0.034430721742131222 6.341695356984207e-05 0 0.034449230121809962 -1.5038332986778837e-05 0 0.034423250139838497 8.2542637610421259e-05 0 0.034449230121809962 -1.5038332986778837e-05 0 0.034503320425215346 7.4441587560403368e-05 0 0.034650082302351511 7.8536296662615394e-05 0 0.034736989236893348 3.0037656715048452e-06 0 0.034962616554873184 -1.2530558701926546e-05 0 0.035000162105909678 -1.0695056895804514e-07 0 0.034984307171210892 -7.2505900696379682e-06 0 0.034999780772428428 -5.8299428887842759e-08 0 0.034650082302351511 7.8536296662615394e-05 0 0.034845626738205147 8.5455804922404514e-05 0 0.034984307171210892 -7.2505900696379682e-06 0 0.035000045994621552 1.5972034830695114e-08 0 0.035000162105909678 -1.0695056895804514e-07 0 0.034999780772428428 -5.8299428887842759e-08 0 0.034449230121809962 -1.5038332986778837e-05 0 0.034650082302351511 7.8536296662615394e-05 0 0.034984307171210892 -7.2505900696379682e-06 0 0.025207865846745614 0.00050664614537738052 0 0.024243476784618433 4.5537642897823073e-05 0 0.025721900126293658 -0.00036546691985445763 0 0.031386951820626889 0.00063114485504699885 0 0.029907057118891914 -0.00013298918471206942 0 0.034547546844188967 0.00028529897934445326 0 0.034940444412626302 0.000139099942892255 0 0.034845626738205147 8.5455804922404514e-05 0 0.034547546844188967 0.00028529897934445326 0 0.034650082302351511 7.8536296662615394e-05 0 0.034845626738205147 8.5455804922404514e-05 0 0.031386951820626889 0.00063114485504699885 0 0.034508340292708287 -0.00047740321984487646 0 0.025207865846745614 0.00050664614537738052 0 0.025721900126293658 -0.00036546691985445763 0 0.026764071818192375 -6.1924890932909437e-05 0 0.034845626738205147 8.5455804922404514e-05 0 0.034984307171210892 -7.2505900696379682e-06 0 0.034942723073608267 5.7034768777314388e-05 0 0.034940444412626302 0.000139099942892255 0 0.034845626738205147 8.5455804922404514e-05 0 0.034942723073608267 5.7034768777314388e-05 0 0.034984307171210892 -7.2505900696379682e-06 0 0.034999780772428428 -5.8299428887842759e-08 0 0.034980624493110582 2.8365616922744789e-05 0 0.034940444412626302 0.000139099942892255 0 0.034942723073608267 5.7034768777314388e-05 0 0.034980624493110582 2.8365616922744789e-05 0 0.034984307171210892 -7.2505900696379682e-06 0 0.034942723073608267 5.7034768777314388e-05 0 0.034980624493110582 2.8365616922744789e-05 0 0.034992157033300372 2.1320330167824964e-05 0 0.035000031289436441 5.1064113508421686e-08 0 0.034980624493110582 2.8365616922744789e-05 0 0.035000031289436441 5.1064113508421686e-08 0 0.034999780772428428 -5.8299428887842759e-08 0 0.034980624493110582 2.8365616922744789e-05 0 0.031637980579580012 -0.00031635866253404909 0 0.029907057118891914 -0.00013298918471206942 0 0.034992157033300372 2.1320330167824964e-05 0 0.034940444412626302 0.000139099942892255 0 0.034980624493110582 2.8365616922744789e-05 0 0.028126371134672545 -0.00067379077962902048 0 0.025721900126293658 -0.00036546691985445763 0 0.026764071818192375 -6.1924890932909437e-05 0 0.033686774527201806 -0.00013942226939920116 0 0.033769484608934565 -0.00011056791833383374 0 0.033825462835111647 -0.00016305827934624283 0 0.034892035263145327 -0.00029653171983453296 0 0.034836290745463086 -0.00011659833812582963 0 0.034589766453224625 -0.00025064935247303609 0 0.034198176161110122 -1.0140120152571343e-05 0 0.034220889292037954 -0.00021051902434172579 0 0.034198176161110122 -1.0140120152571343e-05 0 0.034688047840052853 -0.00024234388167968971 0 0.034836290745463086 -0.00011659833812582963 0 0.034589766453224625 -0.00025064935247303609 0 0.034652850855663518 -6.2905556880215411e-05 0 0.034880414098956807 -9.4954396289196173e-05 0 0.034836290745463086 -0.00011659833812582963 0 0.034889315887268749 -7.6965527509739997e-05 0 0.034880414098956807 -9.4954396289196173e-05 0 0.034878840837286658 -6.1746928784131027e-05 0 0.034852921105154824 9.0592514484275508e-06 0 0.034889315887268749 -7.6965527509739997e-05 0 0.034878840837286658 -6.1746928784131027e-05 0 0.034882031617014433 -6.3683523628679757e-05 0 0.034880414098956807 -9.4954396289196173e-05 0 0.034889315887268749 -7.6965527509739997e-05 0 0.034878840837286658 -6.1746928784131027e-05 0 0.03367352834791517 -0.00010031082367838921 0 0.034198176161110122 -1.0140120152571343e-05 0 0.034198176161110122 -1.0140120152571343e-05 0 0.034356226282552138 0.00011734971357719735 0 0.033468342716942441 0.00031178533439620465 0 0.033690208514343116 0.00011764630883490674 0 0.033888349394988367 0.00021775678852895781 0 0.033577633779900654 -3.4602111952031499e-05 0 0.033468342716942441 0.00031178533439620465 0 0.033690208514343116 0.00011764630883490674 0 0.033577633779900654 -3.4602111952031499e-05 0 0.033690208514343116 0.00011764630883490674 0 0.033834351472740304 -3.0558144534154977e-05 0 0.033618744903997237 8.9311295869568962e-07 0 0.033686774527201806 -0.00013942226939920116 0 0.033737814882422466 -5.6021871451211578e-05 0 0.033686774527201806 -0.00013942226939920116 0 0.033769484608934565 -0.00011056791833383374 0 0.033737814882422466 -5.6021871451211578e-05 0 0.033769484608934565 -0.00011056791833383374 0 0.033737814882422466 -5.6021871451211578e-05 0 0.033827174359548545 -8.4709690252898328e-05 0 0.033785119658906904 -2.0880457670602073e-05 0 0.033837697285712218 -2.818416088926597e-05 0 0.033827174359548545 -8.4709690252898328e-05 0 0.033737814882422466 -5.6021871451211578e-05 0 0.033785119658906904 -2.0880457670602073e-05 0 0.033827174359548545 -8.4709690252898328e-05 0 0.033837697285712218 -2.818416088926597e-05 0 0.033827174359548545 -8.4709690252898328e-05 0 0.033878915012683863 -6.9343981945061656e-05 0 0.03389394014984555 -9.4476218347468396e-05 0 0.033827174359548545 -8.4709690252898328e-05 0 0.033825462835111647 -0.00016305827934624283 0 0.03389394014984555 -9.4476218347468396e-05 0 0.033827174359548545 -8.4709690252898328e-05 0 0.033878915012683863 -6.9343981945061656e-05 0 0.033960242095598184 -2.5118180181089032e-05 0 0.033919713178046589 -0.00011113621689354327 0 0.03391065229814446 -9.2857177684639851e-05 0 0.033960242095598184 -2.5118180181089032e-05 0 0.033890503993043941 -5.9442219005360801e-05 0 0.03391065229814446 -9.2857177684639851e-05 0 0.033837697285712218 -2.818416088926597e-05 0 0.033890503993043941 -5.9442219005360801e-05 0 0.033878915012683863 -6.9343981945061656e-05 0 0.033890503993043941 -5.9442219005360801e-05 0 0.033878915012683863 -6.9343981945061656e-05 0 0.03391065229814446 -9.2857177684639851e-05 0 0.03389394014984555 -9.4476218347468396e-05 0 0.03391065229814446 -9.2857177684639851e-05 0 0.033961056346581177 -0.00011676925511050175 0 0.03389394014984555 -9.4476218347468396e-05 0 0.033878915012683863 -6.9343981945061656e-05 0 0.03391065229814446 -9.2857177684639851e-05 0 0.033919713178046589 -0.00011113621689354327 0 0.03391065229814446 -9.2857177684639851e-05 0 0.033961056346581177 -0.00011676925511050175 0 0.033961056346581177 -0.00011676925511050175 0 0.034044099951341979 -0.00013566617698392136 0 0.033825462835111647 -0.00016305827934624283 0 0.033927676551318092 -0.00012669528039106412 0 0.033961056346581177 -0.00011676925511050175 0 0.034044099951341979 -0.00013566617698392136 0 0.033919713178046589 -0.00011113621689354327 0 0.033927676551318092 -0.00012669528039106412 0 0.033961056346581177 -0.00011676925511050175 0 0.034044099951341979 -0.00013566617698392136 0 0.0339089893764715 2.7295551402862137e-05 0 0.034330936365846693 -9.78402848502238e-06 0 0.033875924762688754 -5.153775199778289e-05 0 0.034044099951341979 -0.00013566617698392136 0 0.0339089893764715 2.7295551402862137e-05 0 0.033875924762688754 -5.153775199778289e-05 0 0.033927676551318092 -0.00012669528039106412 0 0.034044099951341979 -0.00013566617698392136 0 0.034044099951341979 -0.00013566617698392136 0 0.034589766453224625 -0.00025064935247303609 0 0.034330936365846693 -9.78402848502238e-06 0 0.03389394014984555 -9.4476218347468396e-05 0 0.033961056346581177 -0.00011676925511050175 0 0.033825462835111647 -0.00016305827934624283 0 0.034043253204600325 -0.00014323135910006073 0 0.034220889292037954 -0.00021051902434172579 0 0.033769484608934565 -0.00011056791833383374 0 0.033827174359548545 -8.4709690252898328e-05 0 0.033825462835111647 -0.00016305827934624283 0 0.034589766453224625 -0.00025064935247303609 0 0.034652850855663518 -6.2905556880215411e-05 0 0.034330936365846693 -9.78402848502238e-06 0 0.034652850855663518 -6.2905556880215411e-05 0 0.034484976043488547 2.7974093146912838e-05 0 0.034695718663816488 7.5420725421436711e-06 0 0.034652850855663518 -6.2905556880215411e-05 0 0.034484976043488547 2.7974093146912838e-05 0 0.034330936365846693 -9.78402848502238e-06 0 0.034484976043488547 2.7974093146912838e-05 0 0.03436771584088235 4.22755357886428e-05 0 0.034330936365846693 -9.78402848502238e-06 0 0.034484976043488547 2.7974093146912838e-05 0 0.034583591642059965 6.3819640895982179e-05 0 0.034407366484695355 7.4384508693764505e-05 0 0.034484976043488547 2.7974093146912838e-05 0 0.03436771584088235 4.22755357886428e-05 0 0.034407366484695355 7.4384508693764505e-05 0 0.034484976043488547 2.7974093146912838e-05 0 0.034583591642059965 6.3819640895982179e-05 0 0.034695718663816488 7.5420725421436711e-06 0 0.034412275273179499 0.00011305127483803211 0 0.03436771584088235 4.22755357886428e-05 0 0.034394463298150713 6.9519176801890222e-05 0 0.034412275273179499 0.00011305127483803211 0 0.03436771584088235 4.22755357886428e-05 0 0.034330936365846693 -9.78402848502238e-06 0 0.034596987430716826 1.7629591310568341e-07 0 0.034200156709776844 3.2115841151906896e-05 0 0.034407366484695355 7.4384508693764505e-05 0 0.034394463298150713 6.9519176801890222e-05 0 0.034412609405128851 7.6842849050923773e-05 0 0.03436771584088235 4.22755357886428e-05 0 0.034407366484695355 7.4384508693764505e-05 0 0.034394463298150713 6.9519176801890222e-05 0 0.034407366484695355 7.4384508693764505e-05 0 0.034412609405128851 7.6842849050923773e-05 0 0.034423250139838497 8.2542637610421259e-05 0 0.034412275273179499 0.00011305127483803211 0 0.034394463298150713 6.9519176801890222e-05 0 0.03441694766896497 8.0716985946772078e-05 0 0.034394463298150713 6.9519176801890222e-05 0 0.034412609405128851 7.6842849050923773e-05 0 0.03441694766896497 8.0716985946772078e-05 0 0.034430721742131222 6.341695356984207e-05 0 0.034412609405128851 7.6842849050923773e-05 0 0.03441694766896497 8.0716985946772078e-05 0 0.035000045994621552 1.5972034830695114e-08 0 0.035000162105909678 -1.0695056895804514e-07 0 0.035000038272499839 -6.9329319198752283e-09 0 0.034449230121809962 -1.5038332986778837e-05 0 0.034423250139838497 8.2542637610421259e-05 0 0.03444321713571355 0.00016532265524718163 0 0.034736989236893348 3.0037656715048452e-06 0 0.034731180690646478 7.2577856845638299e-05 0 0.035000162105909678 -1.0695056895804514e-07 0 0.035000038272499839 -6.9329319198752283e-09 0 0.035002089271023863 3.5900346661735178e-06 0 0.034430721742131222 6.341695356984207e-05 0 0.034412609405128851 7.6842849050923773e-05 0 0.034423250139838497 8.2542637610421259e-05 0 0.034407366484695355 7.4384508693764505e-05 0 0.034423250139838497 8.2542637610421259e-05 0 0.03444321713571355 0.00016532265524718163 0 0.035000038272499839 -6.9329319198752283e-09 0 0.035002089271023863 3.5900346661735178e-06 0 0.034999840789505632 4.4338559391915619e-08 0 0.034583591642059965 6.3819640895982179e-05 0 0.034407366484695355 7.4384508693764505e-05 0 0.03444321713571355 0.00016532265524718163 0 0.034731180690646478 7.2577856845638299e-05 0 0.034926846392374589 4.9999576343800843e-05 0 0.034583591642059965 6.3819640895982179e-05 0 0.03444321713571355 0.00016532265524718163 0 0.034946796996659521 4.2115446388184045e-05 0 0.035002089271023863 3.5900346661735178e-06 0 0.034999840789505632 4.4338559391915619e-08 0 0.034946796996659521 4.2115446388184045e-05 0 0.034583591642059965 6.3819640895982179e-05 0 0.034695718663816488 7.5420725421436711e-06 0 0.034946796996659521 4.2115446388184045e-05 0 0.034695718663816488 7.5420725421436711e-06 0 0.034841402857570619 -4.5905601323476074e-05 0 0.034946796996659521 4.2115446388184045e-05 0 0.034836290745463086 -0.00011659833812582963 0 0.034889315887268749 -7.6965527509739997e-05 0 0.034841402857570619 -4.5905601323476074e-05 0 0.034652850855663518 -6.2905556880215411e-05 0 0.034695718663816488 7.5420725421436711e-06 0 0.034841402857570619 -4.5905601323476074e-05 0 0.034836290745463086 -0.00011659833812582963 0 0.034652850855663518 -6.2905556880215411e-05 0 0.034841402857570619 -4.5905601323476074e-05 0 0.034889315887268749 -7.6965527509739997e-05 0 0.034913209270743817 -3.6557422504622755e-05 0 0.034882031617014433 -6.3683523628679757e-05 0 0.034889315887268749 -7.6965527509739997e-05 0 0.034913209270743817 -3.6557422504622755e-05 0 0.034916933352390316 -1.9396509692335692e-05 0 0.034889315887268749 -7.6965527509739997e-05 0 0.034841402857570619 -4.5905601323476074e-05 0 0.034916933352390316 -1.9396509692335692e-05 0 0.034841402857570619 -4.5905601323476074e-05 0 0.034916933352390316 -1.9396509692335692e-05 0 0.034946796996659521 4.2115446388184045e-05 0 0.034916933352390316 -1.9396509692335692e-05 0 0.034950372357372035 2.7789707065281198e-06 0 0.034946796996659521 4.2115446388184045e-05 0 0.034913209270743817 -3.6557422504622755e-05 0 0.034916933352390316 -1.9396509692335692e-05 0 0.034950372357372035 2.7789707065281198e-06 0 0.034999840789505632 4.4338559391915619e-08 0 0.034950372357372035 2.7789707065281198e-06 0 0.034999921885504222 5.1671768954496672e-09 0 0.034999840789505632 4.4338559391915619e-08 0 0.034950372357372035 2.7789707065281198e-06 0 0.034946796996659521 4.2115446388184045e-05 0 0.034950372357372035 2.7789707065281198e-06 0 0.034999921885504222 5.1671768954496672e-09 0 0.034925199479382538 -2.9913372556702905e-05 0 0.034999921885504222 5.1671768954496672e-09 0 0.034985802308394744 -7.929518871624794e-06 0 0.035000003518922677 -5.2676502762535511e-09 0 0.034999921885504222 5.1671768954496672e-09 0 0.034985802308394744 -7.929518871624794e-06 0 0.034925199479382538 -2.9913372556702905e-05 0 0.034985802308394744 -7.929518871624794e-06 0 0.034983045483004481 -3.7262667715999472e-05 0 0.034925199479382538 -2.9913372556702905e-05 0 0.034913209270743817 -3.6557422504622755e-05 0 0.034925199479382538 -2.9913372556702905e-05 0 0.034882031617014433 -6.3683523628679757e-05 0 0.034913209270743817 -3.6557422504622755e-05 0 0.034950372357372035 2.7789707065281198e-06 0 0.034925199479382538 -2.9913372556702905e-05 0 0.034857410426213986 -1.8455452513151308e-05 0 0.034714032992566361 8.9997845724833392e-06 0 0.034999612140554387 1.9061299825807562e-07 0 0.03500350623394699 -6.3678020636881946e-06 0 0.035000003518922677 -5.2676502762535511e-09 0 0.035000005822194064 -5.5625272495659334e-10 0 0.034858335711774324 -1.2367956139253139e-05 0 0.03499992731187964 -3.0634310282167134e-09 0 0.034985802308394744 -7.929518871624794e-06 0 0.03500350623394699 -6.3678020636881946e-06 0 0.035000003518922677 -5.2676502762535511e-09 0 0.034804374096657466 -5.7083032313790853e-05 0 0.034858335711774324 -1.2367956139253139e-05 0 0.034714032992566361 8.9997845724833392e-06 0 0.0346387986982436 -6.8585237929200452e-05 0 0.034726943649234412 -4.8818975731119232e-05 0 0.034605816342974313 -8.6861334248433762e-05 0 0.034714032992566361 8.9997845724833392e-06 0 0.0346387986982436 -6.8585237929200452e-05 0 0.034985802308394744 -7.929518871624794e-06 0 0.034983045483004481 -3.7262667715999472e-05 0 0.03500350623394699 -6.3678020636881946e-06 0 0.034726943649234412 -4.8818975731119232e-05 0 0.034859171516153045 -0.00010540099973301348 0 0.034924377053951142 -2.9577724322317658e-05 0 0.034857410426213986 -1.8455452513151308e-05 0 0.034726943649234412 -4.8818975731119232e-05 0 0.034924377053951142 -2.9577724322317658e-05 0 0.034857410426213986 -1.8455452513151308e-05 0 0.034714032992566361 8.9997845724833392e-06 0 0.034726943649234412 -4.8818975731119232e-05 0 0.0346387986982436 -6.8585237929200452e-05 0 0.034726943649234412 -4.8818975731119232e-05 0 0.034649798018527314 -4.5569476039983024e-05 0 0.034654063753870729 4.2116861967030909e-05 0 0.034936007367241298 -0.00027302672999663475 0 0.034726943649234412 -4.8818975731119232e-05 0 0.034649798018527314 -4.5569476039983024e-05 0 0.034629558005170369 -2.385326905973982e-05 0 0.034593915302954033 -2.6120847359712163e-05 0 0.034599331375479173 -4.5483616684584506e-05 0 0.034629558005170369 -2.385326905973982e-05 0 0.034649798018527314 -4.5569476039983024e-05 0 0.034593915302954033 -2.6120847359712163e-05 0 0.034629558005170369 -2.385326905973982e-05 0 0.034605816342974313 -8.6861334248433762e-05 0 0.0346387986982436 -6.8585237929200452e-05 0 0.034607524546021617 -4.5899548132752019e-05 0 0.0346387986982436 -6.8585237929200452e-05 0 0.034593915302954033 -2.6120847359712163e-05 0 0.034607524546021617 -4.5899548132752019e-05 0 0.0346387986982436 -6.8585237929200452e-05 0 0.034649798018527314 -4.5569476039983024e-05 0 0.034593915302954033 -2.6120847359712163e-05 0 0.034593915302954033 -2.6120847359712163e-05 0 0.034607524546021617 -4.5899548132752019e-05 0 0.034464146388149215 3.3497344930140123e-05 0 0.034593915302954033 -2.6120847359712163e-05 0 0.034599331375479173 -4.5483616684584506e-05 0 0.034464146388149215 3.3497344930140123e-05 0 0.034832932315656061 -7.3565012349908332e-05 0 0.034607524546021617 -4.5899548132752019e-05 0 0.034852921105154824 9.0592514484275508e-06 0 0.034925199479382538 -2.9913372556702905e-05 0 0.034832932315656061 -7.3565012349908332e-05 0 0.034882031617014433 -6.3683523628679757e-05 0 0.034878840837286658 -6.1746928784131027e-05 0 0.034832932315656061 -7.3565012349908332e-05 0 0.034852921105154824 9.0592514484275508e-06 0 0.034878840837286658 -6.1746928784131027e-05 0 0.034832932315656061 -7.3565012349908332e-05 0 0.034882031617014433 -6.3683523628679757e-05 0 0.034605816342974313 -8.6861334248433762e-05 0 0.034832932315656061 -7.3565012349908332e-05 0 0.034607524546021617 -4.5899548132752019e-05 0 0.034804374096657466 -5.7083032313790853e-05 0 0.034835057726304679 -6.2577731995416572e-05 0 0.034983045483004481 -3.7262667715999472e-05 0 0.034925199479382538 -2.9913372556702905e-05 0 0.034832932315656061 -7.3565012349908332e-05 0 0.034607524546021617 -4.5899548132752019e-05 0 0.034464146388149215 3.3497344930140123e-05 0 0.034852921105154824 9.0592514484275508e-06 0 0.034464146388149215 3.3497344930140123e-05 0 0.033888349394988367 0.00021775678852895781 0 0.034040250377768179 -4.866596916257745e-05 0 0.034470267558661144 4.2265349062474654e-05 0 0.034356226282552138 0.00011734971357719735 0 0.033888349394988367 0.00021775678852895781 0 0.033834351472740304 -3.0558144534154977e-05 0 0.034040250377768179 -4.866596916257745e-05 0 0.033690208514343116 0.00011764630883490674 0 0.033888349394988367 0.00021775678852895781 0 0.033834351472740304 -3.0558144534154977e-05 0 0.033834351472740304 -3.0558144534154977e-05 0 0.034040250377768179 -4.866596916257745e-05 0 0.033978593400175047 -0.00019029335685753139 0 0.033978593400175047 -0.00019029335685753139 0 0.033964770099560414 -0.00029941277738071995 0 0.034082506494313866 -0.00026753773779332262 0 0.033834351472740304 -3.0558144534154977e-05 0 0.033978593400175047 -0.00019029335685753139 0 0.033806218519767908 -0.00018341068182259858 0 0.033978593400175047 -0.00019029335685753139 0 0.033806218519767908 -0.00018341068182259858 0 0.03387201391184954 -0.0003090655203810898 0 0.033752558955385412 -0.00026765763228529831 0 0.033806218519767908 -0.00018341068182259858 0 0.03387201391184954 -0.0003090655203810898 0 0.033940266108314715 -0.00043723827176964607 0 0.03383707823810414 -0.00039006508449012159 0 0.033952884188889684 -0.00062429581766787544 0 0.033807604470313148 -0.0003664356813940514 0 0.03383707823810414 -0.00039006508449012159 0 0.033952884188889684 -0.00062429581766787544 0 0.033752558955385412 -0.00026765763228529831 0 0.033805480704649685 -0.00035014272591721903 0 0.03387201391184954 -0.0003090655203810898 0 0.032851899681604596 0.00010761297688312852 0 0.034066502457053831 -0.00068017558777264901 0 0.033752558955385412 -0.00026765763228529831 0 0.033752114289008289 -0.000347446242886345 0 0.033805480704649685 -0.00035014272591721903 0 0.033752114289008289 -0.000347446242886345 0 0.033805480704649685 -0.00035014272591721903 0 0.03377065941323637 -0.00039589723613419649 0 0.033805480704649685 -0.00035014272591721903 0 0.03387201391184954 -0.0003090655203810898 0 0.03383707823810414 -0.00039006508449012159 0 0.03387201391184954 -0.0003090655203810898 0 0.033901713832591288 -0.00036201420355674733 0 0.03383707823810414 -0.00039006508449012159 0 0.033978593400175047 -0.00019029335685753139 0 0.03387201391184954 -0.0003090655203810898 0 0.033964770099560414 -0.00029941277738071995 0 0.033964770099560414 -0.00029941277738071995 0 0.033901713832591288 -0.00036201420355674733 0 0.033940266108314715 -0.00043723827176964607 0 0.03387201391184954 -0.0003090655203810898 0 0.033964770099560414 -0.00029941277738071995 0 0.033901713832591288 -0.00036201420355674733 0 0.033901713832591288 -0.00036201420355674733 0 0.033940266108314715 -0.00043723827176964607 0 0.03383707823810414 -0.00039006508449012159 0 0.032290766751756787 5.301328887903107e-05 0 0.032537127969161618 5.3884791467098553e-05 0 0.032867238489107407 -0.00071358500517552817 0 0.032851899681604596 0.00010761297688312852 0 0.033301553293487371 2.4599279082908042e-05 0 0.033805480704649685 -0.00035014272591721903 0 0.03377065941323637 -0.00039589723613419649 0 0.03383707823810414 -0.00039006508449012159 0 0.034223501974981328 -0.00042692065678501202 0 0.034153385871912335 -0.00035503922239815233 0 0.033952884188889684 -0.00062429581766787544 0 0.034223501974981328 -0.00042692065678501202 0 0.034153385871912335 -0.00035503922239815233 0 0.034367098769338245 -0.00032771258074015125 0 0.033940266108314715 -0.00043723827176964607 0 0.034153385871912335 -0.00035503922239815233 0 0.033952884188889684 -0.00062429581766787544 0 0.033940266108314715 -0.00043723827176964607 0 0.034153385871912335 -0.00035503922239815233 0 0.034082506494313866 -0.00026753773779332262 0 0.033964770099560414 -0.00029941277738071995 0 0.033940266108314715 -0.00043723827176964607 0 0.034082506494313866 -0.00026753773779332262 0 0.034153385871912335 -0.00035503922239815233 0 0.034082506494313866 -0.00026753773779332262 0 0.034345801523269909 -0.00018841052240392456 0 0.034082506494313866 -0.00026753773779332262 0 0.034237487441368161 -0.00012091247003631289 0 0.034345801523269909 -0.00018841052240392456 0 0.034464146388149215 3.3497344930140123e-05 0 0.034237487441368161 -0.00012091247003631289 0 0.034345801523269909 -0.00018841052240392456 0 0.034464146388149215 3.3497344930140123e-05 0 0.034040250377768179 -4.866596916257745e-05 0 0.034237487441368161 -0.00012091247003631289 0 0.033978593400175047 -0.00019029335685753139 0 0.034082506494313866 -0.00026753773779332262 0 0.034237487441368161 -0.00012091247003631289 0 0.034040250377768179 -4.866596916257745e-05 0 0.033978593400175047 -0.00019029335685753139 0 0.034237487441368161 -0.00012091247003631289 0 0.034599331375479173 -4.5483616684584506e-05 0 0.034464146388149215 3.3497344930140123e-05 0 0.034518716519535232 -0.00014595566484036291 0 0.034464146388149215 3.3497344930140123e-05 0 0.034518716519535232 -0.00014595566484036291 0 0.034345801523269909 -0.00018841052240392456 0 0.034518716519535232 -0.00014595566484036291 0 0.034345801523269909 -0.00018841052240392456 0 0.034367098769338245 -0.00032771258074015125 0 0.034599331375479173 -4.5483616684584506e-05 0 0.034518716519535232 -0.00014595566484036291 0 0.034655476739635892 -0.00015366095566338162 0 0.032679395328883469 0.00042608980559354906 0 0.032863292196090091 0.00092526831687315904 0 0.030450488406585024 0.0010011006267214777 0 0.030884230739644948 0.00073315466980986899 0 0.031385330863369879 0.001782744243891585 0 0.034518716519535232 -0.00014595566484036291 0 0.034553770122576516 -0.00038430546897824376 0 0.034655476739635892 -0.00015366095566338162 0 0.030450488406585024 0.0010011006267214777 0 0.031147284494317133 0.0019485924634481007 0 0.031385330863369879 0.001782744243891585 0 0.034518716519535232 -0.00014595566484036291 0 0.034553770122576516 -0.00038430546897824376 0 0.034367098769338245 -0.00032771258074015125 0 0.034153385871912335 -0.00035503922239815233 0 0.034345801523269909 -0.00018841052240392456 0 0.034367098769338245 -0.00032771258074015125 0 0.034553770122576516 -0.00038430546897824376 0 0.034367098769338245 -0.00032771258074015125 0 0.034349512873837564 -0.00048455087293770876 0 0.034223501974981328 -0.00042692065678501202 0 0.034367098769338245 -0.00032771258074015125 0 0.034349512873837564 -0.00048455087293770876 0 0.034223501974981328 -0.00042692065678501202 0 0.034349512873837564 -0.00048455087293770876 0 0.034252840738153163 -0.00062551709684191884 0 0.034553770122576516 -0.00038430546897824376 0 0.034349512873837564 -0.00048455087293770876 0 0.034348969026618957 -0.00067952939476366187 0 0.034223501974981328 -0.00042692065678501202 0 0.034252840738153163 -0.00062551709684191884 0 0.034193911901048729 -0.00081973316534079293 0 0.032679395328883469 0.00042608980559354906 0 0.030412272864334317 -0.00051042938065535073 0 0.035370117431927167 -0.00069628278239238829 0 0.029629472831733041 -0.0010241712601590668 0 0.034349512873837564 -0.00048455087293770876 0 0.034348969026618957 -0.00067952939476366187 0 0.034252840738153163 -0.00062551709684191884 0 0.030412272864334317 -0.00051042938065535073 0 0.033069813447311629 -0.0013516250462970725 0 0.030322545964768518 0.0018063628506013838 0 0.025743740169994589 0.00025161676514718874 0 0.030450488406585024 0.0010011006267214777 0 0.029746566460243602 8.9712358222829923e-06 0 0.030353808440146068 0.00034645348939591684 0 0.030884230739644948 0.00073315466980986899 0 0.030353808440146068 0.00034645348939591684 0 0.030370251576501396 -0.00035781011480285658 0 0.02914416031862329 0.0025438464523789635 0 0.02849451412483012 0.0011814852704222084 0 0.030008751236603865 0.0015158649370349609 0 0.030450488406585024 0.0010011006267214777 0 0.030884230739644948 0.00073315466980986899 0 0.030353808440146068 0.00034645348939591684 0 0.029746566460243602 8.9712358222829923e-06 0 0.030353808440146068 0.00034645348939591684 0 0.030370251576501396 -0.00035781011480285658 0 0.030412272864334317 -0.00051042938065535073 0 0.029629472831733041 -0.0010241712601590668 0 0.034311370802148064 -0.00067317211799191614 0 0.034252840738153163 -0.00062551709684191884 0 0.034193911901048729 -0.00081973316534079293 0 0.024625223112061313 -6.9205671819776797e-05 0 0.024655259714545276 -0.00033850188673306648 0 0.024379747149943884 -0.00040794876749959848 0 0.024625223112061313 -6.9205671819776797e-05 0 0.024992498473480281 -0.00028910586180642473 0 0.024655259714545276 -0.00033850188673306648 0 0.030412272864334317 -0.00051042938065535073 0 0.025743740169994589 0.00025161676514718874 0 0.024992498473480281 -0.00028910586180642473 0 0.024655259714545276 -0.00033850188673306648 0 0.024626883604282133 -0.00058753309476949509 0 0.024655259714545276 -0.00033850188673306648 0 0.024626883604282133 -0.00058753309476949509 0 0.024379747149943884 -0.00040794876749959848 0 0.033826121353945325 -0.0024314705480465615 0 0.034335672678351643 -0.0017050025360935549 0 0.033825117537336552 -0.0017655550479153293 0 0.034335672678351643 -0.0017050025360935549 0 0.033825117537336552 -0.0017655550479153293 0 0.033928481059628306 -0.0011960041156141089 0 0.033825117537336552 -0.0017655550479153293 0 0.033585778815251613 -0.0015195687396542868 0 0.033928481059628306 -0.0011960041156141089 0 0.033585778815251613 -0.0015195687396542868 0 0.033303400614901259 -0.0014932362863392219 0 0.033505163321502489 -0.0012259289749826396 0 0.033585778815251613 -0.0015195687396542868 0 0.033928481059628306 -0.0011960041156141089 0 0.033505163321502489 -0.0012259289749826396 0 0.033585778815251613 -0.0015195687396542868 0 0.033428577334612415 -0.0018817983642964668 0 0.033303400614901259 -0.0014932362863392219 0 0.033826121353945325 -0.0024314705480465615 0 0.033825117537336552 -0.0017655550479153293 0 0.033428577334612415 -0.0018817983642964668 0 0.033825117537336552 -0.0017655550479153293 0 0.033585778815251613 -0.0015195687396542868 0 0.033428577334612415 -0.0018817983642964668 0 0.025014016269900022 -0.003060678921596225 0 0.02267148827048427 -0.0026673032071110967 0 0.024368483340276737 -0.0010810851127673316 0 0.033070997910002418 -0.0023071025529189165 0 0.033138667900131105 -0.0017409147711250454 0 0.03286028880676474 -0.0015905855296350568 0 0.033070997910002418 -0.0023071025529189165 0 0.033428577334612415 -0.0018817983642964668 0 0.033138667900131105 -0.0017409147711250454 0 0.033428577334612415 -0.0018817983642964668 0 0.033138667900131105 -0.0017409147711250454 0 0.033303400614901259 -0.0014932362863392219 0 0.02502554865935153 -0.0031963994874670307 0 0.028017665984591929 -0.0012571473105546336 0 0.03286028880676474 -0.0015905855296350568 0 0.033056429692247272 -0.0014079434523550129 0 0.033074979942521676 -0.0011819427827308687 0 0.033138667900131105 -0.0017409147711250454 0 0.03286028880676474 -0.0015905855296350568 0 0.033056429692247272 -0.0014079434523550129 0 0.033138667900131105 -0.0017409147711250454 0 0.033303400614901259 -0.0014932362863392219 0 0.033056429692247272 -0.0014079434523550129 0 0.033303400614901259 -0.0014932362863392219 0 0.033056429692247272 -0.0014079434523550129 0 0.033248359879181982 -0.0012850721490013806 0 0.033056429692247272 -0.0014079434523550129 0 0.033248359879181982 -0.0012850721490013806 0 0.033074979942521676 -0.0011819427827308687 0 0.033303400614901259 -0.0014932362863392219 0 0.033248359879181982 -0.0012850721490013806 0 0.033505163321502489 -0.0012259289749826396 0 0.031096755537123651 0.00064385083404184704 0 0.028017665984591929 -0.0012571473105546336 0 0.032537127969161618 5.3884791467098553e-05 0 0.033590712176194581 -0.00065874046656251215 0 0.033952884188889684 -0.00062429581766787544 0 0.032537127969161618 5.3884791467098553e-05 0 0.033126466386160736 -0.00063616741208248802 0 0.033590712176194581 -0.00065874046656251215 0 0.032290766751756787 5.301328887903107e-05 0 0.03286028880676474 -0.0015905855296350568 0 0.032867238489107407 -0.00071358500517552817 0 0.033248359879181982 -0.0012850721490013806 0 0.033299778463106409 -0.0011107979208679283 0 0.033505163321502489 -0.0012259289749826396 0 0.033299778463106409 -0.0011107979208679283 0 0.033430605843664876 -0.00092443424601104402 0 0.033505163321502489 -0.0012259289749826396 0 0.033074979942521676 -0.0011819427827308687 0 0.03319315577611251 -0.00091726446578410941 0 0.032867238489107407 -0.00071358500517552817 0 0.033299778463106409 -0.0011107979208679283 0 0.033074979942521676 -0.0011819427827308687 0 0.03319315577611251 -0.00091726446578410941 0 0.033248359879181982 -0.0012850721490013806 0 0.033299778463106409 -0.0011107979208679283 0 0.033074979942521676 -0.0011819427827308687 0 0.033299778463106409 -0.0011107979208679283 0 0.03319315577611251 -0.00091726446578410941 0 0.033430605843664876 -0.00092443424601104402 0 0.03319315577611251 -0.00091726446578410941 0 0.033430605843664876 -0.00092443424601104402 0 0.033126466386160736 -0.00063616741208248802 0 0.03286028880676474 -0.0015905855296350568 0 0.033074979942521676 -0.0011819427827308687 0 0.032867238489107407 -0.00071358500517552817 0 0.032537127969161618 5.3884791467098553e-05 0 0.032867238489107407 -0.00071358500517552817 0 0.033126466386160736 -0.00063616741208248802 0 0.033430605843664876 -0.00092443424601104402 0 0.033126466386160736 -0.00063616741208248802 0 0.033590712176194581 -0.00065874046656251215 0 0.03319315577611251 -0.00091726446578410941 0 0.032867238489107407 -0.00071358500517552817 0 0.033126466386160736 -0.00063616741208248802 0 0.034223501974981328 -0.00042692065678501202 0 0.033952884188889684 -0.00062429581766787544 0 0.033928481059628306 -0.0011960041156141089 0 0.034223501974981328 -0.00042692065678501202 0 0.034335672678351643 -0.0017050025360935549 0 0.033928481059628306 -0.0011960041156141089 0 0.033590712176194581 -0.00065874046656251215 0 0.033952884188889684 -0.00062429581766787544 0 0.033704761550185577 -0.00094765572536018407 0 0.033952884188889684 -0.00062429581766787544 0 0.033928481059628306 -0.0011960041156141089 0 0.033704761550185577 -0.00094765572536018407 0 0.033928481059628306 -0.0011960041156141089 0 0.033505163321502489 -0.0012259289749826396 0 0.033704761550185577 -0.00094765572536018407 0 0.033430605843664876 -0.00092443424601104402 0 0.033505163321502489 -0.0012259289749826396 0 0.033704761550185577 -0.00094765572536018407 0 0.033430605843664876 -0.00092443424601104402 0 0.033590712176194581 -0.00065874046656251215 0 0.033704761550185577 -0.00094765572536018407 0 0.032732367842978387 0.0023564028480666421 0 0.031476291076264373 0.0012008170637270797 0 0.03074370493009549 0.0024754326424026672 0 0.034630760045662963 0.00048752310367794119 0 0.034482734554059945 0.00033951922961040956 0 0.034234426379804929 0.00048494356239496366 0 0.034630760045662963 0.00048752310367794119 0 0.034234426379804929 0.00048494356239496366 0 0.034113152022322187 0.00066376206331055399 0 0.034630760045662963 0.00048752310367794119 0 0.034113152022322187 0.00066376206331055399 0 0.034024159614772953 0.00084962634364071834 0 0.032732367842978387 0.0023564028480666421 0 0.033477214648710639 0.00096646146858306629 0 0.032425223171755446 0.00096697936392066105 0 0.033698831173804962 0.0013705822038321436 0 0.034019342938380263 0.00088581640476975059 0 0.032732367842978387 0.0023564028480666421 0 0.033477214648710639 0.00096646146858306629 0 0.034024159614772953 0.00084962634364071834 0 0.033652409856365056 0.00073938088846151365 0 0.033477214648710639 0.00096646146858306629 0 0.034024159614772953 0.00084962634364071834 0 0.032691405080913845 -8.9036340757911565e-06 0 0.033477214648710639 0.00096646146858306629 0 0.032425223171755446 0.00096697936392066105 0 0.032732367842978387 0.0023564028480666421 0 0.032425223171755446 0.00096697936392066105 0 0.031476291076264373 0.0012008170637270797 0 0.031773339414805639 0.00024156703891961643 0 0.032425223171755446 0.00096697936392066105 0 0.031476291076264373 0.0012008170637270797 0 0.030210703972754122 0.00016346791511684858 0 0.031476291076264373 0.0012008170637270797 0 0.030008751236603865 0.0015158649370349609 0 0.030210703972754122 0.00016346791511684858 0 0.031773339414805639 0.00024156703891961643 0 0.031476291076264373 0.0012008170637270797 0 0.02658661276803749 -0.00063492022391198788 0 0.025743740169994589 0.00025161676514718874 0 0.030210703972754122 0.00016346791511684858 0 0.02849451412483012 0.0011814852704222084 0 0.030008751236603865 0.0015158649370349609 0 0.02914416031862329 0.0025438464523789635 0 0.030008751236603865 0.0015158649370349609 0 0.03074370493009549 0.0024754326424026672 0 0.031476291076264373 0.0012008170637270797 0 0.030008751236603865 0.0015158649370349609 0 0.03074370493009549 0.0024754326424026672 0 0.03074370493009549 0.0024754326424026672 0 0.031519071690317035 0.0037616114928447526 0 0.029797221403726589 0.0038686100379831186 0 0.02914416031862329 0.0025438464523789635 0 0.03074370493009549 0.0024754326424026672 0 0.029797221403726589 0.0038686100379831186 0 0.030322545964768518 0.0018063628506013838 0 0.030517158093647901 0.0030499848656736651 0 0.031147284494317133 0.0019485924634481007 0 0.031864887050151357 0.0027581146324005619 0 0.031807348298620114 0.0028330234631290794 0 0.031147284494317133 0.0019485924634481007 0 0.031385330863369879 0.001782744243891585 0 0.031864887050151357 0.0027581146324005619 0 0.032863292196090091 0.00092526831687315904 0 0.033654199553352707 0.00079342945803374462 0 0.030517158093647901 0.0030499848656736651 0 0.032815304707309617 0.0018746709268787091 0 0.031519071690317035 0.0037616114928447526 0 0.029797221403726589 0.0038686100379831186 0 0.030408315225871972 0.0051338213272259887 0 0.03484287558788602 0.00024722779831802826 0 0.034952018859968591 9.966192098255417e-05 0 0.03485986840205374 9.87483621998769e-05 0 0.033125456317680352 0.0021496681545741252 0 0.032815304707309617 0.0018746709268787091 0 0.03484287558788602 0.00024722779831802826 0 0.03465529117571961 0.00020633793735050281 0 0.03485986840205374 9.87483621998769e-05 0 0.03465529117571961 0.00020633793735050281 0 0.034749839840738331 6.7306764698339802e-05 0 0.03485986840205374 9.87483621998769e-05 0 0.032732367842978387 0.0023564028480666421 0 0.03074370493009549 0.0024754326424026672 0 0.031519071690317035 0.0037616114928447526 0 0.033698831173804962 0.0013705822038321436 0 0.033125456317680352 0.0021496681545741252 0 0.034630760045662963 0.00048752310367794119 0 0.03484287558788602 0.00024722779831802826 0 0.03465529117571961 0.00020633793735050281 0 0.034482734554059945 0.00033951922961040956 0 0.03465529117571961 0.00020633793735050281 0 0.034409723220707324 0.00023547377068259057 0 0.034630760045662963 0.00048752310367794119 0 0.034482734554059945 0.00033951922961040956 0 0.03465529117571961 0.00020633793735050281 0 0.03465529117571961 0.00020633793735050281 0 0.034749839840738331 6.7306764698339802e-05 0 0.034573545236334297 0.00010854270525857455 0 0.03465529117571961 0.00020633793735050281 0 0.034409723220707324 0.00023547377068259057 0 0.034573545236334297 0.00010854270525857455 0 0.034749839840738331 6.7306764698339802e-05 0 0.034689668602875798 3.35406280403402e-05 0 0.034573545236334297 0.00010854270525857455 0 0.034749839840738331 6.7306764698339802e-05 0 0.034689668602875798 3.35406280403402e-05 0 0.034819876537555167 2.2940948583094025e-06 0 0.034749839840738331 6.7306764698339802e-05 0 0.034859832427393288 3.0846329678141072e-05 0 0.034819876537555167 2.2940948583094025e-06 0 0.034749839840738331 6.7306764698339802e-05 0 0.034859832427393288 3.0846329678141072e-05 0 0.03485986840205374 9.87483621998769e-05 0 0.034859832427393288 3.0846329678141072e-05 0 0.034819876537555167 2.2940948583094025e-06 0 0.034920163186733466 -3.1975240850185314e-05 0 0.034689668602875798 3.35406280403402e-05 0 0.034819876537555167 2.2940948583094025e-06 0 0.034765542273241357 -2.4870995165344034e-08 0 0.034819876537555167 2.2940948583094025e-06 0 0.034920377093714733 -2.2414747095493464e-05 0 0.034765542273241357 -2.4870995165344034e-08 0 0.033654199553352707 0.00079342945803374462 0 0.034936007367241298 -0.00027302672999663475 0 0.034896938355746927 -0.00011677231633227338 0 0.034913974563757028 -0.00010010862888474568 0 0.034859171516153045 -0.00010540099973301348 0 0.034599331375479173 -4.5483616684584506e-05 0 0.034655476739635892 -0.00015366095566338162 0 0.034680513218924541 -4.9902721275843547e-05 0 0.034599331375479173 -4.5483616684584506e-05 0 0.034680513218924541 -4.9902721275843547e-05 0 0.034629558005170369 -2.385326905973982e-05 0 0.032815304707309617 0.0018746709268787091 0 0.033654199553352707 0.00079342945803374462 0 0.034859832427393288 3.0846329678141072e-05 0 0.03485986840205374 9.87483621998769e-05 0 0.034930285656805657 4.3450357201480768e-05 0 0.034952018859968591 9.966192098255417e-05 0 0.03485986840205374 9.87483621998769e-05 0 0.034930285656805657 4.3450357201480768e-05 0 0.033530770006337994 0.00070240480791005527 0 0.03350309398383898 0.00073838644556316205 0 0.033641723523655687 0.00092525341626864576 0 0.032815304707309617 0.0018746709268787091 0 0.034160314018183535 0.00041270588573507445 0 0.033654199553352707 0.00079342945803374462 0 0.034160314018183535 0.00041270588573507445 0 0.034913974563757028 -0.00010010862888474568 0 0.034913920649751226 -6.3129938444437988e-05 0 0.034920163186733466 -3.1975240850185314e-05 0 0.034859832427393288 3.0846329678141072e-05 0 0.034930285656805657 4.3450357201480768e-05 0 0.034920163186733466 -3.1975240850185314e-05 0 0.034160314018183535 0.00041270588573507445 0 0.035013613252431477 -7.298471524211356e-05 0 0.034859171516153045 -0.00010540099973301348 0 0.034913920649751226 -6.3129938444437988e-05 0 0.034924377053951142 -2.9577724322317658e-05 0 0.034913974563757028 -0.00010010862888474568 0 0.034859171516153045 -0.00010540099973301348 0 0.034913920649751226 -6.3129938444437988e-05 0 0.034913920649751226 -6.3129938444437988e-05 0 0.034920163186733466 -3.1975240850185314e-05 0 0.034956197365379006 -1.9078879463506705e-05 0 0.034913920649751226 -6.3129938444437988e-05 0 0.034924377053951142 -2.9577724322317658e-05 0 0.034956197365379006 -1.9078879463506705e-05 0 0.034956197365379006 -1.9078879463506705e-05 0 0.03500000882846592 -7.8783638663663241e-08 0 0.034999612140554387 1.9061299825807562e-07 0 0.034924377053951142 -2.9577724322317658e-05 0 0.034956197365379006 -1.9078879463506705e-05 0 0.034999612140554387 1.9061299825807562e-07 0 0.034857410426213986 -1.8455452513151308e-05 0 0.034924377053951142 -2.9577724322317658e-05 0 0.034999612140554387 1.9061299825807562e-07 0 0.034920377093714733 -2.2414747095493464e-05 0 0.03490428467161763 -7.1543014758580433e-06 0 0.034765542273241357 -2.4870995165344034e-08 0 0.034819876537555167 2.2940948583094025e-06 0 0.034920163186733466 -3.1975240850185314e-05 0 0.034920377093714733 -2.2414747095493464e-05 0 0.034920163186733466 -3.1975240850185314e-05 0 0.034956197365379006 -1.9078879463506705e-05 0 0.034920377093714733 -2.2414747095493464e-05 0 0.03500000882846592 -7.8783638663663241e-08 0 0.034920377093714733 -2.2414747095493464e-05 0 0.034999836281003657 -9.1031352584827734e-09 0 0.034956197365379006 -1.9078879463506705e-05 0 0.03500000882846592 -7.8783638663663241e-08 0 0.034920377093714733 -2.2414747095493464e-05 0 0.034920377093714733 -2.2414747095493464e-05 0 0.034999836281003657 -9.1031352584827734e-09 0 0.03490428467161763 -7.1543014758580433e-06 0 0.034999836281003657 -9.1031352584827734e-09 0 0.03490428467161763 -7.1543014758580433e-06 0 0.034999817647762055 5.384399085147858e-10 0 0.03490428467161763 -7.1543014758580433e-06 0 0.034851214756945068 5.3485228190915088e-06 0 0.034765542273241357 -2.4870995165344034e-08 0 0.034851214756945068 5.3485228190915088e-06 0 0.034999817647762055 5.384399085147858e-10 0 0.034904568312839029 1.5319641585669747e-05 0 0.03490428467161763 -7.1543014758580433e-06 0 0.034851214756945068 5.3485228190915088e-06 0 0.034999817647762055 5.384399085147858e-10 0 0.034999817647762055 5.384399085147858e-10 0 0.034904568312839029 1.5319641585669747e-05 0 0.034999859131664021 3.1801323051317129e-08 0 0.034999859131664021 3.1801323051317129e-08 0 0.034916698285109085 2.7897787914279957e-05 0 0.034999943233540519 2.407881898002095e-08 0 0.034904568312839029 1.5319641585669747e-05 0 0.034999859131664021 3.1801323051317129e-08 0 0.034916698285109085 2.7897787914279957e-05 0 0.034904568312839029 1.5319641585669747e-05 0 0.034916698285109085 2.7897787914279957e-05 0 0.034775350841739321 2.3680298667458204e-05 0 0.034851214756945068 5.3485228190915088e-06 0 0.034904568312839029 1.5319641585669747e-05 0 0.034775350841739321 2.3680298667458204e-05 0 0.034775350841739321 2.3680298667458204e-05 0 0.034804990389270825 2.0986883719515285e-05 0 0.034605736400349071 9.9177320660558906e-06 0 0.034916698285109085 2.7897787914279957e-05 0 0.034775350841739321 2.3680298667458204e-05 0 0.034804990389270825 2.0986883719515285e-05 0 0.034916698285109085 2.7897787914279957e-05 0 0.034804990389270825 2.0986883719515285e-05 0 0.034924173282398226 1.749951952435583e-05 0 0.034668616844355203 -2.8048608853308434e-05 0 0.034857905389873448 -5.1630786390715132e-06 0 0.034818101233216263 -0.00014730365623223557 0 0.034804990389270825 2.0986883719515285e-05 0 0.034668616844355203 -2.8048608853308434e-05 0 0.034857905389873448 -5.1630786390715132e-06 0 0.034804990389270825 2.0986883719515285e-05 0 0.034668616844355203 -2.8048608853308434e-05 0 0.034605736400349071 9.9177320660558906e-06 0 0.034668616844355203 -2.8048608853308434e-05 0 0.034605736400349071 9.9177320660558906e-06 0 0.034390226089576474 -3.7061399585649037e-05 0 0.034605736400349071 9.9177320660558906e-06 0 0.034564572936204109 3.2776360727386295e-05 0 0.034390226089576474 -3.7061399585649037e-05 0 0.034605736400349071 9.9177320660558906e-06 0 0.034564572936204109 3.2776360727386295e-05 0 0.034711057029089533 9.1623769810981711e-06 0 0.034689668602875798 3.35406280403402e-05 0 0.034564572936204109 3.2776360727386295e-05 0 0.034765542273241357 -2.4870995165344034e-08 0 0.034689668602875798 3.35406280403402e-05 0 0.034564572936204109 3.2776360727386295e-05 0 0.034573545236334297 0.00010854270525857455 0 0.034564572936204109 3.2776360727386295e-05 0 0.034765542273241357 -2.4870995165344034e-08 0 0.034711057029089533 9.1623769810981711e-06 0 0.034775350841739321 2.3680298667458204e-05 0 0.034605736400349071 9.9177320660558906e-06 0 0.034711057029089533 9.1623769810981711e-06 0 0.034851214756945068 5.3485228190915088e-06 0 0.034765542273241357 -2.4870995165344034e-08 0 0.034711057029089533 9.1623769810981711e-06 0 0.034851214756945068 5.3485228190915088e-06 0 0.034775350841739321 2.3680298667458204e-05 0 0.034711057029089533 9.1623769810981711e-06 0 0.034997042728111841 5.0359632374003731e-06 0 0.034980694646770144 9.0499446681480794e-06 0 0.035002284388509199 -2.0900906009755095e-06 0 0.034997042728111841 5.0359632374003731e-06 0 0.03499998390506491 1.3586667903224371e-08 0 0.035000001158119728 2.2805148599677513e-09 0 0.03499998390506491 1.3586667903224371e-08 0 0.034980694646770144 9.0499446681480794e-06 0 0.034970943726143532 1.4486257297253009e-05 0 0.034997042728111841 5.0359632374003731e-06 0 0.03499998390506491 1.3586667903224371e-08 0 0.034980694646770144 9.0499446681480794e-06 0 0.034980694646770144 9.0499446681480794e-06 0 0.034970943726143532 1.4486257297253009e-05 0 0.034924173282398226 1.749951952435583e-05 0 0.03499998390506491 1.3586667903224371e-08 0 0.034970943726143532 1.4486257297253009e-05 0 0.034999943233540519 2.407881898002095e-08 0 0.034916698285109085 2.7897787914279957e-05 0 0.034970943726143532 1.4486257297253009e-05 0 0.034999943233540519 2.407881898002095e-08 0 0.034916698285109085 2.7897787914279957e-05 0 0.034970943726143532 1.4486257297253009e-05 0 0.034924173282398226 1.749951952435583e-05 0 0.034804990389270825 2.0986883719515285e-05 0 0.034924173282398226 1.749951952435583e-05 0 0.034857905389873448 -5.1630786390715132e-06 0 0.034857905389873448 -5.1630786390715132e-06 0 0.034923817918558517 -3.9517320925976516e-05 0 0.034854585365174065 -6.3029884616719174e-05 0 0.034924173282398226 1.749951952435583e-05 0 0.034857905389873448 -5.1630786390715132e-06 0 0.034923817918558517 -3.9517320925976516e-05 0 0.034848290221267016 -3.5953055777823101e-05 0 0.034881594109586363 -4.101720948575933e-05 0 0.034924173282398226 1.749951952435583e-05 0 0.034923817918558517 -3.9517320925976516e-05 0 0.034968395169415259 -9.1218050148416927e-06 0 0.034980694646770144 9.0499446681480794e-06 0 0.034924173282398226 1.749951952435583e-05 0 0.034968395169415259 -9.1218050148416927e-06 0 0.034980694646770144 9.0499446681480794e-06 0 0.034968395169415259 -9.1218050148416927e-06 0 0.035002284388509199 -2.0900906009755095e-06 0 0.034923817918558517 -3.9517320925976516e-05 0 0.034968395169415259 -9.1218050148416927e-06 0 0.034988098901891106 -3.3095116933755194e-05 0 0.034968395169415259 -9.1218050148416927e-06 0 0.034988098901891106 -3.3095116933755194e-05 0 0.035002284388509199 -2.0900906009755095e-06 0 0.035063182648750371 0.00029118196329564437 0 0.035046591321253061 0.00022678651890276481 0 0.035242463760975423 0.0007133522618668805 0 0.035008226635070333 0.00074248556704414989 0 0.035072361336973022 0.0004383691947037783 0 0.035167573758004299 0.0010040417666869483 0 0.035074163303115344 0.0012686951911932876 0 0.034892667614849611 0.0010497280819143373 0 0.035242463760975423 0.0007133522618668805 0 0.035167573758004299 0.0010040417666869483 0 0.035008226635070333 0.00074248556704414989 0 0.034923817918558517 -3.9517320925976516e-05 0 0.034988098901891106 -3.3095116933755194e-05 0 0.034946885901324248 -8.9813762287790753e-05 0 0.035063182648750371 0.00029118196329564437 0 0.035432582659257694 0.00063260466912466382 0 0.035242463760975423 0.0007133522618668805 0 0.035167573758004299 0.0010040417666869483 0 0.035422162106463394 0.00098021057344136039 0 0.035167573758004299 0.0010040417666869483 0 0.035422162106463394 0.00098021057344136039 0 0.035321311798981944 0.0012004796853493124 0 0.034946885901324248 -8.9813762287790753e-05 0 0.034890483240145202 -9.3585800562911908e-05 0 0.034883338469042603 -0.0001592930264718459 0 0.035432582659257694 0.00063260466912466382 0 0.033942962472425307 -0.00015472966465497582 0 0.034923817918558517 -3.9517320925976516e-05 0 0.034946885901324248 -8.9813762287790753e-05 0 0.034890483240145202 -9.3585800562911908e-05 0 0.034923817918558517 -3.9517320925976516e-05 0 0.034890483240145202 -9.3585800562911908e-05 0 0.034854585365174065 -6.3029884616719174e-05 0 0.034890483240145202 -9.3585800562911908e-05 0 0.034883338469042603 -0.0001592930264718459 0 0.034842438261914868 -0.00012286669531773732 0 0.034890483240145202 -9.3585800562911908e-05 0 0.034854585365174065 -6.3029884616719174e-05 0 0.034842438261914868 -0.00012286669531773732 0 0.032262020687345315 -0.001388256494077767 0 0.032584739174705904 -0.0010048325871807485 0 0.032903817460063003 -0.0019605592028480532 0 0.033942962472425307 -0.00015472966465497582 0 0.033898626856565098 -0.00051228742906989013 0 0.033942962472425307 -0.00015472966465497582 0 0.032454829557112493 -0.0014176586135356138 0 0.032584739174705904 -0.0010048325871807485 0 0.032348168804791508 -0.00035687591495926486 0 0.033051068498777932 -0.00057201295603410203 0 0.032218874690604034 -0.0014385459826998703 0 0.032584739174705904 -0.0010048325871807485 0 0.032348168804791508 -0.00035687591495926486 0 0.032218874690604034 -0.0014385459826998703 0 0.032348168804791508 -0.00035687591495926486 0 0.031034758859514171 -0.00046343022918069696 0 0.033942962472425307 -0.00015472966465497582 0 0.033220106289583086 0.00051890960322182168 0 0.035609022112490056 0.0012217443189376054 0 0.035321311798981944 0.0012004796853493124 0 0.035352068460203494 0.0014744428050310137 0 0.035422162106463394 0.00098021057344136039 0 0.035609022112490056 0.0012217443189376054 0 0.035321311798981944 0.0012004796853493124 0 0.035321311798981944 0.0012004796853493124 0 0.035352068460203494 0.0014744428050310137 0 0.035074163303115344 0.0012686951911932876 0 0.035352068460203494 0.0014744428050310137 0 0.035074163303115344 0.0012686951911932876 0 0.03496190107552951 0.0015126657522404612 0 0.035167573758004299 0.0010040417666869483 0 0.035321311798981944 0.0012004796853493124 0 0.035074163303115344 0.0012686951911932876 0 0.034175549021007411 0.00037992214249339825 0 0.034409723220707324 0.00023547377068259057 0 0.034390863619235018 0.0001164445364814204 0 0.034175549021007411 0.00037992214249339825 0 0.034390863619235018 0.0001164445364814204 0 0.034144459876265354 0.00024871185810888846 0 0.034175549021007411 0.00037992214249339825 0 0.034144459876265354 0.00024871185810888846 0 0.033948992032031555 0.00040982854873986534 0 0.034175549021007411 0.00037992214249339825 0 0.034409723220707324 0.00023547377068259057 0 0.034234426379804929 0.00048494356239496366 0 0.034482734554059945 0.00033951922961040956 0 0.034409723220707324 0.00023547377068259057 0 0.034234426379804929 0.00048494356239496366 0 0.034409723220707324 0.00023547377068259057 0 0.034573545236334297 0.00010854270525857455 0 0.034390863619235018 0.0001164445364814204 0 0.034564572936204109 3.2776360727386295e-05 0 0.034573545236334297 0.00010854270525857455 0 0.034390863619235018 0.0001164445364814204 0 0.034564572936204109 3.2776360727386295e-05 0 0.034390863619235018 0.0001164445364814204 0 0.034390226089576474 -3.7061399585649037e-05 0 0.034390863619235018 0.0001164445364814204 0 0.034390226089576474 -3.7061399585649037e-05 0 0.034144459876265354 0.00024871185810888846 0 0.034668616844355203 -2.8048608853308434e-05 0 0.034390226089576474 -3.7061399585649037e-05 0 0.034637824040447157 -0.00025241456300037111 0 0.034390226089576474 -3.7061399585649037e-05 0 0.033865357923012637 0.00013792458599679928 0 0.034144459876265354 0.00024871185810888846 0 0.034347567788638664 -4.7734945229877822e-05 0 0.034244242211321912 -3.4300720780146472e-05 0 0.034668616844355203 -2.8048608853308434e-05 0 0.034818101233216263 -0.00014730365623223557 0 0.034637824040447157 -0.00025241456300037111 0 0.034881594109586363 -4.101720948575933e-05 0 0.033898626856565098 -0.00051228742906989013 0 0.034818101233216263 -0.00014730365623223557 0 0.034637824040447157 -0.00025241456300037111 0 0.034787184761830584 -0.00038776904405843962 0 0.034244242211321912 -3.4300720780146472e-05 0 0.033898626856565098 -0.00051228742906989013 0 0.033865357923012637 0.00013792458599679928 0 0.033614076347646508 0.00031875242781823808 0 0.033832184597133441 0.00032990720249388071 0 0.033865357923012637 0.00013792458599679928 0 0.034144459876265354 0.00024871185810888846 0 0.033832184597133441 0.00032990720249388071 0 0.034144459876265354 0.00024871185810888846 0 0.033832184597133441 0.00032990720249388071 0 0.033948992032031555 0.00040982854873986534 0 0.033832184597133441 0.00032990720249388071 0 0.033948992032031555 0.00040982854873986534 0 0.033729770695614031 0.00047892212317814553 0 0.033948992032031555 0.00040982854873986534 0 0.033839386396482728 0.00055399251722831509 0 0.033729770695614031 0.00047892212317814553 0 0.033839386396482728 0.00055399251722831509 0 0.033729770695614031 0.00047892212317814553 0 0.033690564764495459 0.00060531606026546195 0 0.033948992032031555 0.00040982854873986534 0 0.033839386396482728 0.00055399251722831509 0 0.033977335682110636 0.00052371639019115806 0 0.033839386396482728 0.00055399251722831509 0 0.033905183755728985 0.00064621071214071839 0 0.033977335682110636 0.00052371639019115806 0 0.033614076347646508 0.00031875242781823808 0 0.033729770695614031 0.00047892212317814553 0 0.033544881883194412 0.00064146621903054288 0 0.032584739174705904 -0.0010048325871807485 0 0.032903817460063003 -0.0019605592028480532 0 0.033051068498777932 -0.00057201295603410203 0 0.033898626856565098 -0.00051228742906989013 0 0.03319445895009928 -2.1504234181762936e-05 0 0.033614076347646508 0.00031875242781823808 0 0.033832184597133441 0.00032990720249388071 0 0.033729770695614031 0.00047892212317814553 0 0.033729770695614031 0.00047892212317814553 0 0.033544881883194412 0.00064146621903054288 0 0.033690564764495459 0.00060531606026546195 0 0.033544881883194412 0.00064146621903054288 0 0.033690564764495459 0.00060531606026546195 0 0.0335825031660704 0.00071982162117952345 0 0.033839386396482728 0.00055399251722831509 0 0.033753657908227382 0.00066731791734820386 0 0.033905183755728985 0.00064621071214071839 0 0.033839386396482728 0.00055399251722831509 0 0.033690564764495459 0.00060531606026546195 0 0.033753657908227382 0.00066731791734820386 0 0.033690564764495459 0.00060531606026546195 0 0.033753657908227382 0.00066731791734820386 0 0.0335825031660704 0.00071982162117952345 0 0.033753657908227382 0.00066731791734820386 0 0.033905183755728985 0.00064621071214071839 0 0.033857952085179298 0.00074724896434060016 0 0.033986989318865859 0.0006818382647651699 0 0.033974508294344216 0.00076058184800402873 0 0.033857952085179298 0.00074724896434060016 0 0.033986989318865859 0.0006818382647651699 0 0.033905183755728985 0.00064621071214071839 0 0.033857952085179298 0.00074724896434060016 0 0.033986989318865859 0.0006818382647651699 0 0.033905183755728985 0.00064621071214071839 0 0.034063815164304553 0.00057155526318471931 0 0.033905183755728985 0.00064621071214071839 0 0.033977335682110636 0.00052371639019115806 0 0.034063815164304553 0.00057155526318471931 0 0.034175549021007411 0.00037992214249339825 0 0.033948992032031555 0.00040982854873986534 0 0.033977335682110636 0.00052371639019115806 0 0.034175549021007411 0.00037992214249339825 0 0.033977335682110636 0.00052371639019115806 0 0.034063815164304553 0.00057155526318471931 0 0.034175549021007411 0.00037992214249339825 0 0.034063815164304553 0.00057155526318471931 0 0.034234426379804929 0.00048494356239496366 0 0.034063815164304553 0.00057155526318471931 0 0.034234426379804929 0.00048494356239496366 0 0.034113152022322187 0.00066376206331055399 0 0.033986989318865859 0.0006818382647651699 0 0.034063815164304553 0.00057155526318471931 0 0.034113152022322187 0.00066376206331055399 0 0.033986989318865859 0.0006818382647651699 0 0.034113152022322187 0.00066376206331055399 0 0.033974508294344216 0.00076058184800402873 0 0.033974508294344216 0.00076058184800402873 0 0.034024159614772953 0.00084962634364071834 0 0.033891092495071974 0.00072018908955452578 0 0.034113152022322187 0.00066376206331055399 0 0.033974508294344216 0.00076058184800402873 0 0.034024159614772953 0.00084962634364071834 0 0.033652409856365056 0.00073938088846151365 0 0.034024159614772953 0.00084962634364071834 0 0.033891092495071974 0.00072018908955452578 0 0.033974508294344216 0.00076058184800402873 0 0.033891092495071974 0.00072018908955452578 0 0.033883635439941849 0.0007544204745945774 0 0.033661229658226433 0.00059099744049805579 0 0.033891092495071974 0.00072018908955452578 0 0.033828910872590476 0.00070061209685300921 0 0.033891092495071974 0.00072018908955452578 0 0.033883635439941849 0.0007544204745945774 0 0.033828910872590476 0.00070061209685300921 0 0.033883635439941849 0.0007544204745945774 0 0.033857952085179298 0.00074724896434060016 0 0.033768714089705519 0.00097579539990430661 0 0.033974508294344216 0.00076058184800402873 0 0.033883635439941849 0.0007544204745945774 0 0.033857952085179298 0.00074724896434060016 0 0.033857952085179298 0.00074724896434060016 0 0.033768714089705519 0.00097579539990430661 0 0.033594497595833425 0.00093615940328739663 0 0.033802673532491431 0.00071860311700164769 0 0.033828910872590476 0.00070061209685300921 0 0.033768714089705519 0.00097579539990430661 0 0.033883635439941849 0.0007544204745945774 0 0.033828910872590476 0.00070061209685300921 0 0.033768714089705519 0.00097579539990430661 0 0.024485861565056929 0.00050105441958434352 0 0.024131723116931507 0.0022078039720119058 0 0.012409416961807595 0.0034222946976790545 0 0.015204138550887888 0.0029724030681241706 0 0.01362035497172861 0.0024216067950806565 0 0.012409416961807595 0.0034222946976790545 0 0.012521227696841546 0.0025031996614296821 0 0.01362035497172861 0.0024216067950806565 0 0.012521227696841546 0.0025031996614296821 0 0.013639111065306053 0.0011672686286558589 0 0.01362035497172861 0.0024216067950806565 0 0.013639111065306053 0.0011672686286558589 0 0.01362035497172861 0.0024216067950806565 0 0.014504149951562293 0.0020409369104094702 0 0.015204138550887888 0.0029724030681241706 0 0.01362035497172861 0.0024216067950806565 0 0.014504149951562293 0.0020409369104094702 0 0.015204138550887888 0.0029724030681241706 0 0.014504149951562293 0.0020409369104094702 0 0.01547313687005992 0.0018741079435440418 0 0.013639111065306053 0.0011672686286558589 0 0.014504149951562293 0.0020409369104094702 0 0.014560892187094526 0.0013957563501136026 0 0.014504149951562293 0.0020409369104094702 0 0.01547313687005992 0.0018741079435440418 0 0.014560892187094526 0.0013957563501136026 0 0.01547313687005992 0.0018741079435440418 0 0.014560892187094526 0.0013957563501136026 0 0.014626196349689228 0.00048885848939525392 0 0.013237342020686044 -0.00023605055803283014 0 0.014063457622875915 -0.00030466190073154736 0 0.014626196349689228 0.00048885848939525392 0 0.013097557541470208 -0.00018144225848911727 0 0.01610073734578743 -0.00044828291978661568 0 0.01547313687005992 0.0018741079435440418 0 0.014626196349689228 0.00048885848939525392 0 0.01610073734578743 -0.00044828291978661568 0 0.013639111065306053 0.0011672686286558589 0 0.014560892187094526 0.0013957563501136026 0 0.014626196349689228 0.00048885848939525392 0 0.008999097789392287 0.0026311555022180667 0 0.0059585154037265203 -0.00069799298787278198 0 0.012521227696841546 0.0025031996614296821 0 0.013639111065306053 0.0011672686286558589 0 0.012887697185181577 -0.00033376507716987409 0 0.013639111065306053 0.0011672686286558589 0 0.013097557541470208 -0.00018144225848911727 0 0.012887697185181577 -0.00033376507716987409 0 0.013639111065306053 0.0011672686286558589 0 0.014626196349689228 0.00048885848939525392 0 0.013097557541470208 -0.00018144225848911727 0 0.017708388689957867 0.0013622481283939575 0 0.016934760790700644 0.001256517202485506 0 0.017752241163445294 0.00044364440997379502 0 0.017708388689957867 0.0013622481283939575 0 0.018594117817654392 0.0013120110102195829 0 0.017752241163445294 0.00044364440997379502 0 0.014063457622875915 -0.00030466190073154736 0 0.01485134492238065 -0.00027933262666294986 0 0.016022641429090365 0.00038026915229863147 0 0.016934760790700644 0.001256517202485506 0 0.017752241163445294 0.00044364440997379502 0 0.01547313687005992 0.0018741079435440418 0 0.016022641429090365 0.00038026915229863147 0 0.016934760790700644 0.001256517202485506 0 0.01580323751485075 0.0017090384580337587 0 0.014063457622875915 -0.00030466190073154736 0 0.015204138550887888 0.0029724030681241706 0 0.01547313687005992 0.0018741079435440418 0 0.017532080452445885 0.0024646589682699089 0 0.01547313687005992 0.0018741079435440418 0 0.016934760790700644 0.001256517202485506 0 0.017532080452445885 0.0024646589682699089 0 0.017708388689957867 0.0013622481283939575 0 0.016934760790700644 0.001256517202485506 0 0.017532080452445885 0.0024646589682699089 0 0.017708388689957867 0.0013622481283939575 0 0.017532080452445885 0.0024646589682699089 0 0.018594117817654392 0.0013120110102195829 0 0.033266996265316769 0.001401719359194694 0 0.033225677258451533 0.00096635037460005447 0 0.03234497334809848 0.0011049823312371842 0 0.033266996265316769 0.001401719359194694 0 0.033225677258451533 0.00096635037460005447 0 0.033594497595833425 0.00093615940328739663 0 0.024131723116931507 0.0022078039720119058 0 0.025425059151910623 0.0018974971590202689 0 0.033768714089705519 0.00097579539990430661 0 0.033266996265316769 0.001401719359194694 0 0.033594497595833425 0.00093615940328739663 0 0.033225677258451533 0.00096635037460005447 0 0.033594497595833425 0.00093615940328739663 0 0.033633898952943359 0.00078281807242877642 0 0.033857952085179298 0.00074724896434060016 0 0.033594497595833425 0.00093615940328739663 0 0.033633898952943359 0.00078281807242877642 0 0.033753657908227382 0.00066731791734820386 0 0.033857952085179298 0.00074724896434060016 0 0.033633898952943359 0.00078281807242877642 0 0.033753657908227382 0.00066731791734820386 0 0.033633898952943359 0.00078281807242877642 0 0.0335825031660704 0.00071982162117952345 0 0.032348168804791508 -0.00035687591495926486 0 0.033051068498777932 -0.00057201295603410203 0 0.033225677258451533 0.00096635037460005447 0 0.033225677258451533 0.00096635037460005447 0 0.033633898952943359 0.00078281807242877642 0 0.0335825031660704 0.00071982162117952345 0 0.033544881883194412 0.00064146621903054288 0 0.033225677258451533 0.00096635037460005447 0 0.0335825031660704 0.00071982162117952345 0 0.03319445895009928 -2.1504234181762936e-05 0 0.033277470016557377 0.00097363610995285189 0 0.032348168804791508 -0.00035687591495926486 0 0.033225677258451533 0.00096635037460005447 0 0.031998095586197428 0.00042543164849281006 0 0.031034758859514171 -0.00046343022918069696 0 0.031998095586197428 0.00042543164849281006 0 0.031004195272578122 0.00088852723410609786 0 0.032348168804791508 -0.00035687591495926486 0 0.031034758859514171 -0.00046343022918069696 0 0.031998095586197428 0.00042543164849281006 0 0.031998095586197428 0.00042543164849281006 0 0.03234497334809848 0.0011049823312371842 0 0.031004195272578122 0.00088852723410609786 0 0.03234497334809848 0.0011049823312371842 0 0.031004195272578122 0.00088852723410609786 0 0.031777125347313154 0.0018248222762395326 0 0.033225677258451533 0.00096635037460005447 0 0.031998095586197428 0.00042543164849281006 0 0.03234497334809848 0.0011049823312371842 0 0.035352068460203494 0.0014744428050310137 0 0.035067896551173927 0.0017379249700856273 0 0.03496190107552951 0.0015126657522404612 0 0.031034758859514171 -0.00046343022918069696 0 0.029821907905626027 0.00055944088844659225 0 0.031004195272578122 0.00088852723410609786 0 0.033220106289583086 0.00051890960322182168 0 0.032226121323416158 0.0010897663574410833 0 0.029821907905626027 0.00055944088844659225 0 0.029625424186768466 0.0014828476853959505 0 0.028637056044387595 0.0015975712316445585 0 0.029821907905626027 0.00055944088844659225 0 0.031004195272578122 0.00088852723410609786 0 0.029625424186768466 0.0014828476853959505 0 0.024992794390535037 0.0019201656126948069 0 0.026167516130031064 0.0015478573285927473 0 0.029625424186768466 0.0014828476853959505 0 0.030247912151717606 0.0020852633849185575 0 0.028760840006632885 0.0023285614472536918 0 0.024992794390535037 0.0019201656126948069 0 0.025532417011470382 0.0018994519321575375 0 0.031004195272578122 0.00088852723410609786 0 0.029625424186768466 0.0014828476853959505 0 0.030247912151717606 0.0020852633849185575 0 0.031004195272578122 0.00088852723410609786 0 0.030247912151717606 0.0020852633849185575 0 0.031777125347313154 0.0018248222762395326 0 0.020360481783945929 0.0012198931525753435 0 0.019722794434771727 0.001280504782307968 0 0.020155254656943518 0.00086481478299650248 0 0.020358233146860135 0.0016186020361512023 0 0.020360481783945929 0.0012198931525753435 0 0.019722794434771727 0.001280504782307968 0 0.020358233146860135 0.0016186020361512023 0 0.020620928379689353 0.0012435713108178911 0 0.020920314955814652 0.001413006690811934 0 0.020358233146860135 0.0016186020361512023 0 0.020360481783945929 0.0012198931525753435 0 0.020620928379689353 0.0012435713108178911 0 0.020360481783945929 0.0012198931525753435 0 0.020512405172578161 0.0010354509055478648 0 0.020155254656943518 0.00086481478299650248 0 0.020360481783945929 0.0012198931525753435 0 0.020620928379689353 0.0012435713108178911 0 0.020512405172578161 0.0010354509055478648 0 0.017532080452445885 0.0024646589682699089 0 0.019214468775996418 0.0019961333016193065 0 0.018594117817654392 0.0013120110102195829 0 0.033266996265316769 0.001401719359194694 0 0.03234497334809848 0.0011049823312371842 0 0.031777125347313154 0.0018248222762395326 0 0.025425059151910623 0.0018974971590202689 0 0.025532417011470382 0.0018994519321575375 0 0.020358233146860135 0.0016186020361512023 0 0.019214468775996418 0.0019961333016193065 0 0.019722794434771727 0.001280504782307968 0 0.019214468775996418 0.0019961333016193065 0 0.019722794434771727 0.001280504782307968 0 0.018594117817654392 0.0013120110102195829 0 0.019722794434771727 0.001280504782307968 0 0.019141247891390857 0.00063337132249438653 0 0.020155254656943518 0.00086481478299650248 0 0.019722794434771727 0.001280504782307968 0 0.018594117817654392 0.0013120110102195829 0 0.019141247891390857 0.00063337132249438653 0 0.018594117817654392 0.0013120110102195829 0 0.019141247891390857 0.00063337132249438653 0 0.017752241163445294 0.00044364440997379502 0 0.015000872518580141 -0.00022664345348590552 0 0.01485134492238065 -0.00027933262666294986 0 0.011685098220359997 -0.00091584198488694687 0 0.011359347518083559 -0.00099042887460393508 0 0.011830335985455983 -0.0010143528242737626 0 0.011685098220359997 -0.00091584198488694687 0 0.011359347518083559 -0.00099042887460393508 0 0.011359058023295811 -0.00038109121804352064 0 0.011359347518083559 -0.00099042887460393508 0 0.011103168849430545 -0.00070478520304161193 0 0.011359058023295811 -0.00038109121804352064 0 0.011359347518083559 -0.00099042887460393508 0 0.011103168849430545 -0.00070478520304161193 0 0.010839203049718875 -0.00098912073369377134 0 0.015000872518580141 -0.00022664345348590552 0 0.016559500647437407 0.00059272166156832361 0 0.011103168849430545 -0.00070478520304161193 0 0.011359058023295811 -0.00038109121804352064 0 0.010844507789863829 -0.00041829568609150138 0 0.011659407957728407 -0.00088508778782286435 0 0.011274763051661949 -0.00035507644542325521 0 0.011685098220359997 -0.00091584198488694687 0 0.011180950517128217 -0.00032228697109499985 0 0.011715439652497949 -0.00030093188030820171 0 0.010290038398040185 -0.0007254856716297954 0 0.010637060138542835 -0.00071336994720965885 0 0.010839203049718875 -0.00098912073369377134 0 0.020664707943107052 0.00098731814630432981 0 0.020512405172578161 0.0010354509055478648 0 0.020287271202848831 0.0009920879239018153 0 0.015347482371575124 7.5443192642863293e-05 0 0.016559500647437407 0.00059272166156832361 0 0.020620928379689353 0.0012435713108178911 0 0.020512405172578161 0.0010354509055478648 0 0.020644750716556547 0.001048806736743817 0 0.020664707943107052 0.00098731814630432981 0 0.020512405172578161 0.0010354509055478648 0 0.020644750716556547 0.001048806736743817 0 0.021224890451303685 0.00082047530498779162 0 0.016559500647437407 0.00059272166156832361 0 0.010637060138542835 -0.00071336994720965885 0 0.010839203049718875 -0.00098912073369377134 0 0.010856408202483056 -0.00070704024409919955 0 0.011103168849430545 -0.00070478520304161193 0 0.010839203049718875 -0.00098912073369377134 0 0.010856408202483056 -0.00070704024409919955 0 0.011103168849430545 -0.00070478520304161193 0 0.010856408202483056 -0.00070704024409919955 0 0.010844507789863829 -0.00041829568609150138 0 0.010844507789863829 -0.00041829568609150138 0 0.01048834367235762 -0.00043561145329914261 0 0.010543220987203016 -0.00010762487031736464 0 0.010637060138542835 -0.00071336994720965885 0 0.010844507789863829 -0.00041829568609150138 0 0.01048834367235762 -0.00043561145329914261 0 0.010637060138542835 -0.00071336994720965885 0 0.010856408202483056 -0.00070704024409919955 0 0.010844507789863829 -0.00041829568609150138 0 0.010637060138542835 -0.00071336994720965885 0 0.01048834367235762 -0.00043561145329914261 0 0.01042733871055782 -0.00059425262048790192 0 0.01048834367235762 -0.00043561145329914261 0 0.010291371279196928 -0.0005031248365519091 0 0.010160691788018771 -0.0002068794146131799 0 0.01048834367235762 -0.00043561145329914261 0 0.01042733871055782 -0.00059425262048790192 0 0.010291371279196928 -0.0005031248365519091 0 0.010290038398040185 -0.0007254856716297954 0 0.01042733871055782 -0.00059425262048790192 0 0.010291371279196928 -0.0005031248365519091 0 0.010290038398040185 -0.0007254856716297954 0 0.010637060138542835 -0.00071336994720965885 0 0.01042733871055782 -0.00059425262048790192 0 0.010543220987203016 -0.00010762487031736464 0 0.010303180140299512 0.00030215929149464605 0 0.010160691788018771 -0.0002068794146131799 0 0.01048834367235762 -0.00043561145329914261 0 0.010543220987203016 -0.00010762487031736464 0 0.010160691788018771 -0.0002068794146131799 0 0.010844507789863829 -0.00041829568609150138 0 0.010543220987203016 -0.00010762487031736464 0 0.010926596025417346 0.00023619625004962419 0 0.010543220987203016 -0.00010762487031736464 0 0.010926596025417346 0.00023619625004962419 0 0.010303180140299512 0.00030215929149464605 0 0.010926596025417346 0.00023619625004962419 0 0.010303180140299512 0.00030215929149464605 0 0.010403570864514704 0.00084585133649904445 0 0.011180950517128217 -0.00032228697109499985 0 0.011364229547629869 0.00020800206005063023 0 0.011715439652497949 -0.00030093188030820171 0 0.011359058023295811 -0.00038109121804352064 0 0.010844507789863829 -0.00041829568609150138 0 0.010926596025417346 0.00023619625004962419 0 0.011274763051661949 -0.00035507644542325521 0 0.010835467572015272 0.00026276864885846953 0 0.011180950517128217 -0.00032228697109499985 0 0.010755738023777819 0.00028157027940533668 0 0.011364229547629869 0.00020800206005063023 0 0.010755738023777819 0.00028157027940533668 0 0.011085232353579867 0.00056513161679782123 0 0.010787717086465256 0.00071735651203923224 0 0.010755738023777819 0.00028157027940533668 0 0.011364229547629869 0.00020800206005063023 0 0.011085232353579867 0.00056513161679782123 0 0.011364229547629869 0.00020800206005063023 0 0.011399504813250213 0.00074672252714968047 0 0.011085232353579867 0.00056513161679782123 0 0.011364229547629869 0.00020800206005063023 0 0.011926749680139064 0.00030827832882755882 0 0.011399504813250213 0.00074672252714968047 0 0.011364229547629869 0.00020800206005063023 0 0.011926749680139064 0.00030827832882755882 0 0.011715439652497949 -0.00030093188030820171 0 0.011926749680139064 0.00030827832882755882 0 0.011715439652497949 -0.00030093188030820171 0 0.012176883758580927 -0.00037339203085507132 0 0.011939066430022613 0.00056666029362810661 0 0.012372934487523999 0.00037396705335868521 0 0.012190799466769266 0.00012495897611523507 0 0.011960320783175634 0.00045325016542495378 0 0.011956569095474483 -0.00017009977142100024 0 0.011939066430022613 0.00056666029362810661 0 0.012372934487523999 0.00037396705335868521 0 0.012135265696081404 0.00085203105862996129 0 0.012552746761961189 0.0006476707549473267 0 0.012372934487523999 0.00037396705335868521 0 0.012135265696081404 0.00085203105862996129 0 -0.00070112425888411978 -0.0015395627536323212 0 -0.0002159781929554164 -0.0018924892029428301 0 -0.00023319561582008035 -0.0011988327070363825 0 0.0065685000723659896 -0.00049523594466453823 0 0.0062579846098317444 -0.00049590956777405759 0 0.012552746761961189 0.0006476707549473267 0 0.012372934487523999 0.00037396705335868521 0 0.012757909331932179 0.00015531652047427949 0 0.012372934487523999 0.00037396705335868521 0 0.012682178809934495 -8.8195612048186809e-05 0 0.012190799466769266 0.00012495897611523507 0 0.012372934487523999 0.00037396705335868521 0 0.012757909331932179 0.00015531652047427949 0 0.012682178809934495 -8.8195612048186809e-05 0 -0.00070934065524899561 -0.0011043841009535759 0 -0.00019410712423510357 -0.00057959690270244213 0 -0.00023319561582008035 -0.0011988327070363825 0 0.0059585154037265203 -0.00069799298787278198 0 0.0062579846098317444 -0.00049590956777405759 0 0.012887697185181577 -0.00033376507716987409 0 0.012757909331932179 0.00015531652047427949 0 0.012682178809934495 -8.8195612048186809e-05 0 0.013097557541470208 -0.00018144225848911727 0 0.012887697185181577 -0.00033376507716987409 0 0.012682178809934495 -8.8195612048186809e-05 0 0.013097557541470208 -0.00018144225848911727 0 0.01243227933013895 -0.00034970929010151266 0 0.012682178809934495 -8.8195612048186809e-05 0 0.012402229076723476 -0.0010469724821557968 0 0.011951707299386894 -0.00070493081615476041 0 0.012176883758580927 -0.00037339203085507132 0 0.014063457622875915 -0.00030466190073154736 0 0.011956569095474483 -0.00017009977142100024 0 0.01243227933013895 -0.00034970929010151266 0 0.012682178809934495 -8.8195612048186809e-05 0 0.012190799466769266 0.00012495897611523507 0 0.012402229076723476 -0.0010469724821557968 0 0.011830335985455983 -0.0010143528242737626 0 0.011951707299386894 -0.00070493081615476041 0 0.011685098220359997 -0.00091584198488694687 0 0.011830335985455983 -0.0010143528242737626 0 0.011951707299386894 -0.00070493081615476041 0 0.011685098220359997 -0.00091584198488694687 0 0.011951707299386894 -0.00070493081615476041 0 0.011715439652497949 -0.00030093188030820171 0 0.011951707299386894 -0.00070493081615476041 0 0.011715439652497949 -0.00030093188030820171 0 0.012176883758580927 -0.00037339203085507132 0 0.020851303360102616 0.0016820009734883087 0 0.021093112787590042 0.0016923859543464437 0 0.021049182468125399 0.0016082142880268877 0 0.0190414453335369 0.0012991100500852398 0 0.018705779559326639 0.0011423513728859591 0 0.018928042920595276 0.0010023718817144085 0 0.020167639020868586 0.0015294296719642077 0 0.018601128459280639 0.0016723018419550935 0 0.020851303360102616 0.0016820009734883087 0 0.021049182468125399 0.0016082142880268877 0 0.021052720457619731 0.0014578846170853969 0 0.021093112787590042 0.0016923859543464437 0 0.021095357730831415 0.0016671227444677013 0 0.021049182468125399 0.0016082142880268877 0 0.021088616831814993 0.0016931036687867873 0 0.021095357730831415 0.0016671227444677013 0 0.021192350035063048 0.0017284652490665142 0 0.021095357730831415 0.0016671227444677013 0 0.021141663814564407 0.0015360884887923945 0 0.021192350035063048 0.0017284652490665142 0 0.018601128459280639 0.0016723018419550935 0 0.017531179478282012 0.0015256550730834788 0 0.018601128459280639 0.0016723018419550935 0 0.018739242304287258 0.0016252322000748099 0 0.021095357730831415 0.0016671227444677013 0 0.021141663814564407 0.0015360884887923945 0 0.021049182468125399 0.0016082142880268877 0 0.021141663814564407 0.0015360884887923945 0 0.021049182468125399 0.0016082142880268877 0 0.021052720457619731 0.0014578846170853969 0 0.021141663814564407 0.0015360884887923945 0 0.021052720457619731 0.0014578846170853969 0 0.021207088424897016 0.0013763472772407791 0 0.021052720457619731 0.0014578846170853969 0 0.021207088424897016 0.0013763472772407791 0 0.021234667422077875 0.0012759245596379424 0 0.020851303360102616 0.0016820009734883087 0 0.021052720457619731 0.0014578846170853969 0 0.020833737679951579 0.0013139910601632321 0 0.021052720457619731 0.0014578846170853969 0 0.020833737679951579 0.0013139910601632321 0 0.021234667422077875 0.0012759245596379424 0 0.026280653909729688 0.0024585679473947066 0 0.026939815117103777 0.0022572069598904413 0 0.02025366772034989 0.0015065822180052296 0 0.020470166334028643 0.0016488888390110534 0 0.020833737679951579 0.0013139910601632321 0 0.020851303360102616 0.0016820009734883087 0 0.020470166334028643 0.0016488888390110534 0 0.020833737679951579 0.0013139910601632321 0 0.02025366772034989 0.0015065822180052296 0 0.020470166334028643 0.0016488888390110534 0 0.020233855805515056 0.0015513648629490299 0 0.019966854680084849 0.0015396841878371529 0 0.020211945536255969 0.0015722886207673219 0 0.019533284316256051 0.0014959420178713761 0 0.019932605559922947 0.0012694700560276244 0 0.020233855805515056 0.0015513648629490299 0 0.019533284316256051 0.0014959420178713761 0 0.019932605559922947 0.0012694700560276244 0 0.019464593557305752 0.00114315208422046 0 0.0190414453335369 0.0012991100500852398 0 0.019533284316256051 0.0014959420178713761 0 0.019464593557305752 0.00114315208422046 0 0.020167639020868586 0.0015294296719642077 0 0.019966854680084849 0.0015396841878371529 0 0.019464593557305752 0.00114315208422046 0 0.019181748877031675 0.00083467744065543405 0 0.019718972541620881 0.0008075689468000632 0 0.0190414453335369 0.0012991100500852398 0 0.019464593557305752 0.00114315208422046 0 0.019181748877031675 0.00083467744065543405 0 0.019932605559922947 0.0012694700560276244 0 0.019464593557305752 0.00114315208422046 0 0.019718972541620881 0.0008075689468000632 0 0.019718972541620881 0.0008075689468000632 0 0.019879777171217972 0.00042501378968865325 0 0.019560385118326643 0.00025258670898650108 0 0.019181748877031675 0.00083467744065543405 0 0.019718972541620881 0.0008075689468000632 0 0.019560385118326643 0.00025258670898650108 0 0.019181748877031675 0.00083467744065543405 0 0.018994395144863251 0.0007151313265833909 0 0.018966614310743257 0.0006946683230857235 0 0.019183543773044869 0.00080596144066762197 0 0.019209863888970065 0.00052634832689610399 0 0.019181748877031675 0.00083467744065543405 0 0.018928042920595276 0.0010023718817144085 0 0.018994395144863251 0.0007151313265833909 0 0.01878098436870072 0.00086312665675473998 0 0.018826771043661747 0.00069626540928555982 0 0.018994395144863251 0.0007151313265833909 0 0.018928042920595276 0.0010023718817144085 0 0.01878098436870072 0.00086312665675473998 0 0.018994395144863251 0.0007151313265833909 0 0.0190414453335369 0.0012991100500852398 0 0.019181748877031675 0.00083467744065543405 0 0.018928042920595276 0.0010023718817144085 0 0.018705779559326639 0.0011423513728859591 0 0.018928042920595276 0.0010023718817144085 0 0.01878098436870072 0.00086312665675473998 0 0.015151470810419393 0.0011086472157603002 0 0.015278454322803114 0.0018973654349201444 0 0.014994252938737988 0.0019006300887940606 0 0.018601128459280639 0.0016723018419550935 0 0.017044926012814904 0.0012977277311107078 0 0.015151470810419393 0.0011086472157603002 0 0.015278454322803114 0.0018973654349201444 0 0.015524179825234876 0.0012396689579773175 0 0.013718489404242048 0.0023240316365403932 0 0.017531179478282012 0.0015256550730834788 0 0.012217011981984698 0.0026043968609103102 0 0.012737089864568044 0.0027691921623223437 0 0.011941763493576807 0.003372072693534602 0 0.0079368415108830217 0.0026861594839354083 0 0.0097667149813907839 0.0022601337615939586 0 0.017044926012814904 0.0012977277311107078 0 0.011783419095477152 0.0013030341493412748 0 0.013718489404242048 0.0023240316365403932 0 0.0097667149813907839 0.0022601337615939586 0 0.014994252938737988 0.0019006300887940606 0 0.014820121251451702 0.002707611489987851 0 0.015017880449718357 0.0025666305374580632 0 0.015278454322803114 0.0018973654349201444 0 0.014994252938737988 0.0019006300887940606 0 0.015017880449718357 0.0025666305374580632 0 0.0038578376967497736 0.0022298323426454053 0 0.0034625656190021255 0.0022168521573270603 0 0.0034753076026085685 0.0017704643823841092 0 0.012217011981984698 0.0026043968609103102 0 0.012737089864568044 0.0027691921623223437 0 0.012570964332634257 0.002584936066648271 0 0.0038578376967497736 0.0022298323426454053 0 0.0034625656190021255 0.0022168521573270603 0 0.0033879310229998931 0.0025122041138191395 0 0.0034625656190021255 0.0022168521573270603 0 0.0030768888799196938 0.0019267854173438512 0 0.0034753076026085685 0.0017704643823841092 0 0.0034625656190021255 0.0022168521573270603 0 0.0033879310229998931 0.0025122041138191395 0 0.0031653934848123351 0.0023004575006950858 0 0.0034625656190021255 0.0022168521573270603 0 0.0031653934848123351 0.0023004575006950858 0 0.0030768888799196938 0.0019267854173438512 0 0.012737089864568044 0.0027691921623223437 0 0.013287699560156933 0.0022912892976917555 0 0.013165263450505886 0.0022493886641035583 0 0.012178559697323095 0.0023566585825135723 0 0.0119811779433424 0.0022901054665497196 0 0.013073842982072743 0.0016263633107437762 0 0.01553032848789856 0.0020244529400191814 0 0.013096977533936174 0.0016267386000051536 0 0.0091835286903524591 0.0024765344473720941 0 0.01553032848789856 0.0020244529400191814 0 0.0033879310229998931 0.0025122041138191395 0 0.0031653934848123351 0.0023004575006950858 0 0.0031572906123636907 0.0025274752233934309 0 0.01553032848789856 0.0020244529400191814 0 0.017531179478282012 0.0015256550730834788 0 0.0079368415108830217 0.0026861594839354083 0 0.0091835286903524591 0.0024765344473720941 0 0.012737089864568044 0.0027691921623223437 0 0.012570964332634257 0.002584936066648271 0 0.013165263450505886 0.0022493886641035583 0 0.021024941782203037 0.00087012108855551477 0 0.021179009382758726 0.00091940464731413596 0 0.021104612348861611 0.00096120322206924547 0 0.012217011981984698 0.0026043968609103102 0 0.012570964332634257 0.002584936066648271 0 0.012515685269355009 0.0016278425641204463 0 0.012020090968949314 0.0028250759635484726 0 0.01553032848789856 0.0020244529400191814 0 0.012570964332634257 0.002584936066648271 0 0.013660535837852103 0.0020052881488002868 0 0.012515685269355009 0.0016278425641204463 0 0.0053253047862382857 0.0012075233933736341 0 0.0063954885331471006 0.001209709142532534 0 0.010303180140299512 0.00030215929149464605 0 0.0097729645411865716 0.0001964066955158164 0 0.010132890565307081 0.00066088461931114635 0 0.0027534141708648614 0.0022680482845475205 0 0.0024552066087130306 0.0015729619716711352 0 0.0030768888799196938 0.0019267854173438512 0 0.0027534141708648614 0.0022680482845475205 0 0.0031653934848123351 0.0023004575006950858 0 0.0030768888799196938 0.0019267854173438512 0 0.0033879310229998931 0.0025122041138191395 0 0.0031572906123636907 0.0025274752233934309 0 0.0030603059394282068 0.0027673088988337965 0 0.0053253047862382857 0.0012075233933736341 0 0.014741584356733782 0.00057720196634260007 0 0.0091835286903524591 0.0024765344473720941 0 0.013096977533936174 0.0016267386000051536 0 0.0027534141708648614 0.0022680482845475205 0 0.003037313770716366 0.0025189932316632829 0 0.0030211005947013148 0.0028159381188176645 0 0.0031653934848123351 0.0023004575006950858 0 0.003037313770716366 0.0025189932316632829 0 0.0031572906123636907 0.0025274752233934309 0 0.003037313770716366 0.0025189932316632829 0 0.0031572906123636907 0.0025274752233934309 0 0.0030603059394282068 0.0027673088988337965 0 0.0027534141708648614 0.0022680482845475205 0 0.0031653934848123351 0.0023004575006950858 0 0.003037313770716366 0.0025189932316632829 0 0.0097729645411865716 0.0001964066955158164 0 0.010160691788018771 -0.0002068794146131799 0 0.0097448732368838678 -0.00043875476263629474 0 0.010303180140299512 0.00030215929149464605 0 0.0097729645411865716 0.0001964066955158164 0 0.010160691788018771 -0.0002068794146131799 0 0.020839961893820012 0.00085083068571636619 0 0.020777704044101303 0.0010628020188718594 0 0.020592851501592638 0.00098776399277949469 0 0.015347482371575124 7.5443192642863293e-05 0 0.014741584356733782 0.00057720196634260007 0 0.010290038398040185 -0.0007254856716297954 0 0.010114960003184039 -0.0004705747572954254 0 0.0097448732368838678 -0.00043875476263629474 0 0.020664707943107052 0.00098731814630432981 0 0.020110236823505483 0.0013539293101033731 0 0.020592851501592638 0.00098776399277949469 0 0.014741584356733782 0.00057720196634260007 0 0.02206821260243599 0.00034220655290656337 0 0.010160691788018771 -0.0002068794146131799 0 0.010114960003184039 -0.0004705747572954254 0 0.0097448732368838678 -0.00043875476263629474 0 0.010290038398040185 -0.0007254856716297954 0 0.010291371279196928 -0.0005031248365519091 0 0.010114960003184039 -0.0004705747572954254 0 0.010291371279196928 -0.0005031248365519091 0 0.010160691788018771 -0.0002068794146131799 0 0.010114960003184039 -0.0004705747572954254 0 0.020839961893820012 0.00085083068571636619 0 0.020880824165745122 0.0010079382325655797 0 0.020777704044101303 0.0010628020188718594 0 0.014741584356733782 0.00057720196634260007 0 0.018627465305851593 0.001474341119290684 0 0.020846630779493603 0.000959581829028754 0 0.020912730072087157 0.00099057490086232021 0 0.020880824165745122 0.0010079382325655797 0 0.003037313770716366 0.0025189932316632829 0 0.0030211005947013148 0.0028159381188176645 0 0.0030603059394282068 0.0027673088988337965 0 0.020846630779493603 0.000959581829028754 0 0.020864105600465605 0.00094583218027400186 0 0.020912730072087157 0.00099057490086232021 0 0.014741584356733782 0.00057720196634260007 0 0.013096977533936174 0.0016267386000051536 0 0.020864105600465605 0.00094583218027400186 0 0.020912730072087157 0.00099057490086232021 0 0.021020556832994464 0.0010004063748243024 0 0.020912730072087157 0.00099057490086232021 0 0.020974435765655639 0.0010653131149222438 0 0.020880824165745122 0.0010079382325655797 0 0.020912730072087157 0.00099057490086232021 0 0.020974435765655639 0.0010653131149222438 0 0.021020556832994464 0.0010004063748243024 0 0.020974435765655639 0.0010653131149222438 0 0.020986279945709393 0.0011782967219089303 0 0.020872755910092838 0.0011165142109590314 0 0.020986279945709393 0.0011782967219089303 0 0.020872755910092838 0.0011165142109590314 0 0.020903499137713701 0.0012255191509770772 0 0.020974435765655639 0.0010653131149222438 0 0.020872755910092838 0.0011165142109590314 0 0.020880824165745122 0.0010079382325655797 0 0.020872755910092838 0.0011165142109590314 0 0.020880824165745122 0.0010079382325655797 0 0.020777704044101303 0.0010628020188718594 0 0.020777704044101303 0.0010628020188718594 0 0.020694334728269703 0.0010612335830675176 0 0.020754837487377921 0.0011411181347840307 0 0.020872755910092838 0.0011165142109590314 0 0.020777704044101303 0.0010628020188718594 0 0.020754837487377921 0.0011411181347840307 0 0.020872755910092838 0.0011165142109590314 0 0.020754837487377921 0.0011411181347840307 0 0.020903499137713701 0.0012255191509770772 0 0.020694334728269703 0.0010612335830675176 0 0.020754837487377921 0.0011411181347840307 0 0.020644750716556547 0.001048806736743817 0 0.020664707943107052 0.00098731814630432981 0 0.020644750716556547 0.001048806736743817 0 0.020592851501592638 0.00098776399277949469 0 0.020694334728269703 0.0010612335830675176 0 0.020644750716556547 0.001048806736743817 0 0.020592851501592638 0.00098776399277949469 0 0.020777704044101303 0.0010628020188718594 0 0.020694334728269703 0.0010612335830675176 0 0.020592851501592638 0.00098776399277949469 0 0.021179009382758726 0.00091940464731413596 0 0.021104612348861611 0.00096120322206924547 0 0.021191741924293583 0.0010606082486267078 0 0.017531179478282012 0.0015256550730834788 0 0.021344569339439495 0.0010721732586036266 0 0.021104612348861611 0.00096120322206924547 0 0.021020556832994464 0.0010004063748243024 0 0.021191741924293583 0.0010606082486267078 0 0.021141663814564407 0.0015360884887923945 0 0.021192350035063048 0.0017284652490665142 0 0.021272108202621418 0.001492124052339868 0 0.021024941782203037 0.00087012108855551477 0 0.021104612348861611 0.00096120322206924547 0 0.021020556832994464 0.0010004063748243024 0 0.021024941782203037 0.00087012108855551477 0 0.020864105600465605 0.00094583218027400186 0 0.021020556832994464 0.0010004063748243024 0 0.021020556832994464 0.0010004063748243024 0 0.021081393992132158 0.0011512105646823752 0 0.021191741924293583 0.0010606082486267078 0 0.020974435765655639 0.0010653131149222438 0 0.021020556832994464 0.0010004063748243024 0 0.021081393992132158 0.0011512105646823752 0 0.020974435765655639 0.0010653131149222438 0 0.020986279945709393 0.0011782967219089303 0 0.021081393992132158 0.0011512105646823752 0 0.021344569339439495 0.0010721732586036266 0 0.021188127366380385 0.0013639907635972558 0 0.021081393992132158 0.0011512105646823752 0 0.021191741924293583 0.0010606082486267078 0 0.021213728233590922 0.0012683758849353218 0 0.021272108202621418 0.001492124052339868 0 0.021207088424897016 0.0013763472772407791 0 0.021213728233590922 0.0012683758849353218 0 0.021141663814564407 0.0015360884887923945 0 0.021272108202621418 0.001492124052339868 0 0.021207088424897016 0.0013763472772407791 0 0.021207088424897016 0.0013763472772407791 0 0.021213728233590922 0.0012683758849353218 0 0.021234667422077875 0.0012759245596379424 0 0.02804209520197512 0.0020948880803302599 0 0.027377128560569126 0.0021307555449442826 0 0.021213728233590922 0.0012683758849353218 0 0.021162287670724787 0.0013070512320579992 0 0.021234667422077875 0.0012759245596379424 0 0.034238022607912914 0.002804110118490865 0 0.033904379031776351 0.0025076782512453706 0 0.033693926446512965 0.0029829312746019448 0 0.020986279945709393 0.0011782967219089303 0 0.021081393992132158 0.0011512105646823752 0 0.021162287670724787 0.0013070512320579992 0 0.021081393992132158 0.0011512105646823752 0 0.021213728233590922 0.0012683758849353218 0 0.021162287670724787 0.0013070512320579992 0 0.034238022607912914 0.002804110118490865 0 0.03439812477634592 0.0025564147276757663 0 0.034281290975537913 0.0023159024376244895 0 0.034238022607912914 0.002804110118490865 0 0.033904379031776351 0.0025076782512453706 0 0.034281290975537913 0.0023159024376244895 0 0.020620928379689353 0.0012435713108178911 0 0.020754837487377921 0.0011411181347840307 0 0.020920314955814652 0.001413006690811934 0 0.020929731994761992 0.00077064201740819314 0 0.026167516130031064 0.0015478573285927473 0 0.020754837487377921 0.0011411181347840307 0 0.020826432162914608 0.00135772627289435 0 0.020903499137713701 0.0012255191509770772 0 0.020620928379689353 0.0012435713108178911 0 0.020754837487377921 0.0011411181347840307 0 0.020644750716556547 0.001048806736743817 0 0.02804209520197512 0.0020948880803302599 0 0.026167516130031064 0.0015478573285927473 0 0.020986279945709393 0.0011782967219089303 0 0.021162287670724787 0.0013070512320579992 0 0.020903499137713701 0.0012255191509770772 0 0.021162287670724787 0.0013070512320579992 0 0.020826432162914608 0.00135772627289435 0 0.020903499137713701 0.0012255191509770772 0 0.034238022607912914 0.002804110118490865 0 0.034686028160629996 0.0026708295299478963 0 0.03439812477634592 0.0025564147276757663 0 0.034686028160629996 0.0026708295299478963 0 0.03439812477634592 0.0025564147276757663 0 0.034639954380519832 0.0024920692343692805 0 0.03451342151804275 0.0024288713281514864 0 0.03439812477634592 0.0025564147276757663 0 0.034281290975537913 0.0023159024376244895 0 0.03451342151804275 0.0024288713281514864 0 0.03439812477634592 0.0025564147276757663 0 0.034639954380519832 0.0024920692343692805 0 0.03451342151804275 0.0024288713281514864 0 0.034639954380519832 0.0024920692343692805 0 0.034698046025770868 0.0024493152941371036 0 0.029625424186768466 0.0014828476853959505 0 0.028760840006632885 0.0023285614472536918 0 0.028637056044387595 0.0015975712316445585 0 0.026167516130031064 0.0015478573285927473 0 0.03304279493020687 0.0024659815092898758 0 0.034686028160629996 0.0026708295299478963 0 0.034639954380519832 0.0024920692343692805 0 0.03467623182764755 0.0024562494704898469 0 0.033466341461124594 0.0022589866284469305 0 0.03304279493020687 0.0024659815092898758 0 0.035067896551173927 0.0017379249700856273 0 0.034777837490619953 0.0019942691333703863 0 0.034747095115390522 0.0017301629209747647 0 0.032226121323416158 0.0010897663574410833 0 0.03304279493020687 0.0024659815092898758 0 0.03304279493020687 0.0024659815092898758 0 0.034810765556858254 0.0018948410773227196 0 0.034698046025770868 0.0024493152941371036 0 0.034527480954130677 0.0022765124116351978 0 0.034707506468016062 0.0020641022115854245 0 0.03451342151804275 0.0024288713281514864 0 0.034698046025770868 0.0024493152941371036 0 0.034527480954130677 0.0022765124116351978 0 0.03451342151804275 0.0024288713281514864 0 0.034527480954130677 0.0022765124116351978 0 0.034281290975537913 0.0023159024376244895 0 0.034527480954130677 0.0022765124116351978 0 0.034464728214352307 0.0020649256383311883 0 0.034707506468016062 0.0020641022115854245 0 0.034464728214352307 0.0020649256383311883 0 0.034311400335465633 0.0018671442674673099 0 0.034697148360870858 0.0016654875654868941 0 0.034810765556858254 0.0018948410773227196 0 0.034701078615473606 0.0015622240778669543 0 0.034464728214352307 0.0020649256383311883 0 0.034707506468016062 0.0020641022115854245 0 0.034697148360870858 0.0016654875654868941 0 0.034747095115390522 0.0017301629209747647 0 0.03496190107552951 0.0015126657522404612 0 0.034720985888517658 0.0014791937646931087 0 0.035067896551173927 0.0017379249700856273 0 0.034747095115390522 0.0017301629209747647 0 0.03496190107552951 0.0015126657522404612 0 0.033904379031776351 0.0025076782512453706 0 0.034281290975537913 0.0023159024376244895 0 0.033901955756852828 0.0020832226748195458 0 0.034527480954130677 0.0022765124116351978 0 0.034464728214352307 0.0020649256383311883 0 0.034281290975537913 0.0023159024376244895 0 0.034464728214352307 0.0020649256383311883 0 0.034281290975537913 0.0023159024376244895 0 0.034311400335465633 0.0018671442674673099 0 0.034281290975537913 0.0023159024376244895 0 0.034311400335465633 0.0018671442674673099 0 0.033901955756852828 0.0020832226748195458 0 0.034311400335465633 0.0018671442674673099 0 0.033901955756852828 0.0020832226748195458 0 0.033891724719279426 0.0017190339492541742 0 0.033901955756852828 0.0020832226748195458 0 0.033465176856104333 0.0019175669295693741 0 0.033891724719279426 0.0017190339492541742 0 0.033465176856104333 0.0019175669295693741 0 0.033408974174304169 0.0024185828036921721 0 0.032783510078938718 0.0020797153606067951 0 0.033904379031776351 0.0025076782512453706 0 0.033901955756852828 0.0020832226748195458 0 0.033408974174304169 0.0024185828036921721 0 0.033901955756852828 0.0020832226748195458 0 0.033465176856104333 0.0019175669295693741 0 0.033408974174304169 0.0024185828036921721 0 0.033904379031776351 0.0025076782512453706 0 0.033408974174304169 0.0024185828036921721 0 0.033693926446512965 0.0029829312746019448 0 0.026939815117103777 0.0022572069598904413 0 0.027377128560569126 0.0021307555449442826 0 0.033408974174304169 0.0024185828036921721 0 0.033037213568868948 0.0031900486767350556 0 0.033693926446512965 0.0029829312746019448 0 0.032238445506191177 0.0034140467896231 0 0.032693937577975597 0.0026870899428137469 0 0.032083320276500425 0.0026807869872527679 0 0.032238445506191177 0.0034140467896231 0 0.033037213568868948 0.0031900486767350556 0 0.032693937577975597 0.0026870899428137469 0 0.033408974174304169 0.0024185828036921721 0 0.033037213568868948 0.0031900486767350556 0 0.032693937577975597 0.0026870899428137469 0 0.032693937577975597 0.0026870899428137469 0 0.032378007497106003 0.0023613874451305994 0 0.032083320276500425 0.0026807869872527679 0 0.032378007497106003 0.0023613874451305994 0 0.032783510078938718 0.0020797153606067951 0 0.032217534706649988 0.0018646354591028409 0 0.032693937577975597 0.0026870899428137469 0 0.032378007497106003 0.0023613874451305994 0 0.032783510078938718 0.0020797153606067951 0 0.032378007497106003 0.0023613874451305994 0 0.032217534706649988 0.0018646354591028409 0 0.032044619838689843 0.0021944354494251236 0 0.033408974174304169 0.0024185828036921721 0 0.032693937577975597 0.0026870899428137469 0 0.032783510078938718 0.0020797153606067951 0 0.032783510078938718 0.0020797153606067951 0 0.032639055422669101 0.0015242091420231332 0 0.033152102437979628 0.0016678180356599441 0 0.033465176856104333 0.0019175669295693741 0 0.032783510078938718 0.0020797153606067951 0 0.033152102437979628 0.0016678180356599441 0 0.032783625117964718 0.0020646728692592388 0 0.032455039492129821 0.001327623381684307 0 0.032783510078938718 0.0020797153606067951 0 0.032217534706649988 0.0018646354591028409 0 0.032316731504163906 0.0011667693773919632 0 0.032639055422669101 0.0015242091420231332 0 0.032753663063297377 0.0012685928651409622 0 0.033152102437979628 0.0016678180356599441 0 0.033056974451058617 0.0014766116786652172 0 0.033159095780566576 0.0011394253659666668 0 0.032469364511094986 0.001068336063682693 0 0.032639055422669101 0.0015242091420231332 0 0.032753663063297377 0.0012685928651409622 0 0.032347739300954595 0.00087022751600101947 0 0.032924542198521818 0.001409071866791934 0 0.032262006255320851 0.00081389334815313999 0 0.033056974451058617 0.0014766116786652172 0 0.033234196111024648 0.0013720008940710608 0 0.033159095780566576 0.0011394253659666668 0 0.033234196111024648 0.0013720008940710608 0 0.033381936545081384 0.0013845920108095709 0 0.033387665580411688 0.001142698844431588 0 0.033234196111024648 0.0013720008940710608 0 0.033159095780566576 0.0011394253659666668 0 0.033387665580411688 0.001142698844431588 0 0.033234196111024648 0.0013720008940710608 0 0.033381936545081384 0.0013845920108095709 0 0.033152102437979628 0.0016678180356599441 0 0.032924542198521818 0.001409071866791934 0 0.033133439038450771 0.0016349384932078713 0 0.033056974451058617 0.0014766116786652172 0 0.033234196111024648 0.0013720008940710608 0 0.033152102437979628 0.0016678180356599441 0 0.033465176856104333 0.0019175669295693741 0 0.033152102437979628 0.0016678180356599441 0 0.033564255908763774 0.0015488033801653927 0 0.033381936545081384 0.0013845920108095709 0 0.033152102437979628 0.0016678180356599441 0 0.033564255908763774 0.0015488033801653927 0 0.033465176856104333 0.0019175669295693741 0 0.033564255908763774 0.0015488033801653927 0 0.033891724719279426 0.0017190339492541742 0 0.033564255908763774 0.0015488033801653927 0 0.033891724719279426 0.0017190339492541742 0 0.033887260250252543 0.0014079013719331846 0 0.033887260250252543 0.0014079013719331846 0 0.033604835096270137 0.001226454861027569 0 0.033878348334141779 0.0011808443015393689 0 0.033564255908763774 0.0015488033801653927 0 0.033887260250252543 0.0014079013719331846 0 0.033604835096270137 0.001226454861027569 0 0.033887260250252543 0.0014079013719331846 0 0.033878348334141779 0.0011808443015393689 0 0.034143603572093152 0.0012064399094070936 0 0.033381936545081384 0.0013845920108095709 0 0.033564255908763774 0.0015488033801653927 0 0.033604835096270137 0.001226454861027569 0 0.033381936545081384 0.0013845920108095709 0 0.033604835096270137 0.001226454861027569 0 0.033387665580411688 0.001142698844431588 0 0.033604835096270137 0.001226454861027569 0 0.033596650397532693 0.00093243673805376765 0 0.033387665580411688 0.001142698844431588 0 0.033604835096270137 0.001226454861027569 0 0.033815311558535753 0.00099596614528798546 0 0.033596650397532693 0.00093243673805376765 0 0.033878348334141779 0.0011808443015393689 0 0.033815311558535753 0.00099596614528798546 0 0.034151290644277223 0.00089338645634787922 0 0.033604835096270137 0.001226454861027569 0 0.033878348334141779 0.0011808443015393689 0 0.033815311558535753 0.00099596614528798546 0 0.033815311558535753 0.00099596614528798546 0 0.033891106560298645 0.00079389431574444509 0 0.034151290644277223 0.00089338645634787922 0 0.033891106560298645 0.00079389431574444509 0 0.034151290644277223 0.00089338645634787922 0 0.034093565507282562 0.0006463668607908133 0 0.033815311558535753 0.00099596614528798546 0 0.033891106560298645 0.00079389431574444509 0 0.033596650397532693 0.00093243673805376765 0 0.033891106560298645 0.00079389431574444509 0 0.033596650397532693 0.00093243673805376765 0 0.033711709747013104 0.00072160201825705159 0 0.033596650397532693 0.00093243673805376765 0 0.03348225532985289 0.00070984311402604722 0 0.033711709747013104 0.00072160201825705159 0 0.033596650397532693 0.00093243673805376765 0 0.033322526615910661 0.00092197887760362047 0 0.03348225532985289 0.00070984311402604722 0 0.033322526615910661 0.00092197887760362047 0 0.033299191767547268 0.00076599074209470787 0 0.03348225532985289 0.00070984311402604722 0 0.033322526615910661 0.00092197887760362047 0 0.033299191767547268 0.00076599074209470787 0 0.033128450485662646 0.00082621166825481258 0 0.033322526615910661 0.00092197887760362047 0 0.033128450485662646 0.00082621166825481258 0 0.033159095780566576 0.0011394253659666668 0 0.033159095780566576 0.0011394253659666668 0 0.032469364511094986 0.001068336063682693 0 0.032578230040329004 0.00060811156007303812 0 0.032957410737939091 0.00053993972342362062 0 0.033148561791963571 0.0010900251076044936 0 0.032740326699500048 0.00017013128772663827 0 0.033159095780566576 0.0011394253659666668 0 0.032578230040329004 0.00060811156007303812 0 0.033596650397532693 0.00093243673805376765 0 0.033322526615910661 0.00092197887760362047 0 0.033387665580411688 0.001142698844431588 0 0.033322526615910661 0.00092197887760362047 0 0.033159095780566576 0.0011394253659666668 0 0.033387665580411688 0.001142698844431588 0 0.035074163303115344 0.0012686951911932876 0 0.03485669281088951 0.001328799993068491 0 0.034892667614849611 0.0010497280819143373 0 0.03485669281088951 0.001328799993068491 0 0.03467598306100407 0.0012580634348950358 0 0.034892667614849611 0.0010497280819143373 0 0.035074163303115344 0.0012686951911932876 0 0.03485669281088951 0.001328799993068491 0 0.03496190107552951 0.0015126657522404612 0 0.03485669281088951 0.001328799993068491 0 0.03496190107552951 0.0015126657522404612 0 0.034720985888517658 0.0014791937646931087 0 0.034697148360870858 0.0016654875654868941 0 0.03467598306100407 0.0012580634348950358 0 0.03445379628727524 0.0015259856927333621 0 0.03485669281088951 0.001328799993068491 0 0.034720985888517658 0.0014791937646931087 0 0.03467598306100407 0.0012580634348950358 0 0.034701078615473606 0.0015622240778669543 0 0.034674089141254603 0.0012846420450984232 0 0.034405769783162024 0.0012458740942934397 0 0.03445379628727524 0.0015259856927333621 0 0.034184895253784618 0.0014977270645037722 0 0.03467598306100407 0.0012580634348950358 0 0.034405769783162024 0.0012458740942934397 0 0.03445379628727524 0.0015259856927333621 0 0.034311400335465633 0.0018671442674673099 0 0.034697148360870858 0.0016654875654868941 0 0.03445379628727524 0.0015259856927333621 0 0.034311400335465633 0.0018671442674673099 0 0.03445379628727524 0.0015259856927333621 0 0.034184895253784618 0.0014977270645037722 0 0.033891724719279426 0.0017190339492541742 0 0.033887260250252543 0.0014079013719331846 0 0.034184895253784618 0.0014977270645037722 0 0.034311400335465633 0.0018671442674673099 0 0.033891724719279426 0.0017190339492541742 0 0.034184895253784618 0.0014977270645037722 0 0.033887260250252543 0.0014079013719331846 0 0.034184895253784618 0.0014977270645037722 0 0.034143603572093152 0.0012064399094070936 0 0.034405769783162024 0.0012458740942934397 0 0.034184895253784618 0.0014977270645037722 0 0.034143603572093152 0.0012064399094070936 0 0.034143603572093152 0.0012064399094070936 0 0.034151290644277223 0.00089338645634787922 0 0.034361066705392691 0.0010292309084848834 0 0.033878348334141779 0.0011808443015393689 0 0.034143603572093152 0.0012064399094070936 0 0.034151290644277223 0.00089338645634787922 0 0.034405769783162024 0.0012458740942934397 0 0.034143603572093152 0.0012064399094070936 0 0.034361066705392691 0.0010292309084848834 0 0.034151290644277223 0.00089338645634787922 0 0.034490800966256695 0.0007931943225417007 0 0.034361066705392691 0.0010292309084848834 0 0.034151290644277223 0.00089338645634787922 0 0.034490800966256695 0.0007931943225417007 0 0.034326021498998965 0.00063910779027391681 0 0.034490800966256695 0.0007931943225417007 0 0.034612128315065493 0.0010119083862452007 0 0.034767488503072881 0.00074455562550840651 0 0.034490800966256695 0.0007931943225417007 0 0.034361066705392691 0.0010292309084848834 0 0.034612128315065493 0.0010119083862452007 0 0.03467598306100407 0.0012580634348950358 0 0.034405769783162024 0.0012458740942934397 0 0.034612128315065493 0.0010119083862452007 0 0.034405769783162024 0.0012458740942934397 0 0.034361066705392691 0.0010292309084848834 0 0.034612128315065493 0.0010119083862452007 0 0.03467598306100407 0.0012580634348950358 0 0.034612128315065493 0.0010119083862452007 0 0.034892667614849611 0.0010497280819143373 0 0.034612128315065493 0.0010119083862452007 0 0.034767488503072881 0.00074455562550840651 0 0.034892667614849611 0.0010497280819143373 0 0.034767488503072881 0.00074455562550840651 0 0.035008226635070333 0.00074248556704414989 0 0.034892667614849611 0.0010497280819143373 0 0.035167573758004299 0.0010040417666869483 0 0.035008226635070333 0.00074248556704414989 0 0.034892667614849611 0.0010497280819143373 0 0.035072361336973022 0.0004383691947037783 0 0.034883565600008042 0.0004703693589714738 0 0.034941416846087744 0.00018113788102077448 0 0.035008226635070333 0.00074248556704414989 0 0.035072361336973022 0.0004383691947037783 0 0.034883565600008042 0.0004703693589714738 0 0.034767488503072881 0.00074455562550840651 0 0.035008226635070333 0.00074248556704414989 0 0.034883565600008042 0.0004703693589714738 0 0.034767488503072881 0.00074455562550840651 0 0.034883565600008042 0.0004703693589714738 0 0.034673406058460442 0.00047690006579161645 0 0.034883565600008042 0.0004703693589714738 0 0.034804679973282175 0.00029618944626142921 0 0.034673406058460442 0.00047690006579161645 0 0.034883565600008042 0.0004703693589714738 0 0.034804679973282175 0.00029618944626142921 0 0.034941416846087744 0.00018113788102077448 0 0.034804679973282175 0.00029618944626142921 0 0.034673406058460442 0.00047690006579161645 0 0.034630745623601404 0.00027517642947048687 0 0.034673406058460442 0.00047690006579161645 0 0.034475144374445821 0.00044916639424281377 0 0.034630745623601404 0.00027517642947048687 0 0.034490800966256695 0.0007931943225417007 0 0.034767488503072881 0.00074455562550840651 0 0.034673406058460442 0.00047690006579161645 0 0.034490800966256695 0.0007931943225417007 0 0.034673406058460442 0.00047690006579161645 0 0.034326021498998965 0.00063910779027391681 0 0.034673406058460442 0.00047690006579161645 0 0.034326021498998965 0.00063910779027391681 0 0.034475144374445821 0.00044916639424281377 0 0.034151290644277223 0.00089338645634787922 0 0.034326021498998965 0.00063910779027391681 0 0.034093565507282562 0.0006463668607908133 0 0.034326021498998965 0.00063910779027391681 0 0.034475144374445821 0.00044916639424281377 0 0.034264908064925943 0.00046554708532792384 0 0.034475144374445821 0.00044916639424281377 0 0.034403212148455473 0.000295338222789161 0 0.034630745623601404 0.00027517642947048687 0 0.034475144374445821 0.00044916639424281377 0 0.034403212148455473 0.000295338222789161 0 0.034264908064925943 0.00046554708532792384 0 0.034403212148455473 0.000295338222789161 0 0.034630745623601404 0.00027517642947048687 0 0.034532780371416875 0.00016561217576264908 0 0.034630745623601404 0.00027517642947048687 0 0.034532780371416875 0.00016561217576264908 0 0.034759469658553969 8.8326243207927384e-05 0 0.034532780371416875 0.00016561217576264908 0 0.034619816244491848 4.0509129485166893e-05 0 0.034377148329883193 7.638203774472232e-05 0 0.034532780371416875 0.00016561217576264908 0 0.034619816244491848 4.0509129485166893e-05 0 0.034759469658553969 8.8326243207927384e-05 0 0.034999653004022933 -8.6552878928972653e-08 0 0.034922495312923352 -4.1529791028207409e-05 0 0.034999542305651381 -1.19614937562614e-08 0 0.034619816244491848 4.0509129485166893e-05 0 0.034922495312923352 -4.1529791028207409e-05 0 0.034759469658553969 8.8326243207927384e-05 0 0.034922495312923352 -4.1529791028207409e-05 0 0.034759469658553969 8.8326243207927384e-05 0 0.034884462338619776 3.4962588344804423e-05 0 0.034884462338619776 3.4962588344804423e-05 0 0.034999542305651381 -1.19614937562614e-08 0 0.034854842973176939 0.00013038021126177187 0 0.034922495312923352 -4.1529791028207409e-05 0 0.034884462338619776 3.4962588344804423e-05 0 0.034999542305651381 -1.19614937562614e-08 0 0.034759469658553969 8.8326243207927384e-05 0 0.034884462338619776 3.4962588344804423e-05 0 0.034854842973176939 0.00013038021126177187 0 0.034804679973282175 0.00029618944626142921 0 0.034630745623601404 0.00027517642947048687 0 0.034854842973176939 0.00013038021126177187 0 0.034630745623601404 0.00027517642947048687 0 0.034759469658553969 8.8326243207927384e-05 0 0.034854842973176939 0.00013038021126177187 0 0.034804679973282175 0.00029618944626142921 0 0.034854842973176939 0.00013038021126177187 0 0.034941416846087744 0.00018113788102077448 0 0.034999542305651381 -1.19614937562614e-08 0 0.034854842973176939 0.00013038021126177187 0 0.034941416846087744 0.00018113788102077448 0 0.034999997499536119 2.6853243346707876e-10 0 0.035000467271215578 3.0784842499113738e-06 0 0.035000001158119728 2.2805148599677513e-09 0 0.034999963190293838 7.8492973094517993e-09 0 0.034968739246644807 8.3099178400520483e-05 0 0.034997042728111841 5.0359632374003731e-06 0 0.035000467271215578 3.0784842499113738e-06 0 0.035000001158119728 2.2805148599677513e-09 0 0.035046591321253061 0.00022678651890276481 0 0.034968739246644807 8.3099178400520483e-05 0 0.034997042728111841 5.0359632374003731e-06 0 0.035002284388509199 -2.0900906009755095e-06 0 0.035000467271215578 3.0784842499113738e-06 0 0.033473892640595873 0.00047250994385900286 0 0.033681388389032035 0.00034027820847582347 0 0.033684287205723994 0.00055241234656357694 0 0.033473892640595873 0.00047250994385900286 0 0.033681388389032035 0.00034027820847582347 0 0.033482973782087345 0.00027527172505208662 0 0.033473892640595873 0.00047250994385900286 0 0.033482973782087345 0.00027527172505208662 0 0.033243954731337781 0.00034363214090499657 0 0.033243954731337781 0.00034363214090499657 0 0.03327394542939395 0.00058931335155467909 0 0.032957335874654971 0.00044824747610835574 0 0.033482973782087345 0.00027527172505208662 0 0.033243954731337781 0.00034363214090499657 0 0.03334198254029163 0.00013463261666726953 0 0.033473892640595873 0.00047250994385900286 0 0.033243954731337781 0.00034363214090499657 0 0.03327394542939395 0.00058931335155467909 0 0.033299191767547268 0.00076599074209470787 0 0.033128450485662646 0.00082621166825481258 0 0.03327394542939395 0.00058931335155467909 0 0.033128450485662646 0.00082621166825481258 0 0.03327394542939395 0.00058931335155467909 0 0.032957335874654971 0.00044824747610835574 0 0.033299191767547268 0.00076599074209470787 0 0.03327394542939395 0.00058931335155467909 0 0.03348225532985289 0.00070984311402604722 0 0.033473892640595873 0.00047250994385900286 0 0.03327394542939395 0.00058931335155467909 0 0.03348225532985289 0.00070984311402604722 0 0.033473892640595873 0.00047250994385900286 0 0.03348225532985289 0.00070984311402604722 0 0.033684287205723994 0.00055241234656357694 0 0.03348225532985289 0.00070984311402604722 0 0.033711709747013104 0.00072160201825705159 0 0.033684287205723994 0.00055241234656357694 0 0.033891106560298645 0.00079389431574444509 0 0.033711709747013104 0.00072160201825705159 0 0.033885630786373314 0.00060754644676483296 0 0.033885630786373314 0.00060754644676483296 0 0.033684287205723994 0.00055241234656357694 0 0.033869695576127325 0.00042570209459363503 0 0.033711709747013104 0.00072160201825705159 0 0.033885630786373314 0.00060754644676483296 0 0.033684287205723994 0.00055241234656357694 0 0.033891106560298645 0.00079389431574444509 0 0.033885630786373314 0.00060754644676483296 0 0.034093565507282562 0.0006463668607908133 0 0.033885630786373314 0.00060754644676483296 0 0.034093565507282562 0.0006463668607908133 0 0.034056133285147207 0.00049303032762216181 0 0.034326021498998965 0.00063910779027391681 0 0.034093565507282562 0.0006463668607908133 0 0.034264908064925943 0.00046554708532792384 0 0.034093565507282562 0.0006463668607908133 0 0.034264908064925943 0.00046554708532792384 0 0.034056133285147207 0.00049303032762216181 0 0.034264908064925943 0.00046554708532792384 0 0.034056133285147207 0.00049303032762216181 0 0.034142864026361859 0.0003192802263145356 0 0.034056133285147207 0.00049303032762216181 0 0.034142864026361859 0.0003192802263145356 0 0.033869695576127325 0.00042570209459363503 0 0.034403212148455473 0.000295338222789161 0 0.034264908064925943 0.00046554708532792384 0 0.034142864026361859 0.0003192802263145356 0 0.033681388389032035 0.00034027820847582347 0 0.033684287205723994 0.00055241234656357694 0 0.033869695576127325 0.00042570209459363503 0 0.033885630786373314 0.00060754644676483296 0 0.034056133285147207 0.00049303032762216181 0 0.033869695576127325 0.00042570209459363503 0 0.034142864026361859 0.0003192802263145356 0 0.033869695576127325 0.00042570209459363503 0 0.033914902366750585 0.00023737004233388714 0 0.033681388389032035 0.00034027820847582347 0 0.033869695576127325 0.00042570209459363503 0 0.033914902366750585 0.00023737004233388714 0 0.033914902366750585 0.00023737004233388714 0 0.033871206100183786 4.4144705121303105e-05 0 0.033682976873198961 0.00015141130590278631 0 0.033681388389032035 0.00034027820847582347 0 0.033914902366750585 0.00023737004233388714 0 0.033682976873198961 0.00015141130590278631 0 0.033914902366750585 0.00023737004233388714 0 0.033871206100183786 4.4144705121303105e-05 0 0.034121595425713455 0.00011321152664311492 0 0.033871206100183786 4.4144705121303105e-05 0 0.034121595425713455 0.00011321152664311492 0 0.034090085363167107 -0.00019169577858367391 0 0.034403212148455473 0.000295338222789161 0 0.034142864026361859 0.0003192802263145356 0 0.034320514797308771 0.00019844913875177779 0 0.034403212148455473 0.000295338222789161 0 0.034532780371416875 0.00016561217576264908 0 0.034320514797308771 0.00019844913875177779 0 0.034142864026361859 0.0003192802263145356 0 0.034320514797308771 0.00019844913875177779 0 0.034121595425713455 0.00011321152664311492 0 0.034142864026361859 0.0003192802263145356 0 0.033914902366750585 0.00023737004233388714 0 0.034121595425713455 0.00011321152664311492 0 0.034532780371416875 0.00016561217576264908 0 0.034320514797308771 0.00019844913875177779 0 0.034377148329883193 7.638203774472232e-05 0 0.034320514797308771 0.00019844913875177779 0 0.034121595425713455 0.00011321152664311492 0 0.034377148329883193 7.638203774472232e-05 0 0.034999653004022933 -8.6552878928972653e-08 0 0.035013636193759308 -1.4572858122349316e-06 0 0.035000129633593009 1.2416419019685285e-08 0 0.034619816244491848 4.0509129485166893e-05 0 0.034377148329883193 7.638203774472232e-05 0 0.034090085363167107 -0.00019169577858367391 0 0.034999653004022933 -8.6552878928972653e-08 0 0.034922495312923352 -4.1529791028207409e-05 0 0.035013636193759308 -1.4572858122349316e-06 0 0.034619816244491848 4.0509129485166893e-05 0 0.034922495312923352 -4.1529791028207409e-05 0 0.034090085363167107 -0.00019169577858367391 0 0.034868973027371374 -6.0561018905893613e-05 0 0.034556975441570957 -8.2073833910719976e-05 0 0.034121595425713455 0.00011321152664311492 0 0.034377148329883193 7.638203774472232e-05 0 0.034090085363167107 -0.00019169577858367391 0 0.034556975441570957 -8.2073833910719976e-05 0 0.03426891425952161 -5.6222070732946184e-05 0 0.035013636193759308 -1.4572858122349316e-06 0 0.035000129633593009 1.2416419019685285e-08 0 0.034995539569701015 2.0348649253292365e-06 0 0.033871206100183786 4.4144705121303105e-05 0 0.034090085363167107 -0.00019169577858367391 0 0.033572536525058025 -0.00010930540093514084 0 0.035000129633593009 1.2416419019685285e-08 0 0.034995539569701015 2.0348649253292365e-06 0 0.034999959686297509 2.1943733157174619e-09 0 0.033871206100183786 4.4144705121303105e-05 0 0.033572536525058025 -0.00010930540093514084 0 0.033682976873198961 0.00015141130590278631 0 0.033482973782087345 0.00027527172505208662 0 0.033682976873198961 0.00015141130590278631 0 0.03334198254029163 0.00013463261666726953 0 0.033572536525058025 -0.00010930540093514084 0 0.033682976873198961 0.00015141130590278631 0 0.03334198254029163 0.00013463261666726953 0 0.033681388389032035 0.00034027820847582347 0 0.033482973782087345 0.00027527172505208662 0 0.033682976873198961 0.00015141130590278631 0 0.033572536525058025 -0.00010930540093514084 0 0.03334198254029163 0.00013463261666726953 0 0.033156391888956797 -2.7570883886043013e-05 0 0.03334198254029163 0.00013463261666726953 0 0.033156391888956797 -2.7570883886043013e-05 0 0.033036007978199083 0.00018426916436846814 0 0.033243954731337781 0.00034363214090499657 0 0.03334198254029163 0.00013463261666726953 0 0.033036007978199083 0.00018426916436846814 0 0.03426891425952161 -5.6222070732946184e-05 0 0.034162355221917164 2.6007135704825856e-05 0 0.034995539569701015 2.0348649253292365e-06 0 0.034999959686297509 2.1943733157174619e-09 0 0.034994424942224253 2.929164025854232e-06 0 0.034999959686297509 2.1943733157174619e-09 0 0.034994424942224253 2.929164025854232e-06 0 0.034999975842582381 -7.1335338659373185e-09 0 0.034994424942224253 2.929164025854232e-06 0 0.034999975842582381 -7.1335338659373185e-09 0 0.034975656670622177 5.6338303166776421e-06 0 0.035000369991434063 -2.0070354866734028e-07 0 0.033803909299547075 -0.00028072704956349207 0 0.034999988025904726 -2.8147806494328256e-10 0 0.034999998430221849 -3.180899005117286e-09 0 0.034991437573558867 -4.6647885289983915e-06 0 0.034999967234415896 3.2427458125039869e-09 0 0.034978202401741029 -3.5831004628562786e-06 0 0.034988562813573307 -3.5089539142217499e-07 0 0.035000486372159273 6.6824265729092719e-07 0 0.033803909299547075 -0.00028072704956349207 0 0.031773510061486231 -0.0015977256867422958 0 0.031829701193396877 -0.0016066409674142285 0 0.032237192465519288 -0.00076837655321282102 0 0.033302145978731774 -0.00054834933288992218 0 0.031261217343731135 -0.00078524237270923426 0 0.03497860886152783 -4.7030533999943912e-06 0 0.034978202401741029 -3.5831004628562786e-06 0 0.034988562813573307 -3.5089539142217499e-07 0 0.033302145978731774 -0.00054834933288992218 0 0.033403715437320569 -0.00049927889386800178 0 0.033302145978731774 -0.00054834933288992218 0 0.033803909299547075 -0.00028072704956349207 0 0.033403715437320569 -0.00049927889386800178 0 0.033803909299547075 -0.00028072704956349207 0 0.033567512777688061 -0.00045549471029101749 0 0.033826811955465046 -0.00049943410560011252 0 0.033717599276335102 -0.00073040151584021981 0 0.034994424942224253 2.929164025854232e-06 0 0.034975363957873172 6.4771785053886711e-06 0 0.034975656670622177 5.6338303166776421e-06 0 0.034162355221917164 2.6007135704825856e-05 0 0.033403715437320569 -0.00049927889386800178 0 0.032770375211609373 3.8486543752896486e-05 0 0.033036007978199083 0.00018426916436846814 0 0.032957335874654971 0.00044824747610835574 0 0.033156391888956797 -2.7570883886043013e-05 0 0.032770375211609373 3.8486543752896486e-05 0 0.033036007978199083 0.00018426916436846814 0 0.033243954731337781 0.00034363214090499657 0 0.033036007978199083 0.00018426916436846814 0 0.032957335874654971 0.00044824747610835574 0 0.033403715437320569 -0.00049927889386800178 0 0.032434251932418973 -0.00026171166588782993 0 0.032237192465519288 -0.00076837655321282102 0 0.031555632575870997 -0.00043047332363578143 0 0.031373500461219908 -0.00090507855953437058 0 0.031773510061486231 -0.0015977256867422958 0 0.032237192465519288 -0.00076837655321282102 0 0.031373500461219908 -0.00090507855953437058 0 0.032237192465519288 -0.00076837655321282102 0 0.031555632575870997 -0.00043047332363578143 0 0.03189217119565823 -7.7219413777668332e-05 0 0.031555632575870997 -0.00043047332363578143 0 0.03189217119565823 -7.7219413777668332e-05 0 0.031378706226074957 -6.3907778493186482e-06 0 0.032740326699500048 0.00017013128772663827 0 0.032237192465519288 -0.00076837655321282102 0 0.032305931530440736 0.00010510378917313031 0 0.032237192465519288 -0.00076837655321282102 0 0.03189217119565823 -7.7219413777668332e-05 0 0.032305931530440736 0.00010510378917313031 0 0.032957410737939091 0.00053993972342362062 0 0.032434251932418973 -0.00026171166588782993 0 0.030776009951545349 -6.8587171885551513e-05 0 0.031122638973339969 -0.00013921967738449975 0 0.030843901954122142 -0.00045524828802558239 0 0.031122638973339969 -0.00013921967738449975 0 0.031397446579189608 -0.00056667643003817261 0 0.030843901954122142 -0.00045524828802558239 0 0.031083841317093245 -0.00017536627746024184 0 0.031261217343731135 -0.00078524237270923426 0 0.031555632575870997 -0.00043047332363578143 0 0.031024160885654385 -0.00020781849551020811 0 0.031373500461219908 -0.00090507855953437058 0 0.031555632575870997 -0.00043047332363578143 0 0.031024160885654385 -0.00020781849551020811 0 0.031378706226074957 -6.3907778493186482e-06 0 0.031397446579189608 -0.00056667643003817261 0 0.030843901954122142 -0.00045524828802558239 0 0.030976641383244553 -0.00089203509557034841 0 0.03497860886152783 -4.7030533999943912e-06 0 0.034981651165617147 4.9627129134035948e-06 0 0.034988562813573307 -3.5089539142217499e-07 0 0.031666899668401728 -0.0010139109710432831 0 0.031397446579189608 -0.00056667643003817261 0 0.030976641383244553 -0.00089203509557034841 0 0.033302145978731774 -0.00054834933288992218 0 0.033015869321026493 -0.00043444747918731491 0 0.034999967234415896 3.2427458125039869e-09 0 0.034988562813573307 -3.5089539142217499e-07 0 0.034999971337672131 -2.6930425245017395e-09 0 0.034981651165617147 4.9627129134035948e-06 0 0.034988562813573307 -3.5089539142217499e-07 0 0.034999971337672131 -2.6930425245017395e-09 0 0.034981651165617147 4.9627129134035948e-06 0 0.034999971337672131 -2.6930425245017395e-09 0 0.034989434608642025 1.149483216314111e-05 0 0.034999971337672131 -2.6930425245017395e-09 0 0.034989434608642025 1.149483216314111e-05 0 0.035000054801060623 4.311935264208204e-08 0 0.034989434608642025 1.149483216314111e-05 0 0.035000054801060623 4.311935264208204e-08 0 0.034989770246997745 2.9278760537009889e-05 0 0.035000054801060623 4.311935264208204e-08 0 0.034989770246997745 2.9278760537009889e-05 0 0.034999732491113961 -8.0258602451726247e-08 0 0.034989434608642025 1.149483216314111e-05 0 0.034989770246997745 2.9278760537009889e-05 0 0.03497453250082553 1.6068136659519282e-05 0 0.034989770246997745 2.9278760537009889e-05 0 0.034996234135109897 8.5496089966841793e-05 0 0.034935263133154204 5.8647659095541886e-05 0 0.034774319531559517 0.00045758394030396394 0 0.032509391889137915 -0.00041359088989835263 0 0.034981651165617147 4.9627129134035948e-06 0 0.034989434608642025 1.149483216314111e-05 0 0.03497453250082553 1.6068136659519282e-05 0 0.033015869321026493 -0.00043444747918731491 0 0.032509391889137915 -0.00041359088989835263 0 0.035001513247053154 2.0351797099511235e-06 0 0.034999979780209529 5.2438045942814153e-09 0 0.035000049734429883 -5.6563555280742713e-09 0 0.034909661905094425 1.2237878852298948e-05 0 0.03499996684829515 -1.06227455700564e-09 0 0.034817853687406461 1.2138123213334541e-05 0 0.034999732491113961 -8.0258602451726247e-08 0 0.034935263133154204 5.8647659095541886e-05 0 0.034989770246997745 2.9278760537009889e-05 0 0.034999732491113961 -8.0258602451726247e-08 0 0.034935263133154204 5.8647659095541886e-05 0 0.034996234135109897 8.5496089966841793e-05 0 0.034935263133154204 5.8647659095541886e-05 0 0.034876439404334866 0.00014643193145975368 0 0.034935263133154204 5.8647659095541886e-05 0 0.034876439404334866 0.00014643193145975368 0 0.034771704009529267 0.00010107061985427868 0 0.034817853687406461 1.2138123213334541e-05 0 0.034935263133154204 5.8647659095541886e-05 0 0.034771704009529267 0.00010107061985427868 0 0.032509391889137915 -0.00041359088989835263 0 0.032243733850075652 -0.00015689798317138328 0 0.030117798067342556 -0.00061744973335041246 0 0.029600302836901179 -0.00050252369237852187 0 0.029849670802024962 -0.00019226128784212695 0 0.029600302836901179 -0.00050252369237852187 0 0.029849670802024962 -0.00019226128784212695 0 0.02934007121460629 -3.0508769488893726e-05 0 0.030843901954122142 -0.00045524828802558239 0 0.030976641383244553 -0.00089203509557034841 0 0.030344385313037542 -0.00076936928764284997 0 0.030843901954122142 -0.00045524828802558239 0 0.030344385313037542 -0.00076936928764284997 0 0.030491859001567489 -0.00029546152284529485 0 0.030117798067342556 -0.00061744973335041246 0 0.029849670802024962 -0.00019226128784212695 0 0.030249921818774495 -0.00025034999600821142 0 0.032509391889137915 -0.00041359088989835263 0 0.030121773946918153 -0.00041622707472549258 0 0.029849670802024962 -0.00019226128784212695 0 0.030249921818774495 -0.00025034999600821142 0 0.03008148727755644 7.7769119270948553e-05 0 0.030776009951545349 -6.8587171885551513e-05 0 0.030843901954122142 -0.00045524828802558239 0 0.030491859001567489 -0.00029546152284529485 0 0.030121773946918153 -0.00041622707472549258 0 0.03056206744455366 0.00020769381903862035 0 0.030432095656770124 0.00013358451775291773 0 0.03008148727755644 7.7769119270948553e-05 0 0.030226569793636228 0.00033594248222387134 0 0.030249921818774495 -0.00025034999600821142 0 0.030432095656770124 0.00013358451775291773 0 0.03008148727755644 7.7769119270948553e-05 0 0.030776009951545349 -6.8587171885551513e-05 0 0.030491859001567489 -0.00029546152284529485 0 0.030619998724258333 0.00017144704240975526 0 0.03008148727755644 7.7769119270948553e-05 0 0.030012412464980272 0.00037322774564017147 0 0.029734489082512607 0.00018709046935329728 0 0.029849670802024962 -0.00019226128784212695 0 0.03008148727755644 7.7769119270948553e-05 0 0.029734489082512607 0.00018709046935329728 0 0.03008148727755644 7.7769119270948553e-05 0 0.030012412464980272 0.00037322774564017147 0 0.030226569793636228 0.00033594248222387134 0 0.030012412464980272 0.00037322774564017147 0 0.02977516765740822 0.00054753236774416074 0 0.030042833117568626 0.0006429264151220621 0 0.030012412464980272 0.00037322774564017147 0 0.030200652262041373 0.0005427817384805766 0 0.030042833117568626 0.0006429264151220621 0 0.030012412464980272 0.00037322774564017147 0 0.030200652262041373 0.0005427817384805766 0 0.030226569793636228 0.00033594248222387134 0 0.030432095656770124 0.00013358451775291773 0 0.030386537104888173 0.00048513741712375504 0 0.030226569793636228 0.00033594248222387134 0 0.030200652262041373 0.0005427817384805766 0 0.030386537104888173 0.00048513741712375504 0 0.030226569793636228 0.00033594248222387134 0 0.030432095656770124 0.00013358451775291773 0 0.030386537104888173 0.00048513741712375504 0 0.030681544060696422 0.00062571284164357672 0 0.02934007121460629 -3.0508769488893726e-05 0 0.029734489082512607 0.00018709046935329728 0 0.029411790712799903 0.00031416120047822802 0 0.029849670802024962 -0.00019226128784212695 0 0.02934007121460629 -3.0508769488893726e-05 0 0.029734489082512607 0.00018709046935329728 0 0.029734489082512607 0.00018709046935329728 0 0.029411790712799903 0.00031416120047822802 0 0.02977516765740822 0.00054753236774416074 0 0.030012412464980272 0.00037322774564017147 0 0.029734489082512607 0.00018709046935329728 0 0.02977516765740822 0.00054753236774416074 0 0.029411790712799903 0.00031416120047822802 0 0.029530282830945845 0.00071622002804775341 0 0.029079891310851154 0.00041373915631092616 0 0.029530282830945845 0.00071622002804775341 0 0.029079891310851154 0.00041373915631092616 0 0.02920278800263628 0.00089802563951633366 0 0.029411790712799903 0.00031416120047822802 0 0.029530282830945845 0.00071622002804775341 0 0.02977516765740822 0.00054753236774416074 0 0.029530282830945845 0.00071622002804775341 0 0.02977516765740822 0.00054753236774416074 0 0.029735206880988806 0.00083284981685183702 0 0.029735206880988806 0.00083284981685183702 0 0.029892721405524968 0.00076207227535440272 0 0.029875719873677337 0.00090436034413125528 0 0.02977516765740822 0.00054753236774416074 0 0.029735206880988806 0.00083284981685183702 0 0.029892721405524968 0.00076207227535440272 0 0.029735206880988806 0.00083284981685183702 0 0.029748763752690262 0.0010628206984106758 0 0.029875719873677337 0.00090436034413125528 0 0.029748763752690262 0.0010628206984106758 0 0.029524197947434896 0.00099837494641137202 0 0.029449280699241614 0.0012863760314888932 0 0.029735206880988806 0.00083284981685183702 0 0.029748763752690262 0.0010628206984106758 0 0.029524197947434896 0.00099837494641137202 0 0.029530282830945845 0.00071622002804775341 0 0.029735206880988806 0.00083284981685183702 0 0.029524197947434896 0.00099837494641137202 0 0.029524197947434896 0.00099837494641137202 0 0.02920278800263628 0.00089802563951633366 0 0.029449280699241614 0.0012863760314888932 0 0.02920278800263628 0.00089802563951633366 0 0.028936123979102675 0.0012558422582145611 0 0.029449280699241614 0.0012863760314888932 0 0.029530282830945845 0.00071622002804775341 0 0.029524197947434896 0.00099837494641137202 0 0.02920278800263628 0.00089802563951633366 0 0.030390739915219095 0.00081087655402027549 0 0.030166775834263731 0.00077999317504807368 0 0.030232071134210215 0.0010320523682749913 0 0.030386537104888173 0.00048513741712375504 0 0.030390739915219095 0.00081087655402027549 0 0.030681544060696422 0.00062571284164357672 0 0.030200652262041373 0.0005427817384805766 0 0.030390739915219095 0.00081087655402027549 0 0.030166775834263731 0.00077999317504807368 0 0.030200652262041373 0.0005427817384805766 0 0.030386537104888173 0.00048513741712375504 0 0.030390739915219095 0.00081087655402027549 0 0.030200652262041373 0.0005427817384805766 0 0.030042833117568626 0.0006429264151220621 0 0.030166775834263731 0.00077999317504807368 0 0.02977516765740822 0.00054753236774416074 0 0.030042833117568626 0.0006429264151220621 0 0.029892721405524968 0.00076207227535440272 0 0.030042833117568626 0.0006429264151220621 0 0.029892721405524968 0.00076207227535440272 0 0.030014873121574068 0.00088457009746124252 0 0.029892721405524968 0.00076207227535440272 0 0.030014873121574068 0.00088457009746124252 0 0.029875719873677337 0.00090436034413125528 0 0.030042833117568626 0.0006429264151220621 0 0.030166775834263731 0.00077999317504807368 0 0.030014873121574068 0.00088457009746124252 0 0.030166775834263731 0.00077999317504807368 0 0.030014873121574068 0.00088457009746124252 0 0.030232071134210215 0.0010320523682749913 0 0.029748763752690262 0.0010628206984106758 0 0.029969537168396728 0.00098517967742072768 0 0.029852780343307 0.0013192555349758306 0 0.030014873121574068 0.00088457009746124252 0 0.029969537168396728 0.00098517967742072768 0 0.030050039775512748 0.0012536691140318454 0 0.030572712537832804 0.0011423079236108212 0 0.027823075331939746 0.0010586389256159472 0 0.030014873121574068 0.00088457009746124252 0 0.030232071134210215 0.0010320523682749913 0 0.030132196269878592 0.0015150394839013026 0 0.03007490526768896 0.00077066486736634705 0 0.027975352843383212 0.0014308218048637461 0 0.029748763752690262 0.0010628206984106758 0 0.029875719873677337 0.00090436034413125528 0 0.029969537168396728 0.00098517967742072768 0 0.030014873121574068 0.00088457009746124252 0 0.029875719873677337 0.00090436034413125528 0 0.029969537168396728 0.00098517967742072768 0 0.030390739915219095 0.00081087655402027549 0 0.030457097711550137 0.0011889662350855746 0 0.030730476052700888 0.0010027344220138422 0 0.030232071134210215 0.0010320523682749913 0 0.030457097711550137 0.0011889662350855746 0 0.030132196269878592 0.0015150394839013026 0 0.030390739915219095 0.00081087655402027549 0 0.030232071134210215 0.0010320523682749913 0 0.030457097711550137 0.0011889662350855746 0 0.030457097711550137 0.0011889662350855746 0 0.030730476052700888 0.0010027344220138422 0 0.030748401595541514 0.001323803789809049 0 0.030730476052700888 0.0010027344220138422 0 0.031012768998753916 0.0012233673900073263 0 0.030748401595541514 0.001323803789809049 0 0.030730476052700888 0.0010027344220138422 0 0.030681544060696422 0.00062571284164357672 0 0.030979029489208634 0.00076597758843804237 0 0.030390739915219095 0.00081087655402027549 0 0.030730476052700888 0.0010027344220138422 0 0.030681544060696422 0.00062571284164357672 0 0.030681544060696422 0.00062571284164357672 0 0.030979029489208634 0.00076597758843804237 0 0.031022819947696269 0.00042446787712855689 0 0.030979029489208634 0.00076597758843804237 0 0.031285519688330835 0.00084644860109086184 0 0.031012768998753916 0.0012233673900073263 0 0.030979029489208634 0.00076597758843804237 0 0.031285519688330835 0.00084644860109086184 0 0.031243175283573184 0.00052454665115252521 0 0.031285519688330835 0.00084644860109086184 0 0.031012768998753916 0.0012233673900073263 0 0.031382671368100072 0.001157240781278774 0 0.030730476052700888 0.0010027344220138422 0 0.030979029489208634 0.00076597758843804237 0 0.031012768998753916 0.0012233673900073263 0 0.031012768998753916 0.0012233673900073263 0 0.031382671368100072 0.001157240781278774 0 0.031256954554573127 0.0014125868622697716 0 0.031478314675293377 0.0014011160981052743 0 0.031382671368100072 0.001157240781278774 0 0.031256954554573127 0.0014125868622697716 0 0.031679199162670736 0.001214815242230143 0 0.031478314675293377 0.0014011160981052743 0 0.031678632519329265 0.0015786253991980209 0 0.031679199162670736 0.001214815242230143 0 0.031478314675293377 0.0014011160981052743 0 0.031382671368100072 0.001157240781278774 0 0.031679199162670736 0.001214815242230143 0 0.031382671368100072 0.001157240781278774 0 0.031600565724123834 0.00087514223344758318 0 0.032316731504163906 0.0011667693773919632 0 0.031967622260735365 0.0012045991943888039 0 0.031966778644885278 0.0014861150509327297 0 0.031679199162670736 0.001214815242230143 0 0.031967622260735365 0.0012045991943888039 0 0.031966778644885278 0.0014861150509327297 0 0.031679199162670736 0.001214815242230143 0 0.031916288848713566 0.00095848028671719919 0 0.031600565724123834 0.00087514223344758318 0 0.031679199162670736 0.001214815242230143 0 0.031967622260735365 0.0012045991943888039 0 0.031916288848713566 0.00095848028671719919 0 0.032316731504163906 0.0011667693773919632 0 0.031967622260735365 0.0012045991943888039 0 0.031916288848713566 0.00095848028671719919 0 0.032316731504163906 0.0011667693773919632 0 0.031916288848713566 0.00095848028671719919 0 0.03192797028187494 0.00049623265374617079 0 0.032455039492129821 0.001327623381684307 0 0.032262006255320851 0.00081389334815313999 0 0.031916288848713566 0.00095848028671719919 0 0.031600565724123834 0.00087514223344758318 0 0.03192797028187494 0.00049623265374617079 0 0.031285519688330835 0.00084644860109086184 0 0.031382671368100072 0.001157240781278774 0 0.031600565724123834 0.00087514223344758318 0 0.031600565724123834 0.00087514223344758318 0 0.031546184578068438 0.00057244551120005395 0 0.03192797028187494 0.00049623265374617079 0 0.031285519688330835 0.00084644860109086184 0 0.031546184578068438 0.00057244551120005395 0 0.031243175283573184 0.00052454665115252521 0 0.031285519688330835 0.00084644860109086184 0 0.031600565724123834 0.00087514223344758318 0 0.031546184578068438 0.00057244551120005395 0 0.031546184578068438 0.00057244551120005395 0 0.03142974730822036 0.00039241083921751692 0 0.031243175283573184 0.00052454665115252521 0 0.031546184578068438 0.00057244551120005395 0 0.031600401311453294 0.00023167062049712773 0 0.03192797028187494 0.00049623265374617079 0 0.031546184578068438 0.00057244551120005395 0 0.031600401311453294 0.00023167062049712773 0 0.03142974730822036 0.00039241083921751692 0 0.031600401311453294 0.00023167062049712773 0 0.03142974730822036 0.00039241083921751692 0 0.03132638734075268 0.00025230960389820102 0 0.031715233678321311 0.00033466243953849284 0 0.032262006255320851 0.00081389334815313999 0 0.031874978453623082 0.00049669828204238994 0 0.032332526085014829 0.00094171754281041436 0 0.032111188936150753 0.0004406473471505659 0 0.032262006255320851 0.00081389334815313999 0 0.032149531216621174 0.00049508019234049581 0 0.032469364511094986 0.001068336063682693 0 0.032578230040329004 0.00060811156007303812 0 0.032168147030748405 0.00051982904421784377 0 0.032740326699500048 0.00017013128772663827 0 0.032578230040329004 0.00060811156007303812 0 0.032305931530440736 0.00010510378917313031 0 0.032578230040329004 0.00060811156007303812 0 0.032168147030748405 0.00051982904421784377 0 0.032305931530440736 0.00010510378917313031 0 0.03189217119565823 -7.7219413777668332e-05 0 0.032168147030748405 0.00051982904421784377 0 0.032305931530440736 0.00010510378917313031 0 0.03189217119565823 -7.7219413777668332e-05 0 0.031874978453623082 0.00049669828204238994 0 0.032111188936150753 0.0004406473471505659 0 0.03189217119565823 -7.7219413777668332e-05 0 0.031874978453623082 0.00049669828204238994 0 0.031378706226074957 -6.3907778493186482e-06 0 0.031715233678321311 0.00033466243953849284 0 0.031422887330835494 4.2638505639636831e-05 0 0.031600401311453294 0.00023167062049712773 0 0.031378706226074957 -6.3907778493186482e-06 0 0.03132638734075268 0.00025230960389820102 0 0.031923413603237617 -8.7180984550904195e-06 0 0.032149531216621174 0.00049508019234049581 0 0.031378706226074957 -6.3907778493186482e-06 0 0.031109373295877322 0.00013933792970635044 0 0.03132638734075268 0.00025230960389820102 0 0.031024160885654385 -0.00020781849551020811 0 0.031378706226074957 -6.3907778493186482e-06 0 0.031109373295877322 0.00013933792970635044 0 0.030776009951545349 -6.8587171885551513e-05 0 0.030619998724258333 0.00017144704240975526 0 0.030812907241885509 0.00026474200177952666 0 0.030776009951545349 -6.8587171885551513e-05 0 0.031122638973339969 -0.00013921967738449975 0 0.030812907241885509 0.00026474200177952666 0 0.031024160885654385 -0.00020781849551020811 0 0.031109373295877322 0.00013933792970635044 0 0.030812907241885509 0.00026474200177952666 0 0.031083841317093245 -0.00017536627746024184 0 0.030835971475683777 0.00022907173386709572 0 0.030681544060696422 0.00062571284164357672 0 0.030812907241885509 0.00026474200177952666 0 0.031022819947696269 0.00042446787712855689 0 0.030619998724258333 0.00017144704240975526 0 0.030681544060696422 0.00062571284164357672 0 0.030812907241885509 0.00026474200177952666 0 0.03056206744455366 0.00020769381903862035 0 0.030666608083513503 0.00058296299175381928 0 0.031109373295877322 0.00013933792970635044 0 0.030812907241885509 0.00026474200177952666 0 0.031022819947696269 0.00042446787712855689 0 0.030979029489208634 0.00076597758843804237 0 0.031022819947696269 0.00042446787712855689 0 0.031243175283573184 0.00052454665115252521 0 0.031022819947696269 0.00042446787712855689 0 0.031243175283573184 0.00052454665115252521 0 0.03132638734075268 0.00025230960389820102 0 0.03142974730822036 0.00039241083921751692 0 0.031243175283573184 0.00052454665115252521 0 0.03132638734075268 0.00025230960389820102 0 0.031109373295877322 0.00013933792970635044 0 0.031022819947696269 0.00042446787712855689 0 0.03132638734075268 0.00025230960389820102 0 0.034996883515621982 -1.2310745674533091e-06 0 0.034674304991591243 -8.255014496574587e-05 0 0.034999801331840587 9.3432549394441372e-08 0 0.034996883515621982 -1.2310745674533091e-06 0 0.034251948098817507 -0.00013527261625954207 0 0.030487013315322248 2.2725753721092635e-06 0 0.03314426843664612 3.532600254217786e-05 0 0.034251948098817507 -0.00013527261625954207 0 0.030487013315322248 2.2725753721092635e-06 0 0.032374023263405396 0.00062543891627133731 0 0.03314426843664612 3.532600254217786e-05 0 0.030487013315322248 2.2725753721092635e-06 0 0.030633633192330097 0.00048577866227707733 0 0.031700873929520222 0.00035032437872254665 0 0.032374023263405396 0.00062543891627133731 0 0.03314426843664612 3.532600254217786e-05 0 0.033493090877932709 0.00063280853655451317 0 0.03314426843664612 3.532600254217786e-05 0 0.033982630886279792 -0.00010939561401330257 0 0.034067325522143692 -7.0083459265726265e-05 0 0.03314426843664612 3.532600254217786e-05 0 0.034067325522143692 -7.0083459265726265e-05 0 0.033493090877932709 0.00063280853655451317 0 0.034996883515621982 -1.2310745674533091e-06 0 0.034251948098817507 -0.00013527261625954207 0 0.034674304991591243 -8.255014496574587e-05 0 0.033982630886279792 -0.00010939561401330257 0 0.034251948098817507 -0.00013527261625954207 0 0.034674304991591243 -8.255014496574587e-05 0 0.03314426843664612 3.532600254217786e-05 0 0.033982630886279792 -0.00010939561401330257 0 0.034251948098817507 -0.00013527261625954207 0 0.034565714542189423 -9.9082197197953101e-05 0 0.034506376870402485 8.3744281401458413e-05 0 0.033982630886279792 -0.00010939561401330257 0 0.034674304991591243 -8.255014496574587e-05 0 0.034067325522143692 -7.0083459265726265e-05 0 0.034673866621384559 0.00016977005054073679 0 0.034674304991591243 -8.255014496574587e-05 0 0.034499810952777731 0.0002816948994714211 0 0.034674304991591243 -8.255014496574587e-05 0 0.034813464898573176 4.6280258704980213e-05 0 0.034999801331840587 9.3432549394441372e-08 0 0.034813464898573176 4.6280258704980213e-05 0 0.034940204212561367 8.6919351453729318e-05 0 0.034999801331840587 9.3432549394441372e-08 0 0.034673866621384559 0.00016977005054073679 0 0.034674304991591243 -8.255014496574587e-05 0 0.034813464898573176 4.6280258704980213e-05 0 0.034673866621384559 0.00016977005054073679 0 0.034813464898573176 4.6280258704980213e-05 0 0.034771794646579979 0.00019070098195520901 0 0.034813464898573176 4.6280258704980213e-05 0 0.034771794646579979 0.00019070098195520901 0 0.034940204212561367 8.6919351453729318e-05 0 0.034771794646579979 0.00019070098195520901 0 0.034757523173649975 0.00027659702567206068 0 0.034940204212561367 8.6919351453729318e-05 0 0.034757523173649975 0.00027659702567206068 0 0.034709824825489489 0.00048526970180228602 0 0.034940204212561367 8.6919351453729318e-05 0 0.033542760707941606 0.00034484790504782782 0 0.034998086682911114 6.1226975413331214e-05 0 0.034649356126572335 0.00014711552168209999 0 0.034535517176737446 0.00021856889058678974 0 0.034693322374035364 0.00011357913236650338 0 0.034649356126572335 0.00014711552168209999 0 0.034535517176737446 0.00021856889058678974 0 0.034554675277132685 0.00022479034496809621 0 0.034757523173649975 0.00027659702567206068 0 0.034652869594225519 0.00035078602562291038 0 0.034709824825489489 0.00048526970180228602 0 0.034694083352451791 0.00027004701061647285 0 0.034757523173649975 0.00027659702567206068 0 0.034652869594225519 0.00035078602562291038 0 0.034673866621384559 0.00016977005054073679 0 0.034771794646579979 0.00019070098195520901 0 0.034694083352451791 0.00027004701061647285 0 0.034771794646579979 0.00019070098195520901 0 0.034694083352451791 0.00027004701061647285 0 0.034757523173649975 0.00027659702567206068 0 0.034499810952777731 0.0002816948994714211 0 0.034498439758695792 0.000365627735633129 0 0.034341865560584342 0.00062729315189256711 0 0.034673866621384559 0.00016977005054073679 0 0.03460482326626154 0.00028643692438021906 0 0.034499810952777731 0.0002816948994714211 0 0.034673866621384559 0.00016977005054073679 0 0.034694083352451791 0.00027004701061647285 0 0.03460482326626154 0.00028643692438021906 0 0.03460482326626154 0.00028643692438021906 0 0.034499810952777731 0.0002816948994714211 0 0.034498439758695792 0.000365627735633129 0 0.034694083352451791 0.00027004701061647285 0 0.03460482326626154 0.00028643692438021906 0 0.034652869594225519 0.00035078602562291038 0 0.034498439758695792 0.000365627735633129 0 0.034652869594225519 0.00035078602562291038 0 0.034709824825489489 0.00048526970180228602 0 0.034626477310875016 0.00060254835965316451 0 0.033542760707941606 0.00034484790504782782 0 0.034498439758695792 0.000365627735633129 0 0.034543330600996562 0.00046289495378105158 0 0.034607215320456804 0.00047111782616866252 0 0.03460482326626154 0.00028643692438021906 0 0.034498439758695792 0.000365627735633129 0 0.034652869594225519 0.00035078602562291038 0 0.034506376870402485 8.3744281401458413e-05 0 0.031700873929520222 0.00035032437872254665 0 0.034498439758695792 0.000365627735633129 0 0.034543330600996562 0.00046289495378105158 0 0.034470877762042253 0.00052188727851651526 0 0.034543330600996562 0.00046289495378105158 0 0.034470877762042253 0.00052188727851651526 0 0.034593714256774169 0.00049659420854627958 0 0.034543330600996562 0.00046289495378105158 0 0.034607215320456804 0.00047111782616866252 0 0.034593714256774169 0.00049659420854627958 0 0.034470877762042253 0.00052188727851651526 0 0.034513987784726849 0.0005833642074861235 0 0.034551083599157817 0.00051136541269926675 0 0.034498439758695792 0.000365627735633129 0 0.034470877762042253 0.00052188727851651526 0 0.034341865560584342 0.00062729315189256711 0 0.034429821787634353 0.00027272296222334325 0 0.03310352631678283 0.00026445932995757324 0 0.030781753491672014 9.8166767690117322e-05 0 0.03310352631678283 0.00026445932995757324 0 0.031700873929520222 0.00035032437872254665 0 0.030781753491672014 9.8166767690117322e-05 0 0.034470877762042253 0.00052188727851651526 0 0.034341865560584342 0.00062729315189256711 0 0.034513987784726849 0.0005833642074861235 0 0.029092298306478494 -0.00018578183348870114 0 0.029153472061072661 -0.00013292937530774948 0 0.028898263685514479 -0.00018941767121349108 0 0.027696161883927383 -0.00019110583622711555 0 0.027755369606415527 -0.00017748353103067484 0 0.027813740943570614 -0.00026891951621383427 0 0.030781753491672014 9.8166767690117322e-05 0 0.028927116336592763 -0.00034027088886339792 0 0.027755369606415527 -0.00017748353103067484 0 0.027813740943570614 -0.00026891951621383427 0 0.027875295070420268 -0.00016519696621711535 0 0.031450255881578015 -0.00035593733816231067 0 0.030414985464614616 -0.00016465783823065396 0 0.03087323175048351 0.00014059275947446678 0 0.033542760707941606 0.00034484790504782782 0 0.03310352631678283 0.00026445932995757324 0 0.033159853862203499 9.1865763523605955e-05 0 0.03301974021476177 0.00029893406903508157 0 0.033376630643654544 0.00023718090794209318 0 0.033542760707941606 0.00034484790504782782 0 0.03222178393075649 0.00018229468834599305 0 0.03310352631678283 0.00026445932995757324 0 0.03222178393075649 0.00018229468834599305 0 0.031450255881578015 -0.00035593733816231067 0 0.031142216957968337 9.6373176456193089e-05 0 0.03087323175048351 0.00014059275947446678 0 0.028927116336592763 -0.00034027088886339792 0 0.03222178393075649 0.00018229468834599305 0 0.027813740943570614 -0.00026891951621383427 0 0.028078418120797376 -0.00014312584152398832 0 0.027875295070420268 -0.00016519696621711535 0 0.02871997649291223 -0.00015736541688613975 0 0.028898263685514479 -0.00018941767121349108 0 0.028870763615451985 -3.12279765602289e-05 0 0.029153472061072661 -0.00013292937530774948 0 0.028898263685514479 -0.00018941767121349108 0 0.028880645130395777 -0.00018590187548252475 0 0.028927116336592763 -0.00034027088886339792 0 0.028364772126734553 -0.00010064345225229774 0 0.028927116336592763 -0.00034027088886339792 0 0.028879593607860216 -0.00016747895239592497 0 0.03222178393075649 0.00018229468834599305 0 0.031684739998544112 -2.3602311760689339e-05 0 0.028958031067933512 -0.00010003882017619528 0 0.028880645130395777 -0.00018590187548252475 0 0.029150708772641722 -0.00034682772927242881 0 0.028898263685514479 -0.00018941767121349108 0 0.028958031067933512 -0.00010003882017619528 0 0.028870763615451985 -3.12279765602289e-05 0 0.028898263685514479 -0.00018941767121349108 0 0.028958031067933512 -0.00010003882017619528 0 0.028880645130395777 -0.00018590187548252475 0 0.034633443776726516 0.00016741651306808616 0 0.034636935549102112 0.00013309830774380272 0 0.034667010906074894 0.0001383867148464096 0 0.034649356126572335 0.00014711552168209999 0 0.034633443776726516 0.00016741651306808616 0 0.034636935549102112 0.00013309830774380272 0 0.034649356126572335 0.00014711552168209999 0 0.034554675277132685 0.00022479034496809621 0 0.034633443776726516 0.00016741651306808616 0 0.034693322374035364 0.00011357913236650338 0 0.034995470485857556 -2.2659261251782712e-06 0 0.034931031830216029 0.00011375876269445001 0 0.034667005921696345 0.00014796565017642234 0 0.034779303499570986 0.00011599620082049284 0 0.034649356126572335 0.00014711552168209999 0 0.034693322374035364 0.00011357913236650338 0 0.034931031830216029 0.00011375876269445001 0 0.034999801331840587 9.3432549394441372e-08 0 0.034995470485857556 -2.2659261251782712e-06 0 0.035000049734429883 -5.6563555280742713e-09 0 0.034998086682911114 6.1226975413331214e-05 0 0.034911963428611824 3.5845070133416632e-05 0 0.034940204212561367 8.6919351453729318e-05 0 0.034999801331840587 9.3432549394441372e-08 0 0.034995470485857556 -2.2659261251782712e-06 0 0.034995470485857556 -2.2659261251782712e-06 0 0.034931031830216029 0.00011375876269445001 0 0.034994998233297506 2.1815088756947572e-05 0 0.034779303499570986 0.00011599620082049284 0 0.034853193566267489 5.3212496740894279e-05 0 0.034931031830216029 0.00011375876269445001 0 0.035011656902815824 2.8418162279113593e-05 0 0.034994998233297506 2.1815088756947572e-05 0 0.034995470485857556 -2.2659261251782712e-06 0 0.034994998233297506 2.1815088756947572e-05 0 0.035000049734429883 -5.6563555280742713e-09 0 0.03469485312185297 7.1517150371042305e-05 0 0.034667010906074894 0.0001383867148464096 0 0.034771704009529267 0.00010107061985427868 0 0.034636935549102112 0.00013309830774380272 0 0.03469485312185297 7.1517150371042305e-05 0 0.034667010906074894 0.0001383867148464096 0 0.035011656902815824 2.8418162279113593e-05 0 0.034994998233297506 2.1815088756947572e-05 0 0.035000049734429883 -5.6563555280742713e-09 0 0.034909661905094425 1.2237878852298948e-05 0 0.034853193566267489 5.3212496740894279e-05 0 0.035001513247053154 2.0351797099511235e-06 0 0.035011656902815824 2.8418162279113593e-05 0 0.035000049734429883 -5.6563555280742713e-09 0 0.034817853687406461 1.2138123213334541e-05 0 0.03469485312185297 7.1517150371042305e-05 0 0.034771704009529267 0.00010107061985427868 0 0.029600302836901179 -0.00050252369237852187 0 0.02934007121460629 -3.0508769488893726e-05 0 0.029150708772641722 -0.00034682772927242881 0 0.032243733850075652 -0.00015689798317138328 0 0.031948393904274626 -8.9435126780500689e-05 0 0.034876439404334866 0.00014643193145975368 0 0.034771704009529267 0.00010107061985427868 0 0.03469800387944065 0.00017319093888098445 0 0.031684739998544112 -2.3602311760689339e-05 0 0.031948393904274626 -8.9435126780500689e-05 0 0.034633443776726516 0.00016741651306808616 0 0.034667010906074894 0.0001383867148464096 0 0.03469800387944065 0.00017319093888098445 0 0.034667010906074894 0.0001383867148464096 0 0.034771704009529267 0.00010107061985427868 0 0.03469800387944065 0.00017319093888098445 0 0.028958031067933512 -0.00010003882017619528 0 0.029150708772641722 -0.00034682772927242881 0 0.029092212899484184 -1.6146122147353204e-05 0 0.02934007121460629 -3.0508769488893726e-05 0 0.029150708772641722 -0.00034682772927242881 0 0.029092212899484184 -1.6146122147353204e-05 0 0.02934007121460629 -3.0508769488893726e-05 0 0.029411790712799903 0.00031416120047822802 0 0.029154283133874328 0.00016310083966566708 0 0.02934007121460629 -3.0508769488893726e-05 0 0.029092212899484184 -1.6146122147353204e-05 0 0.029154283133874328 0.00016310083966566708 0 0.028958031067933512 -0.00010003882017619528 0 0.029092212899484184 -1.6146122147353204e-05 0 0.028980052844048046 0.00014888942427701443 0 0.029092212899484184 -1.6146122147353204e-05 0 0.028980052844048046 0.00014888942427701443 0 0.029154283133874328 0.00016310083966566708 0 0.02843647937621829 3.4062817513678172e-05 0 0.028548255558380812 0.00068042784302035138 0 0.0282691035354669 0.00025933696825834247 0 0.028745610321076798 0.00011713508866256494 0 0.029059730668036406 0.00038531055004268808 0 0.02843647937621829 3.4062817513678172e-05 0 0.029079891310851154 0.00041373915631092616 0 0.028548255558380812 0.00068042784302035138 0 0.029411790712799903 0.00031416120047822802 0 0.029154283133874328 0.00016310083966566708 0 0.029079891310851154 0.00041373915631092616 0 0.028980052844048046 0.00014888942427701443 0 0.029154283133874328 0.00016310083966566708 0 0.029079891310851154 0.00041373915631092616 0 0.029079891310851154 0.00041373915631092616 0 0.02920278800263628 0.00089802563951633366 0 0.028548255558380812 0.00068042784302035138 0 0.02920278800263628 0.00089802563951633366 0 0.028548255558380812 0.00068042784302035138 0 0.028936123979102675 0.0012558422582145611 0 0.028277728006917479 0.0011561995706388896 0 0.028548255558380812 0.00068042784302035138 0 0.028936123979102675 0.0012558422582145611 0 0.028011995789978737 0.00049719456876124422 0 0.028053120281681998 0.00012090602052281481 0 0.0282691035354669 0.00025933696825834247 0 0.028548255558380812 0.00068042784302035138 0 0.027818553075442447 0.00083159559680242852 0 0.0282691035354669 0.00025933696825834247 0 0.027930548745052623 0.00065648037057984847 0 0.028248618361761145 0.0002801608578343842 0 0.028277728006917479 0.0011561995706388896 0 0.028548255558380812 0.00068042784302035138 0 0.027818553075442447 0.00083159559680242852 0 0.028277728006917479 0.0011561995706388896 0 0.027818553075442447 0.00083159559680242852 0 0.027861189296718894 0.0011642225883790214 0 0.027930548745052623 0.00065648037057984847 0 0.027634660618905481 0.00097776988847352183 0 0.027818553075442447 0.00083159559680242852 0 0.027591105460549249 0.0011840234015306258 0 0.027861189296718894 0.0011642225883790214 0 0.028011995789978737 0.00049719456876124422 0 0.028053120281681998 0.00012090602052281481 0 0.027847112386792015 0.00013727875513001576 0 0.028053120281681998 0.00012090602052281481 0 0.027865912950671163 -7.223688211190734e-05 0 0.027847112386792015 0.00013727875513001576 0 0.02843647937621829 3.4062817513678172e-05 0 0.028053120281681998 0.00012090602052281481 0 0.0282691035354669 0.00025933696825834247 0 0.028958031067933512 -0.00010003882017619528 0 0.028980052844048046 0.00014888942427701443 0 0.028870763615451985 -3.12279765602289e-05 0 0.02843647937621829 3.4062817513678172e-05 0 0.028053120281681998 0.00012090602052281481 0 0.028078418120797376 -0.00014312584152398832 0 0.028745610321076798 0.00011713508866256494 0 0.028364772126734553 -0.00010064345225229774 0 0.028053120281681998 0.00012090602052281481 0 0.028078418120797376 -0.00014312584152398832 0 0.027865912950671163 -7.223688211190734e-05 0 0.028078418120797376 -0.00014312584152398832 0 0.027865912950671163 -7.223688211190734e-05 0 0.027875295070420268 -0.00016519696621711535 0 0.027865912950671163 -7.223688211190734e-05 0 0.027688699882898921 -0.00013522704717578267 0 0.027847112386792015 0.00013727875513001576 0 0.027755369606415527 -0.00017748353103067484 0 0.027865912950671163 -7.223688211190734e-05 0 0.027688699882898921 -0.00013522704717578267 0 0.027755369606415527 -0.00017748353103067484 0 0.027865912950671163 -7.223688211190734e-05 0 0.027875295070420268 -0.00016519696621711535 0 0.030781753491672014 9.8166767690117322e-05 0 0.028449331523813907 0.0001050112555396025 0 0.027696161883927383 -0.00019110583622711555 0 0.027688699882898921 -0.00013522704717578267 0 0.027694176438698221 -0.00014622450013529567 0 0.030058058975822519 -0.00020869773758582766 0 0.03048476000875441 -0.00028858379839527239 0 0.029830242130358765 0.00063813070000790981 0 0.027696161883927383 -0.00019110583622711555 0 0.027755369606415527 -0.00017748353103067484 0 0.027688699882898921 -0.00013522704717578267 0 0.027693759061245882 -0.00012673080703421141 0 0.027567958504916532 7.848112489375465e-05 0 0.027688699882898921 -0.00013522704717578267 0 0.02772724723282351 -0.00015415966108641731 0 0.027694176438698221 -0.00014622450013529567 0 0.027688699882898921 -0.00013522704717578267 0 0.02771409147054698 0.000276745471571977 0 0.027500747459311754 0.00028648713789664477 0 0.027688699882898921 -0.00013522704717578267 0 0.027847112386792015 0.00013727875513001576 0 0.02771409147054698 0.000276745471571977 0 0.028011995789978737 0.00049719456876124422 0 0.027847112386792015 0.00013727875513001576 0 0.02771409147054698 0.000276745471571977 0 0.028011995789978737 0.00049719456876124422 0 0.02771409147054698 0.000276745471571977 0 0.027701882098962117 0.00047475165085868307 0 0.02771409147054698 0.000276745471571977 0 0.027701882098962117 0.00047475165085868307 0 0.027500747459311754 0.00028648713789664477 0 0.028011995789978737 0.00049719456876124422 0 0.027701882098962117 0.00047475165085868307 0 0.027750690006913818 0.00061282051939808328 0 0.028011995789978737 0.00049719456876124422 0 0.027750690006913818 0.00061282051939808328 0 0.0277379260286457 0.00079983237268107653 0 0.027701882098962117 0.00047475165085868307 0 0.027750690006913818 0.00061282051939808328 0 0.02759802140882079 0.0006120434693994485 0 0.027692726941771037 0.00069928317298940522 0 0.02759802140882079 0.0006120434693994485 0 0.027546615848190095 0.00073450381900029961 0 0.027692726941771037 0.00069928317298940522 0 0.027750690006913818 0.00061282051939808328 0 0.02759802140882079 0.0006120434693994485 0 0.027692726941771037 0.00069928317298940522 0 0.027750690006913818 0.00061282051939808328 0 0.0277379260286457 0.00079983237268107653 0 0.02759802140882079 0.0006120434693994485 0 0.027500747459311754 0.00028648713789664477 0 0.027355088583577672 0.000701729796276421 0 0.02772724723282351 -0.00015415966108641731 0 0.027679354640624095 -2.9080633746984476e-05 0 0.027820735062538429 0.00019028787400165537 0 0.027567958504916532 7.848112489375465e-05 0 0.027960786918398799 0.00048938854101683484 0 0.02759802140882079 0.0006120434693994485 0 0.027355088583577672 0.000701729796276421 0 0.027546615848190095 0.00073450381900029961 0 0.027701882098962117 0.00047475165085868307 0 0.02759802140882079 0.0006120434693994485 0 0.027500747459311754 0.00028648713789664477 0 0.02772724723282351 -0.00015415966108641731 0 0.027650452117197567 -0.00012441764391221235 0 0.027679354640624095 -2.9080633746984476e-05 0 0.028257906714850844 -0.00017588268417308468 0 0.028362958392257789 -0.00017428526307161513 0 0.028539978467539272 -0.00022610776269052325 0 0.028257906714850844 -0.00017588268417308468 0 0.027480442768287292 3.2245267219516643e-05 0 0.027744074422864192 -0.00010003253683092737 0 0.027928192122980526 -0.00022801706565960163 0 0.02760622562713461 1.3163337757898297e-05 0 0.027650452117197567 -0.00012441764391221235 0 0.027679354640624095 -2.9080633746984476e-05 0 0.027480442768287292 3.2245267219516643e-05 0 0.027679354640624095 -2.9080633746984476e-05 0 0.027480442768287292 3.2245267219516643e-05 0 0.027820735062538429 0.00019028787400165537 0 0.027600851228189279 -5.5665488213030768e-07 0 0.027744074422864192 -0.00010003253683092737 0 0.026164598075982211 1.2242690892056025e-06 0 0.027480442768287292 3.2245267219516643e-05 0 0.027744074422864192 -0.00010003253683092737 0 0.026164598075982211 1.2242690892056025e-06 0 0.027600851228189279 -5.5665488213030768e-07 0 0.028362958392257789 -0.00017428526307161513 0 0.029041554040173369 -7.8879584940643886e-07 0 0.027600851228189279 -5.5665488213030768e-07 0 0.027744074422864192 -0.00010003253683092737 0 0.028362958392257789 -0.00017428526307161513 0 0.028257906714850844 -0.00017588268417308468 0 0.027744074422864192 -0.00010003253683092737 0 0.028362958392257789 -0.00017428526307161513 0 0.028362958392257789 -0.00017428526307161513 0 0.029041554040173369 -7.8879584940643886e-07 0 0.02899716991655326 -0.00013321471861988779 0 0.028362958392257789 -0.00017428526307161513 0 0.02899716991655326 -0.00013321471861988779 0 0.028539978467539272 -0.00022610776269052325 0 0.028257906714850844 -0.00017588268417308468 0 0.028539978467539272 -0.00022610776269052325 0 0.028724213982659275 -0.00025483959975524756 0 0.027928192122980526 -0.00022801706565960163 0 0.028449331523813907 0.0001050112555396025 0 0.02772724723282351 -0.00015415966108641731 0 0.027650452117197567 -0.00012441764391221235 0 0.027694176438698221 -0.00014622450013529567 0 0.028598337039409377 -0.00018704234945591717 0 0.028449331523813907 0.0001050112555396025 0 0.02899716991655326 -0.00013321471861988779 0 0.028539978467539272 -0.00022610776269052325 0 0.028544067459598026 -0.00014875131423662291 0 0.029046866865313194 0.00050323756815280022 0 0.028471336705783851 0.00061748646644678863 0 0.028544067459598026 -0.00014875131423662291 0 0.029046866865313194 0.00050323756815280022 0 0.02899716991655326 -0.00013321471861988779 0 0.028544067459598026 -0.00014875131423662291 0 0.031700873929520222 0.00035032437872254665 0 0.028449331523813907 0.0001050112555396025 0 0.030633633192330097 0.00048577866227707733 0 0.030481042999705856 3.0628720827638464e-07 0 0.029046866865313194 0.00050323756815280022 0 0.02899716991655326 -0.00013321471861988779 0 0.030478053310803142 1.5007070969708819e-06 0 0.029041554040173369 -7.8879584940643886e-07 0 0.02899716991655326 -0.00013321471861988779 0 0.030478053310803142 1.5007070969708819e-06 0 0.022412986964465868 1.3328871479066218e-07 0 0.02292021128861187 -5.67146320793792e-05 0 0.023528065985209453 -8.0370357753841733e-05 0 0.021602426898560945 0.00024318636897390647 0 0.021324503894445471 -5.3630646015492856e-05 0 0.022412986964465868 1.3328871479066218e-07 0 0.02292021128861187 -5.67146320793792e-05 0 0.021063445547675131 2.0032596930023556e-05 0 0.020871263754312516 0.00065238879048983944 0 0.020558695323711493 0.00058596927930136588 0 0.020727075392282145 0.00029680310444276048 0 0.020558695323711493 0.00058596927930136588 0 0.020561409596343186 0.00032554982197974849 0 0.020727075392282145 0.00029680310444276048 0 0.020871263754312516 0.00065238879048983944 0 0.020777191952456486 0.0012185720051840765 0 0.020558695323711493 0.00058596927930136588 0 0.021602426898560945 0.00024318636897390647 0 0.024568145680540266 0.00079538466259256382 0 0.02292021128861187 -5.67146320793792e-05 0 0.023528065985209453 -8.0370357753841733e-05 0 0.023701592416739456 -1.1493578144686522e-05 0 0.022412986964465868 1.3328871479066218e-07 0 0.023528065985209453 -8.0370357753841733e-05 0 0.024287083802551013 -5.747589785349562e-07 0 0.023528065985209453 -8.0370357753841733e-05 0 0.024287083802551013 -5.747589785349562e-07 0 0.024444672521911119 0.00010367083012573744 0 0.024287083802551013 -5.747589785349562e-07 0 0.024444672521911119 0.00010367083012573744 0 0.026159912314367109 1.0886063311782107e-06 0 0.027480442768287292 3.2245267219516643e-05 0 0.027083273425660016 0.00083077550261576093 0 0.026164598075982211 1.2242690892056025e-06 0 0.025828050442250214 0.00043185039169043189 0 0.026161295895941163 -1.1026069816398414e-08 0 0.027960786918398799 0.00048938854101683484 0 0.024568145680540266 0.00079538466259256382 0 0.027820735062538429 0.00019028787400165537 0 0.02749303064801812 0.0005788470049860739 0 0.027619147166878959 0.0013149098636443157 0 0.027355088583577672 0.000701729796276421 0 0.027223947698553335 0.0011021309929859725 0 0.027392375355359329 0.00092911556004757721 0 0.027480442768287292 3.2245267219516643e-05 0 0.027083273425660016 0.00083077550261576093 0 0.02749303064801812 0.0005788470049860739 0 0.027480442768287292 3.2245267219516643e-05 0 0.027820735062538429 0.00019028787400165537 0 0.02749303064801812 0.0005788470049860739 0 0.027083273425660016 0.00083077550261576093 0 0.02749303064801812 0.0005788470049860739 0 0.027619147166878959 0.0013149098636443157 0 0.023528065985209453 -8.0370357753841733e-05 0 0.024444672521911119 0.00010367083012573744 0 0.023701592416739456 -1.1493578144686522e-05 0 0.025828050442250214 0.00043185039169043189 0 0.024568145680540266 0.00079538466259256382 0 0.027437912613094275 0.0010684193983579622 0 0.027392375355359329 0.00092911556004757721 0 0.02748918987969768 0.00089953398385190803 0 0.027223947698553335 0.0011021309929859725 0 0.027437912613094275 0.0010684193983579622 0 0.027392375355359329 0.00092911556004757721 0 0.027437912613094275 0.0010684193983579622 0 0.027590524976171833 0.00085489300847563969 0 0.0277379260286457 0.00079983237268107653 0 0.027392375355359329 0.00092911556004757721 0 0.02748918987969768 0.00089953398385190803 0 0.027467850590446478 0.00082238631437662492 0 0.027437912613094275 0.0010684193983579622 0 0.02748918987969768 0.00089953398385190803 0 0.027590524976171833 0.00085489300847563969 0 0.02748918987969768 0.00089953398385190803 0 0.027590524976171833 0.00085489300847563969 0 0.027554449123394335 0.00081216352261022449 0 0.02748918987969768 0.00089953398385190803 0 0.027554449123394335 0.00081216352261022449 0 0.027467850590446478 0.00082238631437662492 0 0.027554449123394335 0.00081216352261022449 0 0.027546615848190095 0.00073450381900029961 0 0.027467850590446478 0.00082238631437662492 0 0.027554449123394335 0.00081216352261022449 0 0.027546615848190095 0.00073450381900029961 0 0.02763077345292687 0.00077024968973384564 0 0.027590524976171833 0.00085489300847563969 0 0.027554449123394335 0.00081216352261022449 0 0.02763077345292687 0.00077024968973384564 0 0.027355088583577672 0.000701729796276421 0 0.027392375355359329 0.00092911556004757721 0 0.027467850590446478 0.00082238631437662492 0 0.027355088583577672 0.000701729796276421 0 0.027546615848190095 0.00073450381900029961 0 0.027467850590446478 0.00082238631437662492 0 0.027486348895433055 0.0010028231465272813 0 0.027634660618905481 0.00097776988847352183 0 0.027591105460549249 0.0011840234015306258 0 0.027633732566199956 0.00129429833228773 0 0.027527440386696952 0.0014352080784125732 0 0.027590524976171833 0.00085489300847563969 0 0.0277379260286457 0.00079983237268107653 0 0.027691202466901429 0.00077716078106563496 0 0.027692726941771037 0.00069928317298940522 0 0.027546615848190095 0.00073450381900029961 0 0.02763077345292687 0.00077024968973384564 0 0.027692726941771037 0.00069928317298940522 0 0.02763077345292687 0.00077024968973384564 0 0.027691202466901429 0.00077716078106563496 0 0.027692726941771037 0.00069928317298940522 0 0.0277379260286457 0.00079983237268107653 0 0.027691202466901429 0.00077716078106563496 0 0.027590524976171833 0.00085489300847563969 0 0.02763077345292687 0.00077024968973384564 0 0.027691202466901429 0.00077716078106563496 0 0.027633732566199956 0.00129429833228773 0 0.02772637760012215 0.0013607743426765637 0 0.027733035177857867 0.0012615772847237789 0 0.027591105460549249 0.0011840234015306258 0 0.027633732566199956 0.00129429833228773 0 0.027733035177857867 0.0012615772847237789 0 0.027634660618905481 0.00097776988847352183 0 0.027726521824334271 0.0011941530568881733 0 0.027437912613094275 0.0010684193983579622 0 0.027622355153818248 0.0008624656636532724 0 0.027552243986933751 0.0010928960300062612 0 0.027633732566199956 0.00129429833228773 0 0.027637507582819406 0.0013959149146231841 0 0.02772637760012215 0.0013607743426765637 0 0.027633732566199956 0.00129429833228773 0 0.027637507582819406 0.0013959149146231841 0 0.027527440386696952 0.0014352080784125732 0 0.027637507582819406 0.0013959149146231841 0 0.027664813548082028 0.0014903298871188119 0 0.02772637760012215 0.0013607743426765637 0 0.027637507582819406 0.0013959149146231841 0 0.027527440386696952 0.0014352080784125732 0 0.027664813548082028 0.0014903298871188119 0 0.027527440386696952 0.0014352080784125732 0 0.027664813548082028 0.0014903298871188119 0 0.027431376440966312 0.0016745371251439402 0 0.027664813548082028 0.0014903298871188119 0 0.027431376440966312 0.0016745371251439402 0 0.027766446299755582 0.0016558004348071168 0 0.027726521824334271 0.0011941530568881733 0 0.024682308990874591 0.0013993661421467672 0 0.020777191952456486 0.0012185720051840765 0 0.02029704864793502 0.00074635054994390531 0 0.020558695323711493 0.00058596927930136588 0 0.024568145680540266 0.00079538466259256382 0 0.024682308990874591 0.0013993661421467672 0 0.027437912613094275 0.0010684193983579622 0 0.027552243986933751 0.0010928960300062612 0 0.027458133599065727 0.0013507336113748416 0 0.027223947698553335 0.0011021309929859725 0 0.027437912613094275 0.0010684193983579622 0 0.027458133599065727 0.0013507336113748416 0 0.024682308990874591 0.0013993661421467672 0 0.021397263042712753 0.001219253275540346 0 0.022994304720819897 0.0027366184315111967 0 0.023228981304639611 0.0019377224711175204 0 0.022234207087521701 0.0016339019869781081 0 0.02029704864793502 0.00074635054994390531 0 0.020558695323711493 0.00058596927930136588 0 0.020359080622386963 0.00045110662841467148 0 0.020558695323711493 0.00058596927930136588 0 0.020402767529538134 0.0002723626517326596 0 0.020561409596343186 0.00032554982197974849 0 0.020558695323711493 0.00058596927930136588 0 0.020359080622386963 0.00045110662841467148 0 0.020402767529538134 0.0002723626517326596 0 0.021397263042712753 0.001219253275540346 0 0.020831544473792943 0.00032952870689158291 0 0.022994304720819897 0.0027366184315111967 0 0.022234207087521701 0.0016339019869781081 0 0.021933000682713939 0.001648710905191266 0 0.027431376440966312 0.0016745371251439402 0 0.027615281969483482 0.0018688570681724868 0 0.027766446299755582 0.0016558004348071168 0 0.024682308990874591 0.0013993661421467672 0 0.024322077111027286 0.0016657866085833379 0 0.023204203772488642 0.0016975308219962662 0 0.024322077111027286 0.0016657866085833379 0 0.027615281969483482 0.0018688570681724868 0 0.027962384147071868 0.0018343939472766331 0 0.027766446299755582 0.0016558004348071168 0 0.024322077111027286 0.0016657866085833379 0 0.025880516383035904 0.0014206541300998425 0 0.027962384147071868 0.0018343939472766331 0 0.028051702589507382 0.0016069572022121086 0 0.027766446299755582 0.0016558004348071168 0 0.028051702589507382 0.0016069572022121086 0 0.027766446299755582 0.0016558004348071168 0 0.027864449217728789 0.0014586023724811989 0 0.027664813548082028 0.0014903298871188119 0 0.027766446299755582 0.0016558004348071168 0 0.027864449217728789 0.0014586023724811989 0 0.027664813548082028 0.0014903298871188119 0 0.027864449217728789 0.0014586023724811989 0 0.02772637760012215 0.0013607743426765637 0 0.027864449217728789 0.0014586023724811989 0 0.027868428956698676 0.0013212905685131692 0 0.02772637760012215 0.0013607743426765637 0 0.027868428956698676 0.0013212905685131692 0 0.02772637760012215 0.0013607743426765637 0 0.027733035177857867 0.0012615772847237789 0 0.027591105460549249 0.0011840234015306258 0 0.027733035177857867 0.0012615772847237789 0 0.027861189296718894 0.0011642225883790214 0 0.027868428956698676 0.0013212905685131692 0 0.027733035177857867 0.0012615772847237789 0 0.027861189296718894 0.0011642225883790214 0 0.027868428956698676 0.0013212905685131692 0 0.027861189296718894 0.0011642225883790214 0 0.028167013736151419 0.0013581555959156126 0 0.028277728006917479 0.0011561995706388896 0 0.027861189296718894 0.0011642225883790214 0 0.028167013736151419 0.0013581555959156126 0 0.028051702589507382 0.0016069572022121086 0 0.027864449217728789 0.0014586023724811989 0 0.028167013736151419 0.0013581555959156126 0 0.027864449217728789 0.0014586023724811989 0 0.027868428956698676 0.0013212905685131692 0 0.028167013736151419 0.0013581555959156126 0 0.028051702589507382 0.0016069572022121086 0 0.028167013736151419 0.0013581555959156126 0 0.028257042801037698 0.0015220520942799073 0 0.028167013736151419 0.0013581555959156126 0 0.028384333627391439 0.001403078752131271 0 0.028257042801037698 0.0015220520942799073 0 0.028326089185484165 0.001172629492857913 0 0.02858852447249002 0.0012288138904469343 0 0.028277728006917479 0.0011561995706388896 0 0.028167013736151419 0.0013581555959156126 0 0.028362040401099936 0.0012289001695507341 0 0.028167013736151419 0.0013581555959156126 0 0.028362040401099936 0.0012289001695507341 0 0.028384333627391439 0.001403078752131271 0 0.028362040401099936 0.0012289001695507341 0 0.028384333627391439 0.001403078752131271 0 0.028495599339583507 0.0012742235842415819 0 0.028257042801037698 0.0015220520942799073 0 0.028248677722273501 0.001775720533854762 0 0.028393764852919289 0.0015822288208109478 0 0.028384333627391439 0.001403078752131271 0 0.028257042801037698 0.0015220520942799073 0 0.028393764852919289 0.0015822288208109478 0 0.028051702589507382 0.0016069572022121086 0 0.028257042801037698 0.0015220520942799073 0 0.028248677722273501 0.001775720533854762 0 0.027962384147071868 0.0018343939472766331 0 0.028051702589507382 0.0016069572022121086 0 0.028248677722273501 0.001775720533854762 0 0.025880516383035904 0.0014206541300998425 0 0.025881203399412561 0.0014478586195054489 0 0.028248677722273501 0.001775720533854762 0 0.028393764852919289 0.0015822288208109478 0 0.02847223805386908 0.0017366253871858447 0 0.025881203399412561 0.0014478586195054489 0 0.025212888840119997 0.0011248184425628885 0 0.023322373297285887 0.0010516147645432358 0 0.02330806785166914 0.0010514228499101331 0 0.023326610993654375 0.0010522363135214881 0 0.023337761601761365 0.0010723059890371516 0 0.023322373297285887 0.0010516147645432358 0 0.023309036275715185 0.0010493293795295242 0 0.023322373297285887 0.0010516147645432358 0 0.02330806785166914 0.0010514228499101331 0 0.023309036275715185 0.0010493293795295242 0 0.021170426021609744 0.00068383737974194998 0 0.018698276228581664 0.00052471547200002916 0 0.023309036275715185 0.0010493293795295242 0 0.02329185952534147 0.0010450639951732265 0 0.023294386496509552 0.0010259386730056058 0 0.02330806785166914 0.0010514228499101331 0 0.023309036275715185 0.0010493293795295242 0 0.02329185952534147 0.0010450639951732265 0 0.02330806785166914 0.0010514228499101331 0 0.02329185952534147 0.0010450639951732265 0 0.0233041669651654 0.0010565784740716694 0 0.02330806785166914 0.0010514228499101331 0 0.023326610993654375 0.0010522363135214881 0 0.0233041669651654 0.0010565784740716694 0 0.021170426021609744 0.00068383737974194998 0 0.020836747652483199 0.00093645691915372439 0 0.018304202063348287 0.00042310668514850246 0 0.018184160132845212 0.00034130554488903724 0 0.01817060240343997 0.00044356431548650549 0 0.018304202063348287 0.00042310668514850246 0 0.018184160132845212 0.00034130554488903724 0 0.018290075103090008 0.0002362250373010396 0 0.018436044347364965 0.00059787442914166977 0 0.020836747652483199 0.00093645691915372439 0 0.014481224687732218 0.00069135168567384831 0 0.014769763382145123 0.00033202066624714912 0 0.01162883127509391 0.00078432927968964661 0 0.011620016294015927 0.0011874836248451602 0 0.011242891262437882 0.00052751856334492554 0 0.018184160132845212 0.00034130554488903724 0 0.018149491762519655 0.00021108039385228642 0 0.018290075103090008 0.0002362250373010396 0 0.018149491762519655 0.00021108039385228642 0 0.018290075103090008 0.0002362250373010396 0 0.018113318004522268 5.8037629317627463e-05 0 0.011802535730900761 0.00093058611394329204 0 0.011810616267057625 0.0012036744856989974 0 0.01162883127509391 0.00078432927968964661 0 0.011620016294015927 0.0011874836248451602 0 0.01246298970925034 0.0013255303434839981 0 0.018304202063348287 0.00042310668514850246 0 0.018290075103090008 0.0002362250373010396 0 0.018457277281483862 0.0003989745627202053 0 0.011620016294015927 0.0011874836248451602 0 0.01246298970925034 0.0013255303434839981 0 0.01267073100957425 0.0022383182665107249 0 0.014481224687732218 0.00069135168567384831 0 0.018698276228581664 0.00052471547200002916 0 0.01246298970925034 0.0013255303434839981 0 0.013349556922398274 0.0021260338279607714 0 0.01267073100957425 0.0022383182665107249 0 0.011890034317903997 0.0013190234019520026 0 0.012435004697981705 0.001355273568121412 0 0.012383917306684892 0.0019937128142328777 0 0.016576064265353466 0.00091679506499762239 0 0.018698276228581664 0.00052471547200002916 0 0.011810616267057625 0.0012036744856989974 0 0.016576064265353466 0.00091679506499762239 0 0.011890034317903997 0.0013190234019520026 0 0.012435004697981705 0.001355273568121412 0 0.01205506790065387 0.00071300863373357723 0 0.01162883127509391 0.00078432927968964661 0 0.011890034317903997 0.0013190234019520026 0 0.01205506790065387 0.00071300863373357723 0 0.012435004697981705 0.001355273568121412 0 0.012798985135622868 0.00081826927119850749 0 0.01205506790065387 0.00071300863373357723 0 0.012435004697981705 0.001355273568121412 0 0.012798985135622868 0.00081826927119850749 0 0.013498587121964717 0.0019586350403557776 0 0.012435004697981705 0.001355273568121412 0 0.012383917306684892 0.0019937128142328777 0 0.013498587121964717 0.0019586350403557776 0 0.016576064265353466 0.00091679506499762239 0 0.016951888613779678 0.0010042269873585855 0 0.016576064265353466 0.00091679506499762239 0 0.021791448500329904 0.00028465475312698505 0 0.020493864443811433 -0.00075750793314723541 0 0.020790200632843283 0.00054615417007090471 0 0.021892866134583005 0.00061817489932467092 0 0.020493864443811433 -0.00075750793314723541 0 0.019637567868818359 -0.00061069928243116095 0 0.020790200632843283 0.00054615417007090471 0 0.018698276228581664 0.00052471547200002916 0 0.022170644470635905 0.00077900876368498784 0 0.023309036275715185 0.0010493293795295242 0 0.023294386496509552 0.0010259386730056058 0 0.023344967953657526 0.0010426104247038843 0 0.023337761601761365 0.0010723059890371516 0 0.023309036275715185 0.0010493293795295242 0 0.023344967953657526 0.0010426104247038843 0 0.021922489161230407 0.0016578332195351308 0 0.020790200632843283 0.00054615417007090471 0 0.021892866134583005 0.00061817489932467092 0 0.023399707411665926 0.0010842405519143046 0 0.023337761601761365 0.0010723059890371516 0 0.023344967953657526 0.0010426104247038843 0 0.024322077111027286 0.0016657866085833379 0 0.022170644470635905 0.00077900876368498784 0 0.021397263042712753 0.001219253275540346 0 0.021791448500329904 0.00028465475312698505 0 0.023228981304639611 0.0019377224711175204 0 0.022234207087521701 0.0016339019869781081 0 0.021892866134583005 0.00061817489932467092 0 0.020513273864122595 0.00010318050475899184 0 0.020437639050534487 3.7510614051026564e-05 0 0.020489684824112453 3.1426396153100443e-05 0 0.022234207087521701 0.0016339019869781081 0 0.021922489161230407 0.0016578332195351308 0 0.021892866134583005 0.00061817489932467092 0 0.020520598135067188 7.4937769108864816e-05 0 0.020489684824112453 3.1426396153100443e-05 0 0.020523388476077317 -4.5069770326287267e-05 0 0.020402767529538134 0.0002723626517326596 0 0.020523388476077317 -4.5069770326287267e-05 0 0.02056180751900202 0.00015583400581854862 0 0.020831544473792943 0.00032952870689158291 0 0.020499076462322151 -4.0898505760125688e-05 0 0.020513273864122595 0.00010318050475899184 0 0.020520598135067188 7.4937769108864816e-05 0 0.020489684824112453 3.1426396153100443e-05 0 0.020402767529538134 0.0002723626517326596 0 0.02056180751900202 0.00015583400581854862 0 0.020561409596343186 0.00032554982197974849 0 0.020523388476077317 -4.5069770326287267e-05 0 0.02046713019627646 5.1711459245341505e-06 0 0.020468153583617314 3.2252450534293448e-06 0 0.020489684824112453 3.1426396153100443e-05 0 0.020523388476077317 -4.5069770326287267e-05 0 0.02046713019627646 5.1711459245341505e-06 0 0.020330075318668418 -7.9527624459964321e-06 0 0.020437639050534487 3.7510614051026564e-05 0 0.02046713019627646 5.1711459245341505e-06 0 0.020437639050534487 3.7510614051026564e-05 0 0.020489684824112453 3.1426396153100443e-05 0 0.02046713019627646 5.1711459245341505e-06 0 0.020330075318668418 -7.9527624459964321e-06 0 0.02046713019627646 5.1711459245341505e-06 0 0.020468153583617314 3.2252450534293448e-06 0 0.012798985135622868 0.00081826927119850749 0 0.013498587121964717 0.0019586350403557776 0 0.014116840992409301 0.00058704638464960679 0 0.013498587121964717 0.0019586350403557776 0 0.015248986921661416 0.0017829287778339108 0 0.014116840992409301 0.00058704638464960679 0 0.020523388476077317 -4.5069770326287267e-05 0 0.020468153583617314 3.2252450534293448e-06 0 0.020466841611638049 0.00014765897781488177 0 0.016951888613779678 0.0010042269873585855 0 0.017826711225649126 0.00088111162720817154 0 0.015248986921661416 0.0017829287778339108 0 0.016100811295489924 0.00028447044773402378 0 0.014116840992409301 0.00058704638464960679 0 0.015248986921661416 0.0017829287778339108 0 0.016100811295489924 0.00028447044773402378 0 0.018659884405262839 4.2982295595780567e-06 0 0.016100811295489924 0.00028447044773402378 0 0.018659884405262839 4.2982295595780567e-06 0 0.01682514121364153 -1.0377704895822429e-06 0 0.017826711225649126 0.00088111162720817154 0 0.018663572337058704 4.143575238314896e-07 0 0.020466841611638049 0.00014765897781488177 0 0.018667004775320042 1.0034706007258288e-06 0 0.020373686457545902 -0.00014501492433536287 0 0.018667004775320042 1.0034706007258288e-06 0 0.020537741298347765 -5.551667601359253e-07 0 0.020373686457545902 -0.00014501492433536287 0 0.020537741298347765 -5.551667601359253e-07 0 0.020373686457545902 -0.00014501492433536287 0 0.021063445547675131 2.0032596930023556e-05 0 0.020523388476077317 -4.5069770326287267e-05 0 0.020373686457545902 -0.00014501492433536287 0 0.020645938550083742 -3.5938753840275702e-06 0 0.020523388476077317 -4.5069770326287267e-05 0 0.020466841611638049 0.00014765897781488177 0 0.020373686457545902 -0.00014501492433536287 0 0.020373686457545902 -0.00014501492433536287 0 0.020645938550083742 -3.5938753840275702e-06 0 0.021063445547675131 2.0032596930023556e-05 0 0.020871263754312516 0.00065238879048983944 0 0.020727075392282145 0.00029680310444276048 0 0.021063445547675131 2.0032596930023556e-05 0 0.020645938550083742 -3.5938753840275702e-06 0 0.020727075392282145 0.00029680310444276048 0 0.021063445547675131 2.0032596930023556e-05 0 0.020523388476077317 -4.5069770326287267e-05 0 0.020645938550083742 -3.5938753840275702e-06 0 0.02056180751900202 0.00015583400581854862 0 0.020645938550083742 -3.5938753840275702e-06 0 0.02056180751900202 0.00015583400581854862 0 0.020727075392282145 0.00029680310444276048 0 0.02056180751900202 0.00015583400581854862 0 0.020561409596343186 0.00032554982197974849 0 0.020727075392282145 0.00029680310444276048 0 0.022412986964465868 1.3328871479066218e-07 0 0.020537741298347765 -5.551667601359253e-07 0 0.021063445547675131 2.0032596930023556e-05 0 0.03069075892439288 0.0024771081927102341 0 0.031188426924527286 0.0027200925076868885 0 0.03100913129024024 0.0021635290785097035 0 0.031188426924527286 0.0027200925076868885 0 0.031319300937656662 0.0022419184715942141 0 0.03100913129024024 0.0021635290785097035 0 0.03069075892439288 0.0024771081927102341 0 0.030558157427574568 0.0031109125035557765 0 0.031188426924527286 0.0027200925076868885 0 0.027500427288550493 0.0015228165455857391 0 0.0271928161850832 0.0016429806062473007 0 0.027418344213029244 0.0019387513959406902 0 0.029054484144458589 0.0020465224365814019 0 0.029114548967498932 0.002524097810261344 0 0.027500427288550493 0.0015228165455857391 0 0.0271928161850832 0.0016429806062473007 0 0.027268640743733294 0.0013555296690549549 0 0.027418344213029244 0.0019387513959406902 0 0.026987152440932513 0.0019299793845012603 0 0.027201081840956317 0.00215214126849359 0 0.0271928161850832 0.0016429806062473007 0 0.027418344213029244 0.0019387513959406902 0 0.026987152440932513 0.0019299793845012603 0 0.030558157427574568 0.0031109125035557765 0 0.031188426924527286 0.0027200925076868885 0 0.031349424358347436 0.0036041147906894686 0 0.031665319977900938 0.0030629873478911778 0 0.031188426924527286 0.0027200925076868885 0 0.031349424358347436 0.0036041147906894686 0 0.032238445506191177 0.0034140467896231 0 0.031665319977900938 0.0030629873478911778 0 0.032083320276500425 0.0026807869872527679 0 0.032378007497106003 0.0023613874451305994 0 0.032083320276500425 0.0026807869872527679 0 0.032044619838689843 0.0021944354494251236 0 0.031665319977900938 0.0030629873478911778 0 0.032083320276500425 0.0026807869872527679 0 0.03172659540789146 0.0023532439560975437 0 0.032083320276500425 0.0026807869872527679 0 0.032044619838689843 0.0021944354494251236 0 0.03172659540789146 0.0023532439560975437 0 0.031188426924527286 0.0027200925076868885 0 0.031319300937656662 0.0022419184715942141 0 0.03172659540789146 0.0023532439560975437 0 0.031665319977900938 0.0030629873478911778 0 0.031188426924527286 0.0027200925076868885 0 0.03172659540789146 0.0023532439560975437 0 0.031319300937656662 0.0022419184715942141 0 0.031527512180954828 0.0019370250356149879 0 0.03172659540789146 0.0023532439560975437 0 0.031319300937656662 0.0022419184715942141 0 0.031527512180954828 0.0019370250356149879 0 0.031211078646403673 0.0019431348845672537 0 0.031527512180954828 0.0019370250356149879 0 0.03172659540789146 0.0023532439560975437 0 0.031844807382828848 0.0018945759983821436 0 0.032044619838689843 0.0021944354494251236 0 0.03172659540789146 0.0023532439560975437 0 0.031844807382828848 0.0018945759983821436 0 0.032217534706649988 0.0018646354591028409 0 0.032044619838689843 0.0021944354494251236 0 0.031844807382828848 0.0018945759983821436 0 0.032217534706649988 0.0018646354591028409 0 0.032316731504163906 0.0011667693773919632 0 0.031966778644885278 0.0014861150509327297 0 0.032217534706649988 0.0018646354591028409 0 0.031844807382828848 0.0018945759983821436 0 0.031966778644885278 0.0014861150509327297 0 0.031844807382828848 0.0018945759983821436 0 0.031966778644885278 0.0014861150509327297 0 0.031678632519329265 0.0015786253991980209 0 0.031679199162670736 0.001214815242230143 0 0.031966778644885278 0.0014861150509327297 0 0.031678632519329265 0.0015786253991980209 0 0.031527512180954828 0.0019370250356149879 0 0.031211078646403673 0.0019431348845672537 0 0.031361809326438679 0.0016294312051151499 0 0.031527512180954828 0.0019370250356149879 0 0.031844807382828848 0.0018945759983821436 0 0.031678632519329265 0.0015786253991980209 0 0.031527512180954828 0.0019370250356149879 0 0.031678632519329265 0.0015786253991980209 0 0.031361809326438679 0.0016294312051151499 0 0.031478314675293377 0.0014011160981052743 0 0.031678632519329265 0.0015786253991980209 0 0.031361809326438679 0.0016294312051151499 0 0.031478314675293377 0.0014011160981052743 0 0.031361809326438679 0.0016294312051151499 0 0.031256954554573127 0.0014125868622697716 0 0.031012768998753916 0.0012233673900073263 0 0.030826002784603478 0.0018440173491238968 0 0.031074892550297752 0.0016806684042601457 0 0.031361809326438679 0.0016294312051151499 0 0.031256954554573127 0.0014125868622697716 0 0.031074892550297752 0.0016806684042601457 0 0.031012768998753916 0.0012233673900073263 0 0.030950488958064036 0.0016149619312371168 0 0.030748401595541514 0.001323803789809049 0 0.031065952156881477 0.0013918163117657653 0 0.029811222847387703 0.0013007769128904135 0 0.031012768998753916 0.0012233673900073263 0 0.031256954554573127 0.0014125868622697716 0 0.031074892550297752 0.0016806684042601457 0 0.030874086069072777 0.0018512959377440432 0 0.030826002784603478 0.0018440173491238968 0 0.031074892550297752 0.0016806684042601457 0 0.029904207140510786 0.0013226224431383143 0 0.029811222847387703 0.0013007769128904135 0 0.031211078646403673 0.0019431348845672537 0 0.031074892550297752 0.0016806684042601457 0 0.031053299334635465 0.0018752220680258828 0 0.031211078646403673 0.0019431348845672537 0 0.031361809326438679 0.0016294312051151499 0 0.031074892550297752 0.0016806684042601457 0 0.030874086069072777 0.0018512959377440432 0 0.031074892550297752 0.0016806684042601457 0 0.031053299334635465 0.0018752220680258828 0 0.03069075892439288 0.0024771081927102341 0 0.030824945638273808 0.0018447748271534731 0 0.03100913129024024 0.0021635290785097035 0 0.031319300937656662 0.0022419184715942141 0 0.031211078646403673 0.0019431348845672537 0 0.03100913129024024 0.0021635290785097035 0 0.030874086069072777 0.0018512959377440432 0 0.031053299334635465 0.0018752220680258828 0 0.03100913129024024 0.0021635290785097035 0 0.029054484144458589 0.0020465224365814019 0 0.029811222847387703 0.0013007769128904135 0 0.031211078646403673 0.0019431348845672537 0 0.031053299334635465 0.0018752220680258828 0 0.03100913129024024 0.0021635290785097035 0 0.030874086069072777 0.0018512959377440432 0 0.030824945638273808 0.0018447748271534731 0 0.03100913129024024 0.0021635290785097035 0 0.027575434734029534 0.0010981885992421344 0 0.027268640743733294 0.0013555296690549549 0 0.027183825342253484 0.0010466286104863899 0 0.027500427288550493 0.0015228165455857391 0 0.027575434734029534 0.0010981885992421344 0 0.027268640743733294 0.0013555296690549549 0 0.030457097711550137 0.0011889662350855746 0 0.030560771387641326 0.001570311431070695 0 0.030748401595541514 0.001323803789809049 0 0.030950488958064036 0.0016149619312371168 0 0.030560771387641326 0.001570311431070695 0 0.030748401595541514 0.001323803789809049 0 0.029811222847387703 0.0013007769128904135 0 0.028893464876764193 0.0013149473070319124 0 0.030457097711550137 0.0011889662350855746 0 0.030560771387641326 0.001570311431070695 0 0.030132196269878592 0.0015150394839013026 0 0.028893464876764193 0.0013149473070319124 0 0.027823075331939746 0.0010586389256159472 0 0.024334802411085259 0.00096142026370972067 0 0.024235876148996718 0.001099989002994919 0 0.024212478041008473 0.00094229185111149047 0 0.029969537168396728 0.00098517967742072768 0 0.030050039775512748 0.0012536691140318454 0 0.029846970476274659 0.0012258812444728472 0 0.027823075331939746 0.0010586389256159472 0 0.027975352843383212 0.0014308218048637461 0 0.024334802411085259 0.00096142026370972067 0 0.024235876148996718 0.001099989002994919 0 0.0243457128065671 0.0011545714343365869 0 0.027823075331939746 0.0010586389256159472 0 0.025379060187075947 0.0011830707598463363 0 0.027268640743733294 0.0013555296690549549 0 0.027183825342253484 0.0010466286104863899 0 0.026900018465883177 0.0014632566316878973 0 0.027183825342253484 0.0010466286104863899 0 0.026806697751136928 0.0009957629262300283 0 0.026900018465883177 0.0014632566316878973 0 0.02858852447249002 0.0012288138904469343 0 0.029212230839548554 0.0012980864260797372 0 0.028495599339583507 0.0012742235842415819 0 0.028643446442089854 0.0013018384676659208 0 0.028566497790194847 0.0015075551667770163 0 0.029212230839548554 0.0012980864260797372 0 0.027975352843383212 0.0014308218048637461 0 0.029748763752690262 0.0010628206984106758 0 0.029449280699241614 0.0012863760314888932 0 0.029852780343307 0.0013192555349758306 0 0.024235876148996718 0.001099989002994919 0 0.024212478041008473 0.00094229185111149047 0 0.024081005433624358 0.0011603225533816581 0 0.027975352843383212 0.0014308218048637461 0 0.026246776042653103 0.0013776839576754791 0 0.028384333627391439 0.001403078752131271 0 0.028495599339583507 0.0012742235842415819 0 0.028566497790194847 0.0015075551667770163 0 0.028384333627391439 0.001403078752131271 0 0.028393764852919289 0.0015822288208109478 0 0.028566497790194847 0.0015075551667770163 0 0.028393764852919289 0.0015822288208109478 0 0.028566497790194847 0.0015075551667770163 0 0.02847223805386908 0.0017366253871858447 0 0.026246776042653103 0.0013776839576754791 0 0.025212888840119997 0.0011248184425628885 0 0.024081005433624358 0.0011603225533816581 0 0.024080312168441545 0.0012983296784851834 0 0.023960301520278855 0.0013755657574102062 0 0.024081005433624358 0.0011603225533816581 0 0.024080312168441545 0.0012983296784851834 0 0.024204349195783684 0.0012857204534095269 0 0.024080312168441545 0.0012983296784851834 0 0.024129161591691716 0.0013564322903879353 0 0.024025091816097497 0.0013702039458366037 0 0.024080312168441545 0.0012983296784851834 0 0.024129161591691716 0.0013564322903879353 0 0.024204349195783684 0.0012857204534095269 0 0.024129161591691716 0.0013564322903879353 0 0.024025091816097497 0.0013702039458366037 0 0.024087657455758332 0.0014817639066922656 0 0.024080312168441545 0.0012983296784851834 0 0.024025091816097497 0.0013702039458366037 0 0.023960301520278855 0.0013755657574102062 0 0.023975159320765854 0.0012797750483757836 0 0.025212888840119997 0.0011248184425628885 0 0.024025091816097497 0.0013702039458366037 0 0.023899701912724603 0.0013639322251528003 0 0.023959200259677262 0.0014775868233225188 0 0.0243457128065671 0.0011545714343365869 0 0.024204349195783684 0.0012857204534095269 0 0.024367310477922399 0.0013604031836653662 0 0.025379060187075947 0.0011830707598463363 0 0.026020483482688105 0.0018625586863718936 0 0.0271928161850832 0.0016429806062473007 0 0.026900018465883177 0.0014632566316878973 0 0.026987152440932513 0.0019299793845012603 0 0.0271928161850832 0.0016429806062473007 0 0.027268640743733294 0.0013555296690549549 0 0.026900018465883177 0.0014632566316878973 0 0.024235876148996718 0.001099989002994919 0 0.024081005433624358 0.0011603225533816581 0 0.024204349195783684 0.0012857204534095269 0 0.024235876148996718 0.001099989002994919 0 0.0243457128065671 0.0011545714343365869 0 0.024204349195783684 0.0012857204534095269 0 0.024204349195783684 0.0012857204534095269 0 0.024212433118419023 0.0014251613330429928 0 0.024367310477922399 0.0013604031836653662 0 0.024129161591691716 0.0013564322903879353 0 0.024204349195783684 0.0012857204534095269 0 0.024212433118419023 0.0014251613330429928 0 0.024129161591691716 0.0013564322903879353 0 0.024212433118419023 0.0014251613330429928 0 0.024087657455758332 0.0014817639066922656 0 0.024212433118419023 0.0014251613330429928 0 0.024367310477922399 0.0013604031836653662 0 0.024293674563477828 0.0014915140689018217 0 0.024390525405787882 0.0015718004707537499 0 0.024293674563477828 0.0014915140689018217 0 0.02420033110329186 0.0016117892046673709 0 0.024367310477922399 0.0013604031836653662 0 0.024390525405787882 0.0015718004707537499 0 0.024293674563477828 0.0014915140689018217 0 0.026987152440932513 0.0019299793845012603 0 0.0270637505799863 0.0023901135720167796 0 0.027201081840956317 0.00215214126849359 0 0.026020483482688105 0.0018625586863718936 0 0.022373332466017467 0.0014701939125531913 0 0.024212433118419023 0.0014251613330429928 0 0.024293674563477828 0.0014915140689018217 0 0.02420033110329186 0.0016117892046673709 0 0.024212433118419023 0.0014251613330429928 0 0.02420033110329186 0.0016117892046673709 0 0.024087657455758332 0.0014817639066922656 0 0.020757109797844373 0.0010745637785664586 0 0.021036412765189146 0.0010807970328555946 0 0.017810466050816945 0.00051737717733139237 0 0.017867751399642688 0.00042603451527831735 0 0.017974326898635255 0.00049688162385242611 0 0.017810466050816945 0.00051737717733139237 0 0.017867751399642688 0.00042603451527831735 0 0.017758555048614819 0.00040586663104464043 0 0.022373332466017467 0.0014701939125531913 0 0.020757109797844373 0.0010745637785664586 0 0.017678604729847294 0.00053853569180869673 0 0.017810466050816945 0.00051737717733139237 0 0.017758555048614819 0.00040586663104464043 0 0.017678604729847294 0.00053853569180869673 0 0.017634642057698571 0.00034281012313455429 0 0.017758555048614819 0.00040586663104464043 0 0.023322373297285887 0.0010516147645432358 0 0.023347801998250796 0.0010419976239236003 0 0.023326610993654375 0.0010522363135214881 0 0.023806846293669196 0.0015358384281839287 0 0.023959200259677262 0.0014775868233225188 0 0.023981523509823251 0.0016664875725231345 0 0.025212888840119997 0.0011248184425628885 0 0.023515688662243225 0.0012938455866485575 0 0.023899701912724603 0.0013639322251528003 0 0.023806846293669196 0.0015358384281839287 0 0.023959200259677262 0.0014775868233225188 0 0.02420033110329186 0.0016117892046673709 0 0.024087657455758332 0.0014817639066922656 0 0.023981523509823251 0.0016664875725231345 0 0.023959200259677262 0.0014775868233225188 0 0.024087657455758332 0.0014817639066922656 0 0.023981523509823251 0.0016664875725231345 0 0.024025091816097497 0.0013702039458366037 0 0.023959200259677262 0.0014775868233225188 0 0.024087657455758332 0.0014817639066922656 0 0.017867751399642688 0.00042603451527831735 0 0.017974326898635255 0.00049688162385242611 0 0.01800786154105417 0.00037759168593652539 0 0.017974326898635255 0.00049688162385242611 0 0.018151854250851765 0.00046857179723828497 0 0.01800786154105417 0.00037759168593652539 0 0.023806846293669196 0.0015358384281839287 0 0.023981523509823251 0.0016664875725231345 0 0.023712022857113896 0.0017151927806399625 0 0.021036412765189146 0.0010807970328555946 0 0.020836747652483199 0.00093645691915372439 0 0.023515688662243225 0.0012938455866485575 0 0.020836747652483199 0.00093645691915372439 0 0.018184160132845212 0.00034130554488903724 0 0.018151854250851765 0.00046857179723828497 0 0.01800786154105417 0.00037759168593652539 0 0.018184160132845212 0.00034130554488903724 0 0.01800786154105417 0.00037759168593652539 0 0.018009771094908741 0.00022060582079342009 0 0.01800786154105417 0.00037759168593652539 0 0.01787096911959947 0.00031052725832716592 0 0.018009771094908741 0.00022060582079342009 0 0.017867751399642688 0.00042603451527831735 0 0.01800786154105417 0.00037759168593652539 0 0.01787096911959947 0.00031052725832716592 0 0.01787096911959947 0.00031052725832716592 0 0.017846489980057761 0.00017704483045623715 0 0.018009771094908741 0.00022060582079342009 0 0.017846489980057761 0.00017704483045623715 0 0.018009771094908741 0.00022060582079342009 0 0.017904251619242244 5.6946873668195311e-05 0 0.018184160132845212 0.00034130554488903724 0 0.018149491762519655 0.00021108039385228642 0 0.018009771094908741 0.00022060582079342009 0 0.018149491762519655 0.00021108039385228642 0 0.018009771094908741 0.00022060582079342009 0 0.018113318004522268 5.8037629317627463e-05 0 0.017634642057698571 0.00034281012313455429 0 0.017758555048614819 0.00040586663104464043 0 0.017721081465319592 0.00026520443378277311 0 0.01787096911959947 0.00031052725832716592 0 0.017758555048614819 0.00040586663104464043 0 0.017721081465319592 0.00026520443378277311 0 0.017867751399642688 0.00042603451527831735 0 0.01787096911959947 0.00031052725832716592 0 0.017758555048614819 0.00040586663104464043 0 0.017846489980057761 0.00017704483045623715 0 0.017721081465319592 0.00026520443378277311 0 0.01771722129560635 7.8181938327034713e-05 0 0.01787096911959947 0.00031052725832716592 0 0.017846489980057761 0.00017704483045623715 0 0.017721081465319592 0.00026520443378277311 0 0.017721081465319592 0.00026520443378277311 0 0.017613120189687855 0.00015545309165268501 0 0.01771722129560635 7.8181938327034713e-05 0 0.017721081465319592 0.00026520443378277311 0 0.017602860267782506 0.00022286168099878886 0 0.017613120189687855 0.00015545309165268501 0 0.017634642057698571 0.00034281012313455429 0 0.017721081465319592 0.00026520443378277311 0 0.017602860267782506 0.00022286168099878886 0 0.020950226247113308 0.00086850016821343355 0 0.021311864285966844 0.00088172586315146554 0 0.021138871642762756 0.00029243178964784283 0 0.017634642057698571 0.00034281012313455429 0 0.017602860267782506 0.00022286168099878886 0 0.017425291388173263 0.00012396709857519008 0 0.017602860267782506 0.00022286168099878886 0 0.017613120189687855 0.00015545309165268501 0 0.017425291388173263 0.00012396709857519008 0 0.017634642057698571 0.00034281012313455429 0 0.017607794609039995 0.00035622160045956195 0 0.017620550169811698 0.0002898815538304351 0 0.019243726963548827 0.00048298619210860672 0 0.018438730678737355 0.0003238474613949125 0 0.017349900271011034 0.00021268685082434266 0 0.018438730678737355 0.0003238474613949125 0 0.020707182337797496 0.00061586427540262143 0 0.020722182562831117 0.00016525177434009589 0 0.021138871642762756 0.00029243178964784283 0 0.020707182337797496 0.00061586427540262143 0 0.020950226247113308 0.00086850016821343355 0 0.021138871642762756 0.00029243178964784283 0 0.020707182337797496 0.00061586427540262143 0 0.020950226247113308 0.00086850016821343355 0 0.02074257969926771 0.00105631334919536 0 0.020950226247113308 0.00086850016821343355 0 0.02074257969926771 0.00105631334919536 0 0.021109772873157417 0.0011710587181935495 0 0.017678604729847294 0.00053853569180869673 0 0.017634642057698571 0.00034281012313455429 0 0.017607794609039995 0.00035622160045956195 0 0.020950226247113308 0.00086850016821343355 0 0.021311864285966844 0.00088172586315146554 0 0.021109772873157417 0.0011710587181935495 0 0.021504057127262378 0.0014978905935543142 0 0.021311864285966844 0.00088172586315146554 0 0.021109772873157417 0.0011710587181935495 0 0.022373332466017467 0.0014701939125531913 0 0.019243726963548827 0.00048298619210860672 0 0.021187128350998233 0.0013979606857456297 0 0.021109772873157417 0.0011710587181935495 0 0.020929122216649693 0.0013802069783645336 0 0.021187128350998233 0.0013979606857456297 0 0.020929122216649693 0.0013802069783645336 0 0.021195514258148893 0.0015550638425810596 0 0.021504057127262378 0.0014978905935543142 0 0.021187128350998233 0.0013979606857456297 0 0.021109772873157417 0.0011710587181935495 0 0.02074257969926771 0.00105631334919536 0 0.021109772873157417 0.0011710587181935495 0 0.020929122216649693 0.0013802069783645336 0 0.02074257969926771 0.00105631334919536 0 0.020929122216649693 0.0013802069783645336 0 0.020527488581697388 0.0012940042141858991 0 0.026361526333964519 0.0027827089279357934 0 0.025791136585239013 0.002599497094699605 0 0.020929122216649693 0.0013802069783645336 0 0.021195514258148893 0.0015550638425810596 0 0.020457879485902938 0.0016258927307152295 0 0.030558157427574568 0.0031109125035557765 0 0.030429253793221252 0.0037586660160610595 0 0.031349424358347436 0.0036041147906894686 0 0.027418344213029244 0.0019387513959406902 0 0.027201081840956317 0.00215214126849359 0 0.027336069513286612 0.0023509524505290198 0 0.029114548967498932 0.002524097810261344 0 0.026361526333964519 0.0027827089279357934 0 0.0270637505799863 0.0023901135720167796 0 0.027201081840956317 0.00215214126849359 0 0.027336069513286612 0.0023509524505290198 0 0.022373332466017467 0.0014701939125531913 0 0.026361526333964519 0.0027827089279357934 0 0.021504057127262378 0.0014978905935543142 0 0.021187128350998233 0.0013979606857456297 0 0.021195514258148893 0.0015550638425810596 0 0.02025366772034989 0.0015065822180052296 0 0.020233855805515056 0.0015513648629490299 0 0.020457879485902938 0.0016258927307152295 0 0.020285877766783783 0.0014702683333811478 0 0.020233855805515056 0.0015513648629490299 0 0.020457879485902938 0.0016258927307152295 0 0.026280653909729688 0.0024585679473947066 0 0.025791136585239013 0.002599497094699605 0 0.032238445506191177 0.0034140467896231 0 0.031665319977900938 0.0030629873478911778 0 0.031349424358347436 0.0036041147906894686 0 0.020285877766783783 0.0014702683333811478 0 0.020457879485902938 0.0016258927307152295 0 0.020527488581697388 0.0012940042141858991 0 0.020285877766783783 0.0014702683333811478 0 0.020527488581697388 0.0012940042141858991 0 0.02027688551197392 0.00090783484652418489 0 0.020929122216649693 0.0013802069783645336 0 0.020457879485902938 0.0016258927307152295 0 0.020527488581697388 0.0012940042141858991 0 0.020269351681518569 0.0014361212079866481 0 0.020263060167279464 0.00092776679949216876 0 0.019932605559922947 0.0012694700560276244 0 0.020285877766783783 0.0014702683333811478 0 0.020235454530900695 0.00093577121077793011 0 0.019932605559922947 0.0012694700560276244 0 0.020285877766783783 0.0014702683333811478 0 0.020233855805515056 0.0015513648629490299 0 0.019932605559922947 0.0012694700560276244 0 0.019718972541620881 0.0008075689468000632 0 0.020235454530900695 0.00093577121077793011 0 0.020707182337797496 0.00061586427540262143 0 0.02074257969926771 0.00105631334919536 0 0.02027688551197392 0.00090783484652418489 0 0.02074257969926771 0.00105631334919536 0 0.020527488581697388 0.0012940042141858991 0 0.02027688551197392 0.00090783484652418489 0 0.020707182337797496 0.00061586427540262143 0 0.02027688551197392 0.00090783484652418489 0 0.020322349979124524 0.00031995148871084329 0 0.020263060167279464 0.00092776679949216876 0 0.020250336015636652 0.00037182086686405143 0 0.020707182337797496 0.00061586427540262143 0 0.020322349979124524 0.00031995148871084329 0 0.020722182562831117 0.00016525177434009589 0 0.019718972541620881 0.0008075689468000632 0 0.020235454530900695 0.00093577121077793011 0 0.019879777171217972 0.00042501378968865325 0 0.020235454530900695 0.00093577121077793011 0 0.019879777171217972 0.00042501378968865325 0 0.020214647467646823 0.00038570371227126702 0 0.019879777171217972 0.00042501378968865325 0 0.019967854812759169 0.00011709719046500394 0 0.020214647467646823 0.00038570371227126702 0 0.019967854812759169 0.00011709719046500394 0 0.020214647467646823 0.00038570371227126702 0 0.020177676130959169 -7.7392215541436553e-05 0 0.020250336015636652 0.00037182086686405143 0 0.020436620968246281 -0.00022102481972280177 0 0.020322349979124524 0.00031995148871084329 0 0.020369367230162368 -0.00024933311479763165 0 0.020722182562831117 0.00016525177434009589 0 0.020369367230162368 -0.00024933311479763165 0 0.020774579971738677 -0.00026193032895964035 0 0.020722182562831117 0.00016525177434009589 0 0.019967854812759169 0.00011709719046500394 0 0.019993943256240397 -9.8565657458581842e-05 0 0.019815497696568034 -0.00015113380232556405 0 0.019967854812759169 0.00011709719046500394 0 0.020177676130959169 -7.7392215541436553e-05 0 0.019993943256240397 -9.8565657458581842e-05 0 0.020177676130959169 -7.7392215541436553e-05 0 0.019993943256240397 -9.8565657458581842e-05 0 0.020001626494840365 -0.00023945617898807353 0 0.019993943256240397 -9.8565657458581842e-05 0 0.020001626494840365 -0.00023945617898807353 0 0.019815497696568034 -0.00015113380232556405 0 0.018623263760828537 0.00095653561471417366 0 0.018795926805032545 0.00075214120254818331 0 0.018776522461358684 0.00087345057470251367 0 0.01673477168590078 2.6116548622979202e-05 0 0.019638924714942677 0.00023706793054522907 0 0.020001626494840365 -0.00023945617898807353 0 0.019976290288668232 -0.00047855942333258755 0 0.019815497696568034 -0.00015113380232556405 0 0.020177676130959169 -7.7392215541436553e-05 0 0.020053254627221191 -0.00037803344965061866 0 0.020001626494840365 -0.00023945617898807353 0 0.020053254627221191 -0.00037803344965061866 0 0.020001626494840365 -0.00023945617898807353 0 0.019976290288668232 -0.00047855942333258755 0 0.020177676130959169 -7.7392215541436553e-05 0 0.020053254627221191 -0.00037803344965061866 0 0.020156145945562236 -0.00043322067214984089 0 0.018669522421468382 -0.00042588896965943264 0 0.019148200097252183 -0.00017289364639077614 0 0.020436620968246281 -0.00022102481972280177 0 0.018669522421468382 -0.00042588896965943264 0 0.020369367230162368 -0.00024933311479763165 0 0.02041018994195205 -0.00080819389476342201 0 0.020774579971738677 -0.00026193032895964035 0 0.017100205381723018 -0.00033615717492237277 0 0.017201120012849191 -0.00034818182720811302 0 0.01722463180514526 -0.00024791598632646286 0 0.018669522421468382 -0.00042588896965943264 0 0.017571083055194243 -0.00031531553241011614 0 0.017109628199753011 -0.00043599357138100802 0 0.01705318400779595 -0.00041403962307485814 0 0.017184770344437335 -0.00052102325457678198 0 0.020053254627221191 -0.00037803344965061866 0 0.020156145945562236 -0.00043322067214984089 0 0.02006630928297564 -0.00055380037209218878 0 0.018669522421468382 -0.00042588896965943264 0 0.016263898760229149 -0.00020894098806385305 0 0.017100205381723018 -0.00033615717492237277 0 0.017109628199753011 -0.00043599357138100802 0 0.017201120012849191 -0.00034818182720811302 0 0.017109628199753011 -0.00043599357138100802 0 0.017200961770145753 -0.0004321513489695782 0 0.017201120012849191 -0.00034818182720811302 0 0.01710828778571561 -0.00033772403098887024 0 0.017109628199753011 -0.00043599357138100802 0 0.01705318400779595 -0.00041403962307485814 0 0.016263898760229149 -0.00020894098806385305 0 0.014935559579772675 -0.0008369390833040224 0 0.013266558872789231 -0.00017466105865059548 0 0.013143363404490287 -0.00023553534330761453 0 0.013229927812289505 -9.2470646519441797e-05 0 0.013328521830001831 -0.00017743569319984248 0 0.013266558872789231 -0.00017466105865059548 0 0.013268260431642162 -0.00025892489889086057 0 0.013229927812289505 -9.2470646519441797e-05 0 0.013044351288330621 5.9037815891261552e-05 0 0.012955926431440456 -0.00019947404422647149 0 0.013143363404490287 -0.00023553534330761453 0 0.013229927812289505 -9.2470646519441797e-05 0 0.012955926431440456 -0.00019947404422647149 0 0.013266558872789231 -0.00017466105865059548 0 0.013143363404490287 -0.00023553534330761453 0 0.013268260431642162 -0.00025892489889086057 0 0.013328521830001831 -0.00017743569319984248 0 0.013266558872789231 -0.00017466105865059548 0 0.013244274558875061 -0.00010971334030282053 0 0.01673477168590078 2.6116548622979202e-05 0 0.016050201237841771 0.00030975701444955236 0 0.020053254627221191 -0.00037803344965061866 0 0.02006630928297564 -0.00055380037209218878 0 0.019976290288668232 -0.00047855942333258755 0 0.016263898760229149 -0.00020894098806385305 0 0.01673477168590078 2.6116548622979202e-05 0 0.015476816861153282 0.00052973538016097945 0 0.01673477168590078 2.6116548622979202e-05 0 0.017375222571199056 -0.00038846414772568914 0 0.017509226708413657 -0.00037074420869682431 0 0.01736054592162458 -0.00052465985458027408 0 0.017375222571199056 -0.00038846414772568914 0 0.017287450913175968 -0.0003664813930108747 0 0.017363745842359328 -0.0002810380052064478 0 0.017375222571199056 -0.00038846414772568914 0 0.017465605821595405 -0.00028873955532434899 0 0.017509226708413657 -0.00037074420869682431 0 0.017375222571199056 -0.00038846414772568914 0 0.017363745842359328 -0.0002810380052064478 0 0.017465605821595405 -0.00028873955532434899 0 0.017375222571199056 -0.00038846414772568914 0 0.017287450913175968 -0.0003664813930108747 0 0.017281941960454607 -0.00046576096574658048 0 0.017375222571199056 -0.00038846414772568914 0 0.017281941960454607 -0.00046576096574658048 0 0.01736054592162458 -0.00052465985458027408 0 0.017200961770145753 -0.0004321513489695782 0 0.017287450913175968 -0.0003664813930108747 0 0.017281941960454607 -0.00046576096574658048 0 0.017200961770145753 -0.0004321513489695782 0 0.017201120012849191 -0.00034818182720811302 0 0.017287450913175968 -0.0003664813930108747 0 0.017201120012849191 -0.00034818182720811302 0 0.017287450913175968 -0.0003664813930108747 0 0.017285714222233534 -0.00027067102210379812 0 0.017287450913175968 -0.0003664813930108747 0 0.017285714222233534 -0.00027067102210379812 0 0.017363745842359328 -0.0002810380052064478 0 0.017100205381723018 -0.00033615717492237277 0 0.01722463180514526 -0.00024791598632646286 0 0.017245401225937592 -8.8269290679186089e-05 0 0.017201120012849191 -0.00034818182720811302 0 0.017285714222233534 -0.00027067102210379812 0 0.01722463180514526 -0.00024791598632646286 0 0.017285714222233534 -0.00027067102210379812 0 0.017322441236783823 -0.00017701985452903861 0 0.017363745842359328 -0.0002810380052064478 0 0.017285714222233534 -0.00027067102210379812 0 0.01722463180514526 -0.00024791598632646286 0 0.017322441236783823 -0.00017701985452903861 0 0.01722463180514526 -0.00024791598632646286 0 0.017322441236783823 -0.00017701985452903861 0 0.017245401225937592 -8.8269290679186089e-05 0 0.017322441236783823 -0.00017701985452903861 0 0.017363745842359328 -0.0002810380052064478 0 0.01746950465952685 -0.00014891498450165359 0 0.017363745842359328 -0.0002810380052064478 0 0.017465605821595405 -0.00028873955532434899 0 0.01746950465952685 -0.00014891498450165359 0 0.01746950465952685 -0.00014891498450165359 0 0.017371009187969272 -3.2066522098803265e-05 0 0.017538171916057659 3.2002481803309247e-05 0 0.017322441236783823 -0.00017701985452903861 0 0.01746950465952685 -0.00014891498450165359 0 0.017371009187969272 -3.2066522098803265e-05 0 0.017322441236783823 -0.00017701985452903861 0 0.017407408575198409 2.8973232836065476e-05 0 0.017245401225937592 -8.8269290679186089e-05 0 0.017343122901390864 -0.00013608116803441586 0 0.017400736227757424 -6.5836565478877846e-05 0 0.020774579971738677 -0.00026193032895964035 0 0.020722182562831117 0.00016525177434009589 0 0.021138871642762756 0.00029243178964784283 0 0.017407408575198409 2.8973232836065476e-05 0 0.017245401225937592 -8.8269290679186089e-05 0 0.017472589221934214 0.00025672680233664215 0 0.019148200097252183 -0.00017289364639077614 0 0.018438730678737355 0.0003238474613949125 0 0.017613120189687855 0.00015545309165268501 0 0.017425291388173263 0.00012396709857519008 0 0.017538171916057659 3.2002481803309247e-05 0 0.017400736227757424 -6.5836565478877846e-05 0 0.018438730678737355 0.0003238474613949125 0 0.017371009187969272 -3.2066522098803265e-05 0 0.017425291388173263 0.00012396709857519008 0 0.017538171916057659 3.2002481803309247e-05 0 0.017538171916057659 3.2002481803309247e-05 0 0.01771722129560635 7.8181938327034713e-05 0 0.017614526193699236 -6.7314539678601883e-05 0 0.017613120189687855 0.00015545309165268501 0 0.017538171916057659 3.2002481803309247e-05 0 0.01771722129560635 7.8181938327034713e-05 0 0.017846489980057761 0.00017704483045623715 0 0.01771722129560635 7.8181938327034713e-05 0 0.017904251619242244 5.6946873668195311e-05 0 0.01771722129560635 7.8181938327034713e-05 0 0.017751868087103436 -9.8267202704186742e-05 0 0.017904251619242244 5.6946873668195311e-05 0 0.017751868087103436 -9.8267202704186742e-05 0 0.017614526193699236 -6.7314539678601883e-05 0 0.017594998611830896 -0.000220791321811877 0 0.01771722129560635 7.8181938327034713e-05 0 0.017751868087103436 -9.8267202704186742e-05 0 0.017614526193699236 -6.7314539678601883e-05 0 0.01746950465952685 -0.00014891498450165359 0 0.017538171916057659 3.2002481803309247e-05 0 0.017614526193699236 -6.7314539678601883e-05 0 0.01746950465952685 -0.00014891498450165359 0 0.017614526193699236 -6.7314539678601883e-05 0 0.017594998611830896 -0.000220791321811877 0 0.018009771094908741 0.00022060582079342009 0 0.017904251619242244 5.6946873668195311e-05 0 0.018113318004522268 5.8037629317627463e-05 0 0.017904251619242244 5.6946873668195311e-05 0 0.017924946821586869 -0.00012605019805386663 0 0.018113318004522268 5.8037629317627463e-05 0 0.017751868087103436 -9.8267202704186742e-05 0 0.017904251619242244 5.6946873668195311e-05 0 0.017924946821586869 -0.00012605019805386663 0 0.014527275697870067 1.8572079340985094e-05 0 0.014769763382145123 0.00033202066624714912 0 0.011146759253165075 0.00016645365579340393 0 0.011242891262437882 0.00052751856334492554 0 0.011312450045383551 0.000184537454018909 0 0.011186903924894858 -1.847435736061561e-05 0 0.011312450045383551 0.000184537454018909 0 0.011333716317013786 -8.8745813110896964e-05 0 0.011146759253165075 0.00016645365579340393 0 0.011186903924894858 -1.847435736061561e-05 0 0.011312450045383551 0.000184537454018909 0 0.014527275697870067 1.8572079340985094e-05 0 0.014437083025374827 -0.0001508654438421639 0 0.011146759253165075 0.00016645365579340393 0 0.011186903924894858 -1.847435736061561e-05 0 0.011159077518480869 -1.9450885965621168e-05 0 0.017751868087103436 -9.8267202704186742e-05 0 0.017924946821586869 -0.00012605019805386663 0 0.017725876978739608 -0.00031245097017243922 0 0.011186903924894858 -1.847435736061561e-05 0 0.011159077518480869 -1.9450885965621168e-05 0 0.011179860839880575 -7.0065813207037463e-05 0 0.011186903924894858 -1.847435736061561e-05 0 0.011179860839880575 -7.0065813207037463e-05 0 0.011192503048632353 -0.00010962109169731699 0 0.011186903924894858 -1.847435736061561e-05 0 0.011192503048632353 -0.00010962109169731699 0 0.011333716317013786 -8.8745813110896964e-05 0 0.017465605821595405 -0.00028873955532434899 0 0.017594998611830896 -0.000220791321811877 0 0.017509226708413657 -0.00037074420869682431 0 0.017594998611830896 -0.000220791321811877 0 0.017725876978739608 -0.00031245097017243922 0 0.017509226708413657 -0.00037074420869682431 0 0.017465605821595405 -0.00028873955532434899 0 0.01746950465952685 -0.00014891498450165359 0 0.017594998611830896 -0.000220791321811877 0 0.017751868087103436 -9.8267202704186742e-05 0 0.017594998611830896 -0.000220791321811877 0 0.017725876978739608 -0.00031245097017243922 0 0.011159077518480869 -1.9450885965621168e-05 0 0.01121910709903555 -6.4860050661598518e-05 0 0.011179860839880575 -7.0065813207037463e-05 0 0.014437083025374827 -0.0001508654438421639 0 0.014457403584690266 -0.00033149784728957177 0 0.017725876978739608 -0.00031245097017243922 0 0.017509226708413657 -0.00037074420869682431 0 0.017522454843006675 -0.00049110514937155618 0 0.017509226708413657 -0.00037074420869682431 0 0.017522454843006675 -0.00049110514937155618 0 0.01736054592162458 -0.00052465985458027408 0 0.01121910709903555 -6.4860050661598518e-05 0 0.011218216634221033 -4.7519500140395926e-05 0 0.011274213251373531 -3.7845240509852818e-05 0 0.01121910709903555 -6.4860050661598518e-05 0 0.011179860839880575 -7.0065813207037463e-05 0 0.011218216634221033 -4.7519500140395926e-05 0 0.011179860839880575 -7.0065813207037463e-05 0 0.011192720564483475 -4.3485283526647616e-05 0 0.011218216634221033 -4.7519500140395926e-05 0 0.010235289241592503 0.00048210596488617902 0 0.0098441263809784813 0.00049636550364042138 0 0.0098060994128983739 0.00052677788778432682 0 0.010652315251378676 0.00020362376071952416 0 0.010724542881826109 0.00050471400071969521 0 0.011192720564483475 -4.3485283526647616e-05 0 0.011218216634221033 -4.7519500140395926e-05 0 0.011246896119078732 -2.3078553487666068e-05 0 0.011192503048632353 -0.00010962109169731699 0 0.011240391413157077 -0.00014605223426709046 0 0.011185920840439388 -0.00015161478978741445 0 0.011179860839880575 -7.0065813207037463e-05 0 0.011192503048632353 -0.00010962109169731699 0 0.011183962262981949 -7.1052493886894459e-05 0 0.011192720564483475 -4.3485283526647616e-05 0 0.011183962262981949 -7.1052493886894459e-05 0 0.011162825506462857 -5.0570628721983288e-05 0 0.010652315251378676 0.00020362376071952416 0 0.011005449945002152 7.8866049048728363e-05 0 0.011179860839880575 -7.0065813207037463e-05 0 0.011192720564483475 -4.3485283526647616e-05 0 0.011183962262981949 -7.1052493886894459e-05 0 0.011192503048632353 -0.00010962109169731699 0 0.011183962262981949 -7.1052493886894459e-05 0 0.011162825506462857 -5.0570628721983288e-05 0 0.011192503048632353 -0.00010962109169731699 0 0.011195925303124401 -0.00013294922003917963 0 0.011185920840439388 -0.00015161478978741445 0 0.011236254048885268 -0.00018241664410736922 0 0.011005449945002152 7.8866049048728363e-05 0 0.011188953987489769 -0.00011432259313381236 0 0.011195925303124401 -0.00013294922003917963 0 0.011185920840439388 -0.00015161478978741445 0 0.011005449945002152 7.8866049048728363e-05 0 0.010329004837466956 0.0001886545998288015 0 0.011188953987489769 -0.00011432259313381236 0 0.011311305317306248 -0.00012387991835800273 0 0.011285354017378988 0.00018450319373571639 0 0.011160024097077587 1.3423686927786541e-05 0 0.011005449945002152 7.8866049048728363e-05 0 0.010657701170143662 0.00044048991014239598 0 0.010442615002243132 0.00031691170908242853 0 0.010671663940916598 0.00022336189440590746 0 0.010235289241592503 0.00048210596488617902 0 0.010657701170143662 0.00044048991014239598 0 0.010442615002243132 0.00031691170908242853 0 0.010235289241592503 0.00048210596488617902 0 0.010442615002243132 0.00031691170908242853 0 0.010317727936210079 9.9771583029238241e-05 0 0.0097301865602187759 0.00023825295621684339 0 0.010329004837466956 0.0001886545998288015 0 0.010442615002243132 0.00031691170908242853 0 0.010317727936210079 9.9771583029238241e-05 0 0.010671663940916598 0.00022336189440590746 0 0.0099441164410590602 3.9727861582057775e-05 0 0.010312845242142547 -0.00013673579864143334 0 0.0098780647480086713 -0.00029852514150617522 0 0.010329004837466956 0.0001886545998288015 0 0.0096872644219539051 -4.6204384954389193e-05 0 0.0092245327240631139 0.00035155226894490556 0 0.0095549695884903692 0.00044921537097528618 0 0.0095662942763640162 0.0001876241339487009 0 0.010235289241592503 0.00048210596488617902 0 0.010012590322680679 0.00023196276647068529 0 0.0098662941139551711 0.00035748085484577828 0 0.010235289241592503 0.00048210596488617902 0 0.0098441263809784813 0.00049636550364042138 0 0.0098662941139551711 0.00035748085484577828 0 0.010012590322680679 0.00023196276647068529 0 0.0098662941139551711 0.00035748085484577828 0 0.0096751039239242123 0.0002482202167291804 0 0.010235289241592503 0.00048210596488617902 0 0.010317727936210079 9.9771583029238241e-05 0 0.010012590322680679 0.00023196276647068529 0 0.0097301865602187759 0.00023825295621684339 0 0.0094347952665060804 0.0001492238491788511 0 0.010317727936210079 9.9771583029238241e-05 0 0.010012590322680679 0.00023196276647068529 0 0.0099565402369617799 -3.054035449498615e-05 0 0.010012590322680679 0.00023196276647068529 0 0.0096751039239242123 0.0002482202167291804 0 0.0099565402369617799 -3.054035449498615e-05 0 0.0096751039239242123 0.0002482202167291804 0 0.0095792099303339921 -0.00016518564506608753 0 0.0099565402369617799 -3.054035449498615e-05 0 0.0096751039239242123 0.0002482202167291804 0 0.0097318320775969767 0.00045227497260042225 0 0.0096074780991522463 0.00054867420215711209 0 0.0098662941139551711 0.00035748085484577828 0 0.0096751039239242123 0.0002482202167291804 0 0.0097318320775969767 0.00045227497260042225 0 0.0098441263809784813 0.00049636550364042138 0 0.0098662941139551711 0.00035748085484577828 0 0.0097318320775969767 0.00045227497260042225 0 0.0082536765307268493 0.00083700260299202425 0 0.008129134349965067 0.001051179096876427 0 0.0086470795376817899 0.0014972171277001741 0 0.0095883200419026038 -9.1706825298643139e-05 0 0.0093195435555482545 -0.00057722803740149179 0 0.010284743360040583 0.0003648456799837113 0 0.0096751039239242123 0.0002482202167291804 0 0.0093874297171265605 0.00012530090102065493 0 0.0096074780991522463 0.00054867420215711209 0 0.0083996470584817764 0.0002503772455392437 0 0.011212703662817149 0.00025912416798521526 0 0.0085209300979719772 0.00058779367159271501 0 0.011212703662817149 0.00025912416798521526 0 0.0096751039239242123 0.0002482202167291804 0 0.0093874297171265605 0.00012530090102065493 0 0.0095792099303339921 -0.00016518564506608753 0 0.0083996470584817764 0.0002503772455392437 0 0.0083826043653655938 -0.00065408538438820095 0 0.008129134349965067 0.001051179096876427 0 0.0076771125753610512 0.000636388279388064 0 0.0079598231196443027 0.00062691167614551714 0 0.0082536765307268493 0.00083700260299202425 0 0.008129134349965067 0.001051179096876427 0 0.0079598231196443027 0.00062691167614551714 0 0.0082885590321205016 -0.0014127168675999444 0 0.0093195435555482545 -0.00057722803740149179 0 0.0080586774561004493 -0.0017314841214699265 0 0.0079306946117108628 -0.0012658961051019563 0 0.0082885590321205016 -0.0014127168675999444 0 0.0088157918237021984 -0.0005958691915218862 0 0.0078226951119118072 -0.0016636401963041024 0 0.0090259237078449527 -0.00051212886332159784 0 0.0082885590321205016 -0.0014127168675999444 0 0.0093195435555482545 -0.00057722803740149179 0 0.0088157918237021984 -0.0005958691915218862 0 0.0078226951119118072 -0.0016636401963041024 0 0.007795887018056483 -0.00091952802323201177 0 0.006732336955740663 -0.0026107197891849193 0 0.0065273105136063369 -0.0019152555090515108 0 0.0061954143156415058 -0.0023178100868699782 0 0.0065646567638373166 -0.0027568434819485992 0 0.006732336955740663 -0.0026107197891849193 0 0.0061954143156415058 -0.0023178100868699782 0 0.0071572598602879919 -0.0018547412062772948 0 0.0080976024841048558 -0.0015469923700367667 0 0.0076332007859955479 -0.0015251457728378199 0 0.0079713049424668652 -0.0014124648277244608 0 0.0082885590321205016 -0.0014127168675999444 0 0.0074757258883096098 -0.0014304609615064579 0 0.0082885590321205016 -0.0014127168675999444 0 0.0080586774561004493 -0.0017314841214699265 0 0.0071572598602879919 -0.0018547412062772948 0 0.0078226951119118072 -0.0016636401963041024 0 0.0076332007859955479 -0.0015251457728378199 0 0.0079288426484943209 -0.0012667023443183592 0 0.0079713049424668652 -0.0014124648277244608 0 0.0078226951119118072 -0.0016636401963041024 0 0.0078204256504376107 -0.0016210835387832306 0 0.0079306946117108628 -0.0012658961051019563 0 0.0079713049424668652 -0.0014124648277244608 0 0.0082885590321205016 -0.0014127168675999444 0 0.008539382618766243 -0.0010203029104630965 0 0.0086696701703583411 -0.0004146180650041858 0 0.0090708152142714819 -0.00054905638156263036 0 0.0087248448490784697 -2.7995256355502824e-05 0 0.0083424915930472143 -0.00021962612532663904 0 0.0081598124470331126 0.00044315095608821279 0 0.008539382618766243 -0.0010203029104630965 0 0.0086696701703583411 -0.0004146180650041858 0 0.0083072318363389217 -0.00021564406366854106 0 0.0083647766026453668 -0.00071297739375379438 0 0.007795887018056483 -0.00091952802323201177 0 0.0086696701703583411 -0.0004146180650041858 0 0.0087248448490784697 -2.7995256355502824e-05 0 0.0088997483413142103 -0.00027147450444089976 0 0.0086696701703583411 -0.0004146180650041858 0 0.0087248448490784697 -2.7995256355502824e-05 0 0.0083424915930472143 -0.00021962612532663904 0 0.0095883200419026038 -9.1706825298643139e-05 0 0.0090708152142714819 -0.00054905638156263036 0 0.0091350527220468766 -9.8285270868476749e-05 0 0.0095883200419026038 -9.1706825298643139e-05 0 0.0093195435555482545 -0.00057722803740149179 0 0.0088157918237021984 -0.0005958691915218862 0 0.0094590343135338376 -0.00017431731956964145 0 0.0090259237078449527 -0.00051212886332159784 0 0.0086696701703583411 -0.0004146180650041858 0 0.0090708152142714819 -0.00054905638156263036 0 0.0088997483413142103 -0.00027147450444089976 0 0.0090708152142714819 -0.00054905638156263036 0 0.0088997483413142103 -0.00027147450444089976 0 0.0091350527220468766 -9.8285270868476749e-05 0 0.0087248448490784697 -2.7995256355502824e-05 0 0.0088997483413142103 -0.00027147450444089976 0 0.0091350527220468766 -9.8285270868476749e-05 0 0.0087248448490784697 -2.7995256355502824e-05 0 0.0091350527220468766 -9.8285270868476749e-05 0 0.0091345289593435502 0.00039963314889236831 0 0.0095883200419026038 -9.1706825298643139e-05 0 0.0091350527220468766 -9.8285270868476749e-05 0 0.0091345289593435502 0.00039963314889236831 0 0.013358347142024257 -0.00056297997265375454 0 0.013357544121870308 -0.00037712364877383732 0 0.013514540300388648 -0.00048212108057009212 0 0.011652492235522735 -5.1443584009813337e-05 0 0.0093103278121997746 -0.001015335744809998 0 0.0087248448490784697 -2.7995256355502824e-05 0 0.0091345289593435502 0.00039963314889236831 0 0.0081598124470331126 0.00044315095608821279 0 0.007795887018056483 -0.00091952802323201177 0 0.0093103278121997746 -0.001015335744809998 0 0.013358347142024257 -0.00056297997265375454 0 0.013047726783054011 -0.00055723831359104001 0 0.01317282870303405 -0.00039656148272327224 0 0.013047726783054011 -0.00055723831359104001 0 0.01317282870303405 -0.00039656148272327224 0 0.012955926431440456 -0.00019947404422647149 0 0.013143363404490287 -0.00023553534330761453 0 0.01317282870303405 -0.00039656148272327224 0 0.013268260431642162 -0.00025892489889086057 0 0.01317282870303405 -0.00039656148272327224 0 0.013268260431642162 -0.00025892489889086057 0 0.013357544121870308 -0.00037712364877383732 0 0.013143363404490287 -0.00023553534330761453 0 0.01317282870303405 -0.00039656148272327224 0 0.012955926431440456 -0.00019947404422647149 0 0.0133145275235314 -0.00019759363028923704 0 0.013357544121870308 -0.00037712364877383732 0 0.013487358929412189 -0.00035709259870575169 0 0.016263898760229149 -0.00020894098806385305 0 0.015313347844296447 -0.00044966493253385315 0 0.013357544121870308 -0.00037712364877383732 0 0.013487358929412189 -0.00035709259870575169 0 0.013514540300388648 -0.00048212108057009212 0 0.013358347142024257 -0.00056297997265375454 0 0.01317282870303405 -0.00039656148272327224 0 0.013357544121870308 -0.00037712364877383732 0 0.0133145275235314 -0.00019759363028923704 0 0.013268260431642162 -0.00025892489889086057 0 0.013357544121870308 -0.00037712364877383732 0 0.017109628199753011 -0.00043599357138100802 0 0.017200961770145753 -0.0004321513489695782 0 0.017184770344437335 -0.00052102325457678198 0 0.015313347844296447 -0.00044966493253385315 0 0.014712966262719812 -0.00033302007143242644 0 0.013487358929412189 -0.00035709259870575169 0 0.013655297225811497 -0.0004990880082251807 0 0.013514540300388648 -0.00048212108057009212 0 0.017200961770145753 -0.0004321513489695782 0 0.017184770344437335 -0.00052102325457678198 0 0.017281941960454607 -0.00046576096574658048 0 0.017184770344437335 -0.00052102325457678198 0 0.01728272877441598 -0.00053284794862547573 0 0.017301373821079321 -0.00061757214363349436 0 0.017184770344437335 -0.00052102325457678198 0 0.01728272877441598 -0.00053284794862547573 0 0.017281941960454607 -0.00046576096574658048 0 0.014457403584690266 -0.00033149784728957177 0 0.013612417990018149 0.00016560878422224314 0 0.017522454843006675 -0.00049110514937155618 0 0.01736054592162458 -0.00052465985458027408 0 0.017291794093468003 -0.00068547356921441077 0 0.01728272877441598 -0.00053284794862547573 0 0.017281941960454607 -0.00046576096574658048 0 0.01736054592162458 -0.00052465985458027408 0 0.017150034402232256 -0.00023180336139616177 0 0.014712966262719812 -0.00033302007143242644 0 0.01728272877441598 -0.00053284794862547573 0 0.01736054592162458 -0.00052465985458027408 0 0.017301373821079321 -0.00061757214363349436 0 0.011218216634221033 -4.7519500140395926e-05 0 0.011274213251373531 -3.7845240509852818e-05 0 0.011246896119078732 -2.3078553487666068e-05 0 0.01736054592162458 -0.00052465985458027408 0 0.017291794093468003 -0.00068547356921441077 0 0.017265456062075552 -0.00066584706593788212 0 0.013612417990018149 0.00016560878422224314 0 0.014712966262719812 -0.00033302007143242644 0 0.014712966262719812 -0.00033302007143242644 0 0.011212703662817149 0.00025912416798521526 0 0.013472750258294365 0.00052313949826738356 0 0.013080768165932552 0.00082483358846519939 0 0.012650150055140582 -0.00033130518159909004 0 0.013612417990018149 0.00016560878422224314 0 0.010724542881826109 0.00050471400071969521 0 0.0098441263809784813 0.00049636550364042138 0 0.0097318320775969767 0.00045227497260042225 0 0.0098052151154541852 0.00052835990311362777 0 0.010508144591519473 0.00060415815968555984 0 0.010724542881826109 0.00050471400071969521 0 0.010724542881826109 0.00050471400071969521 0 0.011212703662817149 0.00025912416798521526 0 0.0097318320775969767 0.00045227497260042225 0 0.0098052151154541852 0.00052835990311362777 0 0.0096074780991522463 0.00054867420215711209 0 0.011975013820802271 0.00012084734040573996 0 0.011467109508797592 0.00051110647428327476 0 0.012277730377995124 0.00043954045852890564 0 0.013612417990018149 0.00016560878422224314 0 0.011212703662817149 0.00025912416798521526 0 0.0095883200419026038 -9.1706825298643139e-05 0 0.0091345289593435502 0.00039963314889236831 0 0.010284743360040583 0.0003648456799837113 0 0.013358347142024257 -0.00056297997265375454 0 0.013623075003661642 -0.00057255661636091933 0 0.013514540300388648 -0.00048212108057009212 0 0.011652492235522735 -5.1443584009813337e-05 0 0.011212703662817149 0.00025912416798521526 0 0.013655297225811497 -0.0004990880082251807 0 0.013623075003661642 -0.00057255661636091933 0 0.013514540300388648 -0.00048212108057009212 0 0.013148389779351703 -5.5979537010323252e-07 0 0.013693945094443964 -0.00021941302602201533 0 0.014986277439400154 -1.1819112563694309e-07 0 0.013148389779351703 -5.5979537010323252e-07 0 0.013693945094443964 -0.00021941302602201533 0 0.012579333435568654 -0.00027177018389632965 0 0.013693945094443964 -0.00021941302602201533 0 0.012685646791979329 -0.00030678675811386647 0 0.012579333435568654 -0.00027177018389632965 0 0.013693945094443964 -0.00021941302602201533 0 0.014986277439400154 -1.1819112563694309e-07 0 0.015018518537706464 -5.5752224730749551e-05 0 0.014986277439400154 -1.1819112563694309e-07 0 0.01682514121364153 -1.0377704895822429e-06 0 0.015018518537706464 -5.5752224730749551e-05 0 0.016100811295489924 0.00028447044773402378 0 0.01682514121364153 -1.0377704895822429e-06 0 0.015018518537706464 -5.5752224730749551e-05 0 0.016100811295489924 0.00028447044773402378 0 0.015018518537706464 -5.5752224730749551e-05 0 0.014116840992409301 0.00058704638464960679 0 0.013693945094443964 -0.00021941302602201533 0 0.015018518537706464 -5.5752224730749551e-05 0 0.013558046300755074 -7.8116597714092138e-05 0 0.013558046300755074 -7.8116597714092138e-05 0 0.014116840992409301 0.00058704638464960679 0 0.013084516719305991 0.00027591729008385508 0 0.015018518537706464 -5.5752224730749551e-05 0 0.013558046300755074 -7.8116597714092138e-05 0 0.014116840992409301 0.00058704638464960679 0 0.012798985135622868 0.00081826927119850749 0 0.014116840992409301 0.00058704638464960679 0 0.013084516719305991 0.00027591729008385508 0 0.013558046300755074 -7.8116597714092138e-05 0 0.013084516719305991 0.00027591729008385508 0 0.012628329346865554 -7.7851263047652003e-05 0 0.013084516719305991 0.00027591729008385508 0 0.012628329346865554 -7.7851263047652003e-05 0 0.012382230574880275 0.00031243128526162298 0 0.012628329346865554 -7.7851263047652003e-05 0 0.012685646791979329 -0.00030678675811386647 0 0.012099072334911068 -0.00024596878658157461 0 0.013558046300755074 -7.8116597714092138e-05 0 0.012628329346865554 -7.7851263047652003e-05 0 0.012685646791979329 -0.00030678675811386647 0 0.013693945094443964 -0.00021941302602201533 0 0.013558046300755074 -7.8116597714092138e-05 0 0.012685646791979329 -0.00030678675811386647 0 0.012685646791979329 -0.00030678675811386647 0 0.012099072334911068 -0.00024596878658157461 0 0.01196037975809144 -0.00036016558713424657 0 0.012099072334911068 -0.00024596878658157461 0 0.011700285510679889 -0.00019835237945993112 0 0.011958754608432449 -2.5732864114225009e-05 0 0.012099072334911068 -0.00024596878658157461 0 0.011700285510679889 -0.00019835237945993112 0 0.011620366548707524 -0.00030789094783682846 0 0.011700285510679889 -0.00019835237945993112 0 0.011958754608432449 -2.5732864114225009e-05 0 0.011551800661423195 -0.00010019613952777357 0 0.011958754608432449 -2.5732864114225009e-05 0 0.011584422903522049 0.00011951355404495182 0 0.011551800661423195 -0.00010019613952777357 0 0.012628329346865554 -7.7851263047652003e-05 0 0.012099072334911068 -0.00024596878658157461 0 0.011958754608432449 -2.5732864114225009e-05 0 0.012628329346865554 -7.7851263047652003e-05 0 0.011958754608432449 -2.5732864114225009e-05 0 0.012382230574880275 0.00031243128526162298 0 0.012798985135622868 0.00081826927119850749 0 0.012382230574880275 0.00031243128526162298 0 0.01205506790065387 0.00071300863373357723 0 0.012798985135622868 0.00081826927119850749 0 0.013084516719305991 0.00027591729008385508 0 0.012382230574880275 0.00031243128526162298 0 0.01205506790065387 0.00071300863373357723 0 0.011945205767391288 0.00025889512756029954 0 0.011735098377219005 0.00044928589528120839 0 0.012382230574880275 0.00031243128526162298 0 0.01205506790065387 0.00071300863373357723 0 0.011945205767391288 0.00025889512756029954 0 0.011958754608432449 -2.5732864114225009e-05 0 0.012382230574880275 0.00031243128526162298 0 0.011945205767391288 0.00025889512756029954 0 0.011958754608432449 -2.5732864114225009e-05 0 0.011945205767391288 0.00025889512756029954 0 0.011584422903522049 0.00011951355404495182 0 0.011735098377219005 0.00044928589528120839 0 0.011494362141502332 0.00039165585329034689 0 0.011584422903522049 0.00011951355404495182 0 0.011945205767391288 0.00025889512756029954 0 0.011735098377219005 0.00044928589528120839 0 0.011584422903522049 0.00011951355404495182 0 0.01162883127509391 0.00078432927968964661 0 0.01205506790065387 0.00071300863373357723 0 0.011735098377219005 0.00044928589528120839 0 0.01162883127509391 0.00078432927968964661 0 0.011735098377219005 0.00044928589528120839 0 0.011494362141502332 0.00039165585329034689 0 0.01162883127509391 0.00078432927968964661 0 0.011242891262437882 0.00052751856334492554 0 0.011494362141502332 0.00039165585329034689 0 0.011242891262437882 0.00052751856334492554 0 0.011312450045383551 0.000184537454018909 0 0.011494362141502332 0.00039165585329034689 0 0.011312450045383551 0.000184537454018909 0 0.011494362141502332 0.00039165585329034689 0 0.011584422903522049 0.00011951355404495182 0 0.011312450045383551 0.000184537454018909 0 0.011584422903522049 0.00011951355404495182 0 0.011333716317013786 -8.8745813110896964e-05 0 0.011584422903522049 0.00011951355404495182 0 0.011551800661423195 -0.00010019613952777357 0 0.011333716317013786 -8.8745813110896964e-05 0 0.011551800661423195 -0.00010019613952777357 0 0.011333716317013786 -8.8745813110896964e-05 0 0.0113519770653946 -0.00019574694414483955 0 0.011700285510679889 -0.00019835237945993112 0 0.011551800661423195 -0.00010019613952777357 0 0.0113519770653946 -0.00019574694414483955 0 0.011333716317013786 -8.8745813110896964e-05 0 0.011240391413157077 -0.00014605223426709046 0 0.0113519770653946 -0.00019574694414483955 0 0.011192503048632353 -0.00010962109169731699 0 0.011333716317013786 -8.8745813110896964e-05 0 0.011240391413157077 -0.00014605223426709046 0 0.011240391413157077 -0.00014605223426709046 0 0.0113519770653946 -0.00019574694414483955 0 0.011174573124060659 -0.00016445077187400139 0 0.0113519770653946 -0.00019574694414483955 0 0.011067031162879493 -0.00013125823820042253 0 0.011240581615746302 -0.00020088378522083338 0 0.0113519770653946 -0.00019574694414483955 0 0.011067031162879493 -0.00013125823820042253 0 0.011174573124060659 -0.00016445077187400139 0 0.011067031162879493 -0.00013125823820042253 0 0.011075926226113305 -0.00013986778611034138 0 0.011174573124060659 -0.00016445077187400139 0 0.011075926226113305 -0.00013986778611034138 0 0.011174573124060659 -0.00016445077187400139 0 0.011185920840439388 -0.00015161478978741445 0 0.011240391413157077 -0.00014605223426709046 0 0.011174573124060659 -0.00016445077187400139 0 0.011185920840439388 -0.00015161478978741445 0 0.011188953987489769 -0.00011432259313381236 0 0.011075926226113305 -0.00013986778611034138 0 0.011185920840439388 -0.00015161478978741445 0 0.010329004837466956 0.0001886545998288015 0 0.010875888118095171 2.8535130966798384e-05 0 0.0099441164410590602 3.9727861582057775e-05 0 0.010819595150282142 -3.709360239763487e-06 0 0.010312845242142547 -0.00013673579864143334 0 0.011188953987489769 -0.00011432259313381236 0 0.011285354017378988 0.00018450319373571639 0 0.010819595150282142 -3.709360239763487e-06 0 0.010819595150282142 -3.709360239763487e-06 0 0.010312845242142547 -0.00013673579864143334 0 0.010856255865927063 -8.497239446445463e-05 0 0.011188953987489769 -0.00011432259313381236 0 0.011075926226113305 -0.00013986778611034138 0 0.010819595150282142 -3.709360239763487e-06 0 0.011067031162879493 -0.00013125823820042253 0 0.011075926226113305 -0.00013986778611034138 0 0.010819595150282142 -3.709360239763487e-06 0 0.010312845242142547 -0.00013673579864143334 0 0.010303904059110315 -0.00021879302115538081 0 0.0098958518905157 -0.00029796478604905452 0 0.010312845242142547 -0.00013673579864143334 0 0.010856255865927063 -8.497239446445463e-05 0 0.010303904059110315 -0.00021879302115538081 0 0.010856255865927063 -8.497239446445463e-05 0 0.010795863655641899 -0.00021653546298198756 0 0.010303904059110315 -0.00021879302115538081 0 0.011067031162879493 -0.00013125823820042253 0 0.010856255865927063 -8.497239446445463e-05 0 0.011240581615746302 -0.00020088378522083338 0 0.011067031162879493 -0.00013125823820042253 0 0.010819595150282142 -3.709360239763487e-06 0 0.010856255865927063 -8.497239446445463e-05 0 0.011138315593597998 -0.00018730965322524248 0 0.011391269719789199 -0.00030576032548794706 0 0.011240581615746302 -0.00020088378522083338 0 0.010856255865927063 -8.497239446445463e-05 0 0.011138315593597998 -0.00018730965322524248 0 0.011240581615746302 -0.00020088378522083338 0 0.011138315593597998 -0.00018730965322524248 0 0.01113572634477283 -0.00021620203343225512 0 0.010795863655641899 -0.00021653546298198756 0 0.010856255865927063 -8.497239446445463e-05 0 0.011138315593597998 -0.00018730965322524248 0 0.010795863655641899 -0.00021653546298198756 0 0.01113572634477283 -0.00021620203343225512 0 0.011200489884374713 -0.00025398337582453674 0 0.011195587765129406 -2.0957581796850302e-06 0 0.011138315593597998 -0.00018730965322524248 0 0.01113572634477283 -0.00021620203343225512 0 0.011200489884374713 -0.00025398337582453674 0 0.011138315593597998 -0.00018730965322524248 0 0.011200489884374713 -0.00025398337582453674 0 0.011391269719789199 -0.00030576032548794706 0 0.011391269719789199 -0.00030576032548794706 0 0.011620366548707524 -0.00030789094783682846 0 0.011545373145453538 -0.00038995311744387522 0 0.011391269719789199 -0.00030576032548794706 0 0.011240581615746302 -0.00020088378522083338 0 0.011620366548707524 -0.00030789094783682846 0 0.0113519770653946 -0.00019574694414483955 0 0.011240581615746302 -0.00020088378522083338 0 0.011620366548707524 -0.00030789094783682846 0 0.011700285510679889 -0.00019835237945993112 0 0.0113519770653946 -0.00019574694414483955 0 0.011620366548707524 -0.00030789094783682846 0 0.012099072334911068 -0.00024596878658157461 0 0.011620366548707524 -0.00030789094783682846 0 0.01196037975809144 -0.00036016558713424657 0 0.01196037975809144 -0.00036016558713424657 0 0.011893754446294504 -0.00037815431237855576 0 0.011545373145453538 -0.00038995311744387522 0 0.011620366548707524 -0.00030789094783682846 0 0.01196037975809144 -0.00036016558713424657 0 0.011545373145453538 -0.00038995311744387522 0 0.012685646791979329 -0.00030678675811386647 0 0.011893754446294504 -0.00037815431237855576 0 0.012579333435568654 -0.00027177018389632965 0 0.012685646791979329 -0.00030678675811386647 0 0.01196037975809144 -0.00036016558713424657 0 0.011893754446294504 -0.00037815431237855576 0 0.011893754446294504 -0.00037815431237855576 0 0.011100979722234235 -0.00040629395893729741 0 0.011537099000461419 -0.00029235190243763297 0 0.011893754446294504 -0.00037815431237855576 0 0.011545373145453538 -0.00038995311744387522 0 0.011100979722234235 -0.00040629395893729741 0 0.011200489884374713 -0.00025398337582453674 0 0.011391269719789199 -0.00030576032548794706 0 0.011100979722234235 -0.00040629395893729741 0 0.011391269719789199 -0.00030576032548794706 0 0.011545373145453538 -0.00038995311744387522 0 0.011100979722234235 -0.00040629395893729741 0 0.011200489884374713 -0.00025398337582453674 0 0.010755717342579635 -0.000226574518645142 0 0.011195587765129406 -2.0957581796850302e-06 0 0.011200489884374713 -0.00025398337582453674 0 0.010755717342579635 -0.000226574518645142 0 0.011100979722234235 -0.00040629395893729741 0 0.011100979722234235 -0.00040629395893729741 0 0.010357653957830688 -0.0002319054829220349 0 0.0097942595008335531 -9.1697652192223661e-05 0 0.010755717342579635 -0.000226574518645142 0 0.011100979722234235 -0.00040629395893729741 0 0.0097942595008335531 -9.1697652192223661e-05 0 0.011100979722234235 -0.00040629395893729741 0 0.010357653957830688 -0.0002319054829220349 0 0.011537099000461419 -0.00029235190243763297 0 0.010357653957830688 -0.0002319054829220349 0 0.0091331852680683473 -8.1513460137058654e-05 0 0.0097942595008335531 -9.1697652192223661e-05 0 0.010357653957830688 -0.0002319054829220349 0 0.0094722692153261286 -2.0965280009487626e-07 0 0.0091331852680683473 -8.1513460137058654e-05 0 0.010357653957830688 -0.0002319054829220349 0 0.0094722692153261286 -2.0965280009487626e-07 0 0.011310118317958475 -4.9920374266442328e-07 0 0.010357653957830688 -0.0002319054829220349 0 0.011310118317958475 -4.9920374266442328e-07 0 0.011537099000461419 -0.00029235190243763297 0 0.013148389779351703 -5.5979537010323252e-07 0 0.011310118317958475 -4.9920374266442328e-07 0 0.011537099000461419 -0.00029235190243763297 0 0.011893754446294504 -0.00037815431237855576 0 0.011537099000461419 -0.00029235190243763297 0 0.012579333435568654 -0.00027177018389632965 0 0.013148389779351703 -5.5979537010323252e-07 0 0.011537099000461419 -0.00029235190243763297 0 0.012579333435568654 -0.00027177018389632965 0 0.0057903228708699184 -1.30453260755319e-06 0 0.0048800924317023023 -0.00019744497672027211 0 0.003761672918875325 1.0126239860066819e-06 0 0.0051581984089177036 -0.00036913970672200317 0 0.0057903228708699184 -1.30453260755319e-06 0 0.0048800924317023023 -0.00019744497672027211 0 0.0051581984089177036 -0.00036913970672200317 0 0.0055796482295523957 6.836678976119015e-05 0 0.0048800924317023023 -0.00019744497672027211 0 0.0079184641596874491 0.00041484244227653095 0 0.0079869675791796099 9.5517286382662932e-05 0 0.0075312054315789167 -1.3956059364114391e-05 0 0.0065328391319935935 -8.3622201543495392e-07 0 0.0057950287630466829 -1.4787940983362475e-08 0 0.0079184641596874491 0.00041484244227653095 0 0.0075312054315789167 -1.3956059364114391e-05 0 0.0057987721887961642 1.9126167003185231e-06 0 0.0075312054315789167 -1.3956059364114391e-05 0 0.0057987721887961642 1.9126167003185231e-06 0 0.007633189723119326 -5.7430332170304436e-07 0 0.0075312054315789167 -1.3956059364114391e-05 0 0.007633189723119326 -5.7430332170304436e-07 0 0.0084719871424756964 0.00011755202850160616 0 0.007633189723119326 -5.7430332170304436e-07 0 0.0091331852680683473 -8.1513460137058654e-05 0 0.0084719871424756964 0.00011755202850160616 0 0.0094722692153261286 -2.0965280009487626e-07 0 0.007633189723119326 -5.7430332170304436e-07 0 0.0091331852680683473 -8.1513460137058654e-05 0 0.0091331852680683473 -8.1513460137058654e-05 0 0.0097942595008335531 -9.1697652192223661e-05 0 0.0084719871424756964 0.00011755202850160616 0 0.0079869675791796099 9.5517286382662932e-05 0 0.0075312054315789167 -1.3956059364114391e-05 0 0.0084719871424756964 0.00011755202850160616 0 0.0079869675791796099 9.5517286382662932e-05 0 0.0084719871424756964 0.00011755202850160616 0 0.0076777120565724609 0.00025806715327887663 0 0.0097942595008335531 -9.1697652192223661e-05 0 0.0084719871424756964 0.00011755202850160616 0 0.0096695231322347537 4.1742114006432334e-05 0 0.0084516696034562539 0.00011276547391033033 0 0.0086424903265065016 0.00012532139253447155 0 0.0098126710364265634 -7.5691799021638178e-05 0 0.010319637262944874 1.5832409625842666e-05 0 0.0097942595008335531 -9.1697652192223661e-05 0 0.0095369934196398876 0.00011000934809660339 0 0.0096695231322347537 4.1742114006432334e-05 0 0.010755717342579635 -0.000226574518645142 0 0.0097942595008335531 -9.1697652192223661e-05 0 0.011195587765129406 -2.0957581796850302e-06 0 0.0095369934196398876 0.00011000934809660339 0 0.0096695231322347537 4.1742114006432334e-05 0 0.0092102600898368858 -0.00023876105481839723 0 0.0086424903265065016 0.00012532139253447155 0 0.0083672750700603191 -0.0001513715515261172 0 0.0076777120565724609 0.00025806715327887663 0 0.0074847424019734762 5.2492726864201462e-05 0 0.007439042880833851 -0.00010667869326519399 0 0.0076777120565724609 0.00025806715327887663 0 0.0074847424019734762 5.2492726864201462e-05 0 0.007791537378874976 0.0001327857832525804 0 0.0079869675791796099 9.5517286382662932e-05 0 0.0076777120565724609 0.00025806715327887663 0 0.007791537378874976 0.0001327857832525804 0 0.0079184641596874491 0.00041484244227653095 0 0.0079869675791796099 9.5517286382662932e-05 0 0.007791537378874976 0.0001327857832525804 0 0.0079184641596874491 0.00041484244227653095 0 0.007791537378874976 0.0001327857832525804 0 0.007678098503066051 -1.0242154484855221e-05 0 0.0051581984089177036 -0.00036913970672200317 0 0.0063098566645186814 -0.00038327175473584801 0 0.0055796482295523957 6.836678976119015e-05 0 0.0065328391319935935 -8.3622201543495392e-07 0 0.0069850591287198855 -0.00013833917072292469 0 0.0074847424019734762 5.2492726864201462e-05 0 0.007791537378874976 0.0001327857832525804 0 0.007678098503066051 -1.0242154484855221e-05 0 0.0074847424019734762 5.2492726864201462e-05 0 0.007678098503066051 -1.0242154484855221e-05 0 0.0073154906026205091 8.9208296072373978e-05 0 0.0069850591287198855 -0.00013833917072292469 0 0.0073047733780504239 3.5014452238257605e-05 0 0.0074847424019734762 5.2492726864201462e-05 0 0.0073154906026205091 8.9208296072373978e-05 0 0.0075509849628828934 0.00010987769127607178 0 0.0075509849628828934 0.00010987769127607178 0 0.0077715789878516307 0.00039743976983744615 0 0.0087233890854844839 -0.00016206789907165277 0 0.0073154906026205091 8.9208296072373978e-05 0 0.0075509849628828934 0.00010987769127607178 0 0.0077715789878516307 0.00039743976983744615 0 0.0092102600898368858 -0.00023876105481839723 0 0.0090502521961466423 -0.00014974701202337561 0 0.0087233890854844839 -0.00016206789907165277 0 0.0075509849628828934 0.00010987769127607178 0 0.007439042880833851 -0.00010667869326519399 0 0.0087233890854844839 -0.00016206789907165277 0 0.0083672750700603191 -0.0001513715515261172 0 0.0087207139908482365 -0.00015081150729536689 0 0.0074847424019734762 5.2492726864201462e-05 0 0.0075509849628828934 0.00010987769127607178 0 0.007439042880833851 -0.00010667869326519399 0 0.0095369934196398876 0.00011000934809660339 0 0.0092102600898368858 -0.00023876105481839723 0 0.0090191657603907894 -0.00010097453516538671 0 0.010319637262944874 1.5832409625842666e-05 0 0.010010409330912207 -0.00027125116614543207 0 0.01113572634477283 -0.00021620203343225512 0 0.011195587765129406 -2.0957581796850302e-06 0 0.010987601734633548 -0.0004961618841182638 0 0.01113572634477283 -0.00021620203343225512 0 0.010987601734633548 -0.0004961618841182638 0 0.010795863655641899 -0.00021653546298198756 0 0.0092102600898368858 -0.00023876105481839723 0 0.0090191657603907894 -0.00010097453516538671 0 0.0090502521961466423 -0.00014974701202337561 0 0.010010409330912207 -0.00027125116614543207 0 0.0096601104397406219 -0.00037690141562370273 0 0.0090191657603907894 -0.00010097453516538671 0 0.0090502521961466423 -0.00014974701202337561 0 0.0095992664832541558 -0.00038251024612556076 0 0.010795863655641899 -0.00021653546298198756 0 0.010303904059110315 -0.00021879302115538081 0 0.0095992664832541558 -0.00038251024612556076 0 0.010987601734633548 -0.0004961618841182638 0 0.010795863655641899 -0.00021653546298198756 0 0.0095992664832541558 -0.00038251024612556076 0 0.010312845242142547 -0.00013673579864143334 0 0.0098958518905157 -0.00029796478604905452 0 0.0098780647480086713 -0.00029852514150617522 0 0.010303904059110315 -0.00021879302115538081 0 0.0098958518905157 -0.00029796478604905452 0 0.0095992664832541558 -0.00038251024612556076 0 0.0095992664832541558 -0.00038251024612556076 0 0.0092938736959037975 -0.00014146802690999833 0 0.0095381006808310312 -0.00020491963006176973 0 0.0098958518905157 -0.00029796478604905452 0 0.0095992664832541558 -0.00038251024612556076 0 0.0095381006808310312 -0.00020491963006176973 0 0.0090502521961466423 -0.00014974701202337561 0 0.0095992664832541558 -0.00038251024612556076 0 0.0092938736959037975 -0.00014146802690999833 0 0.0092938736959037975 -0.00014146802690999833 0 0.0087233890854844839 -0.00016206789907165277 0 0.0091004933796413334 5.6681245643878727e-05 0 0.0092938736959037975 -0.00014146802690999833 0 0.0091004933796413334 5.6681245643878727e-05 0 0.0092852831954597943 0.00013021798595523368 0 0.0090502521961466423 -0.00014974701202337561 0 0.0092938736959037975 -0.00014146802690999833 0 0.0087233890854844839 -0.00016206789907165277 0 0.0077715789878516307 0.00039743976983744615 0 0.0087233890854844839 -0.00016206789907165277 0 0.0091004933796413334 5.6681245643878727e-05 0 0.0091004933796413334 5.6681245643878727e-05 0 0.0091392231629700438 0.00036686884851126755 0 0.0092852831954597943 0.00013021798595523368 0 0.0077715789878516307 0.00039743976983744615 0 0.0091004933796413334 5.6681245643878727e-05 0 0.0091392231629700438 0.00036686884851126755 0 0.0070890510321283476 0.00038509758636244145 0 0.0072362325969443598 0.0003823348621596512 0 0.0069533133790391005 0.00049820832419624698 0 0.0070890510321283476 0.00038509758636244145 0 0.0069533133790391005 0.00049820832419624698 0 0.0072067235353286321 0.00034008926142043539 0 0.0077715789878516307 0.00039743976983744615 0 0.0070890510321283476 0.00038509758636244145 0 0.0072362325969443598 0.0003823348621596512 0 0.0077715789878516307 0.00039743976983744615 0 0.0072362325969443598 0.0003823348621596512 0 0.0072839407158372766 0.0003643996888881451 0 0.0077759459706658709 0.00038869816305304083 0 0.0080972924487231375 0.00035247735148408155 0 0.0072839407158372766 0.0003643996888881451 0 0.0071645759838092574 0.00034635298531563618 0 0.0070692149543546256 0.00032183147982057343 0 0.0072362325969443598 0.0003823348621596512 0 0.0072839407158372766 0.0003643996888881451 0 0.0071645759838092574 0.00034635298531563618 0 0.0071645759838092574 0.00034635298531563618 0 0.0069533133790391005 0.00049820832419624698 0 0.0070952086243178366 0.00013088423425357474 0 0.0069533133790391005 0.00049820832419624698 0 0.0063129825102407906 -4.3635789217537688e-05 0 0.0056465082477008969 0.00029839787129963644 0 0.0072362325969443598 0.0003823348621596512 0 0.0071645759838092574 0.00034635298531563618 0 0.0069533133790391005 0.00049820832419624698 0 0.0069533133790391005 0.00049820832419624698 0 0.0063129825102407906 -4.3635789217537688e-05 0 0.0070952086243178366 0.00013088423425357474 0 0.0063129825102407906 -4.3635789217537688e-05 0 0.0070952086243178366 0.00013088423425357474 0 0.0063254090744775263 -0.00058144304923056121 0 0.0070952086243178366 0.00013088423425357474 0 0.0063254090744775263 -0.00058144304923056121 0 0.0064062342995762104 -0.0010654041911368798 0 0.0070952086243178366 0.00013088423425357474 0 0.0064062342995762104 -0.0010654041911368798 0 0.0066980205477997204 -0.0019018581986315073 0 0.0070952086243178366 0.00013088423425357474 0 0.006855434981337968 0.00039788446462970687 0 0.0066879349654393131 0.00050787642530959471 0 0.0063254090744775263 -0.00058144304923056121 0 0.0064062342995762104 -0.0010654041911368798 0 0.0057200584732446059 -0.0011717118481428281 0 0.0070091358972925247 0.00015366223280383789 0 0.0069399666537729937 -0.0010720078285830542 0 0.006855434981337968 0.00039788446462970687 0 0.0067899053133109403 0.00043641611977205308 0 0.0066879349654393131 0.00050787642530959471 0 0.006855434981337968 0.00039788446462970687 0 0.0068198174821225794 0.00041782459955008131 0 0.0067899053133109403 0.00043641611977205308 0 0.0067676211174090969 0.00039255666417248758 0 0.0067907550988465827 0.00041126210526228367 0 0.0068198174821225794 0.00041782459955008131 0 0.0067676211174090969 0.00039255666417248758 0 0.0068198174821225794 0.00041782459955008131 0 0.0067899053133109403 0.00043641611977205308 0 0.0067676211174090969 0.00039255666417248758 0 0.0067899053133109403 0.00043641611977205308 0 0.0066879349654393131 0.00050787642530959471 0 0.0064062342995762104 -0.0010654041911368798 0 0.0066980205477997204 -0.0019018581986315073 0 0.0060240409533394634 -0.0018502249126176652 0 0.0070952086243178366 0.00013088423425357474 0 0.006855434981337968 0.00039788446462970687 0 0.0068963799546779593 0.00039860287900553927 0 0.0068198828674879749 0.00043498312615912368 0 0.0068300825562026971 0.0004446600400791996 0 0.0068597560287084894 0.00042461643090086718 0 0.0068198828674879749 0.00043498312615912368 0 0.0068107417124704693 0.00042454549495795014 0 0.0068597560287084894 0.00042461643090086718 0 0.0068107417124704693 0.00042454549495795014 0 0.0068198174821225794 0.00041782459955008131 0 0.0068963799546779593 0.00039860287900553927 0 0.006855434981337968 0.00039788446462970687 0 0.0068198174821225794 0.00041782459955008131 0 0.0068963799546779593 0.00039860287900553927 0 0.0068107417124704693 0.00042454549495795014 0 0.0068597560287084894 0.00042461643090086718 0 0.0068963799546779593 0.00039860287900553927 0 0.0068597560287084894 0.00042461643090086718 0 0.0068963799546779593 0.00039860287900553927 0 0.0069213918562847114 0.00044155640026044242 0 0.0068963799546779593 0.00039860287900553927 0 0.0070692149543546256 0.00032183147982057343 0 0.0069213918562847114 0.00044155640026044242 0 0.0070952086243178366 0.00013088423425357474 0 0.0068963799546779593 0.00039860287900553927 0 0.0070692149543546256 0.00032183147982057343 0 0.0071645759838092574 0.00034635298531563618 0 0.0070952086243178366 0.00013088423425357474 0 0.0070692149543546256 0.00032183147982057343 0 0.0070692149543546256 0.00032183147982057343 0 0.0070766781704757796 0.00045133096810058055 0 0.0069213918562847114 0.00044155640026044242 0 0.0070766781704757796 0.00045133096810058055 0 0.0069213918562847114 0.00044155640026044242 0 0.006943789415121672 0.00050344274230388448 0 0.0069213918562847114 0.00044155640026044242 0 0.0068757270325984507 0.00049399811739566399 0 0.006943789415121672 0.00050344274230388448 0 0.0069213918562847114 0.00044155640026044242 0 0.0068258640809723851 0.00046961715865518786 0 0.0068757270325984507 0.00049399811739566399 0 0.0068258640809723851 0.00046961715865518786 0 0.0068757270325984507 0.00049399811739566399 0 0.0068315808295636871 0.00049206021629585438 0 0.0068300825562026971 0.0004446600400791996 0 0.0068597560287084894 0.00042461643090086718 0 0.0069213918562847114 0.00044155640026044242 0 0.0068300825562026971 0.0004446600400791996 0 0.0069213918562847114 0.00044155640026044242 0 0.0068258640809723851 0.00046961715865518786 0 0.0068624761682282336 0.00048757824474726126 0 0.0068763369662539486 0.00053766745366100885 0 0.0067952681801611518 0.00061705026003246763 0 0.0068757270325984507 0.00049399811739566399 0 0.0068315808295636871 0.00049206021629585438 0 0.0068763369662539486 0.00053766745366100885 0 0.0068624761682282336 0.00048757824474726126 0 0.0068315808295636871 0.00049206021629585438 0 0.0068763369662539486 0.00053766745366100885 0 0.0068757270325984507 0.00049399811739566399 0 0.0068763369662539486 0.00053766745366100885 0 0.006943789415121672 0.00050344274230388448 0 0.0068763369662539486 0.00053766745366100885 0 0.006930269808430747 0.00054810412577590976 0 0.0067952681801611518 0.00061705026003246763 0 0.0068763369662539486 0.00053766745366100885 0 0.006943789415121672 0.00050344274230388448 0 0.006930269808430747 0.00054810412577590976 0 0.0070766781704757796 0.00045133096810058055 0 0.006943789415121672 0.00050344274230388448 0 0.006930269808430747 0.00054810412577590976 0 0.0070766781704757796 0.00045133096810058055 0 0.0069858053589509058 0.00044012948025123932 0 0.0073258351270310933 0.00036226559636687723 0 0.0070766781704757796 0.00045133096810058055 0 0.006930269808430747 0.00054810412577590976 0 0.0069858053589509058 0.00044012948025123932 0 0.0072839407158372766 0.0003643996888881451 0 0.0070766781704757796 0.00045133096810058055 0 0.0073258351270310933 0.00036226559636687723 0 0.0072839407158372766 0.0003643996888881451 0 0.0070692149543546256 0.00032183147982057343 0 0.0070766781704757796 0.00045133096810058055 0 0.0073154906026205091 8.9208296072373978e-05 0 0.0077715789878516307 0.00039743976983744615 0 0.0073258351270310933 0.00036226559636687723 0 0.0077715789878516307 0.00039743976983744615 0 0.0072839407158372766 0.0003643996888881451 0 0.0073258351270310933 0.00036226559636687723 0 0.0073154906026205091 8.9208296072373978e-05 0 0.0069858053589509058 0.00044012948025123932 0 0.0065894535155769183 0.00024559855436430146 0 0.0073154906026205091 8.9208296072373978e-05 0 0.0069858053589509058 0.00044012948025123932 0 0.0073258351270310933 0.00036226559636687723 0 0.0063098566645186814 -0.00038327175473584801 0 0.0073154906026205091 8.9208296072373978e-05 0 0.0065894535155769183 0.00024559855436430146 0 0.0063098566645186814 -0.00038327175473584801 0 0.0065894535155769183 0.00024559855436430146 0 0.0055796482295523957 6.836678976119015e-05 0 0.0056282973880019084 7.5835368606616389e-05 0 0.0060881918854695551 0.00059594588854433952 0 0.0065894535155769183 0.00024559855436430146 0 0.0055796482295523957 6.836678976119015e-05 0 0.0064171321272689236 0.00061177229856562579 0 0.0069858053589509058 0.00044012948025123932 0 0.0065894535155769183 0.00024559855436430146 0 0.0064171321272689236 0.00061177229856562579 0 0.006930269808430747 0.00054810412577590976 0 0.0069858053589509058 0.00044012948025123932 0 0.0064171321272689236 0.00061177229856562579 0 0.006930269808430747 0.00054810412577590976 0 0.0064171321272689236 0.00061177229856562579 0 0.0067952681801611518 0.00061705026003246763 0 0.0060881918854695551 0.00059594588854433952 0 0.0063798414233321105 0.00074666644494707419 0 0.0060504626499078952 0.00090867082717988588 0 0.0059682559528234013 0.00089383634771932562 0 0.0056935847335730571 0.00098337948688209578 0 0.0062082405799094367 0.00081831030737456627 0 0.0060504626499078952 0.00090867082717988588 0 0.0059682559528234013 0.00089383634771932562 0 0.0065408686807166506 0.00067440933618951552 0 0.0063798414233321105 0.00074666644494707419 0 0.00093597309635060359 0.00086455751327197913 0 0.001766738812302383 0.00090531184668862341 0 -0.0041193627744818759 0.00096718983363930605 0 -0.0024952486667083862 0.00017201326795819748 0 -0.0020594935579337148 0.00097009037102581657 0 0.0058217918476042262 0.00066976993154852199 0 0.0056935847335730571 0.00098337948688209578 0 0.0050930994025595146 0.00082198982408763751 0 0.0058217918476042262 0.00066976993154852199 0 0.0059682559528234013 0.00089383634771932562 0 0.0056935847335730571 0.00098337948688209578 0 0.001766738812302383 0.00090531184668862341 0 0.0027037658366603204 0.00064051625238543432 0 -0.0020594935579337148 0.00097009037102581657 0 -0.00043560996108403863 0.00033088090441103335 0 0.00052088436718492417 0.00075872279107172395 0 -0.0024952486667083862 0.00017201326795819748 0 -0.0020594935579337148 0.00097009037102581657 0 -0.00043560996108403863 0.00033088090441103335 0 -0.00017451802928669007 2.4587438822092255e-07 0 -0.00043560996108403863 0.00033088090441103335 0 0.001790533718296442 6.5395281354453656e-07 0 -0.00043560996108403863 0.00033088090441103335 0 0.001790533718296442 6.5395281354453656e-07 0 0.00052088436718492417 0.00075872279107172395 0 0.001790533718296442 6.5395281354453656e-07 0 0.00052088436718492417 0.00075872279107172395 0 0.0037543271269561995 1.7674653034809623e-06 0 0.0027037658366603204 0.00064051625238543432 0 0.0037558317975032816 -1.866967746968063e-08 0 0.0055796482295523957 6.836678976119015e-05 0 0.0058217918476042262 0.00066976993154852199 0 0.0050930994025595146 0.00082198982408763751 0 0.0055796482295523957 6.836678976119015e-05 0 0.0050930994025595146 0.00082198982408763751 0 0.0048800924317023023 -0.00019744497672027211 0 0.0050930994025595146 0.00082198982408763751 0 0.0048800924317023023 -0.00019744497672027211 0 0.003761672918875325 1.0126239860066819e-06 0 0.008228303902898939 -0.00010543069875127535 0 0.0084881269931588541 -0.0002245796994524753 0 0.0083120125535655204 -0.00045179931247538483 0 0.0084881269931588541 -0.0002245796994524753 0 0.0086816942245564101 -3.8592935750993916e-05 0 0.0088210233358448145 -0.00037300160090875063 0 0.0084881269931588541 -0.0002245796994524753 0 0.0083120125535655204 -0.00045179931247538483 0 0.0088210233358448145 -0.00037300160090875063 0 0.008228303902898939 -0.00010543069875127535 0 0.0084881269931588541 -0.0002245796994524753 0 0.0086816942245564101 -3.8592935750993916e-05 0 0.0061600449003419207 0.0012403532044351082 0 0.0082045747792714296 0.00019847444602687683 0 0.0060162505654039319 0.00095959945755237912 0 0.0071828655021353655 0.00098926058845770558 0 0.006834602294795644 0.00034817566254640602 0 0.0052370753624944866 0.00083534098587462679 0 0.0046666469599004681 0.0024249458211007958 0 0.006834602294795644 0.00034817566254640602 0 0.0061600449003419207 0.0012403532044351082 0 0.006418179700126982 0.00067827476600153789 0 0.0052370753624944866 0.00083534098587462679 0 0.0046666469599004681 0.0024249458211007958 0 0.0036410604595982204 0.00093386940798893304 0 0.0046666469599004681 0.0024249458211007958 0 0.0036410604595982204 0.00093386940798893304 0 0.0027342242438711944 0.0024972781187424316 0 0.0061600449003419207 0.0012403532044351082 0 0.0027636616171577795 0.0022082773154373618 0 0.0036410604595982204 0.00093386940798893304 0 0.0019422490893647572 0.0014774804241656236 0 0.0027342242438711944 0.0024972781187424316 0 0.0036410604595982204 0.00093386940798893304 0 0.0019422490893647572 0.0014774804241656236 0 0.0013734505286287055 0.00010511855509307024 0 0.0048350122892881625 0.0025916104670434636 0 0.0027342242438711944 0.0024972781187424316 0 0.0018535289405018764 0.0034753193698964452 0 0.0019422490893647572 0.0014774804241656236 0 0.00074081029232550121 0.0014146674919534375 0 0.0013734505286287055 0.00010511855509307024 0 0.0019422490893647572 0.0014774804241656236 0 0.0011534855928067792 0.0024509765065577446 0 0.00074081029232550121 0.0014146674919534375 0 0.0011534855928067792 0.0024509765065577446 0 0.0027342242438711944 0.0024972781187424316 0 0.0018535289405018764 0.0034753193698964452 0 0.0019422490893647572 0.0014774804241656236 0 0.0011534855928067792 0.0024509765065577446 0 0.0027342242438711944 0.0024972781187424316 0 -0.0007931619121816899 0.0011617319523966839 0 -0.00032048733341027362 0.002518130520491805 0 -0.0015746477962188192 0.0024966911336669474 0 -0.0007931619121816899 0.0011617319523966839 0 -0.0018490200872830216 0.0017488764910171348 0 -0.0015746477962188192 0.0024966911336669474 0 -0.0007931619121816899 0.0011617319523966839 0 0.00074081029232550121 0.0014146674919534375 0 0.0013734505286287055 0.00010511855509307024 0 -0.0007931619121816899 0.0011617319523966839 0 0.00074081029232550121 0.0014146674919534375 0 -0.00032048733341027362 0.002518130520491805 0 0.0011534855928067792 0.0024509765065577446 0 -0.00032048733341027362 0.002518130520491805 0 0.00029494305434248834 0.0037277934955658484 0 0.0011534855928067792 0.0024509765065577446 0 0.00074081029232550121 0.0014146674919534375 0 -0.00032048733341027362 0.002518130520491805 0 -0.00032048733341027362 0.002518130520491805 0 -0.0012961509315743323 0.0036999918367757361 0 -0.0015746477962188192 0.0024966911336669474 0 -0.00032048733341027362 0.002518130520491805 0 -0.0012961509315743323 0.0036999918367757361 0 0.00029494305434248834 0.0037277934955658484 0 -0.0012961509315743323 0.0036999918367757361 0 0.00029494305434248834 0.0037277934955658484 0 -0.00089591257207845352 0.0050874985179432883 0 0.00029494305434248834 0.0037277934955658484 0 -0.00089591257207845352 0.0050874985179432883 0 0.001317509503031862 0.005114551143404149 0 0.0061600449003419207 0.0012403532044351082 0 0.0044236165826581856 0.0029815805663497719 0 0.0048350122892881625 0.0025916104670434636 0 0.0018535289405018764 0.0034753193698964452 0 0.001317509503031862 0.005114551143404149 0 0.008228303902898939 -0.00010543069875127535 0 0.0078021603560846624 -0.00015088881265025282 0 0.0079656697554242716 -6.684851277462875e-06 0 0.008228303902898939 -0.00010543069875127535 0 0.0083120125535655204 -0.00045179931247538483 0 0.0078021603560846624 -0.00015088881265025282 0 0.00029494305434248834 0.0037277934955658484 0 0.0018535289405018764 0.0034753193698964452 0 0.001317509503031862 0.005114551143404149 0 0.0011534855928067792 0.0024509765065577446 0 0.00029494305434248834 0.0037277934955658484 0 0.0018535289405018764 0.0034753193698964452 0 0.008228303902898939 -0.00010543069875127535 0 0.0079656697554242716 -6.684851277462875e-06 0 0.007945136883899924 0.00020160855575970991 0 0.0078021603560846624 -0.00015088881265025282 0 0.0079656697554242716 -6.684851277462875e-06 0 0.0078479753150314975 1.0959312525976977e-05 0 0.0078021603560846624 -0.00015088881265025282 0 0.0078479753150314975 1.0959312525976977e-05 0 0.0077000384751785269 0.00011995276241466817 0 0.0078479753150314975 1.0959312525976977e-05 0 0.007895671305019147 0.00012451797888312859 0 0.0077000384751785269 0.00011995276241466817 0 0.0079656697554242716 -6.684851277462875e-06 0 0.0078479753150314975 1.0959312525976977e-05 0 0.007895671305019147 0.00012451797888312859 0 0.0079656697554242716 -6.684851277462875e-06 0 0.007895671305019147 0.00012451797888312859 0 0.007945136883899924 0.00020160855575970991 0 0.0079330728718899814 0.00021564731399635948 0 0.0078752151480124145 0.00019773522172558797 0 0.0078055753234972962 0.00039857392707877361 0 0.0083929761653577881 -3.9437989826168887e-05 0 0.0084893735113677187 -5.9736157816364772e-05 0 0.007895671305019147 0.00012451797888312859 0 0.0078752151480124145 0.00019773522172558797 0 0.0077000384751785269 0.00011995276241466817 0 0.0084893735113677187 -5.9736157816364772e-05 0 0.0083816127752595008 -6.8183833026122387e-05 0 0.007895671305019147 0.00012451797888312859 0 0.0079357887198629341 0.00021835428348608875 0 0.0078752151480124145 0.00019773522172558797 0 0.0077000384751785269 0.00011995276241466817 0 0.0076538441712133308 0.00031297164397915727 0 0.0072142434091659368 0.0002109193008883713 0 -0.00089591257207845352 0.0050874985179432883 0 0.001317509503031862 0.005114551143404149 0 -0.0020558113420984562 0.0074837522374702099 0 0.0044236165826581856 0.0029815805663497719 0 0.0029935751509980158 0.00046870739113106114 0 0.0078021603560846624 -0.00015088881265025282 0 0.0077000384751785269 0.00011995276241466817 0 0.0072142434091659368 0.0002109193008883713 0 0.0078752151480124145 0.00019773522172558797 0 0.0077000384751785269 0.00011995276241466817 0 0.0076538441712133308 0.00031297164397915727 0 0.0083826043653655938 -0.00065408538438820095 0 0.0029935751509980158 0.00046870739113106114 0 0.0074757258883096098 -0.0014304609615064579 0 0.0080586774561004493 -0.0017314841214699265 0 0.0064271209371393042 -0.0033569508709779062 0 0.0076538441712133308 0.00031297164397915727 0 0.0076771125753610512 0.000636388279388064 0 0.0072142434091659368 0.0002109193008883713 0 0.0076538441712133308 0.00031297164397915727 0 0.0076771125753610512 0.000636388279388064 0 0.0078055753234972962 0.00039857392707877361 0 0.0082536765307268493 0.00083700260299202425 0 0.0079330728718899814 0.00021564731399635948 0 0.0079598231196443027 0.00062691167614551714 0 0.0079330728718899814 0.00021564731399635948 0 0.0078055753234972962 0.00039857392707877361 0 0.0079598231196443027 0.00062691167614551714 0 0.0085209300979719772 0.00058779367159271501 0 0.0084893735113677187 -5.9736157816364772e-05 0 0.0078752151480124145 0.00019773522172558797 0 0.0076538441712133308 0.00031297164397915727 0 0.0078055753234972962 0.00039857392707877361 0 0.0076771125753610512 0.000636388279388064 0 0.0078055753234972962 0.00039857392707877361 0 0.0079598231196443027 0.00062691167614551714 0 0.0084893735113677187 -5.9736157816364772e-05 0 0.0090410261128340465 7.1599828616095772e-05 0 0.0093874297171265605 0.00012530090102065493 0 0.009183781675655452 -0.00029921750490825199 0 0.0095792099303339921 -0.00016518564506608753 0 0.008228303902898939 -0.00010543069875127535 0 0.0084869108744697903 0.00030989688783989556 0 0.0086816942245564101 -3.8592935750993916e-05 0 0.008228303902898939 -0.00010543069875127535 0 0.007945136883899924 0.00020160855575970991 0 0.0084869108744697903 0.00030989688783989556 0 0.0084869108744697903 0.00030989688783989556 0 0.0086816942245564101 -3.8592935750993916e-05 0 0.0088916358718957259 0.00010622092948084996 0 0.0090410261128340465 7.1599828616095772e-05 0 0.0094347952665060804 0.0001492238491788511 0 0.0084869108744697903 0.00030989688783989556 0 0.0089197042763494438 0.00033216494151750038 0 0.0088916358718957259 0.00010622092948084996 0 0.0089197042763494438 0.00033216494151750038 0 0.0091855696956442238 3.004440922039998e-05 0 0.0088916358718957259 0.00010622092948084996 0 0.0092245327240631139 0.00035155226894490556 0 0.0089197042763494438 0.00033216494151750038 0 0.0091855696956442238 3.004440922039998e-05 0 0.0086816942245564101 -3.8592935750993916e-05 0 0.0088916358718957259 0.00010622092948084996 0 0.008990528276165104 -9.103372852650378e-05 0 0.0091855696956442238 3.004440922039998e-05 0 0.0088916358718957259 0.00010622092948084996 0 0.008990528276165104 -9.103372852650378e-05 0 0.0095662942763640162 0.0001876241339487009 0 0.0093648911151737058 3.3801057612139042e-05 0 0.0095381006808310312 -0.00020491963006176973 0 0.0098958518905157 -0.00029796478604905452 0 0.0098780647480086713 -0.00029852514150617522 0 0.0095381006808310312 -0.00020491963006176973 0 0.0096872644219539051 -4.6204384954389193e-05 0 0.0096005364009637776 -0.00021601169678529361 0 0.0092245327240631139 0.00035155226894490556 0 0.0095662942763640162 0.0001876241339487009 0 0.0093648911151737058 3.3801057612139042e-05 0 0.0092245327240631139 0.00035155226894490556 0 0.0091855696956442238 3.004440922039998e-05 0 0.0093648911151737058 3.3801057612139042e-05 0 0.0091855696956442238 3.004440922039998e-05 0 0.0093648911151737058 3.3801057612139042e-05 0 0.0093812245396822595 -9.5124048051879593e-05 0 0.0092938736959037975 -0.00014146802690999833 0 0.0095381006808310312 -0.00020491963006176973 0 0.0093812245396822595 -9.5124048051879593e-05 0 0.0093648911151737058 3.3801057612139042e-05 0 0.0095381006808310312 -0.00020491963006176973 0 0.0093812245396822595 -9.5124048051879593e-05 0 0.0092938736959037975 -0.00014146802690999833 0 0.0093812245396822595 -9.5124048051879593e-05 0 0.0092852831954597943 0.00013021798595523368 0 0.0093812245396822595 -9.5124048051879593e-05 0 0.0092852831954597943 0.00013021798595523368 0 0.0092431462669574447 -0.00021353266659148367 0 0.0091855696956442238 3.004440922039998e-05 0 0.0093812245396822595 -9.5124048051879593e-05 0 0.0092431462669574447 -0.00021353266659148367 0 0.0092852831954597943 0.00013021798595523368 0 0.0084374029747538385 0.00070452966309139838 0 0.0085367775091860984 0.00022372340688700927 0 0.0092292840705156167 0.00015284327260844214 0 0.0087482308678352612 0.00024762643755750041 0 0.0092852831954597943 0.00013021798595523368 0 0.0085367775091860984 0.00022372340688700927 0 0.0090296714439375269 2.9005902881307063e-05 0 0.0091392231629700438 0.00036686884851126755 0 0.0092852831954597943 0.00013021798595523368 0 0.0090296714439375269 2.9005902881307063e-05 0 0.0086816942245564101 -3.8592935750993916e-05 0 0.008990528276165104 -9.103372852650378e-05 0 0.0088210233358448145 -0.00037300160090875063 0 0.008990528276165104 -9.103372852650378e-05 0 0.0092431462669574447 -0.00021353266659148367 0 0.0088210233358448145 -0.00037300160090875063 0 0.0091855696956442238 3.004440922039998e-05 0 0.008990528276165104 -9.103372852650378e-05 0 0.0092431462669574447 -0.00021353266659148367 0 0.0084374029747538385 0.00070452966309139838 0 0.0080267796845015088 0.00026818930921047326 0 0.0071828655021353655 0.00098926058845770558 0 0.0084374029747538385 0.00070452966309139838 0 0.0085367775091860984 0.00022372340688700927 0 0.0080267796845015088 0.00026818930921047326 0 0.0071828655021353655 0.00098926058845770558 0 0.0075530889987559429 0.00020312515203680241 0 0.006834602294795644 0.00034817566254640602 0 0.0080267796845015088 0.00026818930921047326 0 0.0071828655021353655 0.00098926058845770558 0 0.0075530889987559429 0.00020312515203680241 0 0.0087482308678352612 0.00024762643755750041 0 0.0082045747792714296 0.00019847444602687683 0 0.0079653070004523756 -0.00027191652618535254 0 0.0075530889987559429 0.00020312515203680241 0 0.006834602294795644 0.00034817566254640602 0 0.0079653070004523756 -0.00027191652618535254 0 0.0075530889987559429 0.00020312515203680241 0 0.0078398222591949448 -2.2327341380293481e-05 0 0.0079653070004523756 -0.00027191652618535254 0 0.0078398222591949448 -2.2327341380293481e-05 0 0.0079366436979933334 -0.00017442684705395669 0 0.0080267796845015088 0.00026818930921047326 0 0.0075530889987559429 0.00020312515203680241 0 0.0078398222591949448 -2.2327341380293481e-05 0 0.0085367775091860984 0.00022372340688700927 0 0.0080267796845015088 0.00026818930921047326 0 0.0079366436979933334 -0.00017442684705395669 0 0.0079738115770361818 -0.00012985160505904727 0 0.0082100322967448135 9.2107838565818134e-05 0 0.0079653070004523756 -0.00027191652618535254 0 0.0079366436979933334 -0.00017442684705395669 0 0.0074449678045674424 0.00037021590044565046 0 0.0085367775091860984 0.00022372340688700927 0 0.0079366436979933334 -0.00017442684705395669 0 0.0090296714439375269 2.9005902881307063e-05 0 0.0080267796845015088 0.00026818930921047326 0 0.0078398222591949448 -2.2327341380293481e-05 0 0.0079366436979933334 -0.00017442684705395669 0 0.0049441858456856606 0.00060035002096199075 0 0.005988976255039912 0.00074662692563188832 0 0.0020080861343967815 0.001461552182301962 0 0.0029494061904209519 0.00070674187998313734 0 0.0045434895954624566 0.0012025395684433884 0 0.0020080861343967815 0.001461552182301962 0 0.0029494061904209519 0.00070674187998313734 0 0.0021451538506099079 0.00081026496689919048 0 0.0029494061904209519 0.00070674187998313734 0 0.0038732696144956843 0.00023283180096962054 0 0.0030242836397106933 -0.00022624490773884458 0 0.0029494061904209519 0.00070674187998313734 0 0.0020923284439164228 0.00028302517657554467 0 0.0021451538506099079 0.00081026496689919048 0 0.0029494061904209519 0.00070674187998313734 0 0.0020923284439164228 0.00028302517657554467 0 0.0030242836397106933 -0.00022624490773884458 0 0.0020923284439164228 0.00028302517657554467 0 0.0015489920432219333 0.00079359253759063984 0 0.0021451538506099079 0.00081026496689919048 0 0.0020923284439164228 0.00028302517657554467 0 0.0015489920432219333 0.00079359253759063984 0 0.00078352021192476973 -6.9646985259893328e-05 0 0.0015489920432219333 0.00079359253759063984 0 0.00078352021192476973 -6.9646985259893328e-05 0 0.00086316477510367377 0.00092735761491825669 0 0.0020080861343967815 0.001461552182301962 0 0.0015489920432219333 0.00079359253759063984 0 0.00086316477510367377 0.00092735761491825669 0 0.0020080861343967815 0.001461552182301962 0 0.0015489920432219333 0.00079359253759063984 0 0.0021451538506099079 0.00081026496689919048 0 0.0070890510321283476 0.00038509758636244145 0 0.0072067235353286321 0.00034008926142043539 0 0.0073982387137570705 0.0001440316775552889 0 0.0080972924487231375 0.00035247735148408155 0 0.0082100322967448135 9.2107838565818134e-05 0 0.0079366436979933334 -0.00017442684705395669 0 0.0073982387137570705 0.0001440316775552889 0 0.0074449678045674424 0.00037021590044565046 0 0.0072067235353286321 0.00034008926142043539 0 0.0073982387137570705 0.0001440316775552889 0 0.0074449678045674424 0.00037021590044565046 0 0.0029494061904209519 0.00070674187998313734 0 0.0038732696144956843 0.00023283180096962054 0 0.0045434895954624566 0.0012025395684433884 0 0.0038732696144956843 0.00023283180096962054 0 0.0045434895954624566 0.0012025395684433884 0 0.0047652000539116068 5.9269153496914728e-05 0 0.0045434895954624566 0.0012025395684433884 0 0.0056465082477008969 0.00029839787129963644 0 0.0047652000539116068 5.9269153496914728e-05 0 0.0069533133790391005 0.00049820832419624698 0 0.0045434895954624566 0.0012025395684433884 0 0.0056465082477008969 0.00029839787129963644 0 0.006895167998954262 0.00053838602259545455 0 0.005988976255039912 0.00074662692563188832 0 0.0069533133790391005 0.00049820832419624698 0 0.0072067235353286321 0.00034008926142043539 0 0.0074449678045674424 0.00037021590044565046 0 0.0063254090744775263 -0.00058144304923056121 0 0.0058317389563470523 -0.00056232034125583679 0 0.0057200584732446059 -0.0011717118481428281 0 0.0063129825102407906 -4.3635789217537688e-05 0 0.0063254090744775263 -0.00058144304923056121 0 0.0058317389563470523 -0.00056232034125583679 0 0.0063129825102407906 -4.3635789217537688e-05 0 0.0058317389563470523 -0.00056232034125583679 0 0.0055373279890961798 -0.00016243326542583907 0 0.0063129825102407906 -4.3635789217537688e-05 0 0.0056465082477008969 0.00029839787129963644 0 0.0055373279890961798 -0.00016243326542583907 0 0.0055373279890961798 -0.00016243326542583907 0 0.0050600179509791132 -0.00075214414741742457 0 0.0047652000539116068 5.9269153496914728e-05 0 0.0056465082477008969 0.00029839787129963644 0 0.0055373279890961798 -0.00016243326542583907 0 0.0047652000539116068 5.9269153496914728e-05 0 0.0058317389563470523 -0.00056232034125583679 0 0.0055373279890961798 -0.00016243326542583907 0 0.0050600179509791132 -0.00075214414741742457 0 0.0058317389563470523 -0.00056232034125583679 0 0.0050600179509791132 -0.00075214414741742457 0 0.0057200584732446059 -0.0011717118481428281 0 0.0050600179509791132 -0.00075214414741742457 0 0.0040942958682104041 -0.00054232979443211615 0 0.0042589829741378239 -0.0011975957168017604 0 0.0050600179509791132 -0.00075214414741742457 0 0.0047652000539116068 5.9269153496914728e-05 0 0.0040942958682104041 -0.00054232979443211615 0 0.0038732696144956843 0.00023283180096962054 0 0.0047652000539116068 5.9269153496914728e-05 0 0.0040942958682104041 -0.00054232979443211615 0 0.0038732696144956843 0.00023283180096962054 0 0.0040942958682104041 -0.00054232979443211615 0 0.0030242836397106933 -0.00022624490773884458 0 0.0040942958682104041 -0.00054232979443211615 0 0.0042589829741378239 -0.0011975957168017604 0 0.0033804161823199129 -0.0011162713386536187 0 0.0042589829741378239 -0.0011975957168017604 0 0.0037758194142695927 -0.0020954530754755205 0 0.0033804161823199129 -0.0011162713386536187 0 0.0042589829741378239 -0.0011975957168017604 0 0.0037758194142695927 -0.0020954530754755205 0 0.0049528659369173968 -0.0014642818857085512 0 0.0050600179509791132 -0.00075214414741742457 0 0.0042589829741378239 -0.0011975957168017604 0 0.0049528659369173968 -0.0014642818857085512 0 0.0037758194142695927 -0.0020954530754755205 0 0.0049528659369173968 -0.0014642818857085512 0 0.0060240409533394634 -0.0018502249126176652 0 0.0027245080272926391 -0.0018380659888700495 0 0.005842453948538294 -0.0018477181127312008 0 0.0037908765278841512 -0.0031658188252480833 0 0.0016053024451182204 -0.0015564980807093942 0 0.0060240409533394634 -0.0018502249126176652 0 0.0050600179509791132 -0.00075214414741742457 0 0.0049528659369173968 -0.0014642818857085512 0 0.0057200584732446059 -0.0011717118481428281 0 0.0049528659369173968 -0.0014642818857085512 0 0.0060240409533394634 -0.0018502249126176652 0 0.0057200584732446059 -0.0011717118481428281 0 0.0064062342995762104 -0.0010654041911368798 0 0.0060240409533394634 -0.0018502249126176652 0 0.0057200584732446059 -0.0011717118481428281 0 0.0020620567347390075 -0.00064105130450014592 0 0.0010941290335572834 -0.0011923940395877864 0 0.0024754182425586659 -0.0015637679358927094 0 0.0020620567347390075 -0.00064105130450014592 0 0.0010941290335572834 -0.0011923940395877864 0 0.00078352021192476973 -6.9646985259893328e-05 0 0.0020923284439164228 0.00028302517657554467 0 0.0020620567347390075 -0.00064105130450014592 0 0.00078352021192476973 -6.9646985259893328e-05 0 0.0020923284439164228 0.00028302517657554467 0 0.0020620567347390075 -0.00064105130450014592 0 0.0030242836397106933 -0.00022624490773884458 0 0.0040942958682104041 -0.00054232979443211615 0 0.0030242836397106933 -0.00022624490773884458 0 0.0033804161823199129 -0.0011162713386536187 0 0.0020620567347390075 -0.00064105130450014592 0 0.0033804161823199129 -0.0011162713386536187 0 0.0024754182425586659 -0.0015637679358927094 0 0.0020620567347390075 -0.00064105130450014592 0 0.0030242836397106933 -0.00022624490773884458 0 0.0033804161823199129 -0.0011162713386536187 0 0.0037758194142695927 -0.0020954530754755205 0 0.0024754182425586659 -0.0015637679358927094 0 0.0011338229279690035 -0.0023132985476501632 0 -0.00075452997587029732 -0.0026853624510173061 0 0.0016053024451182204 -0.0015564980807093942 0 -0.0029307484685573357 -0.0014256451734944778 0 0.0027245080272926391 -0.0018380659888700495 0 -0.0010098071999063785 -0.0018222716177890789 0 0.0037758194142695927 -0.0020954530754755205 0 0.0033804161823199129 -0.0011162713386536187 0 0.0024754182425586659 -0.0015637679358927094 0 0.0010941290335572834 -0.0011923940395877864 0 0.0024754182425586659 -0.0015637679358927094 0 0.0011338229279690035 -0.0023132985476501632 0 0.0011338229279690035 -0.0023132985476501632 0 -0.00026122150390942722 -0.0013975007411297384 0 -0.0017811349772017305 -0.0023976771876943925 0 -0.0010098071999063785 -0.0018222716177890789 0 -0.00421377182650333 -0.0021624269270979911 0 0.0010941290335572834 -0.0011923940395877864 0 0.0011338229279690035 -0.0023132985476501632 0 -0.00026122150390942722 -0.0013975007411297384 0 -0.0073754456259499529 -0.0026013982678361153 0 -0.0029307484685573357 -0.0014256451734944778 0 -0.0074377593767067512 -0.0013373213584308636 0 -0.0017811349772017305 -0.0023976771876943925 0 -0.0011870287719036401 -0.00117931694428456 0 -0.0019408496060194717 -0.00044242448849869507 0 -0.00421377182650333 -0.0021624269270979911 0 -0.0017095290800671866 -0.00066111289325233109 0 -0.0019244329884986714 -0.0021296828907337645 0 -0.0019408496060194717 -0.00044242448849869507 0 -0.0027162549634379531 -0.0013204343039326396 0 -0.01002228324383694 3.9641335817996026e-05 0 -0.00421377182650333 -0.0021624269270979911 0 -0.00026122150390942722 -0.0013975007411297384 0 -0.0017811349772017305 -0.0023976771876943925 0 -0.0011870287719036401 -0.00117931694428456 0 -0.0019408496060194717 -0.00044242448849869507 0 -0.0011792536243416555 0.00070095863580939982 0 -0.0026936607605043653 0.00013576422553263513 0 -0.00026122150390942722 -0.0013975007411297384 0 -0.0011870287719036401 -0.00117931694428456 0 -0.00077778413497483112 -0.00048302053747080654 0 -0.0011870287719036401 -0.00117931694428456 0 -0.00077778413497483112 -0.00048302053747080654 0 -0.0019408496060194717 -0.00044242448849869507 0 -0.00077778413497483112 -0.00048302053747080654 0 -0.0019408496060194717 -0.00044242448849869507 0 -0.0011792536243416555 0.00070095863580939982 0 -0.00077778413497483112 -0.00048302053747080654 0 0.00078352021192476973 -6.9646985259893328e-05 0 -0.0011792536243416555 0.00070095863580939982 0 0.0010941290335572834 -0.0011923940395877864 0 -0.00026122150390942722 -0.0013975007411297384 0 0.00078352021192476973 -6.9646985259893328e-05 0 -0.00026122150390942722 -0.0013975007411297384 0 -0.00077778413497483112 -0.00048302053747080654 0 0.00078352021192476973 -6.9646985259893328e-05 0 0.00078352021192476973 -6.9646985259893328e-05 0 0.00013684206853088315 0.00088857761109873952 0 -0.00032818824995074731 0.00047098785075350624 0 0.00078352021192476973 -6.9646985259893328e-05 0 0.00086316477510367377 0.00092735761491825669 0 0.00013684206853088315 0.00088857761109873952 0 0.000651166771490194 -1.7646463107260128e-05 0 -0.00072260408866613786 0.00057406360361960621 0 0.00086316477510367377 0.00092735761491825669 0 0.00013684206853088315 0.00088857761109873952 0 -9.1331045220608518e-05 0.001446171085092893 0 -0.00032818824995074731 0.00047098785075350624 0 -0.00044885820549486511 0.0011566026984326076 0 -0.001372052988889609 0.00092139549855767484 0 -0.00072260408866613786 0.00057406360361960621 0 -0.0021681324541015798 0.00084231633793147801 0 0.00013684206853088315 0.00088857761109873952 0 -0.00032818824995074731 0.00047098785075350624 0 -0.00044885820549486511 0.0011566026984326076 0 0.0036410604595982204 0.00093386940798893304 0 0.0055792146000034131 -0.0003824895026768219 0 0.0013734505286287055 0.00010511855509307024 0 0.0027455534670048037 0.00054144246980614434 0 -0.00014337806880758468 0.00071365799619749681 0 0.00013684206853088315 0.00088857761109873952 0 -9.1331045220608518e-05 0.001446171085092893 0 -0.00044885820549486511 0.0011566026984326076 0 -9.1331045220608518e-05 0.001446171085092893 0 -0.00044885820549486511 0.0011566026984326076 0 -0.0016296298225924348 0.0013106407725785134 0 -0.00031768097178559311 0.0011619492372269852 0 -0.0021681324541015798 0.00084231633793147801 0 0.0052370753624944866 0.00083534098587462679 0 0.0036410604595982204 0.00093386940798893304 0 0.0055792146000034131 -0.0003824895026768219 0 0.0020080861343967815 0.001461552182301962 0 0.00086316477510367377 0.00092735761491825669 0 -9.1331045220608518e-05 0.001446171085092893 0 0.0049441858456856606 0.00060035002096199075 0 0.0027455534670048037 0.00054144246980614434 0 0.0052370753624944866 0.00083534098587462679 0 0.0055792146000034131 -0.0003824895026768219 0 0.006834602294795644 0.00034817566254640602 0 0.0079653070004523756 -0.00027191652618535254 0 0.0055792146000034131 -0.0003824895026768219 0 0.006834602294795644 0.00034817566254640602 0 -0.0031030342521702887 0.00099362228255370894 0 -0.0021681324541015798 0.00084231633793147801 0 -0.00014337806880758468 0.00071365799619749681 0 -0.0029842109338799067 0.0010203878481068027 0 -0.0007931619121816899 0.0011617319523966839 0 0.0013734505286287055 0.00010511855509307024 0 -0.0031652361118172938 0.0010228883366077469 0 -0.002282013216621981 0.00091170922835780664 0 -0.0016296298225924348 0.0013106407725785134 0 -0.0031652361118172938 0.0010228883366077469 0 -0.002282013216621981 0.00091170922835780664 0 -0.0016296298225924348 0.0013106407725785134 0 -0.0013172218706890501 0.00074001435301087833 0 -0.00044885820549486511 0.0011566026984326076 0 -0.0016296298225924348 0.0013106407725785134 0 -0.0013172218706890501 0.00074001435301087833 0 -0.0011792536243416555 0.00070095863580939982 0 -0.0029128764130590952 0.0012660204560087705 0 -0.0026936607605043653 0.00013576422553263513 0 -0.0029128764130590952 0.0012660204560087705 0 -0.0026936607605043653 0.00013576422553263513 0 -0.0038343047178128037 -0.0002765116339032384 0 -0.0029128764130590952 0.0012660204560087705 0 -0.0038343047178128037 -0.0002765116339032384 0 -0.0052143525583592046 0.00035954879687883143 0 -0.0021681324541015798 0.00084231633793147801 0 -0.0050995880784520664 0.0002180793980218912 0 -0.0039694361860216111 0.0011479070786306774 0 -0.0026921383801728764 0.00058949938357092692 0 -0.0046991114013907398 7.3193261478276519e-05 0 -0.0047038196065047585 -0.00051181966527418421 0 -0.0038343047178128037 -0.0002765116339032384 0 -0.0052143525583592046 0.00035954879687883143 0 -0.0038343047178128037 -0.0002765116339032384 0 -0.0035350128600883024 -0.0011771292972758761 0 -0.0043714326348674058 -0.0012425764862353313 0 -0.0047038196065047585 -0.00051181966527418421 0 -0.0043714326348674058 -0.0012425764862353313 0 -0.005371800565293126 -0.00087039158466972733 0 -0.0047038196065047585 -0.00051181966527418421 0 -0.0038343047178128037 -0.0002765116339032384 0 -0.0043714326348674058 -0.0012425764862353313 0 -0.0019408496060194717 -0.00044242448849869507 0 -0.0026936607605043653 0.00013576422553263513 0 -0.0031025446551113727 -0.00063980681721780279 0 -0.0026936607605043653 0.00013576422553263513 0 -0.0038343047178128037 -0.0002765116339032384 0 -0.0031025446551113727 -0.00063980681721780279 0 -0.0031025446551113727 -0.00063980681721780279 0 -0.0035350128600883024 -0.0011771292972758761 0 -0.0027162549634379531 -0.0013204343039326396 0 -0.0038343047178128037 -0.0002765116339032384 0 -0.0031025446551113727 -0.00063980681721780279 0 -0.0035350128600883024 -0.0011771292972758761 0 -0.0019408496060194717 -0.00044242448849869507 0 -0.0031025446551113727 -0.00063980681721780279 0 -0.0027162549634379531 -0.0013204343039326396 0 -0.0043106069360585725 -0.0020163505474690428 0 -0.0045882553448415983 -0.0019246649214379676 0 -0.0047627082125181446 -0.0020107087686147647 0 -0.0019244329884986714 -0.0021296828907337645 0 -0.0027162549634379531 -0.0013204343039326396 0 -0.0035653593996193963 -0.0020651110278652436 0 -0.0043106069360585725 -0.0020163505474690428 0 -0.0043181516046672547 -0.0019062272961342256 0 -0.0045882553448415983 -0.0019246649214379676 0 -0.00421377182650333 -0.0021624269270979911 0 -0.0038884399810095787 -0.0019687682363575512 0 -0.0035350128600883024 -0.0011771292972758761 0 -0.0027162549634379531 -0.0013204343039326396 0 -0.0035653593996193963 -0.0020651110278652436 0 -0.0035653593996193963 -0.0020651110278652436 0 -0.0043714326348674058 -0.0012425764862353313 0 -0.0052216662934061429 -0.0018179809749222962 0 -0.0045882553448415983 -0.0019246649214379676 0 -0.0047627082125181446 -0.0020107087686147647 0 -0.0052216662934061429 -0.0018179809749222962 0 -0.0038884399810095787 -0.0019687682363575512 0 -0.005173522567763959 -0.0018669802898518134 0 -0.0035350128600883024 -0.0011771292972758761 0 -0.0035653593996193963 -0.0020651110278652436 0 -0.0043714326348674058 -0.0012425764862353313 0 -0.011558029681402144 -0.0015419616291879618 0 -0.011924353554772149 -0.0012309507622996264 0 -0.0052216662934061429 -0.0018179809749222962 0 -0.0059325449869031266 -0.0016974073470426476 0 -0.005371800565293126 -0.00087039158466972733 0 -0.017924096139602837 -0.00074323664647955238 0 -0.017902057855129754 -0.00074989195800375253 0 -0.017946185434621214 -0.00077467525662324181 0 -0.0047627082125181446 -0.0020107087686147647 0 -0.0052216662934061429 -0.0018179809749222962 0 -0.0059325449869031266 -0.0016974073470426476 0 -0.0043714326348674058 -0.0012425764862353313 0 -0.0052216662934061429 -0.0018179809749222962 0 -0.005371800565293126 -0.00087039158466972733 0 -0.0059325449869031266 -0.0016974073470426476 0 -0.0061647078513952409 -0.00082468518457347697 0 -0.0075711070213884454 -0.0014542690110411177 0 -0.017896367398770815 -0.00073357301881360709 0 -0.017946185434621214 -0.00077467525662324181 0 -0.017756562087462197 -0.00075673816464134815 0 -0.0061647078513952409 -0.00082468518457347697 0 -0.0067940579694320841 -0.00036256672494663087 0 -0.0052143525583592046 0.00035954879687883143 0 -0.0059325449869031266 -0.0016974073470426476 0 -0.0061647078513952409 -0.00082468518457347697 0 -0.005371800565293126 -0.00087039158466972733 0 -0.0047038196065047585 -0.00051181966527418421 0 -0.005371800565293126 -0.00087039158466972733 0 -0.0052143525583592046 0.00035954879687883143 0 -0.0061647078513952409 -0.00082468518457347697 0 -0.005371800565293126 -0.00087039158466972733 0 -0.0052143525583592046 0.00035954879687883143 0 -0.012308984985520912 -0.001145512867470959 0 -0.0136168121568833 -0.0017032160614540075 0 -0.017139462408678318 -0.00076209158158600072 0 -0.017381145650052041 -0.00094146827578064452 0 -0.016285349748163303 -0.0012048655888684684 0 -0.018112926809653096 -0.00083971214214735774 0 -0.018039496130873661 -0.00080193839961991299 0 -0.018036934465575177 -0.00073223779658020387 0 -0.017928277400900819 -0.00077609360714141391 0 -0.018039496130873661 -0.00080193839961991299 0 -0.018036934465575177 -0.00073223779658020387 0 -0.011924353554772149 -0.0012309507622996264 0 -0.012308984985520912 -0.001145512867470959 0 -0.017717686362269607 -0.0007572727531829828 0 -0.017645346686048766 -0.00072114345081565829 0 -0.017756562087462197 -0.00075673816464134815 0 -0.017139462408678318 -0.00076209158158600072 0 -0.017381145650052041 -0.00094146827578064452 0 -0.017928277400900819 -0.00077609360714141391 0 -0.017756562087462197 -0.00075673816464134815 0 -0.018036934465575177 -0.00073223779658020387 0 -0.017946185434621214 -0.00077467525662324181 0 -0.017756562087462197 -0.00075673816464134815 0 -0.017381145650052041 -0.00094146827578064452 0 -0.0061647078513952409 -0.00082468518457347697 0 -0.0075711070213884454 -0.0014542690110411177 0 -0.0067940579694320841 -0.00036256672494663087 0 -0.0075711070213884454 -0.0014542690110411177 0 -0.0067940579694320841 -0.00036256672494663087 0 -0.0080175675875684312 -0.00047085797417380313 0 -0.0075711070213884454 -0.0014542690110411177 0 -0.0080175675875684312 -0.00047085797417380313 0 -0.009311795382675082 -0.0011904830628721257 0 -0.0080175675875684312 -0.00047085797417380313 0 -0.0073627281345287421 0.00043903453881238722 0 -0.0091266712075897625 8.5808752306595318e-05 0 -0.0073627281345287421 0.00043903453881238722 0 -0.0079010118429171626 0.0013275048366382543 0 -0.0091266712075897625 8.5808752306595318e-05 0 -0.0067940579694320841 -0.00036256672494663087 0 -0.0080175675875684312 -0.00047085797417380313 0 -0.0073627281345287421 0.00043903453881238722 0 -0.0067940579694320841 -0.00036256672494663087 0 -0.0073627281345287421 0.00043903453881238722 0 -0.0064405550335247313 0.00079402207658160891 0 -0.0068967166009541404 0.0011960232091038513 0 -0.0079010118429171626 0.0013275048366382543 0 -0.006272317305962052 0.0021885807067164621 0 -0.0068967166009541404 0.0011960232091038513 0 -0.0064405550335247313 0.00079402207658160891 0 -0.0062697734319641183 0.0014311063399309923 0 -0.0073627281345287421 0.00043903453881238722 0 -0.0068967166009541404 0.0011960232091038513 0 -0.0064405550335247313 0.00079402207658160891 0 -0.0068967166009541404 0.0011960232091038513 0 -0.0062697734319641183 0.0014311063399309923 0 -0.006272317305962052 0.0021885807067164621 0 -0.0073627281345287421 0.00043903453881238722 0 -0.0068967166009541404 0.0011960232091038513 0 -0.0079010118429171626 0.0013275048366382543 0 0.00039254768971721491 -0.0039951142726059189 0 0.00068833745998816216 -0.0039031962428637068 0 -0.00020462323328241565 -0.0043527213102151855 0 -0.0067157720446628082 0.00051338974581868367 0 -0.011174464051135606 -0.0013918418580914492 0 -0.0059928453097560725 -0.00081412819184952499 0 -0.0058203201821575377 0.0003947835778501248 0 -0.0081378555009623908 -0.00094620218744290879 0 -0.0015894002976411044 -0.0014700084173567603 0 -0.0088725720013099665 -0.0026362223589940191 0 -0.0046991114013907398 7.3193261478276519e-05 0 -0.0056236988102957644 0.00069546528528258752 0 -0.0049056158601772423 0.001011863054269406 0 -0.0067940579694320841 -0.00036256672494663087 0 -0.0056236988102957644 0.00069546528528258752 0 -0.0064405550335247313 0.00079402207658160891 0 -0.0066379297365413044 -0.00031824409792307777 0 -0.0050995880784520664 0.0002180793980218912 0 -0.0067940579694320841 -0.00036256672494663087 0 -0.0046991114013907398 7.3193261478276519e-05 0 -0.0056236988102957644 0.00069546528528258752 0 -0.0056236988102957644 0.00069546528528258752 0 -0.0057868263435774418 0.0012802104052303286 0 -0.0053656660723672882 0.0012264829265077081 0 -0.0064405550335247313 0.00079402207658160891 0 -0.0062697734319641183 0.0014311063399309923 0 -0.0057868263435774418 0.0012802104052303286 0 -0.0056236988102957644 0.00069546528528258752 0 -0.0064405550335247313 0.00079402207658160891 0 -0.0057868263435774418 0.0012802104052303286 0 -0.0062697734319641183 0.0014311063399309923 0 -0.0057868263435774418 0.0012802104052303286 0 -0.0058240866241893799 0.0016146976119616639 0 -0.0055649381051987492 0.0014885418623980253 0 -0.0058240866241893799 0.0016146976119616639 0 -0.0052484511737598246 0.0016647596447057088 0 -0.0055649381051987492 0.0014885418623980253 0 -0.0057868263435774418 0.0012802104052303286 0 -0.0053656660723672882 0.0012264829265077081 0 -0.0055649381051987492 0.0014885418623980253 0 -0.0057868263435774418 0.0012802104052303286 0 -0.0058240866241893799 0.0016146976119616639 0 -0.0039694361860216111 0.0011479070786306774 0 -0.0052484511737598246 0.0016647596447057088 0 -0.0049056158601772423 0.001011863054269406 0 -0.0052484511737598246 0.0016647596447057088 0 -0.0049056158601772423 0.001011863054269406 0 -0.0053656660723672882 0.0012264829265077081 0 -0.0031030342521702887 0.00099362228255370894 0 -0.0043734723219795175 0.001353599991252744 0 -0.002282013216621981 0.00091170922835780664 0 -0.003327616970590024 0.00087880658264162244 0 -0.0031652361118172938 0.0010228883366077469 0 -0.0055649381051987492 0.0014885418623980253 0 -0.0052484511737598246 0.0016647596447057088 0 -0.0053656660723672882 0.0012264829265077081 0 -0.0056236988102957644 0.00069546528528258752 0 -0.0049056158601772423 0.001011863054269406 0 -0.0053656660723672882 0.0012264829265077081 0 -0.0039694361860216111 0.0011479070786306774 0 -0.0046991114013907398 7.3193261478276519e-05 0 -0.0049056158601772423 0.001011863054269406 0 -0.0007931619121816899 0.0011617319523966839 0 -0.0024128241765888044 0.0015491678803826092 0 -0.0031652361118172938 0.0010228883366077469 0 -0.0007931619121816899 0.0011617319523966839 0 -0.0024128241765888044 0.0015491678803826092 0 -0.0018490200872830216 0.0017488764910171348 0 -0.0024128241765888044 0.0015491678803826092 0 -0.0024062415174617847 0.0019990688075489432 0 -0.0018490200872830216 0.0017488764910171348 0 -0.0024128241765888044 0.0015491678803826092 0 -0.0024062415174617847 0.0019990688075489432 0 -0.0030560264476783682 0.0019018844240815073 0 -0.0024062415174617847 0.0019990688075489432 0 -0.0018490200872830216 0.0017488764910171348 0 -0.0015746477962188192 0.0024966911336669474 0 -0.0033524955367419747 0.0012615223845517307 0 -0.0031645205792553747 0.0014897465191801545 0 -0.0038120974944091581 0.0017410245860984359 0 -0.003327616970590024 0.00087880658264162244 0 -0.0033524955367419747 0.0012615223845517307 0 -0.0038120974944091581 0.0017410245860984359 0 -0.003327616970590024 0.00087880658264162244 0 -0.0033524955367419747 0.0012615223845517307 0 -0.0031652361118172938 0.0010228883366077469 0 -0.0024128241765888044 0.0015491678803826092 0 -0.0031645205792553747 0.0014897465191801545 0 -0.0031652361118172938 0.0010228883366077469 0 -0.0033524955367419747 0.0012615223845517307 0 -0.0031645205792553747 0.0014897465191801545 0 -0.0031652361118172938 0.0010228883366077469 0 -0.0024128241765888044 0.0015491678803826092 0 -0.0031645205792553747 0.0014897465191801545 0 -0.0030560264476783682 0.0019018844240815073 0 -0.0031645205792553747 0.0014897465191801545 0 -0.0030560264476783682 0.0019018844240815073 0 -0.0038120974944091581 0.0017410245860984359 0 -0.0030560264476783682 0.0019018844240815073 0 -0.0035565919636949589 0.0023748451368659769 0 -0.0038120974944091581 0.0017410245860984359 0 -0.0035565919636949589 0.0023748451368659769 0 -0.0028167397028798207 0.0025554549890660053 0 -0.0035264379811243774 0.0031300246995236308 0 -0.0035565919636949589 0.0023748451368659769 0 -0.0035264379811243774 0.0031300246995236308 0 -0.0042276248515174791 0.0026237984041224184 0 -0.0024062415174617847 0.0019990688075489432 0 -0.0030560264476783682 0.0019018844240815073 0 -0.0028167397028798207 0.0025554549890660053 0 -0.0030560264476783682 0.0019018844240815073 0 -0.0035565919636949589 0.0023748451368659769 0 -0.0028167397028798207 0.0025554549890660053 0 -0.0028167397028798207 0.0025554549890660053 0 -0.0035264379811243774 0.0031300246995236308 0 -0.0025274591747026275 0.0036046277337455175 0 -0.0028167397028798207 0.0025554549890660053 0 -0.0015746477962188192 0.0024966911336669474 0 -0.0025274591747026275 0.0036046277337455175 0 -0.0024062415174617847 0.0019990688075489432 0 -0.0028167397028798207 0.0025554549890660053 0 -0.0015746477962188192 0.0024966911336669474 0 -0.0012961509315743323 0.0036999918367757361 0 -0.0015746477962188192 0.0024966911336669474 0 -0.0025274591747026275 0.0036046277337455175 0 -0.0012961509315743323 0.0036999918367757361 0 -0.0025274591747026275 0.0036046277337455175 0 -0.0023102633489718119 0.0052609413073782226 0 -0.0025274591747026275 0.0036046277337455175 0 -0.00353014813542077 0.0041146471912346409 0 -0.0023102633489718119 0.0052609413073782226 0 -0.0035264379811243774 0.0031300246995236308 0 -0.0025274591747026275 0.0036046277337455175 0 -0.00353014813542077 0.0041146471912346409 0 -0.00353014813542077 0.0041146471912346409 0 -0.0023102633489718119 0.0052609413073782226 0 -0.0042750795853153103 0.0052439936682266699 0 -0.0012961509315743323 0.0036999918367757361 0 -0.00089591257207845352 0.0050874985179432883 0 -0.0023102633489718119 0.0052609413073782226 0 0.0013904489558299645 -0.0031256531417042073 0 0.0018009813869272395 -0.0030394981705553548 0 0.0015064641375049446 -0.002696189304373927 0 -0.0042750795853153103 0.0052439936682266699 0 -0.0044900543580159383 0.0035204009444440134 0 -0.0057658395695815781 0.0033899327249045257 0 -0.00353014813542077 0.0041146471912346409 0 -0.0042750795853153103 0.0052439936682266699 0 -0.0044900543580159383 0.0035204009444440134 0 -0.0035264379811243774 0.0031300246995236308 0 -0.00353014813542077 0.0041146471912346409 0 -0.0044900543580159383 0.0035204009444440134 0 -0.0013865195211709808 0.0011083506681666632 0 -0.0036700326176488602 0.00086185901340877537 0 0.0013904489558299645 -0.0031256531417042073 0 0.0018009813869272395 -0.0030394981705553548 0 0.0012283580959691503 -0.0035916373117666242 0 -0.0042750795853153103 0.0052439936682266699 0 -0.0057658395695815781 0.0033899327249045257 0 -0.0064790984284389683 0.002971004682915784 0 -0.0052385983043783564 0.0027351543654874923 0 -0.006272317305962052 0.0021885807067164621 0 -0.0064513677933070619 0.0028643240904330635 0 -0.0044900543580159383 0.0035204009444440134 0 -0.0057658395695815781 0.0033899327249045257 0 -0.0052385983043783564 0.0027351543654874923 0 -0.0043734723219795175 0.001353599991252744 0 -0.0060750089484730143 0.0020863404824738967 0 -0.003327616970590024 0.00087880658264162244 0 -0.0038120974944091581 0.0017410245860984359 0 -0.006272317305962052 0.0021885807067164621 0 -0.0058240866241893799 0.0016146976119616639 0 -0.0052484511737598246 0.0016647596447057088 0 -0.006272317305962052 0.0021885807067164621 0 -0.0052385983043783564 0.0027351543654874923 0 -0.0038120974944091581 0.0017410245860984359 0 -0.006272317305962052 0.0021885807067164621 0 -0.0045271671898389314 0.0012946670726822135 0 -0.0036700326176488602 0.00086185901340877537 0 -0.0057658395695815781 0.0033899327249045257 0 -0.0052385983043783564 0.0027351543654874923 0 -0.0064513677933070619 0.0028643240904330635 0 -0.0052385983043783564 0.0027351543654874923 0 -0.0042276248515174791 0.0026237984041224184 0 -0.0038120974944091581 0.0017410245860984359 0 -0.0035264379811243774 0.0031300246995236308 0 -0.0044900543580159383 0.0035204009444440134 0 -0.0042276248515174791 0.0026237984041224184 0 -0.0044900543580159383 0.0035204009444440134 0 -0.0052385983043783564 0.0027351543654874923 0 -0.0042276248515174791 0.0026237984041224184 0 -0.0035565919636949589 0.0023748451368659769 0 -0.0042276248515174791 0.0026237984041224184 0 -0.0038120974944091581 0.0017410245860984359 0 -0.0062697734319641183 0.0014311063399309923 0 -0.0058240866241893799 0.0016146976119616639 0 -0.006272317305962052 0.0021885807067164621 0 -0.0036700326176488602 0.00086185901340877537 0 -0.0015894002976411044 -0.0014700084173567603 0 0.0012283580959691503 -0.0035916373117666242 0 0.00068833745998816216 -0.0039031962428637068 0 0.00081318112088053199 -0.0035454846210621069 0 -0.0079010118429171626 0.0013275048366382543 0 -0.006272317305962052 0.0021885807067164621 0 -0.0064513677933070619 0.0028643240904330635 0 -0.0059928453097560725 -0.00081412819184952499 0 -0.0035186689278578656 0.0017305376692994369 0 -0.0058203201821575377 0.0003947835778501248 0 -0.0067157720446628082 0.00051338974581868367 0 -0.0036700326176488602 0.00086185901340877537 0 0.00039254768971721491 -0.0039951142726059189 0 0.00068833745998816216 -0.0039031962428637068 0 0.00048373967881812553 -0.0036825015550474194 0 0.00078261432111478141 -0.0035414345436824714 0 -0.0043011300790415478 -0.0024366641185801382 0 0.00039254768971721491 -0.0039951142726059189 0 0.00048373967881812553 -0.0036825015550474194 0 0.00010938104341077647 -0.0039563465414155985 0 0.00068833745998816216 -0.0039031962428637068 0 0.00081318112088053199 -0.0035454846210621069 0 0.00048373967881812553 -0.0036825015550474194 0 0.00064872809970743849 -0.0033327810946338762 0 0.00042526265703327559 -0.0028973180702291917 0 0.00028177479871699802 -0.0034011936953933352 0 0.00048373967881812553 -0.0036825015550474194 0 0.00064872809970743849 -0.0033327810946338762 0 0.00028177479871699802 -0.0034011936953933352 0 0.00081318112088053199 -0.0035454846210621069 0 0.00048373967881812553 -0.0036825015550474194 0 0.00064872809970743849 -0.0033327810946338762 0 0.00064872809970743849 -0.0033327810946338762 0 0.0010282459093845879 -0.0032508039332584788 0 0.00083059803419285524 -0.0030709950730791651 0 0.0013904489558299645 -0.0031256531417042073 0 0.0012283580959691503 -0.0035916373117666242 0 0.0010282459093845879 -0.0032508039332584788 0 0.00081318112088053199 -0.0035454846210621069 0 0.00064872809970743849 -0.0033327810946338762 0 0.0010282459093845879 -0.0032508039332584788 0 0.0012283580959691503 -0.0035916373117666242 0 0.00081318112088053199 -0.0035454846210621069 0 0.0010282459093845879 -0.0032508039332584788 0 0.0013904489558299645 -0.0031256531417042073 0 0.0010282459093845879 -0.0032508039332584788 0 0.0015064641375049446 -0.002696189304373927 0 0.0011610760760697586 -0.0031315626403289366 0 0.0012036466614237778 -0.0030140960860457725 0 0.0010282459093845879 -0.0032508039332584788 0 0.0011622656178941551 -0.0030154252776768051 0 0.0014123699070181699 -0.0030088705319961532 0 0.0011622656178941551 -0.0030154252776768051 0 0.0010018982634103796 -0.0028304732452058877 0 0.0014780596826965745 -0.0030165209137435209 0 0.001898226560757735 -0.0028043063871771648 0 0.0014671975386052177 -0.0029914860892200587 0 0.0010282459093845879 -0.0032508039332584788 0 0.0011622656178941551 -0.0030154252776768051 0 0.00083059803419285524 -0.0030709950730791651 0 0.0011622656178941551 -0.0030154252776768051 0 0.0010018982634103796 -0.0028304732452058877 0 0.00083059803419285524 -0.0030709950730791651 0 0.001898226560757735 -0.0028043063871771648 0 0.0019434738883846536 -0.0035758449598049494 0 0.00064872809970743849 -0.0033327810946338762 0 0.00083059803419285524 -0.0030709950730791651 0 0.00042526265703327559 -0.0028973180702291917 0 0.0027549183461976377 -0.002793392855275397 0 0.0037685701980698524 -0.0027655858520792792 0 0.0032855884858821807 -0.0031417769064341788 0 0.0010018982634103796 -0.0028304732452058877 0 0.00083059803419285524 -0.0030709950730791651 0 0.00042526265703327559 -0.0028973180702291917 0 0.0019434738883846536 -0.0035758449598049494 0 0.0027784599948091136 -0.0031125719329506592 0 0.0037685701980698524 -0.0027655858520792792 0 0.0037123422449136553 -0.0031970014076391769 0 0.0032855884858821807 -0.0031417769064341788 0 0.003737316496198303 -0.003280525439872087 0 0.0035356501158639287 -0.0033377343284362632 0 0.0037256048015082005 -0.0032568604384814403 0 0.0045273942200644412 -0.0031241603283777173 0 0.004040215220224022 -0.0027588703562188644 0 0.0037256048015082005 -0.0032568604384814403 0 0.0032855884858821807 -0.0031417769064341788 0 0.0027507105915743815 -0.0035718172737183519 0 0.0037256048015082005 -0.0032568604384814403 0 0.0037123422449136553 -0.0031970014076391769 0 0.0032855884858821807 -0.0031417769064341788 0 0.0037256048015082005 -0.0032568604384814403 0 0.0035212389755340224 -0.0029170346287916535 0 0.004040215220224022 -0.0027588703562188644 0 0.0027549183461976377 -0.002793392855275397 0 0.0021137431344328849 -0.0032687141842820508 0 0.0014780596826965745 -0.0030165209137435209 0 0.0021137431344328849 -0.0032687141842820508 0 0.0027507105915743815 -0.0035718172737183519 0 0.0016045387649149066 -0.0035947163150767672 0 0.0045273942200644412 -0.0031241603283777173 0 0.0052041823133589316 -0.003000600805642377 0 0.0047138563296396218 -0.002634011857136406 0 0.0035356501158639287 -0.0033377343284362632 0 0.0038883958560503567 -0.0028405161623845793 0 0.0027549183461976377 -0.002793392855275397 0 0.0032855884858821807 -0.0031417769064341788 0 0.0027507105915743815 -0.0035718172737183519 0 0.0027549183461976377 -0.002793392855275397 0 0.0021137431344328849 -0.0032687141842820508 0 0.0027507105915743815 -0.0035718172737183519 0 0.0036306665824227492 -0.0023466964980430791 0 0.0048553156851277035 -0.0032300155708601679 0 0.0050182207198458013 -0.0021144304467622071 0 0.0038883958560503567 -0.0028405161623845793 0 0.0054424730115132181 -0.0024902530764971116 0 0.0021137431344328849 -0.0032687141842820508 0 0.0016045387649149066 -0.0035947163150767672 0 0.0014780596826965745 -0.0030165209137435209 0 0.0016045387649149066 -0.0035947163150767672 0 0.0014780596826965745 -0.0030165209137435209 0 0.0011936443531484803 -0.0030036866594852041 0 0.0038883958560503567 -0.0028405161623845793 0 0.003636336921047359 -0.0026019795617878831 0 0.0064157411111010086 -0.0018841073209654819 0 0.0048553156851277035 -0.0032300155708601679 0 0.0050182207198458013 -0.0021144304467622071 0 0.0074757258883096098 -0.0014304609615064579 0 0.0057266455799552165 -0.0028576771770772356 0 0.0064271209371393042 -0.0033569508709779062 0 0.0071572598602879919 -0.0018547412062772948 0 0.003636336921047359 -0.0026019795617878831 0 0.003636336921047359 -0.0026019795617878831 0 0.0029935751509980158 0.00046870739113106114 0 0.0021401990306372841 -0.0021011441449596806 0 0.0019806159594484918 -0.0025461815921101827 0 0.0024836120095599653 -0.00234323731786469 0 -0.00089591257207845352 0.0050874985179432883 0 -0.0023102633489718119 0.0052609413073782226 0 -0.0020558113420984562 0.0074837522374702099 0 -0.0023102633489718119 0.0052609413073782226 0 -0.0042750795853153103 0.0052439936682266699 0 -0.0020558113420984562 0.0074837522374702099 0 -0.0013865195211709808 0.0011083506681666632 0 0.0029935751509980158 0.00046870739113106114 0 0.0018009813869272395 -0.0030394981705553548 0 0.0019806159594484918 -0.0025461815921101827 0 0.0024836120095599653 -0.00234323731786469 0 0.0018009813869272395 -0.0030394981705553548 0 0.0019806159594484918 -0.0025461815921101827 0 0.0015064641375049446 -0.002696189304373927 0 0.0011622656178941551 -0.0030154252776768051 0 0.0014780596826965745 -0.0030165209137435209 0 0.0014123699070181699 -0.0030088705319961532 0 0.0014780596826965745 -0.0030165209137435209 0 0.0011936443531484803 -0.0030036866594852041 0 0.0014123699070181699 -0.0030088705319961532 0 0.003636336921047359 -0.0026019795617878831 0 0.0012036466614237778 -0.0030140960860457725 0 0.0021401990306372841 -0.0021011441449596806 0 0.0019806159594484918 -0.0025461815921101827 0 0.0015064641375049446 -0.002696189304373927 0 0.0017533696197036684 -0.003627677133242419 0 0.0026744461740442244 -0.0040670329144472652 0 0.001276020478587886 -0.0044245488025148978 0 0.0017533696197036684 -0.003627677133242419 0 0.001276020478587886 -0.0044245488025148978 0 0.0009501172445639483 -0.0037320306674300543 0 0.0017533696197036684 -0.003627677133242419 0 0.0013341613121795053 -0.0029942929345062636 0 0.002066475595625394 -0.0029579506939044599 0 0.0017533696197036684 -0.003627677133242419 0 0.0013341613121795053 -0.0029942929345062636 0 0.0009501172445639483 -0.0037320306674300543 0 0.0017533696197036684 -0.003627677133242419 0 0.002066475595625394 -0.0029579506939044599 0 0.0029021221219982683 -0.0032455042943600521 0 0.002066475595625394 -0.0029579506939044599 0 0.0029021221219982683 -0.0032455042943600521 0 0.0029531620510354368 -0.0027078631748295788 0 0.0029021221219982683 -0.0032455042943600521 0 0.0035212389755340224 -0.0029170346287916535 0 0.0034958705021695931 -0.0032346418348495123 0 0.0029021221219982683 -0.0032455042943600521 0 0.0035212389755340224 -0.0029170346287916535 0 0.0029531620510354368 -0.0027078631748295788 0 0.0037256048015082005 -0.0032568604384814403 0 0.0035212389755340224 -0.0029170346287916535 0 0.0034958705021695931 -0.0032346418348495123 0 0.0029021221219982683 -0.0032455042943600521 0 0.0034958705021695931 -0.0032346418348495123 0 0.003297668748347719 -0.0034687261970331863 0 0.0037123422449136553 -0.0031970014076391769 0 0.0034958705021695931 -0.0032346418348495123 0 0.003297668748347719 -0.0034687261970331863 0 0.0037256048015082005 -0.0032568604384814403 0 0.0037123422449136553 -0.0031970014076391769 0 0.0034958705021695931 -0.0032346418348495123 0 0.0037060684791405175 -0.0036208261615064815 0 0.003297668748347719 -0.0034687261970331863 0 0.0026744461740442244 -0.0040670329144472652 0 0.0019434738883846536 -0.0035758449598049494 0 0.0016655789047239364 -0.0044754109974801184 0 0.0037060684791405175 -0.0036208261615064815 0 0.0037123422449136553 -0.0031970014076391769 0 0.003297668748347719 -0.0034687261970331863 0 0.0017533696197036684 -0.003627677133242419 0 0.0029021221219982683 -0.0032455042943600521 0 0.0026744461740442244 -0.0040670329144472652 0 0.0029021221219982683 -0.0032455042943600521 0 0.003297668748347719 -0.0034687261970331863 0 0.0026744461740442244 -0.0040670329144472652 0 0.000730386673488051 -0.0047308665889881215 0 0.0005478340530803077 -0.0043577430625213968 0 0.0009464042000008558 -0.0044303155885582245 0 0.000730386673488051 -0.0047308665889881215 0 0.00022674973366372517 -0.0044952796588234997 0 0.0005478340530803077 -0.0043577430625213968 0 0.0001971970876644126 -0.0048585708469008025 0 0.000730386673488051 -0.0047308665889881215 0 0.00022674973366372517 -0.0044952796588234997 0 0.0019434738883846536 -0.0035758449598049494 0 0.0002907366766037904 -0.0042290125925949686 0 0.0002907366766037904 -0.0042290125925949686 0 -0.0043011300790415478 -0.0024366641185801382 0 0.00022674973366372517 -0.0044952796588234997 0 0.00023735058316439492 -0.0041058622668216421 0 0.0005478340530803077 -0.0043577430625213968 0 0.00048373967881812553 -0.0036825015550474194 0 0.00028177479871699802 -0.0034011936953933352 0 0.00010938104341077647 -0.0039563465414155985 0 -0.0043011300790415478 -0.0024366641185801382 0 -0.0086278847391939705 -0.0028887317393280088 0 0.0005478340530803077 -0.0043577430625213968 0 0.00083436701200284851 -0.0042239460767822352 0 0.0009464042000008558 -0.0044303155885582245 0 0.00023735058316439492 -0.0041058622668216421 0 0.0005478340530803077 -0.0043577430625213968 0 0.00083436701200284851 -0.0042239460767822352 0 0.00083436701200284851 -0.0042239460767822352 0 0.0009464042000008558 -0.0044303155885582245 0 0.0011398663311850102 -0.004504575491017012 0 0.0016655789047239364 -0.0044754109974801184 0 0.00130822691724261 -0.0044142036894699787 0 0.000730386673488051 -0.0047308665889881215 0 0.0009464042000008558 -0.0044303155885582245 0 0.001276020478587886 -0.0044245488025148978 0 0.0009464042000008558 -0.0044303155885582245 0 0.001276020478587886 -0.0044245488025148978 0 0.0011398663311850102 -0.004504575491017012 0 0.001276020478587886 -0.0044245488025148978 0 0.00095833450764632757 -0.0044968052677863152 0 0.0008402821566694704 -0.0042427258792627669 0 0.001276020478587886 -0.0044245488025148978 0 0.0008402821566694704 -0.0042427258792627669 0 0.0009501172445639483 -0.0037320306674300543 0 0.001276020478587886 -0.0044245488025148978 0 0.00095833450764632757 -0.0044968052677863152 0 0.0011398663311850102 -0.004504575491017012 0 -0.015523416110326309 -0.0017729609610795069 0 -0.015717881540286447 -0.0020093643607104368 0 -0.015710330327689273 -0.0019864875750932672 0 0.00095833450764632757 -0.0044968052677863152 0 0.0011398663311850102 -0.004504575491017012 0 0.00093647510206303888 -0.0048357274341473255 0 0.00083436701200284851 -0.0042239460767822352 0 0.0011398663311850102 -0.004504575491017012 0 0.0012579186509144237 -0.0044864695581996305 0 -0.0086278847391939705 -0.0028887317393280088 0 -0.0042975097341776004 -0.0043925978796887427 0 0.0011865756435820692 -0.0034655193506565279 0 -0.0042975097341776004 -0.0043925978796887427 0 -0.015717881540286447 -0.0020093643607104368 0 -0.015745131156977815 -0.0020355927674837321 0 -0.015710330327689273 -0.0019864875750932672 0 -0.015745131156977815 -0.0020355927674837321 0 -0.015710330327689273 -0.0019864875750932672 0 -0.01581175810725808 -0.0020512489258392606 0 -0.015710330327689273 -0.0019864875750932672 0 -0.015591947718221984 -0.0019796254221248573 0 -0.015723134225215585 -0.0020125613311814919 0 -0.015523416110326309 -0.0017729609610795069 0 -0.015710330327689273 -0.0019864875750932672 0 -0.015591947718221984 -0.0019796254221248573 0 -0.015591947718221984 -0.0019796254221248573 0 -0.015723134225215585 -0.0020125613311814919 0 -0.015311794802131474 -0.0020844433631119937 0 -0.015710330327689273 -0.0019864875750932672 0 -0.015723134225215585 -0.0020125613311814919 0 -0.015842927148079028 -0.0020235896271850588 0 -0.015723134225215585 -0.0020125613311814919 0 -0.015590467224624869 -0.0020116075126568847 0 -0.015706338371368034 -0.0020347812053304387 0 -0.015723134225215585 -0.0020125613311814919 0 -0.015842927148079028 -0.0020235896271850588 0 -0.0159497633551678 -0.0020130767244760811 0 -0.015842927148079028 -0.0020235896271850588 0 -0.015959277389870189 -0.0020152273693248273 0 -0.01581175810725808 -0.0020512489258392606 0 -0.015710330327689273 -0.0019864875750932672 0 -0.015842927148079028 -0.0020235896271850588 0 -0.01581175810725808 -0.0020512489258392606 0 -0.01481116439719132 -0.0017247713156821364 0 -0.015523416110326309 -0.0017729609610795069 0 -0.014873116909655086 -0.0019184780632052253 0 -0.0059928453097560725 -0.00081412819184952499 0 -0.0081378555009623908 -0.00094620218744290879 0 -0.0084885704130040172 -0.0033587031049623147 0 -0.0088725720013099665 -0.0026362223589940191 0 -0.016195987727934409 -0.002318743608013023 0 0.00039254768971721491 -0.0039951142726059189 0 -0.00014746818765325163 -0.0039313827066871304 0 -0.00020462323328241565 -0.0043527213102151855 0 -0.0043011300790415478 -0.0024366641185801382 0 -0.0088725720013099665 -0.0026362223589940191 0 -0.015523416110326309 -0.0017729609610795069 0 -0.015591947718221984 -0.0019796254221248573 0 -0.015311794802131474 -0.0020844433631119937 0 -0.015523416110326309 -0.0017729609610795069 0 -0.014873116909655086 -0.0019184780632052253 0 -0.015311794802131474 -0.0020844433631119937 0 -0.015389574895917966 -0.0018511951989327641 0 -0.016195987727934409 -0.002318743608013023 0 -0.01550207927453367 -0.0017794888536308096 0 -0.015590467224624869 -0.0020116075126568847 0 -0.01524305833331727 -0.0019443470855881136 0 -0.015723134225215585 -0.0020125613311814919 0 -0.01550207927453367 -0.0017794888536308096 0 -0.015590467224624869 -0.0020116075126568847 0 -0.0088725720013099665 -0.0026362223589940191 0 -0.011174464051135606 -0.0013918418580914492 0 -0.015137034521885933 -0.0015825639785802836 0 -0.01550207927453367 -0.0017794888536308096 0 -0.01524305833331727 -0.0019443470855881136 0 -0.011174464051135606 -0.0013918418580914492 0 -0.0136168121568833 -0.0017032160614540075 0 -0.012853518168007446 -0.00070919886935694252 0 -0.013106592978529057 -0.0025186670519254206 0 -0.014374946606021868 -0.0022810181501381525 0 -0.0080175675875684312 -0.00047085797417380313 0 -0.0091266712075897625 8.5808752306595318e-05 0 -0.009311795382675082 -0.0011904830628721257 0 -0.011174464051135606 -0.0013918418580914492 0 -0.015699046570143982 -0.0022519005428167736 0 -0.015590467224624869 -0.0020116075126568847 0 -0.01524305833331727 -0.0019443470855881136 0 -0.015602883867062626 -0.0021617041902692062 0 -0.0136168121568833 -0.0017032160614540075 0 -0.015699046570143982 -0.0022519005428167736 0 -0.015590467224624869 -0.0020116075126568847 0 -0.015659489896160599 -0.0021353471080722496 0 -0.015706338371368034 -0.0020347812053304387 0 -0.015590467224624869 -0.0020116075126568847 0 -0.015659489896160599 -0.0021353471080722496 0 -0.015602883867062626 -0.0021617041902692062 0 -0.015659489896160599 -0.0021353471080722496 0 -0.015610883787623531 -0.0021451988231341542 0 -0.015755366197601081 -0.0022632933356704203 0 -0.015681418856449258 -0.0022411880637597551 0 -0.015699046570143982 -0.0022519005428167736 0 -0.01605555094117548 -0.0017579256731863073 0 -0.015591350043896945 -0.0021613622212006112 0 -0.016384906811873445 -0.0020985640540706683 0 -0.016925882975501776 -0.0012922017282444582 0 -0.016616323697003527 -0.001969831113575455 0 -0.017793754903121538 -0.0015220648704464001 0 -0.018324315974814594 -0.0014734129431415812 0 -0.017670827699625427 -0.0017495688643760197 0 -0.017793754903121538 -0.0015220648704464001 0 -0.018057480346165927 -0.0012404024630370031 0 -0.018324315974814594 -0.0014734129431415812 0 -0.015699046570143982 -0.0022519005428167736 0 -0.016616323697003527 -0.001969831113575455 0 -0.017901123013359208 -0.0012542207059494058 0 -0.017793754903121538 -0.0015220648704464001 0 -0.018057480346165927 -0.0012404024630370031 0 -0.017901123013359208 -0.0012542207059494058 0 -0.017793754903121538 -0.0015220648704464001 0 -0.017660313214969012 -0.0013607879097278575 0 -0.015545566999295974 -0.0018515173514046124 0 -0.01605555094117548 -0.0017579256731863073 0 -0.015591350043896945 -0.0021613622212006112 0 -0.018112926809653096 -0.00083971214214735774 0 -0.018036934465575177 -0.00073223779658020387 0 -0.018196925322329978 -0.00081263601713609706 0 -0.017139462408678318 -0.00076209158158600072 0 -0.016285349748163303 -0.0012048655888684684 0 -0.016239813793192944 -0.0008461262484785421 0 -0.017645346686048766 -0.00072114345081565829 0 -0.016925882975501776 -0.0012922017282444582 0 -0.0136168121568833 -0.0017032160614540075 0 -0.016925882975501776 -0.0012922017282444582 0 -0.018203417355094783 -0.0010018862601255992 0 -0.018057480346165927 -0.0012404024630370031 0 -0.018324315974814594 -0.0014734129431415812 0 -0.018112926809653096 -0.00083971214214735774 0 -0.018203417355094783 -0.0010018862601255992 0 -0.018196925322329978 -0.00081263601713609706 0 -0.017869895396878933 -0.0010868631247290554 0 -0.016925882975501776 -0.0012922017282444582 0 -0.015842927148079028 -0.0020235896271850588 0 -0.0159497633551678 -0.0020130767244760811 0 -0.015959277389870189 -0.0020152273693248273 0 -0.0159497633551678 -0.0020130767244760811 0 -0.016299220918845357 -0.0019529396023379472 0 -0.015959277389870189 -0.0020152273693248273 0 -0.015723134225215585 -0.0020125613311814919 0 -0.015706338371368034 -0.0020347812053304387 0 -0.0159497633551678 -0.0020130767244760811 0 -0.015706338371368034 -0.0020347812053304387 0 -0.015765033527435728 -0.0021052398819528745 0 -0.0159497633551678 -0.0020130767244760811 0 -0.015659489896160599 -0.0021353471080722496 0 -0.015706338371368034 -0.0020347812053304387 0 -0.015765033527435728 -0.0021052398819528745 0 -0.015765033527435728 -0.0021052398819528745 0 -0.0159497633551678 -0.0020130767244760811 0 -0.015755366197601081 -0.0022632933356704203 0 -0.015659489896160599 -0.0021353471080722496 0 -0.015765033527435728 -0.0021052398819528745 0 -0.015755366197601081 -0.0022632933356704203 0 -0.016616323697003527 -0.001969831113575455 0 -0.016338483588832876 -0.0019763879812741397 0 -0.017670827699625427 -0.0017495688643760197 0 -0.017196784916679815 -0.0014507580181949513 0 -0.016299220918845357 -0.0019529396023379472 0 -0.0159497633551678 -0.0020130767244760811 0 -0.015755366197601081 -0.0022632933356704203 0 -0.016299220918845357 -0.0019529396023379472 0 -0.017670827699625427 -0.0017495688643760197 0 -0.017660313214969012 -0.0013607879097278575 0 -0.017196784916679815 -0.0014507580181949513 0 -0.017793754903121538 -0.0015220648704464001 0 -0.017670827699625427 -0.0017495688643760197 0 -0.017660313214969012 -0.0013607879097278575 0 -0.016270459419420038 -0.0013199400679090065 0 -0.016902662310818481 -0.0012534409900346293 0 -0.016299220918845357 -0.0019529396023379472 0 -0.016902662310818481 -0.0012534409900346293 0 -0.017196784916679815 -0.0014507580181949513 0 -0.016299220918845357 -0.0019529396023379472 0 -0.016270459419420038 -0.0013199400679090065 0 -0.016299220918845357 -0.0019529396023379472 0 -0.015866969705065279 -0.0017987924482404322 0 -0.016270459419420038 -0.0013199400679090065 0 -0.015866969705065279 -0.0017987924482404322 0 -0.015674840947373855 -0.0014445027866629284 0 -0.016299220918845357 -0.0019529396023379472 0 -0.015866969705065279 -0.0017987924482404322 0 -0.015959277389870189 -0.0020152273693248273 0 -0.015866969705065279 -0.0017987924482404322 0 -0.015959277389870189 -0.0020152273693248273 0 -0.015624642152571366 -0.0019665220573647346 0 -0.015866969705065279 -0.0017987924482404322 0 -0.015624642152571366 -0.0019665220573647346 0 -0.015411861364937017 -0.001721660661063199 0 -0.015866969705065279 -0.0017987924482404322 0 -0.015674840947373855 -0.0014445027866629284 0 -0.015411861364937017 -0.001721660661063199 0 -0.015107929767623292 -0.0013009999158183556 0 -0.015674840947373855 -0.0014445027866629284 0 -0.015411861364937017 -0.001721660661063199 0 -0.015107929767623292 -0.0013009999158183556 0 -0.015411861364937017 -0.001721660661063199 0 -0.015074563804978772 -0.0017616157292087091 0 -0.015143929383904794 -0.0016540944033192398 0 -0.015003348590004923 -0.0017178534637163709 0 -0.015063839072462027 -0.0018913559263319902 0 -0.015029131444943328 -0.0015657609311690436 0 -0.015077933630318108 -0.001803810657407986 0 -0.015003348590004923 -0.0017178534637163709 0 -0.015063839072462027 -0.0018913559263319902 0 -0.014925156435872717 -0.0018286481592222688 0 -0.015063839072462027 -0.0018913559263319902 0 -0.015010998856806681 -0.0021302756654265039 0 -0.014909466949577406 -0.0019702001632421022 0 -0.015074563804978772 -0.0017616157292087091 0 -0.015250351293807678 -0.0019830976091165229 0 -0.015010998856806681 -0.0021302756654265039 0 -0.015077933630318108 -0.001803810657407986 0 -0.015011086299141201 -0.0021135293790162457 0 -0.015063839072462027 -0.0018913559263319902 0 -0.014925156435872717 -0.0018286481592222688 0 -0.014909466949577406 -0.0019702001632421022 0 -0.015624642152571366 -0.0019665220573647346 0 -0.015411861364937017 -0.001721660661063199 0 -0.015250351293807678 -0.0019830976091165229 0 -0.015411861364937017 -0.001721660661063199 0 -0.015074563804978772 -0.0017616157292087091 0 -0.015250351293807678 -0.0019830976091165229 0 -0.015250351293807678 -0.0019830976091165229 0 -0.015160570780140426 -0.0022109252458885841 0 -0.015482981383881584 -0.0021053344013897963 0 -0.015624642152571366 -0.0019665220573647346 0 -0.015250351293807678 -0.0019830976091165229 0 -0.015482981383881584 -0.0021053344013897963 0 -0.015160570780140426 -0.0022109252458885841 0 -0.01560446066789465 -0.0022138226302842825 0 -0.015482981383881584 -0.0021053344013897963 0 -0.015010998856806681 -0.0021302756654265039 0 -0.015160570780140426 -0.0022109252458885841 0 -0.014771306745916169 -0.0020864621992908784 0 -0.0010542740227600367 -0.0059544274917741414 0 -0.0021171221204036353 -0.0064618968308038441 0 -0.0016890414188468559 -0.0053208989885153721 0 -0.0081726699656794084 -0.004019695538727679 0 -0.0074023792092400729 -0.0047547908773809275 0 -0.015250351293807678 -0.0019830976091165229 0 -0.015010998856806681 -0.0021302756654265039 0 -0.015160570780140426 -0.0022109252458885841 0 -0.0010542740227600367 -0.0059544274917741414 0 -0.0016890414188468559 -0.0053208989885153721 0 -0.00085399658958476218 -0.0051616359790343245 0 -0.0010542740227600367 -0.0059544274917741414 0 -0.00045394138046538085 -0.0052126301274932731 0 -0.00010874116408987848 -0.0053885564051759059 0 -0.0010542740227600367 -0.0059544274917741414 0 -0.00045394138046538085 -0.0052126301274932731 0 -0.00085399658958476218 -0.0051616359790343245 0 -0.0081726699656794084 -0.004019695538727679 0 -0.0084621559228122926 -0.0038071182304137974 0 -0.0042975097341776004 -0.0043925978796887427 0 -0.0084621559228122926 -0.0038071182304137974 0 -0.015717881540286447 -0.0020093643607104368 0 -0.01560446066789465 -0.0022138226302842825 0 -0.015724733013426449 -0.0020916024786223216 0 -0.01560446066789465 -0.0022138226302842825 0 -0.015724733013426449 -0.0020916024786223216 0 -0.015712141557962682 -0.0020975841202927224 0 -0.015717881540286447 -0.0020093643607104368 0 -0.015745131156977815 -0.0020355927674837321 0 -0.015724733013426449 -0.0020916024786223216 0 -0.015745131156977815 -0.0020355927674837321 0 -0.015724733013426449 -0.0020916024786223216 0 -0.01581175810725808 -0.0020512489258392606 0 -0.015724733013426449 -0.0020916024786223216 0 -0.01581175810725808 -0.0020512489258392606 0 -0.015712141557962682 -0.0020975841202927224 0 -0.015959277389870189 -0.0020152273693248273 0 -0.01581175810725808 -0.0020512489258392606 0 -0.015712141557962682 -0.0020975841202927224 0 -0.015959277389870189 -0.0020152273693248273 0 -0.015624642152571366 -0.0019665220573647346 0 -0.015712141557962682 -0.0020975841202927224 0 -0.01560446066789465 -0.0022138226302842825 0 -0.015482981383881584 -0.0021053344013897963 0 -0.015712141557962682 -0.0020975841202927224 0 -0.015624642152571366 -0.0019665220573647346 0 -0.015482981383881584 -0.0021053344013897963 0 -0.015712141557962682 -0.0020975841202927224 0 -0.015230508383633981 -0.0051229154993325966 0 -0.015107372601230433 -0.0044479558660702441 0 -0.0156583310514282 -0.0050509171193451122 0 -0.014325821520083029 -0.0052684444729709191 0 -0.014758992032077894 -0.0049173021734357876 0 -0.014842983851367082 -0.0055780622947418021 0 -0.015230508383633981 -0.0051229154993325966 0 -0.014758992032077894 -0.0049173021734357876 0 -0.014842983851367082 -0.0055780622947418021 0 -0.015230508383633981 -0.0051229154993325966 0 -0.014758992032077894 -0.0049173021734357876 0 -0.015107372601230433 -0.0044479558660702441 0 -0.015107372601230433 -0.0044479558660702441 0 -0.015744425898893025 -0.0042370296988858674 0 -0.016736730027044032 -0.0050779714716967976 0 -0.014916619075013628 -0.0038660763772410353 0 -0.015107372601230433 -0.0044479558660702441 0 -0.015744425898893025 -0.0042370296988858674 0 -0.014916619075013628 -0.0038660763772410353 0 -0.014507260918616826 -0.0041316206688825543 0 -0.015107372601230433 -0.0044479558660702441 0 -0.015744425898893025 -0.0042370296988858674 0 -0.016629596009452498 -0.0043177383068613183 0 -0.016736730027044032 -0.0050779714716967976 0 -0.014578579382674772 -0.004279331171899302 0 -0.017635161922615442 -0.005369378145694742 0 -0.016183758034215658 -0.0038441457425374996 0 -0.015744425898893025 -0.0042370296988858674 0 -0.016629596009452498 -0.0043177383068613183 0 -0.016629596009452498 -0.0043177383068613183 0 -0.016736730027044032 -0.0050779714716967976 0 -0.017307106572479802 -0.0048372121356238173 0 -0.015230508383633981 -0.0051229154993325966 0 -0.0156583310514282 -0.0050509171193451122 0 -0.015643457367042712 -0.005807583965589295 0 -0.0156583310514282 -0.0050509171193451122 0 -0.015940395667479349 -0.0054381343113593054 0 -0.015643457367042712 -0.005807583965589295 0 -0.016736730027044032 -0.0050779714716967976 0 -0.017307106572479802 -0.0048372121356238173 0 -0.017752762702764269 -0.005543565027941919 0 -0.0156583310514282 -0.0050509171193451122 0 -0.015940395667479349 -0.0054381343113593054 0 -0.016246710917397773 -0.0054471705208351696 0 -0.017635161922615442 -0.005369378145694742 0 -0.0098269012536186286 -0.0056155682711517751 0 -0.017307106572479802 -0.0048372121356238173 0 -0.017823413091434061 -0.0051056405318882477 0 -0.017752762702764269 -0.005543565027941919 0 -0.017099953970331823 -0.0040028163830588045 0 -0.017667721225147419 -0.0043230339913954167 0 -0.017307106572479802 -0.0048372121356238173 0 -0.017099953970331823 -0.0040028163830588045 0 -0.016629596009452498 -0.0043177383068613183 0 -0.017307106572479802 -0.0048372121356238173 0 -0.017667721225147419 -0.0043230339913954167 0 -0.017307106572479802 -0.0048372121356238173 0 -0.017823413091434061 -0.0051056405318882477 0 -0.016385668892774128 -0.0025058818674989413 0 -0.014543041844844694 -0.0038411040796862369 0 -0.014865346906257949 -0.0016639235288226949 0 -0.014925156435872717 -0.0018286481592222688 0 -0.014769606488790141 -0.0019407562128886458 0 -0.017590267348445422 -0.0043404627697541144 0 -0.014543041844844694 -0.0038411040796862369 0 -0.017706995727116433 -0.0036720886073927676 0 -0.017505162223048477 -0.0038374438086964499 0 -0.017554849798424595 -0.0041585093758959796 0 -0.014865346906257949 -0.0016639235288226949 0 -0.015003348590004923 -0.0017178534637163709 0 -0.014925156435872717 -0.0018286481592222688 0 -0.014925156435872717 -0.0018286481592222688 0 -0.014769606488790141 -0.0019407562128886458 0 -0.014909466949577406 -0.0019702001632421022 0 -0.014543041844844694 -0.0038411040796862369 0 -0.0074023792092400729 -0.0047547908773809275 0 -0.014543041844844694 -0.0038411040796862369 0 -0.0098269012536186286 -0.0056155682711517751 0 -0.011023594524691423 -0.0045910551176520939 0 -0.010984415607985886 -0.0047350330417668977 0 -0.011039013752626564 -0.00476692914833011 0 -0.0098269012536186286 -0.0056155682711517751 0 -0.0074023792092400729 -0.0047547908773809275 0 -0.014769606488790141 -0.0019407562128886458 0 -0.014909466949577406 -0.0019702001632421022 0 -0.014771306745916169 -0.0020864621992908784 0 -0.015010998856806681 -0.0021302756654265039 0 -0.014909466949577406 -0.0019702001632421022 0 -0.014771306745916169 -0.0020864621992908784 0 -0.0074023792092400729 -0.0047547908773809275 0 -0.00082036331228531139 -0.005203586776361388 0 -0.0018697875165653737 -0.0054958169500769049 0 -0.0017423482004910653 -0.0051297632767353159 0 -0.0018940740005847772 -0.0048410982425410509 0 -0.0017423482004910653 -0.0051297632767353159 0 -0.0017600798256772426 -0.0054478816719482903 0 -0.0014882787159488512 -0.0048266743341777787 0 -0.0098269012536186286 -0.0056155682711517751 0 -0.0007712925168651385 -0.0050270110161342568 0 -0.0018697875165653737 -0.0054958169500769049 0 -0.0017423482004910653 -0.0051297632767353159 0 -0.0017600798256772426 -0.0054478816719482903 0 -0.0017423482004910653 -0.0051297632767353159 0 -0.0014882787159488512 -0.0048266743341777787 0 -0.0018940740005847772 -0.0048410982425410509 0 -0.0020374340187251996 -0.0049718449408040072 0 -0.0025019892253848545 -0.0054156660987172284 0 -0.0025521426067317008 -0.0050110527782414177 0 -0.0098269012536186286 -0.0056155682711517751 0 -0.0088975335131072312 -0.0056428584036203574 0 -0.0020627595762626526 -0.0056215687927343707 0 -0.0020374340187251996 -0.0049718449408040072 0 -0.0025019892253848545 -0.0054156660987172284 0 -0.015940395667479349 -0.0054381343113593054 0 -0.016246710917397773 -0.0054471705208351696 0 -0.015643457367042712 -0.005807583965589295 0 -0.0088975335131072312 -0.0056428584036203574 0 -0.0092007181702584533 -0.0058617930324534337 0 -0.0025019892253848545 -0.0054156660987172284 0 -0.0025521426067317008 -0.0050110527782414177 0 -0.0030983121484718505 -0.0052197654949957713 0 -0.0025521426067317008 -0.0050110527782414177 0 -0.0030983121484718505 -0.0052197654949957713 0 -0.002804597291123674 -0.004741443329181385 0 -0.015643457367042712 -0.005807583965589295 0 -0.014785909476677777 -0.0063799968433005038 0 -0.014842983851367082 -0.0055780622947418021 0 -0.015230508383633981 -0.0051229154993325966 0 -0.015643457367042712 -0.005807583965589295 0 -0.014842983851367082 -0.0055780622947418021 0 -0.0021871321022921444 -0.0043785533556391937 0 -0.0022254963162605837 -0.0040299301419861157 0 -0.0019632985281027911 -0.0040179650998227075 0 -0.0022254963162605837 -0.0040299301419861157 0 -0.0019632985281027911 -0.0040179650998227075 0 -0.0019970238060816837 -0.0038240663071130642 0 -0.002185817660773511 -0.0041866666416612254 0 -0.0024394131084577108 -0.004183529744972451 0 -0.0032656372010960257 -0.0045288534682463334 0 -0.0026977116527831788 -0.0041772473459997317 0 -0.002804597291123674 -0.004741443329181385 0 -0.0032656372010960257 -0.0045288534682463334 0 -0.0030983121484718505 -0.0052197654949957713 0 -0.002804597291123674 -0.004741443329181385 0 -0.0026977116527831788 -0.0041772473459997317 0 -0.002804597291123674 -0.004741443329181385 0 -0.0023714132907590021 -0.0046386171454570781 0 -0.0025521426067317008 -0.0050110527782414177 0 -0.002804597291123674 -0.004741443329181385 0 -0.0023714132907590021 -0.0046386171454570781 0 -0.0026977116527831788 -0.0041772473459997317 0 -0.0023714132907590021 -0.0046386171454570781 0 -0.0019383083914281019 -0.0041644966706958515 0 -0.0024394131084577108 -0.004183529744972451 0 -0.0020269682642857583 -0.0038625162160241346 0 -0.0026977116527831788 -0.0041772473459997317 0 -0.0019383083914281019 -0.0041644966706958515 0 -0.0020188973530139141 -0.0038595203600052664 0 -0.0019383083914281019 -0.0041644966706958515 0 -0.001643231395857567 -0.0041109784528647296 0 -0.0018391106879460163 -0.0039434832037010085 0 -0.0020374340187251996 -0.0049718449408040072 0 -0.0023714132907590021 -0.0046386171454570781 0 -0.0019383083914281019 -0.0041644966706958515 0 -0.0020374340187251996 -0.0049718449408040072 0 -0.0025521426067317008 -0.0050110527782414177 0 -0.0023714132907590021 -0.0046386171454570781 0 -0.0018940740005847772 -0.0048410982425410509 0 -0.0019383083914281019 -0.0041644966706958515 0 -0.0016317764674748667 -0.004445003745448612 0 -0.0007712925168651385 -0.0050270110161342568 0 -0.0022976095826375649 -0.0041034557801579372 0 -0.0014882787159488512 -0.0048266743341777787 0 -0.0018940740005847772 -0.0048410982425410509 0 -0.0016317764674748667 -0.004445003745448612 0 -0.0014882787159488512 -0.0048266743341777787 0 -0.0016317764674748667 -0.004445003745448612 0 -0.0012558757130982741 -0.0042475295249348706 0 -0.001643231395857567 -0.0041109784528647296 0 -0.0014731987030525012 -0.0039793503940061953 0 -0.0012558757130982741 -0.0042475295249348706 0 -0.0016317764674748667 -0.004445003745448612 0 -0.001643231395857567 -0.0041109784528647296 0 -0.0012558757130982741 -0.0042475295249348706 0 -0.0019383083914281019 -0.0041644966706958515 0 -0.0016317764674748667 -0.004445003745448612 0 -0.001643231395857567 -0.0041109784528647296 0 -0.0014731987030525012 -0.0039793503940061953 0 -0.0016881129480969363 -0.0038246753990058258 0 -0.0012632238126090139 -0.0037756605595947426 0 -0.0016881129480969363 -0.0038246753990058258 0 -0.0017340911593405348 -0.003685131960188198 0 -0.0012632238126090139 -0.0037756605595947426 0 -0.001643231395857567 -0.0041109784528647296 0 -0.0016881129480969363 -0.0038246753990058258 0 -0.0018391106879460163 -0.0039434832037010085 0 -0.001643231395857567 -0.0041109784528647296 0 -0.0014731987030525012 -0.0039793503940061953 0 -0.0016881129480969363 -0.0038246753990058258 0 -0.0015045198235837723 -0.0029813073741899931 0 -0.0013582185460567484 -0.0038206723362741858 0 -0.0016667666934026943 -0.0035749961809656713 0 -0.0017340911593405348 -0.003685131960188198 0 -0.0012632238126090139 -0.0037756605595947426 0 -0.0016667666934026943 -0.0035749961809656713 0 -0.0017340911593405348 -0.003685131960188198 0 -0.0017470986158060371 -0.0036163001836095063 0 -0.0017340911593405348 -0.003685131960188198 0 -0.001858950455523324 -0.0036842591321220564 0 -0.0018340990918674248 -0.003788516133211121 0 -0.0017470986158060371 -0.0036163001836095063 0 -0.001858950455523324 -0.0036842591321220564 0 -0.001796757509402691 -0.0035917823905166606 0 -0.0017340911593405348 -0.003685131960188198 0 -0.0017470986158060371 -0.0036163001836095063 0 -0.001858950455523324 -0.0036842591321220564 0 -0.001858950455523324 -0.0036842591321220564 0 -0.0018340990918674248 -0.003788516133211121 0 -0.0020188973530139141 -0.0038595203600052664 0 -0.0016881129480969363 -0.0038246753990058258 0 -0.0018340990918674248 -0.003788516133211121 0 -0.0018391106879460163 -0.0039434832037010085 0 -0.0016881129480969363 -0.0038246753990058258 0 -0.0017340911593405348 -0.003685131960188198 0 -0.0018340990918674248 -0.003788516133211121 0 -0.0019383083914281019 -0.0041644966706958515 0 -0.0018391106879460163 -0.0039434832037010085 0 -0.0020188973530139141 -0.0038595203600052664 0 -0.0018340990918674248 -0.003788516133211121 0 -0.0018391106879460163 -0.0039434832037010085 0 -0.0020188973530139141 -0.0038595203600052664 0 -0.0020188973530139141 -0.0038595203600052664 0 -0.0019451241473270292 -0.0037395356267941175 0 -0.0019970238060816837 -0.0038240663071130642 0 -0.0019632985281027911 -0.0040179650998227075 0 -0.0020188973530139141 -0.0038595203600052664 0 -0.0019970238060816837 -0.0038240663071130642 0 -0.0019451241473270292 -0.0037395356267941175 0 -0.001963114705743911 -0.0036897998460283321 0 -0.0018672624383528303 -0.0036160792165881505 0 -0.001858950455523324 -0.0036842591321220564 0 -0.0020188973530139141 -0.0038595203600052664 0 -0.0019451241473270292 -0.0037395356267941175 0 -0.001858950455523324 -0.0036842591321220564 0 -0.0019451241473270292 -0.0037395356267941175 0 -0.0018672624383528303 -0.0036160792165881505 0 -0.0019451241473270292 -0.0037395356267941175 0 -0.001963114705743911 -0.0036897998460283321 0 -0.0019970238060816837 -0.0038240663071130642 0 -0.0021888123011950954 -0.0037274954065297915 0 -0.001963114705743911 -0.0036897998460283321 0 -0.0019970238060816837 -0.0038240663071130642 0 -0.0021888123011950954 -0.0037274954065297915 0 -0.0019549615288604752 -0.0036673322725491947 0 -0.001963114705743911 -0.0036897998460283321 0 -0.0022254963162605837 -0.0040299301419861157 0 -0.0021888123011950954 -0.0037274954065297915 0 -0.0019970238060816837 -0.0038240663071130642 0 7.7197556728087716e-05 -0.004484781573899861 0 0.00039248409216679277 -0.0040983581059242406 0 -0.00034880018822241624 -0.0041885325196227537 0 7.7197556728087716e-05 -0.004484781573899861 0 -0.00039890175478193547 -0.004709564444730324 0 -0.00034880018822241624 -0.0041885325196227537 0 7.7197556728087716e-05 -0.004484781573899861 0 0.00039248409216679277 -0.0040983581059242406 0 0.00055191555278777176 -0.0043903157292463262 0 0.00039248409216679277 -0.0040983581059242406 0 0.0008402821566694704 -0.0042427258792627669 0 0.00055191555278777176 -0.0043903157292463262 0 0.00095833450764632757 -0.0044968052677863152 0 0.00055191555278777176 -0.0043903157292463262 0 0.00049419327080791958 -0.0046330711940240502 0 0.00095833450764632757 -0.0044968052677863152 0 0.0008402821566694704 -0.0042427258792627669 0 0.00055191555278777176 -0.0043903157292463262 0 7.7197556728087716e-05 -0.004484781573899861 0 0.00055191555278777176 -0.0043903157292463262 0 0.00049419327080791958 -0.0046330711940240502 0 0.00093647510206303888 -0.0048357274341473255 0 0.00049419327080791958 -0.0046330711940240502 0 -6.8064673089092686e-05 -0.0049789454043338332 0 -0.0042975097341776004 -0.0043925978796887427 0 0.0019883857247691822 -0.0051345999328462327 0 0.00036741541316297324 -0.0050201858153537072 0 -0.00010874116408987848 -0.0053885564051759059 0 -6.8064673089092686e-05 -0.0049789454043338332 0 0.00095833450764632757 -0.0044968052677863152 0 0.00093647510206303888 -0.0048357274341473255 0 0.00049419327080791958 -0.0046330711940240502 0 7.7197556728087716e-05 -0.004484781573899861 0 0.00049419327080791958 -0.0046330711940240502 0 -6.8064673089092686e-05 -0.0049789454043338332 0 7.7197556728087716e-05 -0.004484781573899861 0 -6.8064673089092686e-05 -0.0049789454043338332 0 -0.00039890175478193547 -0.004709564444730324 0 -0.00045394138046538085 -0.0052126301274932731 0 -0.00010874116408987848 -0.0053885564051759059 0 -6.8064673089092686e-05 -0.0049789454043338332 0 -0.00045394138046538085 -0.0052126301274932731 0 -6.8064673089092686e-05 -0.0049789454043338332 0 -0.00039890175478193547 -0.004709564444730324 0 -0.00045394138046538085 -0.0052126301274932731 0 -0.00085399658958476218 -0.0051616359790343245 0 -0.00039890175478193547 -0.004709564444730324 0 -0.00085399658958476218 -0.0051616359790343245 0 -0.00084251428428440346 -0.0046189959038871872 0 -0.00039890175478193547 -0.004709564444730324 0 -0.00085399658958476218 -0.0051616359790343245 0 -0.00084251428428440346 -0.0046189959038871872 0 -0.0011831820944562393 -0.0048810227545613731 0 -0.0016890414188468559 -0.0053208989885153721 0 -0.00085399658958476218 -0.0051616359790343245 0 -0.0011831820944562393 -0.0048810227545613731 0 -0.00082036331228531139 -0.005203586776361388 0 -0.0014908070563075856 -0.0042630812049086544 0 -0.0016890414188468559 -0.0053208989885153721 0 -0.0011831820944562393 -0.0048810227545613731 0 -0.0012558757130982741 -0.0042475295249348706 0 -0.00084251428428440346 -0.0046189959038871872 0 -0.0011831820944562393 -0.0048810227545613731 0 -0.0012558757130982741 -0.0042475295249348706 0 -0.00084251428428440346 -0.0046189959038871872 0 -0.0012558757130982741 -0.0042475295249348706 0 -0.00085690937847176184 -0.0039828381679026222 0 -0.00084251428428440346 -0.0046189959038871872 0 -0.00034880018822241624 -0.0041885325196227537 0 -0.00085690937847176184 -0.0039828381679026222 0 -0.00084251428428440346 -0.0046189959038871872 0 -0.00039890175478193547 -0.004709564444730324 0 -0.00034880018822241624 -0.0041885325196227537 0 -0.00085690937847176184 -0.0039828381679026222 0 -0.00043761231658385639 -0.0036375765826791402 0 -0.00079809265354106006 -0.003307501136965413 0 -0.00034880018822241624 -0.0041885325196227537 0 -0.00085690937847176184 -0.0039828381679026222 0 -0.00043761231658385639 -0.0036375765826791402 0 -0.00085690937847176184 -0.0039828381679026222 0 -0.0012632238126090139 -0.0037756605595947426 0 -0.00079809265354106006 -0.003307501136965413 0 -0.0014731987030525012 -0.0039793503940061953 0 -0.0012558757130982741 -0.0042475295249348706 0 -0.0012632238126090139 -0.0037756605595947426 0 -0.0012558757130982741 -0.0042475295249348706 0 -0.00085690937847176184 -0.0039828381679026222 0 -0.0012632238126090139 -0.0037756605595947426 0 -0.00079809265354106006 -0.003307501136965413 0 -0.00078588899652413523 -0.0025871595858786315 0 -0.0012894155273846526 -0.0027943816596001348 0 -0.0012632238126090139 -0.0037756605595947426 0 -0.00079809265354106006 -0.003307501136965413 0 -0.0012894155273846526 -0.0027943816596001348 0 -0.0019173370643704277 -0.0028197257102593886 0 -0.0012632238126090139 -0.0037756605595947426 0 -0.0012894155273846526 -0.0027943816596001348 0 -0.00079809265354106006 -0.003307501136965413 0 -0.00019722331260354267 -0.0029671889817648998 0 -0.00078588899652413523 -0.0025871595858786315 0 -0.00043761231658385639 -0.0036375765826791402 0 -0.00079809265354106006 -0.003307501136965413 0 -0.00019722331260354267 -0.0029671889817648998 0 -0.00019722331260354267 -0.0029671889817648998 0 0.00014400062062890469 -0.0036207256178373178 0 0.00063442348533144773 -0.0031038621273115001 0 -0.00043761231658385639 -0.0036375765826791402 0 -0.00019722331260354267 -0.0029671889817648998 0 0.00014400062062890469 -0.0036207256178373178 0 0.00039248409216679277 -0.0040983581059242406 0 -0.00034880018822241624 -0.0041885325196227537 0 0.00014400062062890469 -0.0036207256178373178 0 -0.00034880018822241624 -0.0041885325196227537 0 -0.00043761231658385639 -0.0036375765826791402 0 0.00014400062062890469 -0.0036207256178373178 0 0.00039248409216679277 -0.0040983581059242406 0 0.00014400062062890469 -0.0036207256178373178 0 0.0009501172445639483 -0.0037320306674300543 0 0.00014400062062890469 -0.0036207256178373178 0 0.0009501172445639483 -0.0037320306674300543 0 0.00063442348533144773 -0.0031038621273115001 0 0.00039248409216679277 -0.0040983581059242406 0 0.0008402821566694704 -0.0042427258792627669 0 0.0009501172445639483 -0.0037320306674300543 0 0.0013341613121795053 -0.0029942929345062636 0 0.0009501172445639483 -0.0037320306674300543 0 0.00063442348533144773 -0.0031038621273115001 0 0.0013341613121795053 -0.0029942929345062636 0 0.00063442348533144773 -0.0031038621273115001 0 0.00088656922220738653 -0.0024905863691609231 0 0.00063442348533144773 -0.0031038621273115001 0 0.00088656922220738653 -0.0024905863691609231 0 0.00035210551673133114 -0.0022988960608056204 0 0.00088656922220738653 -0.0024905863691609231 0 0.00095321001513667947 -0.001836594095215519 0 0.00035210551673133114 -0.0022988960608056204 0 0.00088656922220738653 -0.0024905863691609231 0 0.00095321001513667947 -0.001836594095215519 0 0.0017130949028433386 -0.0020347249344288602 0 0.00095321001513667947 -0.001836594095215519 0 0.00035210551673133114 -0.0022988960608056204 0 0.00044592335127572284 -0.0013553780682403112 0 0.00035210551673133114 -0.0022988960608056204 0 -0.00029507102918647246 -0.0020554890706488459 0 0.00044592335127572284 -0.0013553780682403112 0 -0.00019722331260354267 -0.0029671889817648998 0 0.00035210551673133114 -0.0022988960608056204 0 -0.00029507102918647246 -0.0020554890706488459 0 -0.00019722331260354267 -0.0029671889817648998 0 0.00063442348533144773 -0.0031038621273115001 0 0.00035210551673133114 -0.0022988960608056204 0 -0.00019722331260354267 -0.0029671889817648998 0 -0.00078588899652413523 -0.0025871595858786315 0 -0.00029507102918647246 -0.0020554890706488459 0 -0.00078588899652413523 -0.0025871595858786315 0 -0.0012063906911814527 -0.0019037442904420376 0 -0.00029507102918647246 -0.0020554890706488459 0 -0.00078588899652413523 -0.0025871595858786315 0 -0.0012894155273846526 -0.0027943816596001348 0 -0.0012063906911814527 -0.0019037442904420376 0 -0.0012894155273846526 -0.0027943816596001348 0 -0.0012063906911814527 -0.0019037442904420376 0 -0.0016501407838290609 -0.0022951698867439067 0 -0.00096896490087630151 -0.0018993107446623806 0 -0.00029507102918647246 -0.0020554890706488459 0 -0.00043712736205268681 -0.0011249813952517458 0 -0.0012431386321528726 -0.0018715308063223884 0 -0.00030484757121354382 -0.002049561708611594 0 -0.00029507102918647246 -0.0020554890706488459 0 -0.00043712736205268681 -0.0011249813952517458 0 0.00044592335127572284 -0.0013553780682403112 0 -0.00043712736205268681 -0.0011249813952517458 0 -0.0011809973642991343 -0.0013222138169143697 0 -0.0012126897879637167 -0.0006053626586141731 0 -0.00096896490087630151 -0.0018993107446623806 0 -0.00043712736205268681 -0.0011249813952517458 0 -0.0011809973642991343 -0.0013222138169143697 0 0.001380792397269872 -0.0013605315650397434 0 0.001633442282285072 -0.0009130513363567581 0 -0.0012126897879637167 -0.0006053626586141731 0 -0.00032166903403019366 -0.00042606599348202613 0 -0.00064092286777977289 0.00014859731054206734 0 -0.00043712736205268681 -0.0011249813952517458 0 -0.0012126897879637167 -0.0006053626586141731 0 -0.00032166903403019366 -0.00042606599348202613 0 -0.00043712736205268681 -0.0011249813952517458 0 -0.00032166903403019366 -0.00042606599348202613 0 0.00031208062576603188 -0.00048836993031734844 0 -0.00032166903403019366 -0.00042606599348202613 0 0.00031208062576603188 -0.00048836993031734844 0 0.00014998644480040567 0.00017463683246952958 0 0.00031208062576603188 -0.00048836993031734844 0 0.00095108862799339969 -0.00050310770601874914 0 0.00044592335127572284 -0.0013553780682403112 0 0.00031208062576603188 -0.00048836993031734844 0 0.00095108862799339969 -0.00050310770601874914 0 0.00088651011298653893 0.0001324552491201097 0 0.00095108862799339969 -0.00050310770601874914 0 0.0015662625526682698 1.2406566293046159e-06 0 0.0013821703934831331 -0.00098978576357041607 0 0.00095321001513667947 -0.001836594095215519 0 0.00044592335127572284 -0.0013553780682403112 0 0.0013821703934831331 -0.00098978576357041607 0 0.00095108862799339969 -0.00050310770601874914 0 0.00044592335127572284 -0.0013553780682403112 0 0.0013821703934831331 -0.00098978576357041607 0 -0.00043712736205268681 -0.0011249813952517458 0 0.00031208062576603188 -0.00048836993031734844 0 0.00044592335127572284 -0.0013553780682403112 0 -0.001684949695286304 -0.0035669706082876542 0 -0.001847584347313917 -0.0036230444499434494 0 -0.0017872150966901064 -0.0035876460788455034 0 -0.0018994923862867363 -0.0036049037562162363 0 -0.001684949695286304 -0.0035669706082876542 0 -0.001847584347313917 -0.0036230444499434494 0 -0.001963114705743911 -0.0036897998460283321 0 -0.001847584347313917 -0.0036230444499434494 0 -0.0018672624383528303 -0.0036160792165881505 0 -0.0019549615288604752 -0.0036673322725491947 0 -0.001963114705743911 -0.0036897998460283321 0 -0.001847584347313917 -0.0036230444499434494 0 -0.001847584347313917 -0.0036230444499434494 0 -0.0018672624383528303 -0.0036160792165881505 0 -0.0017872150966901064 -0.0035876460788455034 0 -0.001684949695286304 -0.0035669706082876542 0 -0.0017872150966901064 -0.0035876460788455034 0 -0.0018098991645427538 -0.0036078658100877508 0 -0.001684949695286304 -0.0035669706082876542 0 -0.001223461038482618 -0.0036873681785413448 0 -0.0012443213484879848 -0.0035617310538729897 0 -0.0017872150966901064 -0.0035876460788455034 0 -0.0018098991645427538 -0.0036078658100877508 0 -0.0018060620773180159 -0.0035896193030383714 0 -0.0018672624383528303 -0.0036160792165881505 0 -0.0017872150966901064 -0.0035876460788455034 0 -0.0018060620773180159 -0.0035896193030383714 0 -0.0018507032825405059 -0.0035617660174447627 0 -0.00096865533212181563 -0.0035175533471853183 0 -0.0003441866418202454 -0.0032513813587105147 0 -0.00048233508173773656 -0.0032269894671066346 0 -0.00030980345243264819 -0.0034665524063658645 0 -0.00096865533212181563 -0.0035175533471853183 0 -0.00032476144235832761 -0.0034548909647993762 0 -0.00096865533212181563 -0.0035175533471853183 0 -0.0012252036747688651 -0.0035130523875970799 0 -0.0018672624383528303 -0.0036160792165881505 0 -0.0017815139703821381 -0.0035912965264141817 0 -0.0018060620773180159 -0.0035896193030383714 0 0.002873884869990071 -0.0031781048253526518 0 0.0031350096394881445 -0.0032229332881451894 0 0.003068216373943057 -0.002897081795629496 0 -0.00023564367482069358 -0.0032380514171873546 0 -0.00038898429680059158 -0.0032091538742640858 0 -0.00032121200609352675 -0.0031205980409703725 0 -6.9871335460672664e-05 -0.0034769768901699197 0 -0.00093957947936503178 -0.003278724751649822 0 -6.9871335460672664e-05 -0.0034769768901699197 0 0.0005682600549767172 -0.0027549316484732061 0 -0.0018032401409204387 -0.0035712685095239428 0 -0.0017940392837632036 -0.0035724126748431246 0 -0.0018060620773180159 -0.0035896193030383714 0 -0.00096865533212181563 -0.0035175533471853183 0 -6.9871335460672664e-05 -0.0034769768901699197 0 -6.9871335460672664e-05 -0.0034769768901699197 0 -0.00032476144235832761 -0.0034548909647993762 0 0.0005682600549767172 -0.0027549316484732061 0 -0.0010007150321021381 -0.0020537651173348449 0 -0.00084372061400044918 -0.0027848041827026127 0 -0.00082622792286207605 -0.0027615210737786389 0 -0.00089823936553558986 -0.0027744084680276959 0 0.00041620720906304133 -0.0025185288876236707 0 0.00047915061356417729 -0.0025284104113694711 0 0.00047519612003548323 -0.0024459358697788173 0 0.0005682600549767172 -0.0027549316484732061 0 0.0015402308778983691 -0.0023972773486101574 0 0.0005682600549767172 -0.0027549316484732061 0 -0.00093957947936503178 -0.003278724751649822 0 -0.0017940392837632036 -0.0035724126748431246 0 -0.0017815139703821381 -0.0035912965264141817 0 -0.0018060620773180159 -0.0035896193030383714 0 -0.0020685599013407596 -0.0037880923767038264 0 -0.00093957947936503178 -0.003278724751649822 0 -0.0015045198235837723 -0.0029813073741899931 0 -0.00093957947936503178 -0.003278724751649822 0 -0.0016667666934026943 -0.0035749961809656713 0 -0.001805791517940681 -0.0034823073968703365 0 -0.001796757509402691 -0.0035917823905166606 0 -0.0018672624383528303 -0.0036160792165881505 0 -0.001805791517940681 -0.0034823073968703365 0 -0.001796757509402691 -0.0035917823905166606 0 -0.001858950455523324 -0.0036842591321220564 0 -0.0018672624383528303 -0.0036160792165881505 0 -0.001796757509402691 -0.0035917823905166606 0 -0.0016667666934026943 -0.0035749961809656713 0 -0.0017470986158060371 -0.0036163001836095063 0 -0.001796757509402691 -0.0035917823905166606 0 -0.0019173370643704277 -0.0028197257102593886 0 -0.0016501407838290609 -0.0022951698867439067 0 -0.0020383315942828139 -0.0017673538912391931 0 -0.00092433152649650581 -0.0026454510085070874 0 -0.00082622792286207605 -0.0027615210737786389 0 -0.00089823936553558986 -0.0027744084680276959 0 -0.0015045198235837723 -0.0029813073741899931 0 -0.0010007150321021381 -0.0020537651173348449 0 -0.0019173370643704277 -0.0028197257102593886 0 -0.0012894155273846526 -0.0027943816596001348 0 -0.0016501407838290609 -0.0022951698867439067 0 -0.0012063906911814527 -0.0019037442904420376 0 -0.0016501407838290609 -0.0022951698867439067 0 -0.0020383315942828139 -0.0017673538912391931 0 -0.0012431386321528726 -0.0018715308063223884 0 -0.0010007150321021381 -0.0020537651173348449 0 -0.00096896490087630151 -0.0018993107446623806 0 -0.0011809973642991343 -0.0013222138169143697 0 -0.0016849498520019111 -0.0017649536732693967 0 -0.0010007150321021381 -0.0020537651173348449 0 0.0015402308778983691 -0.0023972773486101574 0 -0.0011809973642991343 -0.0013222138169143697 0 -0.0012126897879637167 -0.0006053626586141731 0 -0.0017374482954114452 -0.0013157654016493002 0 0.0015402308778983691 -0.0023972773486101574 0 0.0035248569444999694 -0.0022325061398338194 0 0.001380792397269872 -0.0013605315650397434 0 0.0015402308778983691 -0.0023972773486101574 0 -0.0011809973642991343 -0.0013222138169143697 0 -0.0016849498520019111 -0.0017649536732693967 0 -0.0017374482954114452 -0.0013157654016493002 0 0.0039992644911426411 -0.0022339465508760168 0 0.0034122192809189263 -0.0021123778503943664 0 0.0038892452830108634 -0.0016193135252928444 0 0.0039992644911426411 -0.0022339465508760168 0 0.0034816317476164629 -0.0028675546140427268 0 0.0034122192809189263 -0.0021123778503943664 0 0.0033688470330751757 -0.0021223357899571305 0 0.0030372290940285573 -0.0024777330631153499 0 0.0029743741352942065 -0.001766299071786539 0 0.0030372290940285573 -0.0024777330631153499 0 0.002636790448177865 -0.0021928774965007617 0 0.0029743741352942065 -0.001766299071786539 0 0.0034218973175648608 -0.0028675590570606344 0 0.0033688470330751757 -0.0021223357899571305 0 0.0030372290940285573 -0.0024777330631153499 0 0.0034218973175648608 -0.0028675590570606344 0 0.0030372290940285573 -0.0024777330631153499 0 0.003068216373943057 -0.002897081795629496 0 0.0031350096394881445 -0.0032229332881451894 0 0.0034218973175648608 -0.0028675590570606344 0 0.003068216373943057 -0.002897081795629496 0 0.002873884869990071 -0.0031781048253526518 0 0.003068216373943057 -0.002897081795629496 0 0.0027377660052265037 -0.0029862444731421577 0 0.0030372290940285573 -0.0024777330631153499 0 0.003068216373943057 -0.002897081795629496 0 0.0027377660052265037 -0.0029862444731421577 0 0.0030372290940285573 -0.0024777330631153499 0 0.0027377660052265037 -0.0029862444731421577 0 0.002636790448177865 -0.0021928774965007617 0 -0.00032476144235832761 -0.0034548909647993762 0 0.00077314692244335266 -0.0026806057165354043 0 -0.0012967002183299182 -0.0035021808089878742 0 -0.0013869424543802003 -0.0033714422131178728 0 -0.0013104227139156873 -0.0031880121216186158 0 -0.001684949695286304 -0.0035669706082876542 0 -0.0012443213484879848 -0.0035617310538729897 0 -0.0013869424543802003 -0.0033714422131178728 0 -0.00032476144235832761 -0.0034548909647993762 0 -0.0012155599928390288 -0.0031988069594128337 0 -0.0013869424543802003 -0.0033714422131178728 0 -0.0014577954892182898 -0.0032419317530368026 0 -0.0015885309371004418 -0.0033691887521659645 0 -0.0013104227139156873 -0.0031880121216186158 0 -0.0014577954892182898 -0.0032419317530368026 0 -0.0014147084204149092 -0.0031020964859734945 0 -0.0013869424543802003 -0.0033714422131178728 0 -0.0013104227139156873 -0.0031880121216186158 0 -0.0014577954892182898 -0.0032419317530368026 0 -0.0014577954892182898 -0.0032419317530368026 0 -0.0015730734286328299 -0.0032100100726803198 0 -0.0015885309371004418 -0.0033691887521659645 0 -0.0014577954892182898 -0.0032419317530368026 0 -0.0014147084204149092 -0.0031020964859734945 0 -0.0015730734286328299 -0.0032100100726803198 0 -0.0017627455199455203 -0.0034121760608183229 0 -0.0015730734286328299 -0.0032100100726803198 0 -0.0015885309371004418 -0.0033691887521659645 0 -0.0017627455199455203 -0.0034121760608183229 0 -0.001684949695286304 -0.0035669706082876542 0 -0.0015885309371004418 -0.0033691887521659645 0 -0.0017627455199455203 -0.0034121760608183229 0 -0.0018994923862867363 -0.0036049037562162363 0 -0.001684949695286304 -0.0035669706082876542 0 -0.001684949695286304 -0.0035669706082876542 0 -0.0013869424543802003 -0.0033714422131178728 0 -0.0015885309371004418 -0.0033691887521659645 0 -0.0013212030792597454 -0.0028464176169640536 0 -0.0014524822943128141 -0.0029948100097836813 0 -0.0012767780772155407 -0.002922910387033417 0 -0.0013956050537884462 -0.0028668934183853196 0 -0.0013212030792597454 -0.0028464176169640536 0 -0.0014524822943128141 -0.0029948100097836813 0 -0.0014147084204149092 -0.0031020964859734945 0 -0.0015730734286328299 -0.0032100100726803198 0 -0.0014524822943128141 -0.0029948100097836813 0 -0.0014147084204149092 -0.0031020964859734945 0 -0.0014524822943128141 -0.0029948100097836813 0 -0.0012767780772155407 -0.002922910387033417 0 0.0025362000731026227 -0.0013811428966323707 0 0.0029307177693160347 -0.0010746468724758672 0 0.0029743741352942065 -0.001766299071786539 0 0.002636790448177865 -0.0021928774965007617 0 0.0025362000731026227 -0.0013811428966323707 0 0.0029743741352942065 -0.001766299071786539 0 -0.0013104227139156873 -0.0031880121216186158 0 -0.0014147084204149092 -0.0031020964859734945 0 -0.0012767780772155407 -0.002922910387033417 0 0.00077314692244335266 -0.0026806057165354043 0 0.00037907724268670506 -0.0021043390445318472 0 0.00037907724268670506 -0.0021043390445318472 0 0.003370746255407332 -0.0016714228711373368 0 -0.0013212030792597454 -0.0028464176169640536 0 -0.0012767780772155407 -0.002922910387033417 0 -0.0012678221248705959 -0.0028103501897697573 0 0.0025362000731026227 -0.0013811428966323707 0 0.0029307177693160347 -0.0010746468724758672 0 0.0024285965220379223 -0.00056405080816354484 0 0.0029307177693160347 -0.0010746468724758672 0 0.0033306146908994873 -0.0013514781343604897 0 0.0033121825531305825 -0.00068119288323810511 0 0.0033688470330751757 -0.0021223357899571305 0 0.0033306146908994873 -0.0013514781343604897 0 0.0029743741352942065 -0.001766299071786539 0 0.0029307177693160347 -0.0010746468724758672 0 0.0033306146908994873 -0.0013514781343604897 0 0.0029743741352942065 -0.001766299071786539 0 0.0035248569444999694 -0.0022325061398338194 0 0.0033079766911105059 -0.00135884820134548 0 0.0034122192809189263 -0.0021123778503943664 0 0.0033306146908994873 -0.0013514781343604897 0 0.0038892452830108634 -0.0016193135252928444 0 0.0033306146908994873 -0.0013514781343604897 0 0.0033121825531305825 -0.00068119288323810511 0 0.0041850185138314153 -0.00079958014186466014 0 0.0033306146908994873 -0.0013514781343604897 0 0.0038892452830108634 -0.0016193135252928444 0 0.0041850185138314153 -0.00079958014186466014 0 0.011674928997046927 0.001045825943599462 0 0.01200028049844396 0.0012579129510243284 0 0.011399286378117055 0.0014662335519743598 0 0.0083448530092480409 0.00043612759462436751 0 0.0082326355411776915 0.00028568090615632073 0 0.011960320783175634 0.00045325016542495378 0 0.011686672039584354 0.0010210795580934985 0 0.011939066430022613 0.00056666029362810661 0 0.011674928997046927 0.001045825943599462 0 0.012135265696081404 0.00085203105862996129 0 0.011926749680139064 0.00030827832882755882 0 0.011674928997046927 0.001045825943599462 0 0.011399504813250213 0.00074672252714968047 0 0.011674928997046927 0.001045825943599462 0 0.012135265696081404 0.00085203105862996129 0 0.01200028049844396 0.0012579129510243284 0 0.012135265696081404 0.00085203105862996129 0 0.01200028049844396 0.0012579129510243284 0 0.01238895747440487 0.0011521517180275436 0 0.0029307177693160347 -0.0010746468724758672 0 0.0033121825531305825 -0.00068119288323810511 0 0.0024285965220379223 -0.00056405080816354484 0 0.0083448530092480409 0.00043612759462436751 0 0.003370746255407332 -0.0016714228711373368 0 0.012552746761961189 0.0006476707549473267 0 0.012135265696081404 0.00085203105862996129 0 0.01238895747440487 0.0011521517180275436 0 0.0065685000723659896 -0.00049523594466453823 0 0.003370746255407332 -0.0016714228711373368 0 -0.00093548984232364179 -0.0019679024236976699 0 -0.0002159781929554164 -0.0018924892029428301 0 -0.00069771802736535461 -0.0022622679919022514 0 -0.0002159781929554164 -0.0018924892029428301 0 -1.554075722360831e-05 -0.0028879814149864432 0 -0.00069771802736535461 -0.0022622679919022514 0 -0.002822149477653981 -0.0029023056733078743 0 0.003370746255407332 -0.0016714228711373368 0 -0.001172854766359695 -0.0027016186682665413 0 -0.0013212030792597454 -0.0028464176169640536 0 -0.0012678221248705959 -0.0028103501897697573 0 -0.001172854766359695 -0.0027016186682665413 0 -1.554075722360831e-05 -0.0028879814149864432 0 -0.00069771802736535461 -0.0022622679919022514 0 0.00073489237538020686 0.00082669769538951316 0 0.004843785291560973 0.00033477829613281986 0 0.0019810870358055129 0.00070865266782426848 0 0.0027139263318803173 0.00062105970561478901 0 0.0022894710519161974 9.7706473325018654e-05 0 0.00068356862230205826 0.00079359830588196577 0 0.00014998644480040567 0.00017463683246952958 0 -3.007664769923464e-05 0.00090617770045192268 0 0.0014474749639088115 0.00062598421210870311 0 0.001649120877464678 0.00040949506449322858 0 0.0015523959164228537 0.00070661437611246132 0 0.00068356862230205826 0.00079359830588196577 0 0.0014474749639088115 0.00062598421210870311 0 0.00088651011298653893 0.0001324552491201097 0 0.00073489237538020686 0.00082669769538951316 0 0.0016458365484399286 0.00063191544373695195 0 0.0019810870358055129 0.00070865266782426848 0 0.0014474749639088115 0.00062598421210870311 0 0.001649120877464678 0.00040949506449322858 0 0.0060322384087000509 0.00081838095063475804 0 0.0043942197250711173 0.00122953288348663 0 0.0014474749639088115 0.00062598421210870311 0 0.00088651011298653893 0.0001324552491201097 0 0.0015662625526682698 1.2406566293046159e-06 0 0.00095108862799339969 -0.00050310770601874914 0 0.00088651011298653893 0.0001324552491201097 0 0.0015662625526682698 1.2406566293046159e-06 0 0.00031208062576603188 -0.00048836993031734844 0 0.00088651011298653893 0.0001324552491201097 0 0.00014998644480040567 0.00017463683246952958 0 0.00068356862230205826 0.00079359830588196577 0 0.00088651011298653893 0.0001324552491201097 0 0.00014998644480040567 0.00017463683246952958 0 0.00014998644480040567 0.00017463683246952958 0 -0.00064092286777977289 0.00014859731054206734 0 -3.007664769923464e-05 0.00090617770045192268 0 -0.00032166903403019366 -0.00042606599348202613 0 0.00014998644480040567 0.00017463683246952958 0 -0.00064092286777977289 0.00014859731054206734 0 0.0039992644911426411 -0.0022339465508760168 0 0.0038892452830108634 -0.0016193135252928444 0 0.004527374328936731 -0.0015836806059647121 0 0.0038892452830108634 -0.0016193135252928444 0 0.004527374328936731 -0.0015836806059647121 0 0.0041850185138314153 -0.00079958014186466014 0 0.004527374328936731 -0.0015836806059647121 0 0.0041850185138314153 -0.00079958014186466014 0 0.0050481873920630391 -0.00092022168114283293 0 0.011399286378117055 0.0014662335519743598 0 0.010458405688718348 0.0016705785725341011 0 0.010773762499020248 0.001258085193213551 0 0.001633442282285072 -0.0009130513363567581 0 0.004843785291560973 0.00033477829613281986 0 0.0082326355411776915 0.00028568090615632073 0 0.004843785291560973 0.00033477829613281986 0 0.010458405688718348 0.0016705785725341011 0 0.010773762499020248 0.001258085193213551 0 0.010037658789422789 0.0011440349864104348 0 0.010773762499020248 0.001258085193213551 0 0.010733191224443019 0.00088978282227334391 0 0.010037658789422789 0.0011440349864104348 0 0.011289417659262505 0.00074538948752066409 0 0.0076320157371925473 0.00073599124440216893 0 0.010773762499020248 0.001258085193213551 0 0.010733191224443019 0.00088978282227334391 0 0.011166896426869079 0.0010774321272463369 0 0.011399286378117055 0.0014662335519743598 0 0.010773762499020248 0.001258085193213551 0 0.011166896426869079 0.0010774321272463369 0 0.011674928997046927 0.001045825943599462 0 0.011399286378117055 0.0014662335519743598 0 0.011166896426869079 0.0010774321272463369 0 0.011674928997046927 0.001045825943599462 0 0.011166896426869079 0.0010774321272463369 0 0.011399504813250213 0.00074672252714968047 0 0.010733191224443019 0.00088978282227334391 0 0.011166896426869079 0.0010774321272463369 0 0.011399504813250213 0.00074672252714968047 0 0.011289417659262505 0.00074538948752066409 0 0.011194588825300729 0.00081098350649680786 0 0.011044335308592262 0.0008990468646571983 0 0.011399504813250213 0.00074672252714968047 0 0.011085232353579867 0.00056513161679782123 0 0.011044335308592262 0.0008990468646571983 0 0.011085232353579867 0.00056513161679782123 0 0.010787717086465256 0.00071735651203923224 0 0.010787717086465256 0.00071735651203923224 0 0.010629256557348869 0.0010198488217854466 0 0.010403570864514704 0.00084585133649904445 0 0.011044335308592262 0.0008990468646571983 0 0.010787717086465256 0.00071735651203923224 0 0.010629256557348869 0.0010198488217854466 0 0.010755738023777819 0.00028157027940533668 0 0.010787717086465256 0.00071735651203923224 0 0.010403570864514704 0.00084585133649904445 0 0.010835467572015272 0.00026276864885846953 0 0.010431142469411049 0.00081410107288097341 0 0.011044335308592262 0.0008990468646571983 0 0.010664296201167071 0.0010664626870762091 0 0.010629256557348869 0.0010198488217854466 0 0.01066475661419343 0.0010698929719101622 0 0.010629256557348869 0.0010198488217854466 0 0.010278058947520794 0.0012537013553631212 0 0.0019810870358055129 0.00070865266782426848 0 0.0022894710519161974 9.7706473325018654e-05 0 0.001649120877464678 0.00040949506449322858 0 0.0076320157371925473 0.00073599124440216893 0 0.0060322384087000509 0.00081838095063475804 0 0.0076320157371925473 0.00073599124440216893 0 0.0080439000265039827 0.0010303579588074262 0 0.004843785291560973 0.00033477829613281986 0 0.0076320157371925473 0.00073599124440216893 0 0.010629256557348869 0.0010198488217854466 0 0.010278058947520794 0.0012537013553631212 0 0.010403570864514704 0.00084585133649904445 0 0.010278058947520794 0.0012537013553631212 0 0.010094378338143192 0.0010002297497003598 0 0.010403570864514704 0.00084585133649904445 0 0.010278058947520794 0.0012537013553631212 0 0.010094378338143192 0.0010002297497003598 0 0.0098430034128843841 0.0014332457333535156 0 0.010094378338143192 0.0010002297497003598 0 0.010403570864514704 0.00084585133649904445 0 0.010132890565307081 0.00066088461931114635 0 0.010303180140299512 0.00030215929149464605 0 0.010403570864514704 0.00084585133649904445 0 0.010132890565307081 0.00066088461931114635 0 0.0097729645411865716 0.0001964066955158164 0 0.010132890565307081 0.00066088461931114635 0 0.0098038788499174682 0.00081364528976369957 0 0.010094378338143192 0.0010002297497003598 0 0.010132890565307081 0.00066088461931114635 0 0.0098038788499174682 0.00081364528976369957 0 0.0024552066087130306 0.0015729619716711352 0 0.0030768888799196938 0.0019267854173438512 0 0.0030190680560912898 0.0014296065750815177 0 0.0024552066087130306 0.0015729619716711352 0 0.0030190680560912898 0.0014296065750815177 0 0.0026179104644224226 0.001043958637289415 0 0.0030190680560912898 0.0014296065750815177 0 0.0026179104644224226 0.001043958637289415 0 0.0030304988403720623 0.00093390454358358932 0 0.0024552066087130306 0.0015729619716711352 0 0.0026179104644224226 0.001043958637289415 0 0.0021844099890610978 0.00081088298514395065 0 0.0063954885331471006 0.001209709142532534 0 0.0043942197250711173 0.00122953288348663 0 0.010094378338143192 0.0010002297497003598 0 0.0098038788499174682 0.00081364528976369957 0 0.0098430034128843841 0.0014332457333535156 0 0.0014474749639088115 0.00062598421210870311 0 0.0015523959164228537 0.00070661437611246132 0 0.0015662625526682698 1.2406566293046159e-06 0 0.0019929038481750513 0.0008614358325945865 0 0.0023848491369497025 0.00069651169925547495 0 0.0022112079825730734 0.00023091973413131919 0 0.0043942197250711173 0.00122953288348663 0 0.002405084781686401 0.0012912127074613897 0 0.0026179104644224226 0.001043958637289415 0 0.0021844099890610978 0.00081088298514395065 0 0.0023848491369497025 0.00069651169925547495 0 0.0026179104644224226 0.001043958637289415 0 0.0026929170474680048 0.00080943368434128245 0 0.0023848491369497025 0.00069651169925547495 0 0.0026929170474680048 0.00080943368434128245 0 0.0027632217111234255 0.00054482955927904737 0 0.0030304988403720623 0.00093390454358358932 0 0.0026179104644224226 0.001043958637289415 0 0.0026929170474680048 0.00080943368434128245 0 0.0030304988403720623 0.00093390454358358932 0 0.0027632217111234255 0.00054482955927904737 0 0.0023848491369497025 0.00069651169925547495 0 0.0022112079825730734 0.00023091973413131919 0 0.0026929170474680048 0.00080943368434128245 0 0.0027632217111234255 0.00054482955927904737 0 0.0023848491369497025 0.00069651169925547495 0 0.0027632217111234255 0.00054482955927904737 0 0.0025798837576485141 -4.65727086215717e-05 0 0.0022112079825730734 0.00023091973413131919 0 0.0025798837576485141 -4.65727086215717e-05 0 0.0022112079825730734 0.00023091973413131919 0 0.0020781392136303904 -0.00050811946189072902 0 0.0027632217111234255 0.00054482955927904737 0 0.0025798837576485141 -4.65727086215717e-05 0 0.0032078839116139175 0.00044090733947189063 0 0.0017127994422938319 -6.1588112287209133e-05 0 0.0022112079825730734 0.00023091973413131919 0 0.0020781392136303904 -0.00050811946189072902 0 0.0043942197250711173 0.00122953288348663 0 0.0013776389933084006 -0.00021171514305113614 0 0.0019929038481750513 0.0008614358325945865 0 0.0017127994422938319 -6.1588112287209133e-05 0 0.0022112079825730734 0.00023091973413131919 0 0.0034890301074515825 8.741446159688379e-05 0 0.0040331310255247582 0.00022872367034906674 0 0.0035175435884498276 -0.00076139528785323745 0 0.0034890301074515825 8.741446159688379e-05 0 0.0035509908299638589 0.00070126480524591828 0 0.0040331310255247582 0.00022872367034906674 0 0.0034890301074515825 8.741446159688379e-05 0 0.0032078839116139175 0.00044090733947189063 0 0.0031461714654907797 -0.00020731409833901112 0 0.0025798837576485141 -4.65727086215717e-05 0 0.0032078839116139175 0.00044090733947189063 0 0.0031461714654907797 -0.00020731409833901112 0 0.0034890301074515825 8.741446159688379e-05 0 0.0032078839116139175 0.00044090733947189063 0 0.0035509908299638589 0.00070126480524591828 0 0.0027632217111234255 0.00054482955927904737 0 0.0032078839116139175 0.00044090733947189063 0 0.0030304988403720623 0.00093390454358358932 0 0.0032078839116139175 0.00044090733947189063 0 0.0030304988403720623 0.00093390454358358932 0 0.0035509908299638589 0.00070126480524591828 0 0.0035509908299638589 0.00070126480524591828 0 0.0040247175720647677 0.00093576509828826302 0 0.0040331310255247582 0.00022872367034906674 0 0.0035509908299638589 0.00070126480524591828 0 0.0040247175720647677 0.00093576509828826302 0 0.0034665948122276171 0.0012432967428296379 0 0.0040247175720647677 0.00093576509828826302 0 0.0034665948122276171 0.0012432967428296379 0 0.003983078719861359 0.0015060813139034907 0 0.0030304988403720623 0.00093390454358358932 0 0.0035509908299638589 0.00070126480524591828 0 0.0034665948122276171 0.0012432967428296379 0 0.0030190680560912898 0.0014296065750815177 0 0.0030304988403720623 0.00093390454358358932 0 0.0034665948122276171 0.0012432967428296379 0 0.0030190680560912898 0.0014296065750815177 0 0.0034665948122276171 0.0012432967428296379 0 0.0034753076026085685 0.0017704643823841092 0 0.0030768888799196938 0.0019267854173438512 0 0.0030190680560912898 0.0014296065750815177 0 0.0034753076026085685 0.0017704643823841092 0 0.0038578376967497736 0.0022298323426454053 0 0.0034753076026085685 0.0017704643823841092 0 0.003983078719861359 0.0015060813139034907 0 0.0034665948122276171 0.0012432967428296379 0 0.0034753076026085685 0.0017704643823841092 0 0.003983078719861359 0.0015060813139034907 0 0.0038578376967497736 0.0022298323426454053 0 0.003983078719861359 0.0015060813139034907 0 0.0043942336380626053 0.0018743446993790833 0 0.003983078719861359 0.0015060813139034907 0 0.0043942336380626053 0.0018743446993790833 0 0.0042763971237255076 0.0012405152949146461 0 0.0085580831762683413 0.0012243933167861403 0 0.0087797687032603426 0.0010624357074123364 0 0.0083880833510367736 0.0021236694548280115 0 0.0097667149813907839 0.0022601337615939586 0 0.0058875778969386915 0.0015637902374359817 0 0.011783419095477152 0.0013030341493412748 0 0.0097667149813907839 0.0022601337615939586 0 0.011783419095477152 0.0013030341493412748 0 0.012549491747832873 0.0011732729203845582 0 0.018826771043661747 0.00069626540928555982 0 0.018994395144863251 0.0007151313265833909 0 0.018934603120378542 0.00070342108491416064 0 0.0055767690395592462 0.0020666443178414071 0 0.0061673886430523711 0.0016190413860229472 0 0.0055920797046686158 0.0013805660718352374 0 0.0061673886430523711 0.0016190413860229472 0 0.0058786336760193675 0.001246526611573679 0 0.006246684193293571 0.001049296521693055 0 0.0061673886430523711 0.0016190413860229472 0 0.0058786336760193675 0.001246526611573679 0 0.0055920797046686158 0.0013805660718352374 0 0.0058786336760193675 0.001246526611573679 0 0.0055920797046686158 0.0013805660718352374 0 0.0056056176465116266 0.001221943467041189 0 0.0058875778969386915 0.0015637902374359817 0 0.0058596052576368445 0.0014621142380586293 0 0.0046615818293460108 0.0011713841341835121 0 0.0042763971237255076 0.0012405152949146461 0 0.0043845456808733708 0.00079403722808915535 0 0.0043942336380626053 0.0018743446993790833 0 0.0046615818293460108 0.0011713841341835121 0 0.0042763971237255076 0.0012405152949146461 0 0.0040247175720647677 0.00093576509828826302 0 0.003983078719861359 0.0015060813139034907 0 0.0042763971237255076 0.0012405152949146461 0 0.011783419095477152 0.0013030341493412748 0 0.0058875778969386915 0.0015637902374359817 0 0.0040247175720647677 0.00093576509828826302 0 0.0042763971237255076 0.0012405152949146461 0 0.0043845456808733708 0.00079403722808915535 0 0.019879777171217972 0.00042501378968865325 0 0.019967854812759169 0.00011709719046500394 0 0.019560385118326643 0.00025258670898650108 0 0.018994395144863251 0.0007151313265833909 0 0.018934603120378542 0.00070342108491416064 0 0.018924310219784642 0.00071928771461547128 0 0.018994395144863251 0.0007151313265833909 0 0.018966614310743257 0.0006946683230857235 0 0.018924310219784642 0.00071928771461547128 0 0.018934603120378542 0.00070342108491416064 0 0.018888031082924504 0.0007700793195219522 0 0.018882848589503232 0.000782151217822481 0 0.012549491747832873 0.0011732729203845582 0 0.013335046832119187 0.00091662365455371113 0 0.0061673886430523711 0.0016190413860229472 0 0.006987301294735653 0.0010957336902236328 0 0.006246684193293571 0.001049296521693055 0 0.018934603120378542 0.00070342108491416064 0 0.018924310219784642 0.00071928771461547128 0 0.018888031082924504 0.0007700793195219522 0 0.019209863888970065 0.00052634832689610399 0 0.019638924714942677 0.00023706793054522907 0 0.018966614310743257 0.0006946683230857235 0 0.018924310219784642 0.00071928771461547128 0 0.018795926805032545 0.00075214120254818331 0 0.019967854812759169 0.00011709719046500394 0 0.019560385118326643 0.00025258670898650108 0 0.019815497696568034 -0.00015113380232556405 0 0.018924310219784642 0.00071928771461547128 0 0.018888031082924504 0.0007700793195219522 0 0.018850178582530824 0.00076889409309230101 0 0.018924310219784642 0.00071928771461547128 0 0.018850178582530824 0.00076889409309230101 0 0.018795926805032545 0.00075214120254818331 0 0.018888031082924504 0.0007700793195219522 0 0.018850178582530824 0.00076889409309230101 0 0.018882828698500949 0.00078988796248487172 0 0.013044351288330621 5.9037815891261552e-05 0 0.012851723754846242 0.00021201768015559696 0 0.012955926431440456 -0.00019947404422647149 0 0.013335046832119187 0.00091662365455371113 0 0.0099036302479345549 -0.00023948327404273834 0 0.018850178582530824 0.00076889409309230101 0 0.018795926805032545 0.00075214120254818331 0 0.018776522461358684 0.00087345057470251367 0 0.018850178582530824 0.00076889409309230101 0 0.018776522461358684 0.00087345057470251367 0 0.018882828698500949 0.00078988796248487172 0 0.016050201237841771 0.00030975701444955236 0 0.013335046832119187 0.00091662365455371113 0 0.013739401805207923 0.00065979984381222623 0 0.013335046832119187 0.00091662365455371113 0 0.006987301294735653 0.0010957336902236328 0 0.0063885961555423037 0.00045150866921592138 0 0.0074191997741263572 -0.00020979326977351513 0 0.006246684193293571 0.001049296521693055 0 0.0063885961555423037 0.00045150866921592138 0 0.0059158761382508843 0.0008609981771822788 0 0.006987301294735653 0.0010957336902236328 0 0.006246684193293571 0.001049296521693055 0 0.0063885961555423037 0.00045150866921592138 0 0.0063885961555423037 0.00045150866921592138 0 0.0074191997741263572 -0.00020979326977351513 0 0.0064551669200347481 -0.00055537310317662269 0 0.0063885961555423037 0.00045150866921592138 0 0.0055094072274843439 0.00028200205911870212 0 0.0064551669200347481 -0.00055537310317662269 0 0.0040247175720647677 0.00093576509828826302 0 0.0043845456808733708 0.00079403722808915535 0 0.0040331310255247582 0.00022872367034906674 0 0.0043845456808733708 0.00079403722808915535 0 0.0049255882043463348 0.00030008469936724304 0 0.0040331310255247582 0.00022872367034906674 0 0.0046615818293460108 0.0011713841341835121 0 0.0043845456808733708 0.00079403722808915535 0 0.0049255882043463348 0.00030008469936724304 0 0.0058875778969386915 0.0015637902374359817 0 0.005153218418336972 0.00018704136219668292 0 0.0056056176465116266 0.001221943467041189 0 0.0059158761382508843 0.0008609981771822788 0 0.0055094072274843439 0.00028200205911870212 0 0.005586989544206224 0.0014081010872242351 0 0.0056056176465116266 0.001221943467041189 0 0.0055094072274843439 0.00028200205911870212 0 0.0063885961555423037 0.00045150866921592138 0 0.0059158761382508843 0.0008609981771822788 0 0.0055094072274843439 0.00028200205911870212 0 0.0058786336760193675 0.001246526611573679 0 0.0056056176465116266 0.001221943467041189 0 0.0059158761382508843 0.0008609981771822788 0 0.0058786336760193675 0.001246526611573679 0 0.006246684193293571 0.001049296521693055 0 0.0059158761382508843 0.0008609981771822788 0 0.005153218418336972 0.00018704136219668292 0 0.0054077671520075359 -0.00097587966450985429 0 0.0049255882043463348 0.00030008469936724304 0 0.0040331310255247582 0.00022872367034906674 0 0.004391424719141993 -0.00063861413772458198 0 0.0040331310255247582 0.00022872367034906674 0 0.0039586875022515717 -0.00079731123954050851 0 0.004391424719141993 -0.00063861413772458198 0 0.0039586875022515717 -0.00079731123954050851 0 0.004391424719141993 -0.00063861413772458198 0 0.0042661357555436605 -0.0011510364723701526 0 0.004391424719141993 -0.00063861413772458198 0 0.0054012218459409426 -0.0010540576539698995 0 0.0062485407369599014 -0.0016376606509376686 0 0.004391424719141993 -0.00063861413772458198 0 0.0042661357555436605 -0.0011510364723701526 0 0.0054219920722170124 -0.0012476991487805585 0 0.0055094072274843439 0.00028200205911870212 0 0.0054012218459409426 -0.0010540576539698995 0 0.0064551669200347481 -0.00055537310317662269 0 0.0049255882043463348 0.00030008469936724304 0 0.004391424719141993 -0.00063861413772458198 0 0.0054012218459409426 -0.0010540576539698995 0 0.0045415618037998482 -0.00074945781701059766 0 0.0056315123117457316 -0.001233081843110409 0 0.0041864034015277485 -0.0011524454144023594 0 0.0056315123117457316 -0.001233081843110409 0 0.0042661357555436605 -0.0011510364723701526 0 0.0052328512554052041 -0.0012317896984172349 0 0.0046874397794502065 -0.0016772938486681926 0 0.0052328512554052041 -0.0012317896984172349 0 0.0052570803950434996 -0.0017603307314970988 0 0.0046874397794502065 -0.0016772938486681926 0 0.0042661357555436605 -0.0011510364723701526 0 0.0041496927296048747 -0.0016653789132525293 0 0.0046874397794502065 -0.0016772938486681926 0 0.0042661357555436605 -0.0011510364723701526 0 0.0041496927296048747 -0.0016653789132525293 0 0.0038582671486821463 -0.0012821471395717131 0 0.0039586875022515717 -0.00079731123954050851 0 0.0042661357555436605 -0.0011510364723701526 0 0.0038582671486821463 -0.0012821471395717131 0 0.0093103278121997746 -0.001015335744809998 0 0.0099036302479345549 -0.00023948327404273834 0 0.0079096501335649879 -0.0017472523917643667 0 0.0074191997741263572 -0.00020979326977351513 0 0.0064551669200347481 -0.00055537310317662269 0 0.0054012218459409426 -0.0010540576539698995 0 0.0064551669200347481 -0.00055537310317662269 0 0.0062485407369599014 -0.0016376606509376686 0 0.0079096501335649879 -0.0017472523917643667 0 0.0064551669200347481 -0.00055537310317662269 0 0.0062485407369599014 -0.0016376606509376686 0 0.0056315123117457316 -0.001233081843110409 0 0.0065301946016360322 -0.0014409756993750359 0 0.0052328512554052041 -0.0012317896984172349 0 0.0058782957953106675 -0.0015667095165546468 0 0.0052570803950434996 -0.0017603307314970988 0 0.0081008426495333009 -0.0017767952359229362 0 0.0078482904611886922 -0.00089694131447452547 0 0.0071906038649639072 -0.0012782725095508113 0 0.0078482904611886922 -0.00089694131447452547 0 0.0062723268360903202 -0.00077394445613857487 0 0.0071906038649639072 -0.0012782725095508113 0 0.0093103278121997746 -0.001015335744809998 0 0.0056315123117457316 -0.001233081843110409 0 0.0058782957953106675 -0.0015667095165546468 0 0.0055588488337609925 -0.0021961135235326894 0 0.0061954143156415058 -0.0023178100868699782 0 0.0065273105136063369 -0.0019152555090515108 0 0.0058782957953106675 -0.0015667095165546468 0 0.0061954143156415058 -0.0023178100868699782 0 0.007795887018056483 -0.00091952802323201177 0 0.0065301946016360322 -0.0014409756993750359 0 0.0058782957953106675 -0.0015667095165546468 0 0.0055588488337609925 -0.0021961135235326894 0 0.0052570803950434996 -0.0017603307314970988 0 0.0055588488337609925 -0.0021961135235326894 0 0.0052570803950434996 -0.0017603307314970988 0 0.004946333321468847 -0.0021382591207200789 0 0.0052696187851411329 -0.0029774649614096862 0 0.0052921841494730617 -0.0025610504812509042 0 0.0059146535742225694 -0.0028678053395807786 0 0.0055588488337609925 -0.0021961135235326894 0 0.0052921841494730617 -0.0025610504812509042 0 0.0059146535742225694 -0.0028678053395807786 0 0.0055588488337609925 -0.0021961135235326894 0 0.0052921841494730617 -0.0025610504812509042 0 0.004946333321468847 -0.0021382591207200789 0 0.0052696187851411329 -0.0029774649614096862 0 0.0052921841494730617 -0.0025610504812509042 0 0.00477256380401107 -0.002626874525403266 0 0.0065646567638373166 -0.0027568434819485992 0 0.0059146535742225694 -0.0028678053395807786 0 0.0061954143156415058 -0.0023178100868699782 0 0.0055588488337609925 -0.0021961135235326894 0 0.0059146535742225694 -0.0028678053395807786 0 0.0061954143156415058 -0.0023178100868699782 0 0.0071572598602879919 -0.0018547412062772948 0 0.0054424730115132181 -0.0024902530764971116 0 0.0042434874791775316 -0.0022653584808894844 0 0.0041496927296048747 -0.0016653789132525293 0 0.0035858016986695827 -0.0017732160608726752 0 0.0042434874791775316 -0.0022653584808894844 0 0.0041496927296048747 -0.0016653789132525293 0 0.0046874397794502065 -0.0016772938486681926 0 0.0042434874791775316 -0.0022653584808894844 0 0.0046874397794502065 -0.0016772938486681926 0 0.004946333321468847 -0.0021382591207200789 0 0.0052570803950434996 -0.0017603307314970988 0 0.0046874397794502065 -0.0016772938486681926 0 0.004946333321468847 -0.0021382591207200789 0 0.0042434874791775316 -0.0022653584808894844 0 0.004946333321468847 -0.0021382591207200789 0 0.00477256380401107 -0.002626874525403266 0 0.0045273942200644412 -0.0031241603283777173 0 0.0047138563296396218 -0.002634011857136406 0 0.004040215220224022 -0.0027588703562188644 0 0.0042651785268045059 -0.0022849880403096596 0 0.00486474082152608 -0.002749061509324901 0 0.0052921841494730617 -0.0025610504812509042 0 0.004946333321468847 -0.0021382591207200789 0 0.00477256380401107 -0.002626874525403266 0 0.0038883958560503567 -0.0028405161623845793 0 0.00486474082152608 -0.002749061509324901 0 0.0042434874791775316 -0.0022653584808894844 0 0.0047138563296396218 -0.002634011857136406 0 0.004040215220224022 -0.0027588703562188644 0 0.0042434874791775316 -0.0022653584808894844 0 0.004040215220224022 -0.0027588703562188644 0 0.0035377334767667697 -0.002419500471028587 0 0.0035212389755340224 -0.0029170346287916535 0 0.004040215220224022 -0.0027588703562188644 0 0.0035377334767667697 -0.002419500471028587 0 0.0035212389755340224 -0.0029170346287916535 0 0.0035377334767667697 -0.002419500471028587 0 0.0029531620510354368 -0.0027078631748295788 0 0.0042434874791775316 -0.0022653584808894844 0 0.0035377334767667697 -0.002419500471028587 0 0.0035858016986695827 -0.0017732160608726752 0 0.0035377334767667697 -0.002419500471028587 0 0.0035858016986695827 -0.0017732160608726752 0 0.0026980958607891996 -0.0019881218482751041 0 0.002066475595625394 -0.0029579506939044599 0 0.0026980958607891996 -0.0019881218482751041 0 0.0029531620510354368 -0.0027078631748295788 0 0.0035377334767667697 -0.002419500471028587 0 0.0026980958607891996 -0.0019881218482751041 0 0.0029531620510354368 -0.0027078631748295788 0 0.002066475595625394 -0.0029579506939044599 0 0.0028465060848427313 -0.0018687855330674417 0 0.0017130949028433386 -0.0020347249344288602 0 0.0021163508627725274 -0.0029133361730630972 0 0.0027581766252492545 -0.0019378460377685897 0 0.0013341613121795053 -0.0029942929345062636 0 0.00088656922220738653 -0.0024905863691609231 0 0.0017130949028433386 -0.0020347249344288602 0 0.0013341613121795053 -0.0029942929345062636 0 0.002066475595625394 -0.0029579506939044599 0 0.0017130949028433386 -0.0020347249344288602 0 0.00095321001513667947 -0.001836594095215519 0 0.0017130949028433386 -0.0020347249344288602 0 0.0013821703934831331 -0.00098978576357041607 0 0.0028465060848427313 -0.0018687855330674417 0 0.0017130949028433386 -0.0020347249344288602 0 0.0024449121538828644 -0.00096132714081572496 0 0.0017130949028433386 -0.0020347249344288602 0 0.0024449121538828644 -0.00096132714081572496 0 0.0013821703934831331 -0.00098978576357041607 0 0.0013776389933084006 -0.00021171514305113614 0 0.0014654510893299837 -0.00085941574664081296 0 0.0017127994422938319 -6.1588112287209133e-05 0 0.0013821703934831331 -0.00098978576357041607 0 0.0020781392136303904 -0.00050811946189072902 0 0.0024449121538828644 -0.00096132714081572496 0 0.0013821703934831331 -0.00098978576357041607 0 0.0020781392136303904 -0.00050811946189072902 0 0.0025798837576485141 -4.65727086215717e-05 0 0.0024449121538828644 -0.00096132714081572496 0 0.0020781392136303904 -0.00050811946189072902 0 0.0025798837576485141 -4.65727086215717e-05 0 0.0024449121538828644 -0.00096132714081572496 0 0.0031461714654907797 -0.00020731409833901112 0 0.0024449121538828644 -0.00096132714081572496 0 0.0031461714654907797 -0.00020731409833901112 0 0.0035175435884498276 -0.00076139528785323745 0 0.0034890301074515825 8.741446159688379e-05 0 0.0031461714654907797 -0.00020731409833901112 0 0.0035175435884498276 -0.00076139528785323745 0 0.0040331310255247582 0.00022872367034906674 0 0.0039586875022515717 -0.00079731123954050851 0 0.0033117691440301099 -0.00098403009922623757 0 0.0039994541632310766 0.00017395085235183256 0 0.0034206815113799536 -0.00085824119786448503 0 0.0039586875022515717 -0.00079731123954050851 0 0.0033117691440301099 -0.00098403009922623757 0 0.0038582671486821463 -0.0012821471395717131 0 0.0035858016986695827 -0.0017732160608726752 0 0.0033117691440301099 -0.00098403009922623757 0 0.0038582671486821463 -0.0012821471395717131 0 0.0041496927296048747 -0.0016653789132525293 0 0.0035858016986695827 -0.0017732160608726752 0 0.0038582671486821463 -0.0012821471395717131 0 0.0028465060848427313 -0.0018687855330674417 0 0.0024449121538828644 -0.00096132714081572496 0 0.0035175435884498276 -0.00076139528785323745 0 0.0035858016986695827 -0.0017732160608726752 0 0.0026980958607891996 -0.0019881218482751041 0 0.0033117691440301099 -0.00098403009922623757 0 0.0027581766252492545 -0.0019378460377685897 0 0.0034206815113799536 -0.00085824119786448503 0 
</DataArray>
</PointData>
<CellData Scalars="region_id,cross_section_updated," Vectors="" Tensors="stress,">
<DataArray type="Float64" Name="region_id" format="ascii">
5 5 5 6 5 5 5 5 5 5 5 5 5 5 6 5 5 6 5 5 5 5 5 5 5 5 5 5 5 5 5 5 5 5 5 5 5 5 5 5 5 5 5 5 5 5 5 6 5 5 5 6 5 5 5 5 5 5 6 5 5 5 5 5 5 6 5 5 5 5 5 5 5 5 5 5 5 5 5 5 5 5 5 5 5 5 5 5 5 5 5 5 5 5 5 5 5 5 5 5 5 5 5 5 5 5 5 5 5 5 5 5 5 5 5 5 5 5 6 5 5 5 5 5 6 6 5 5 5 5 5 5 5 6 6 5 5 5 5 5 5 6 5 5 5 5 6 6 6 5 5 5 5 5 5 5 5 5 5 5 5 5 5 5 5 5 5 5 5 5 5 5 5 5 5 5 5 5 5 5 5 5 5 5 5 5 5 5 5 5 5 5 5 5 5 5 5 5 5 5 5 5 5 5 5 5 5 5 5 5 5 5 5 5 6 5 5 5 5 6 5 5 5 5 5 6 5 5 5 6 5 6 5 6 5 6 5 5 5 5 5 5 5 5 5 5 5 5 5 5 5 5 5 5 6 5 5 5 5 5 5 5 5 5 5 5 5 5 5 5 5 6 5 5 6 5 5 5 6 5 5 5 6 5 5 5 5 5 5 5 5 5 5 5 5 5 5 5 5 5 5 5 5 5 5 5 5 5 6 5 5 5 6 5 5 5 5 5 5 5 5 5 5 5 5 5 5 5 5 5 5 5 5 5 5 5 5 5 5 5 5 5 5 5 5 5 5 5 5 5 5 5 5 5 6 5 6 5 5 5 5 5 5 5 5 5 5 6 5 5 5 5 5 5 5 5 5 5 5 5 5 5 5 5 5 5 5 5 5 5 5 5 5 5 5 5 5 5 5 6 5 5 6 5 5 5 5 6 6 5 5 5 5 5 5 5 5 5 5 5 6 5 5 5 5 5 5 6 5 5 5 5 6 5 5 5 5 5 5 5 6 5 5 5 5 6 5 5 5 6 5 5 6 5 5 5 5 5 6 5 5 5 5 5 5 5 6 5 5 5 5 5 5 6 5 5 5 5 6 5 5 5 5 5 5 5 5 6 5 5 5 5 5 5 5 5 5 5 5 5 5 5 5 5 5 6 5 5 5 5 5 5 5 5 5 5 5 5 5 5 6 5 5 5 5 5 5 5 5 5 5 5 6 5 5 5 5 5 5 5 5 5 5 5 5 5 6 5 5 5 5 5 5 5 5 5 5 5 5 5 5 6 5 5 6 5 5 5 6 5 5 5 5 6 5 5 5 5 5 5 5 6 5 6 5 5 5 5 5 5 6 5 5 5 5 6 5 5 5 5 5 5 5 6 5 5 5 5 5 5 5 5 5 5 5 5 5 5 5 5 5 6 5 5 5 5 6 5 5 5 6 5 5 5 5 5 5 5 5 5 5 5 6 5 5 5 5 5 5 5 5 5 5 5 5 5 5 5 5 5 5 5 5 5 5 5 5 5 5 5 5 5 5 5 6 5 5 5 5 5 5 5 5 5 5 5 5 5 5 5 5 5 5 5 5 5 5 5 5 5 5 6 5 5 5 5 5 5 6 5 6 5 5 5 6 6 5 6 5 5 6 5 5 6 5 5 6 5 5 5 5 6 5 6 5 5 5 5 5 6 5 5 6 5 5 5 6 5 6 5 5 5 5 5 5 5 5 5 5 5 5 6 6 5 5 5 5 6 5 5 6 5 5 5 5 5 5 5 5 5 6 5 5 5 5 5 6 5 5 5 5 5 5 5 5 5 5 5 5 5 6 5 6 5 5 5 5 6 5 5 5 5 5 5 5 6 5 5 5 6 6 5 5 5 6 5 5 5 5 5 5 5 5 5 5 5 5 5 5 5 6 5 5 5 6 5 5 6 5 5 6 5 5 5 5 5 5 6 6 5 5 5 5 5 5 5 5 5 5 5 5 5 5 5 5 5 5 5 5 5 6 5 5 6 5 5 5 5 6 5 5 5 5 6 5 6 6 5 6 6 5 5 5 5 5 5 5 5 5 5 5 5 6 5 5 5 5 5 5 5 5 5 5 5 5 5 6 6 5 5 5 5 5 5 5 5 5 5 5 5 5 5 5 5 5 5 5 5 5 5 5 5 5 5 5 5 5 5 5 6 5 5 5 5 5 5 5 5 5 5 5 5 5 5 5 5 5 6 6 5 5 5 5 5 5 5 5 5 5 5 5 5 5 6 5 5 5 5 5 5 6 5 6 5 5 5 5 5 5 5 5 5 5 5 5 5 5 5 5 5 6 5 5 5 5 5 5 6 5 6 5 5 5 5 5 6 5 5 5 5 5 6 5 5 5 5 5 5 5 5 5 5 5 5 5 6 5 5 5 5 5 5 5 6 5 5 6 5 5 6 5 5 6 5 5 5 5 5 5 5 5 5 5 5 5 5 5 5 6 5 5 5 5 6 5 5 5 5 5 5 5 5 5 5 6 5 5 5 5 5 5 5 5 5 6 5 5 5 5 5 5 5 5 5 5 5 5 5 5 5 5 5 5 5 5 5 5 5 6 5 5 5 5 5 6 5 5 6 5 5 5 5 5 5 5 5 5 5 5 5 5 5 5 5 5 5 5 5 5 5 5 6 5 5 5 5 5 5 5 5 5 5 5 5 5 5 5 5 5 5 5 5 5 5 5 5 5 5 5 5 5 5 5 5 5 5 5 5 5 5 5 5 5 5 5 5 5 5 5 6 5 5 5 5 5 6 5 5 5 5 5 5 6 5 5 5 5 6 5 5 5 5 6 5 5 5 5 5 6 5 5 5 6 5 5 5 5 5 5 5 6 5 5 5 5 6 5 5 5 5 6 6 6 5 5 5 5 5 5 5 5 5 5 5 5 5 5 5 5 5 5 5 5 5 5 5 5 5 5 5 5 5 5 5 5 5 5 5 5 5 5 5 6 5 5 5 5 5 5 5 5 5 5 5 5 5 5 5 5 5 5 5 5 5 5 5 5 5 5 5 5 5 5 5 6 5 5 5 5 5 5 6 5 5 5 5 5 6 5 5 5 5 5 5 5 5 5 5 5 5 5 5 5 5 5 5 5 6 5 5 5 6 5 6 5 5 5 5 6 5 5 5 5 6 5 5 5 5 5 5 5 5 5 6 5 5 5 5 5 5 6 5 5 6 5 5 5 5 6 5 5 5 5 5 5 5 5 5 5 5 6 5 5 5 5 5 5 5 5 5 6 5 5 5 6 5 6 5 5 5 5 5 5 5 5 5 5 5 5 5 5 5 5 5 5 5 5 5 5 6 5 5 5 6 5 5 5 5 5 6 5 5 6 6 5 5 5 6 5 5 6 5 6 5 6 5 6 5 5 5 6 6 5 5 5 5 6 5 5 5 6 5 5 5 5 5 5 5 5 5 6 5 5 5 5 5 5 5 5 5 5 5 6 5 5 5 5 5 5 5 5 5 5 5 5 5 5 6 5 5 5 6 5 5 5 5 6 5 6 5 5 5 5 5 5 5 5 5 5 5 5 5 5 5 5 5 5 6 5 5 5 5 5 5 5 5 5 5 6 5 5 5 5 5 5 5 5 5 5 5 5 5 5 5 5 5 5 5 5 5 5 5 5 5 5 5 5 6 5 5 5 5 5 5 5 5 6 5 5 6 5 5 5 5 5 5 5 5 5 5 5 5 5 5 5 5 5 5 6 5 5 5 5 5 5 5 5 5 5 5 5 5 5 5 5 5 5 5 5 5 5 5 5 5 5 5 6 5 5 5 5 5 5 5 5 5 5 5 5 5 5 5 5 5 5 5 5 5 5 5 5 5 5 5 5 5 5 5 5 5 5 5 5 5 5 5 5 5 5 5 5 5 5 6 6 5 5 6 5 5 5 5 6 5 5 5 5 5 5 6 5 5 5 5 5 5 5 5 5 5 5 5 5 5 6 5 5 5 5 5 5 5 5 5 5 5 5 5 5 6 5 5 5 5 5 5 5 5 5 5 5 5 5 5 5 5 5 5 5 5 5 5 5 5 5 5 5 5 5 5 5 5 5 5 5 5 5 5 5 5 5 5 6 5 5 5 5 5 5 5 5 5 6 5 5 5 5 5 5 5 5 5 5 5 5 5 5 5 6 6 5 5 5 5 5 6 6 5 6 5 6 5 5 5 6 6 6 5 6 5 5 5 5 5 6 5 5 6 5 5 6 5 5 5 6 5 6 6 5 6 6 6 6 5 5 6 5 6 5 5 6 5 5 6 5 5 5 5 5 5 6 5 5 5 5 5 5 5 5 5 5 6 5 5 6 5 5 6 5 5 5 5 5 5 5 5 5 5 5 5 5 5 5 5 5 5 5 5 5 5 5 5 5 5 5 6 5 5 5 5 5 5 5 5 6 5 5 5 5 6 5 5 5 6 5 5 5 5 5 5 5 5 5 5 5 5 6 5 5 6 5 5 5 5 5 5 5 5 5 5 5 5 5 5 5 5 5 5 5 5 6 5 5 5 5 6 5 5 5 5 5 5 5 5 5 5 5 5 5 5 5 5 5 5 5 6 5 5 5 5 5 5 5 6 5 5 5 6 5 5 5 5 5 5 5 5 5 6 5 5 5 5 5 5 5 5 5 5 5 6 5 5 5 6 5 5 5 6 5 5 5 5 5 6 5 5 5 5 5 5 5 5 5 5 5 5 5 6 5 5 5 5 5 5 5 5 5 5 5 5 5 5 5 5 5 5 5 5 5 5 5 5 6 5 5 5 5 5 5 5 6 5 5 5 5 5 5 5 5 5 5 5 5 5 5 5 5 5 5 6 5 6 5 5 5 5 5 5 6 5 5 5 5 5 5 5 5 5 5 5 5 5 5 5 5 5 5 5 5 5 5 5 5 5 5 5 5 5 6 5 5 5 5 6 5 5 5 5 5 5 5 5 5 6 5 5 6 5 5 6 5 5 5 5 5 5 5 5 6 5 5 5 5 6 5 5 5 5 6 5 5 5 5 5 5 6 5 5 5 6 5 5 6 5 5 6 5 5 6 5 6 5 6 5 5 6 5 5 5 5 5 5 6 5 5 5 6 5 5 6 5 5 5 5 5 5 5 5 5 6 5 5 5 5 5 5 5 6 5 5 5 5 5 5 5 5 6 5 5 5 5 5 5 5 5 5 5 5 5 5 5 5 5 5 5 5 5 5 5 5 5 5 5 6 5 6 5 5 5 6 5 5 5 5 5 5 5 5 5 5 5 5 5 5 5 5 5 5 5 5 5 5 5 5 5 5 5 6 5 6 5 5 5 5 5 5 5 5 5 5 5 5 5 5 5 5 5 5 5 6 5 5 5 6 5 5 5 5 5 5 5 5 5 5 5 5 5 5 5 5 5 5 5 5 6 5 5 5 5 5 5 5 5 5 5 5 5 5 5 5 5 5 5 5 5 5 5 5 5 5 5 5 5 5 5 5 5 5 5 5 5 5 5 5 5 5 5 5 5 5 5 5 5 5 5 5 5 5 6 5 5 5 5 6 5 5 5 5 5 5 5 5 5 5 5 5 5 5 6 5 5 5 5 5 6 5 5 5 5 5 5 5 5 5 5 5 5 5 5 5 5 5 5 5 5 5 5 5 5 5 6 6 5 5 5 6 5 5 5 5 5 5 5 6 5 5 5 5 5 5 5 5 5 5 6 5 5 5 5 5 5 6 6 5 5 5 5 5 5 5 5 5 6 5 5 5 6 5 5 5 5 5 6 5 6 5 5 5 5 5 5 5 6 5 5 5 5 5 5 5 5 5 5 5 5 6 5 5 5 5 5 5 5 5 5 5 5 5 6 5 5 5 5 6 5 5 5 5 6 5 5 5 6 5 6 5 5 5 5 5 5 5 5 5 5 5 5 5 6 5 5 5 5 5 5 5 5 5 5 5 5 5 5 5 5 5 6 6 5 5 5 5 5 5 6 5 5 5 5 5 5 5 5 5 5 5 5 5 5 5 5 5 5 5 5 5 5 5 5 5 5 5 5 5 5 5 5 5 5 5 5 5 5 5 5 5 5 5 5 5 5 5 5 5 5 5 5 5 5 5 5 5 5 6 5 5 5 5 5 6 5 5 5 5 5 5 5 5 5 5 5 6 5 5 5 6 5 5 5 5 5 5 5 5 5 5 5 5 5 6 5 5 5 5 5 5 5 5 5 5 5 5 5 5 5 5 5 5 5 5 5 5 5 6 5 5 5 5 5 5 5 5 5 5 5 5 5 5 5 5 6 5 5 5 5 5 5 6 5 5 5 5 5 5 5 5 5 5 6 5 5 5 6 5 5 5 5 5 5 5 5 5 5 5 5 5 5 6 5 6 5 5 5 5 5 5 5 6 5 6 5 5 5 5 5 5 5 5 5 5 5 5 6 5 5 5 5 6 5 5 5 5 6 5 5 5 5 6 5 5 5 5 6 5 5 5 5 5 5 5 6 5 5 5 5 5 5 5 5 5 5 5 6 5 5 5 6 5 5 6 5 5 5 5 5 5 5 5 5 5 5 5 5 5 5 5 5 5 5 5 5 5 5 5 5 5 5 5 5 5 5 5 5 5 5 5 5 5 5 5 5 5 5 5 5 5 5 5 5 5 5 5 5 5 5 5 5 5 5 5 5 5 5 5 5 5 5 5 5 5 5 5 5 5 5 5 5 5 6 5 5 5 5 5 5 6 5 5 5 5 5 5 6 5 5 5 6 5 5 5 5 5 6 5 5 5 5 5 5 5 5 5 5 5 5 5 5 5 5 5 5 6 5 5 5 5 5 5 5 5 5 5 5 5 6 5 5 5 5 5 5 5 5 5 5 5 5 5 5 5 5 5 5 5 5 5 5 5 5 6 5 5 5 5 5 5 5 5 5 5 6 6 5 6 5 5 6 5 5 5 5 5 5 5 5 5 5 5 5 5 5 5 5 5 5 6 5 5 5 5 5 5 5 5 6 5 5 5 5 5 5 5 5 5 5 5 5 5 5 6 5 5 5 6 5 5 5 5 5 5 5 6 5 5 5 5 5 6 5 6 5 5 5 5 5 5 5 6 6 5 6 5 5 6 5 5 5 5 5 5 5 5 5 5 5 5 6 5 5 5 5 6 5 5 5 5 5 5 5 5 5 5 5 5 5 5 5 5 5 5 5 6 5 5 5 5 5 5 5 6 5 5 5 5 5 5 5 5 5 5 5 5 5 5 5 5 5 5 5 5 5 5 5 6 5 5 5 6 5 6 5 5 5 5 5 5 6 5 5 5 5 5 5 5 6 5 5 5 5 5 6 5 5 6 5 6 5 6 5 5 5 5 5 5 6 5 6 5 5 5 5 5 6 5 5 5 5 5 5 6 5 6 5 5 5 5 5 5 5 5 5 5 5 5 5 5 6 5 5 5 5 5 6 5 5 6 5 5 5 5 5 5 5 5 5 5 5 5 5 5 5 5 5 5 5 5 5 5 5 5 5 5 6 5 5 5 5 5 5 5 5 5 5 6 6 5 5 6 5 5 5 5 5 5 5 5 5 5 6 5 5 5 5 5 5 5 5 6 5 6 5 5 5 5 5 5 5 5 5 5 6 5 5 5 5 5 5 5 6 5 5 6 5 5 5 5 5 5 5 5 5 5 5 5 5 5 5 5 5 5 5 5 5 5 6 5 5 6 5 5 5 5 5 6 5 5 5 5 5 6 5 5 5 5 6 5 5 5 5 5 5 5 5 5 5 5 5 5 5 5 5 5 5 5 5 5 5 5 5 5 5 5 5 5 5 5 5 5 5 5 5 5 5 5 5 5 5 5 5 5 5 5 5 5 5 5 5 5 5 5 5 5 5 5 5 5 5 5 5 5 5 5 5 5 5 5 5 5 5 5 5 5 5 5 5 5 5 5 5 5 6 5 5 5 5 5 5 5 5 5 5 5 5 5 6 6 5 5 6 5 5 5 5 5 5 5 5 5 5 5 5 5 5 5 5 5 5 6 5 5 5 5 5 5 5 5 5 6 5 5 5 5 5 5 5 5 5 5 5 6 5 5 5 5 5 5 5 5 5 5 5 5 6 5 5 5 5 5 5 5 5 5 5 5 6 5 6 5 5 5 6 5 5 5 5 6 5 6 5 6 5 5 5 6 6 5 5 5 5 5 6 5 5 5 5 5 5 5 6 6 5 5 5 6 6 5 5 5 5 5 5 5 5 5 5 5 5 5 5 5 5 5 5 6 5 5 5 5 5 5 5 5 6 5 5 5 6 5 6 5 5 5 5 5 5 5 5 5 5 6 5 5 5 5 5 5 5 5 6 5 5 5 5 6 5 5 5 5 6 5 5 5 5 6 5 5 5 5 5 5 5 5 5 5 6 5 5 5 5 5 5 5 5 5 5 5 5 5 5 5 5 5 5 5 5 5 6 5 5 5 6 5 6 5 5 5 5 5 5 5 5 5 5 5 6 5 5 6 5 5 5 5 5 5 5 5 5 5 5 6 5 6 5 5 5 5 6 5 5 5 5 5 5 6 5 5 6 6 5 5 5 5 5 5 6 5 5 5 5 5 6 5 5 5 5 5 5 5 5 5 5 5 5 5 5 6 5 5 5 5 5 5 5 6 5 5 5 5 5 5 6 5 5 5 5 6 5 5 5 5 5 5 6 6 5 5 5 5 5 5 6 5 6 5 5 6 6 6 5 6 5 6 5 5 5 5 5 5 5 5 6 5 5 6 5 6 5 5 5 5 5 6 6 5 5 5 5 5 5 5 6 5 5 5 5 5 5 5 5 6 5 5 5 5 6 5 5 6 6 5 5 6 5 6 5 5 6 5 5 6 5 5 5 5 6 5 5 5 5 5 5 6 5 5 5 5 5 5 5 5 5 5 5 5 5 5 5 5 5 5 6 5 5 5 5 5 5 5 5 5 5 6 5 5 5 5 6 5 5 6 5 6 5 5 5 5 5 5 5 5 5 5 5 5 5 5 5 5 5 5 5 5 5 5 5 5 5 5 5 5 5 5 5 5 5 5 5 5 5 5 5 5 5 5 5 5 5 5 5 5 5 5 5 6 6 5 5 5 5 5 5 5 6 5 5 5 6 5 5 5 5 5 5 5 5 6 5 5 5 5 5 5 5 6 5 5 5 5 5 5 5 5 6 5 6 5 5 5 5 5 5 5 5 6 5 5 6 5 5 5 5 5 5 5 5 5 5 5 5 5 5 5 5 5 5 5 5 6 5 6 5 5 5 6 5 5 6 5 5 5 5 5 5 5 6 5 5 5 5 5 5 5 6 5 5 5 5 5 6 5 5 5 5 5 5 5 5 5 5 5 5 5 5 5 5 5 5 5 5 5 5 5 5 6 5 5 5 5 5 5 5 5 6 5 5 5 5 5 5 5 5 5 5 5 5 5 5 5 5 5 5 5 5 6 5 5 5 5 5 5 5 5 5 5 5 5 5 5 5 5 5 5 5 6 5 6 5 5 5 5 5 5 5 5 5 5 5 6 5 5 5 5 5 6 5 5 5 6 6 5 5 6 5 5 6 5 5 6 5 5 5 5 6 5 5 6 6 5 5 5 5 5 6 5 5 5 5 5 5 5 5 5 5 5 5 5 5 5 5 5 5 5 5 5 5 5 5 5 5 5 5 5 5 5 5 5 5 5 5 6 5 5 5 5 5 6 5 5 6 5 5 5 5 5 5 6 5 5 5 5 5 5 6 5 5 5 5 5 5 5 5 5 5 5 5 5 5 5 5 5 5 6 5 5 5 5 5 5 5 5 5 5 5 5 5 5 5 5 5 5 5 5 6 5 6 5 5 6 5 5 5 5 5 5 5 5 6 5 5 5 5 5 5 6 5 5 6 5 5 5 5 5 6 5 5 5 5 6 5 6 5 5 5 6 5 5 5 5 5 5 5 5 5 5 5 5 5 5 5 6 5 5 5 5 5 6 6 5 5 5 5 5 5 5 5 5 6 5 5 5 5 5 5 5 6 5 5 5 5 5 6 5 5 5 5 5 5 6 5 5 5 5 5 5 5 5 5 5 5 6 5 5 5 5 5 5 5 5 5 5 5 5 5 5 5 5 5 5 5 5 5 5 5 5 5 5 6 5 5 5 5 5 5 5 5 5 5 5 5 5 5 5 5 6 5 5 5 6 5 5 5 5 5 5 6 5 5 6 5 6 5 5 5 5 6 5 5 5 5 5 5 5 5 5 5 5 5 5 5 5 5 5 5 5 5 5 5 5 5 5 5 5 5 5 5 5 5 5 5 5 5 6 5 5 5 6 5 6 5 5 5 6 6 5 5 5 5 5 5 5 5 5 5 5 5 5 5 5 6 5 5 5 5 5 6 5 5 5 5 5 5 5 5 5 5 5 5 5 5 5 5 5 5 5 6 5 6 5 6 5 5 5 5 5 5 6 5 5 5 5 5 5 5 5 5 5 5 5 5 5 5 6 5 5 6 5 5 5 5 5 5 5 5 6 5 6 5 5 5 5 5 5 5 5 5 5 5 5 5 5 5 5 5 5 6 5 5 5 5 5 5 5 5 5 5 5 5 5 5 6 5 5 5 6 5 5 5 5 5 5 5 5 6 5 5 6 5 5 5 5 5 6 5 5 5 5 5 5 5 5 5 5 6 5 5 6 5 5 5 5 6 5 6 5 5 5 5 6 5 6 5 5 6 6 6 5 5 6 5 5 5 5 5 5 6 5 5 5 5 5 5 6 5 5 5 5 5 5 5 6 5 5 5 5 5 5 5 5 5 5 5 5 6 5 5 5 5 5 5 5 5 5 5 6 5 5 5 5 5 5 5 5 5 5 5 5 5 5 5 5 5 5 5 5 5 5 5 5 5 5 5 6 5 5 5 5 5 5 5 5 5 5 5 6 5 5 5 5 5 5 5 5 5 5 6 6 5 5 5 5 5 5 6 5 5 5 5 5 6 5 5 5 5 5 5 5 5 5 5 5 5 6 5 5 5 5 5 5 5 5 5 5 5 5 5 5 5 5 5 5 5 5 5 5 5 5 5 6 5 5 5 5 6 5 5 5 5 5 5 5 6 5 5 5 6 6 5 5 5 5 5 6 6 5 5 5 5 5 5 5 5 5 5 5 5 6 5 6 5 5 5 5 5 5 5 5 5 5 5 5 5 5 5 5 5 5 5 6 6 5 5 5 5 5 5 5 5 5 5 5 5 5 5 5 5 5 5 6 5 5 5 5 5 5 6 6 5 5 5 5 5 5 5 5 5 5 5 5 5 5 5 5 5 5 5 5 6 5 5 6 5 5 6 5 5 5 6 5 6 5 5 5 5 5 5 5 6 5 5 5 5 5 5 5 5 5 5 5 5 5 5 5 5 5 5 6 5 5 5 5 6 5 5 5 5 5 6 5 5 5 5 5 5 5 5 5 6 5 5 5 5 5 5 5 5 5 5 5 5 5 5 5 5 5 5 5 6 5 5 5 5 5 6 5 5 5 6 5 5 6 5 5 5 5 5 5 5 5 5 5 5 5 5 6 6 5 5 5 5 5 5 5 5 5 5 5 5 5 5 5 5 5 6 5 5 6 6 5 5 5 5 5 5 5 5 5 6 5 6 5 5 5 5 5 5 5 5 5 5 5 6 6 5 5 5 5 5 5 5 6 5 5 5 5 5 5 5 6 5 5 5 6 5 5 5 5 5 5 5 5 5 5 5 5 5 5 5 5 5 5 5 5 5 5 5 5 5 5 5 5 5 5 5 5 5 5 5 5 5 5 5 5 5 5 5 5 6 5 5 5 5 5 5 5 5 5 5 5 5 5 5 5 5 5 5 5 5 5 5 5 5 5 5 5 5 5 5 5 5 5 5 5 5 5 5 5 5 5 5 5 6 5 6 5 5 5 5 5 5 5 5 5 5 5 5 5 5 5 5 5 5 5 5 6 5 5 5 5 5 5 5 5 5 5 5 5 5 5 5 5 5 5 5 5 5 6 5 5 6 5 5 5 5 5 5 5 5 5 6 5 5 5 5 5 5 5 5 6 5 5 5 5 5 5 5 5 5 5 6 5 5 5 5 6 5 5 5 6 5 6 5 5 5 6 5 5 5 6 5 5 6 5 6 5 5 5 6 5 5 5 5 6 5 6 5 5 5 5 6 5 5 5 6 6 5 5 5 6 6 5 5 5 5 6 5 5 5 5 6 5 5 5 5 5 5 5 5 5 5 5 6 5 5 5 6 5 5 5 6 5 5 5 6 5 5 5 5 5 5 6 5 5 5 5 5 5 5 6 5 6 5 5 5 5 5 6 5 5 5 6 6 5 6 5 5 5 5 5 5 5 5 5 5 5 5 6 5 5 5 5 5 6 6 5 6 5 6 5 5 5 5 6 6 5 5 6 5 5 5 5 5 5 5 5 5 6 5 5 5 6 5 6 5 5 5 5 6 5 6 5 5 5 5 5 5 5 5 5 5 5 5 5 5 5 6 5 5 6 5 5 6 5 5 5 6 6 5 5 6 6 5 5 5 5 6 5 5 5 6 5 5 5 5 6 5 5 5 6 5 5 6 5 5 5 5 5 6 5 5 5 6 5 5 5 5 5 5 5 6 5 5 5 5 5 5 5 5 5 5 5 5 5 5 5 5 5 5 5 5 5 5 5 5 5 5 5 5 5 6 5 5 5 5 5 5 6 5 5 5 6 5 5 5 5 5 6 5 5 5 6 5 5 5 5 6 5 5 6 5 5 5 5 5 5 5 5 5 5 5 5 5 5 5 5 6 5 5 5 6 6 5 5 5 5 5 6 5 5 5 6 5 5 5 5 6 5 5 5 6 5 5 5 5 5 5 5 5 5 5 5 5 5 5 5 5 5 5 5 5 5 5 5 5 6 5 5 5 5 6 5 5 5 5 5 5 5 6 6 5 5 5 6 5 5 5 5 6 5 5 5 5 5 5 5 6 5 5 5 5 6 5 5 5 5 6 5 5 5 6 5 6 5 5 5 5 6 5 5 5 5 5 6 5 5 6 5 6 5 5 5 5 5 5 5 5 5 5 5 5 5 5 5 6 5 5 6 5 6 5 5 5 5 5 5 5 5 5 5 5 5 5 6 5 5 5 5 5 5 5 5 5 6 5 5 5 5 5 5 5 5 5 5 5 5 5 6 5 5 5 5 5 6 5 5 5 5 5 5 5 6 5 5 5 5 5 6 6 5 5 5 5 5 5 5 5 5 5 5 5 5 5 5 5 5 5 6 5 5 5 5 5 5 5 5 5 5 5 5 5 5 5 5 5 5 5 5 6 5 5 6 5 5 5 5 5 5 5 5 5 5 5 6 6 5 6 5 5 5 5 5 5 5 6 5 5 6 5 5 5 6 5 5 6 5 5 5 5 5 5 5 6 5 5 5 5 5 5 6 5 5 5 5 6 5 5 6 5 5 5 6 6 5 5 5 6 6 5 5 6 5 6 5 6 5 5 6 5 6 5 5 6 5 5 6 5 5 5 5 5 5 6 5 5 5 6 5 5 5 6 5 5 5 5 6 5 5 5 6 5 5 5 5 5 5 6 6 5 5 5 5 5 5 5 6 5 5 5 5 5 5 6 5 5 5 6 5 6 5 6 5 6 5 5 5 6 5 5 5 5 5 5 5 5 5 5 5 5 5 5 6 5 5 5 5 5 5 5 5 5 5 5 5 6 6 5 5 5 5 5 6 5 6 6 5 6 6 5 5 5 6 5 5 5 5 5 5 5 5 5 5 5 6 5 6 5 5 6 5 6 5 5 5 5 5 5 5 5 5 5 5 5 5 5 5 5 5 6 6 5 5 5 6 5 5 5 5 5 5 5 5 5 6 5 5 5 5 5 5 5 5 5 5 6 5 5 6 5 6 5 6 5 5 5 5 5 6 5 5 5 6 5 6 6 6 5 6 5 6 6 5 5 5 5 6 5 5 5 5 6 5 5 5 5 5 5 5 5 5 5 5 6 5 5 5 5 5 5 5 5 5 6 5 6 5 5 5 5 5 6 5 5 5 5 6 6 5 5 5 5 5 6 5 6 5 6 5 5 5 5 5 5 5 5 5 5 5 5 5 6 6 6 5 5 6 6 5 6 5 5 5 5 5 5 5 5 5 5 5 6 5 5 5 5 5 5 5 5 5 5 5 5 6 5 6 5 5 6 5 6 6 6 5 6 5 5 6 5 6 5 6 5 5 5 5 5 5 5 5 6 5 5 6 5 5 5 5 6 5 5 5 5 6 5 5 5 5 5 5 5 5 6 5 5 5 5 5 5 5 5 5 5 6 5 5 5 5 5 5 5 5 6 5 5 6 5 5 5 5 5 5 5 6 6 5 5 5 5 5 5 5 5 5 5 5 5 5 5 6 5 5 5 5 6 5 5 5 5 5 5 5 5 5 5 5 5 5 5 5 5 5 5 5 5 5 5 5 6 5 6 5 5 5 6 5 5 5 5 5 5 6 5 6 5 5 5 5 5 5 5 5 5 5 5 5 5 5 5 5 6 5 5 5 5 6 5 5 5 5 5 6 5 5 6 5 5 5 6 6 5 5 5 5 6 5 5 5 6 5 6 5 5 5 5 6 5 5 6 5 5 5 5 6 5 5 5 5 6 5 5 5 6 5 5 5 5 5 6 5 5 5 6 5 5 6 5 5 6 6 5 6 5 5 5 6 5 6 5 5 6 5 5 5 5 5 5 6 5 6 6 6 6 5 5 5 6 5 6 5 5 6 5 5 5 6 5 5 6 5 6 5 6 5 5 5 6 5 5 6 5 5 6 5 5 6 5 5 5 5 5 5 6 5 5 5 6 6 6 6 6 5 5 5 5 5 5 5 5 5 5 5 5 5 6 5 5 5 5 5 5 5 5 5 5 5 5 5 5 5 5 5 6 5 5 5 5 5 5 6 5 5 5 5 5 5 5 6 5 5 5 5 5 5 5 5 5 5 5 5 5 5 5 5 5 5 5 5 5 5 5 5 6 5 6 5 5 5 5 5 5 5 5 5 5 5 5 5 5 5 5 5 5 5 5 5 5 5 5 5 5 5 5 5 5 5 5 5 6 5 5 5 5 5 5 5 5 5 5 5 5 5 5 5 5 5 5 5 6 5 6 5 6 6 5 5 5 5 5 5 6 6 5 5 6 5 5 5 5 5 5 6 5 5 5 5 5 5 5 5 5 5 5 5 5 5 5 5 5 5 5 6 6 5 5 5 5 5 5 5 5 5 5 5 5 5 5 5 5 5 5 5 5 5 5 5 5 5 5 5 5 5 5 5 5 6 5 6 5 6 5 5 5 5 6 5 5 5 6 5 5 6 5 5 5 5 5 5 5 5 5 5 5 5 5 6 5 5 6 5 5 5 5 5 5 6 5 5 5 5 5 5 5 5 5 5 5 5 5 5 5 6 5 5 5 5 5 5 6 5 5 5 5 5 5 5 5 5 5 5 5 6 5 5 5 5 5 5 6 5 5 5 5 6 6 5 5 6 6 5 5 5 6 5 6 5 6 5 5 5 5 5 5 5 5 5 5 6 5 5 6 5 5 6 6 5 5 5 5 5 5 5 5 5 5 5 5 5 5 5 6 5 5 5 5 5 6 6 5 5 6 5 5 5 5 5 5 5 5 5 6 5 5 6 5 6 5 6 5 5 5 6 5 5 6 5 5 6 5 5 6 5 6 5 5 6 5 5 5 6 6 5 5 6 5 5 6 6 5 6 5 5 6 5 6 5 6 5 5 6 6 5 5 6 5 6 6 5 5 5 5 5 6 5 5 5 5 5 5 5 6 5 5 6 5 5 5 5 5 5 5 5 5 5 5 5 5 5 5 5 5 5 5 5 5 6 5 5 5 6 5 5 5 5 6 5 5 5 5 5 6 5 6 5 5 6 5 5 5 5 6 5 5 5 6 5 5 5 6 5 6 5 5 5 5 5 6 5 5 6 5 5 6 6 5 6 5 5 5 6 5 5 6 5 5 6 5 5 6 6 5 5 5 6 5 5 5 5 5 5 5 5 6 5 6 5 5 6 5 5 6 5 6 6 5 5 5 5 5 5 6 5 5 5 5 5 5 5 5 5 5 5 5 6 6 5 6 5 5 5 6 5 6 5 5 5 6 5 5 5 5 6 6 5 5 5 6 5 5 6 5 6 6 6 5 6 5 5 6 5 5 6 5 6 5 6 6 5 5 6 5 5 5 6 6 5 5 6 5 5 5 6 5 5 5 6 6 6 5 5 5 5 5 6 5 6 5 5 5 5 6 5 5 6 5 5 5 5 6 5 6 6 5 6 5 6 5 5 5 5 5 5 5 5 5 5 5 5 5 5 6 5 5 5 6 5 6 6 5 5 5 5 5 5 5 6 5 5 6 5 5 5 5 5 6 5 6 5 6 5 5 5 5 5 5 5 5 5 5 5 5 5 5 5 5 6 5 6 5 5 5 5 5 5 5 5 5 5 5 5 5 5 5 5 5 5 5 5 5 5 5 6 5 5 5 5 5 5 5 5 5 5 6 5 5 5 5 5 5 5 5 5 5 5 6 5 5 5 5 5 5 5 5 5 5 5 5 5 5 6 5 5 5 6 6 5 5 5 5 5 6 5 6 5 5 5 5 5 5 5 6 5 6 5 5 5 5 5 5 5 5 5 5 5 6 5 6 6 5 5 5 5 5 5 5 5 5 5 5 5 5 5 5 5 6 5 5 5 5 5 5 5 6 5 5 5 5 5 5 5 5 5 5 5 5 5 5 5 5 5 5 6 5 5 5 6 6 5 6 5 5 5 5 5 5 5 5 5 5 5 5 5 5 5 5 6 5 5 5 6 5 5 5 6 5 5 5 6 5 5 5 5 5 5 6 5 5 5 5 5 6 5 5 5 6 5 5 5 6 5 5 5 5 6 6 6 5 5 5 6 5 6 5 5 5 6 5 5 5 6 6 5 5 6 5 6 5 5 6 5 5 5 5 5 5 5 5 6 5 5 5 6 5 5 5 6 5 6 5 5 5 5 6 5 5 5 5 5 6 5 5 5 5 5 6 5 5 5 6 6 5 6 6 5 5 6 5 5 5 5 5 5 6 5 5 5 6 5 5 5 5 5 6 5 5 6 5 5 6 6 5 5 5 6 6 5 5 6 5 5 6 6 5 5 6 6 5 5 6 5 5 5 5 5 6 5 5 5 5 5 5 5 5 5 5 6 5 5 5 5 5 5 5 5 5 5 5 5 5 6 5 5 5 5 5 5 6 5 5 6 5 5 5 6 5 5 5 5 6 6 5 5 5 5 5 5 5 5 5 5 6 5 5 5 5 5 6 5 5 6 5 5 5 5 5 5 5 5 6 5 5 5 5 6 6 5 5 5 5 5 6 6 5 5 5 5 5 5 5 5 5 5 5 5 5 5 5 5 5 5 5 5 5 5 5 5 5 5 6 5 5 5 5 5 5 5 5 5 5 6 5 5 5 5 5 5 5 5 6 5 5 5 5 5 6 5 5 5 5 5 5 5 5 5 5 5 5 5 5 5 5 5 5 5 5 5 5 5 6 5 6 5 5 5 5 5 5 5 6 5 5 5 5 5 5 5 5 5 5 5 5 5 6 5 5 5 6 5 5 5 5 5 5 5 5 5 5 6 5 5 5 5 5 5 5 5 5 6 5 5 5 5 5 5 5 5 5 5 5 5 5 5 5 5 6 5 5 5 5 5 5 5 5 5 5 6 6 5 6 6 5 5 5 5 5 6 5 5 5 6 5 5 5 5 5 5 5 5 5 5 5 5 5 5 6 5 5 5 5 5 5 6 5 5 5 5 5 5 5 5 5 5 5 5 5 5 5 5 5 5 5 5 5 5 5 5 5 5 6 5 5 5 5 5 5 5 6 5 5 5 5 5 6 5 5 6 6 5 5 6 5 5 5 6 5 5 5 5 5 5 5 5 5 5 5 5 6 5 5 5 6 5 5 5 6 6 5 5 6 5 5 5 5 5 5 5 5 5 5 5 5 5 5 5 5 5 5 5 5 5 5 5 5 5 5 5 5 5 5 5 5 5 5 5 5 5 5 5 5 5 5 5 5 5 5 5 5 6 5 5 5 5 5 6 5 5 5 5 6 5 5 5 6 5 5 5 5 5 6 6 5 5 5 6 5 5 5 5 5 5 5 5 5 5 5 5 5 5 5 5 6 5 6 5 6 5 5 5 5 5 5 5 5 5 5 6 5 5 5 5 5 5 5 5 5 5 5 5 5 5 5 5 5 5 5 5 5 5 5 5 5 5 5 5 6 5 5 5 5 5 5 5 5 5 6 5 5 5 6 5 5 5 5 5 6 5 5 6 5 5 5 5 5 5 6 5 5 5 5 5 5 5 5 6 5 5 5 5 5 5 5 5 6 5 5 6 5 6 5 5 5 5 5 5 5 5 5 5 6 5 5 5 5 5 6 5 5 5 5 6 5 6 5 5 5 6 5 5 6 5 5 5 5 5 5 5 5 5 5 5 5 5 5 5 5 5 5 6 5 5 5 5 5 5 5 5 6 5 5 5 6 5 5 5 5 6 5 5 5 5 6 5 5 5 5 5 5 5 6 5 5 5 5 6 6 5 5 5 5 5 5 6 5 5 5 6 5 5 5 6 5 5 5 5 5 5 6 5 5 5 5 5 5 6 5 6 5 6 6 6 5 5 5 5 5 5 5 5 5 5 6 6 5 6 6 5 5 5 6 5 6 5 5 5 5 6 6 5 5 5 5 5 5 5 6 5 5 6 5 5 5 5 6 5 5 5 6 5 5 5 5 5 5 5 5 5 5 5 5 5 5 5 6 5 5 5 5 5 5 5 6 5 5 5 5 6 5 5 5 5 5 5 5 6 5 5 6 5 5 5 5 5 5 5 5 6 5 6 5 6 6 5 5 5 5 5 6 5 5 5 5 5 5 5 5 5 5 5 5 5 6 5 5 5 5 5 5 5 5 5 5 5 6 5 5 5 5 6 5 5 5 5 6 5 5 5 5 5 5 5 5 5 5 5 5 5 5 5 5 5 5 5 5 5 5 5 5 6 5 5 5 5 5 5 5 5 5 6 5 5 5 5 5 5 5 5 5 5 5 5 5 5 5 5 5 5 5 5 5 5 5 5 5 5 5 5 5 5 5 5 5 5 5 5 5 5 5 5 5 5 5 5 5 5 5 5 5 5 5 6 5 6 5 5 5 5 5 5 5 5 5 5 5 5 5 5 5 5 5 5 5 5 5 5 5 5 5 5 5 5 5 5 5 5 5 5 5 5 5 5 5 5 5 6 5 6 5 5 5 5 5 5 5 5 5 5 6 5 5 5 6 5 5 6 5 6 5 6 6 6 5 5 6 5 5 5 6 5 5 5 5 5 5 6 5 5 6 5 5 5 5 5 6 5 5 5 5 5 5 5 5 6 5 6 5 6 5 5 5 5 5 6 5 5 5 5 5 6 5 5 6 5 5 5 5 5 5 5 5 5 5 5 5 5 5 5 5 5 5 5 5 5 5 5 5 5 5 5 5 5 5 5 5 5 5 5 5 5 5 5 5 5 6 5 6 5 5 5 5 5 5 5 5 5 5 5 5 5 5 5 5 5 5 5 5 5 5 5 5 5 6 5 5 5 5 5 5 5 5 5 6 5 6 5 5 5 5 5 5 6 5 6 5 5 5 5 5 6 5 5 6 5 5 5 5 5 5 5 5 5 6 5 5 5 5 5 5 6 5 5 5 5 5 5 5 5 5 6 5 5 5 5 5 5 5 5 5 5 5 5 6 5 5 6 5 5 5 5 5 6 6 6 5 5 5 6 5 5 6 5 6 6 5 6 5 5 5 6 6 6 5 5 5 5 5 5 5 6 5 5 6 5 5 6 5 5 5 5 5 6 5 5 5 6 5 6 5 5 5 5 5 5 5 5 5 6 5 5 5 5 5 5 5 5 6 5 5 6 5 5 5 5 5 5 6 5 5 5 5 5 6 5 5 5 6 5 5 5 5 5 5 5 5 5 5 5 5 5 5 6 5 5 5 5 5 6 5 5 5 5 5 5 5 5 5 5 6 5 6 5 5 5 6 6 5 5 5 6 5 5 5 5 6 5 5 5 5 5 6 6 5 5 5 5 5 5 6 5 5 5 5 5 5 5 5 5 5 5 5 6 5 5 5 5 5 5 5 5 6 5 5 5 5 5 5 5 6 5 6 5 5 6 5 5 5 5 6 5 5 6 6 5 6 5 5 5 5 5 5 5 5 5 5 5 5 5 5 6 5 5 5 5 5 5 5 6 5 6 5 5 5 6 5 5 5 5 6 5 5 6 6 5 5 5 6 5 5 5 6 5 5 6 6 5 5 5 5 5 6 6 5 5 6 5 5 5 5 6 6 5 5 5 5 5 6 5 5 5 5 5 5 5 5 5 5 6 5 5 5 6 5 5 5 5 5 5 5 5 5 5 5 5 5 5 5 5 6 5 5 5 5 5 5 5 5 5 5 5 5 5 5 5 5 5 5 5 5 5 5 5 5 5 5 5 5 6 5 5 6 5 5 5 5 5 5 6 5 5 5 5 5 5 6 5 6 5 5 6 5 6 5 5 6 5 6 5 5 6 5 5 5 6 5 5 5 5 5 5 6 5 5 6 5 5 5 5 5 5 5 5 5 5 5 6 5 5 6 5 5 6 5 5 5 5 6 5 5 5 5 5 5 5 6 6 5 5 5 5 5 5 5 5 5 5 5 5 5 5 5 5 5 5 5 5 6 6 5 5 5 5 5 5 5 6 5 5 5 5 5 6 5 5 5 6 5 6 5 5 5 6 5 5 5 5 6 5 5 5 5 5 5 6 5 5 5 5 5 6 5 5 5 5 5 5 5 6 5 5 5 5 6 6 5 5 6 5 5 6 5 5 5 6 5 5 5 5 5 5 6 5 6 6 5 5 5 5 5 5 5 5 5 5 5 5 5 5 5 5 5 5 5 5 6 5 5 6 5 6 5 5 5 5 5 5 5 5 5 5 5 5 6 5 5 5 6 5 5 5 5 5 5 5 5 5 5 6 5 5 5 5 5 5 6 5 5 5 5 6 5 5 5 6 5 6 5 6 5 5 5 6 5 5 6 5 5 5 5 5 6 5 5 5 5 5 5 5 5 5 6 6 5 6 5 5 5 5 6 5 6 5 5 6 5 5 6 5 6 5 5 5 5 6 5 5 5 5 6 5 5 5 5 5 5 6 5 6 5 5 5 5 5 5 6 5 5 5 5 6 5 5 5 5 6 5 5 6 5 5 5 6 6 5 6 5 6 6 5 5 6 5 5 6 5 5 5 5 5 5 5 5 5 5 5 5 5 5 5 5 5 5 5 5 5 5 5 5 5 5 5 5 5 5 5 5 5 5 5 5 5 5 5 5 5 5 5 5 5 5 5 5 5 5 6 5 5 5 5 5 5 5 5 5 5 5 5 5 5 5 5 5 5 5 5 5 5 5 5 5 5 5 5 5 5 5 5 5 5 5 5 5 5 5 5 5 5 5 5 5 5 6 5 5 5 5 5 5 5 5 5 6 6 5 5 5 6 5 5 5 5 5 5 6 5 5 6 5 5 5 5 5 6 5 5 6 5 5 5 6 5 5 5 5 5 5 5 5 5 5 5 5 5 5 5 5 5 5 6 5 5 5 5 5 5 5 5 5 5 5 6 5 5 5 5 5 5 5 5 5 5 5 5 5 5 5 5 5 5 5 5 5 5 5 5 5 5 5 5 5 5 5 5 5 5 5 5 5 5 5 5 6 5 5 5 5 6 5 5 6 6 5 5 5 6 5 5 5 5 5 6 5 5 5 5 5 5 5 6 5 5 6 5 5 6 5 5 5 5 5 5 5 5 5 5 5 5 5 5 5 5 5 6 5 5 5 5 5 5 5 5 5 5 5 5 6 5 6 5 5 5 6 5 5 6 5 5 5 5 5 6 5 5 6 5 5 5 5 6 5 5 5 5 5 5 5 6 5 5 5 5 5 5 5 5 5 6 5 5 5 5 5 5 5 5 5 6 5 5 5 5 5 6 5 5 5 6 5 5 5 5 5 5 5 5 5 5 5 6 5 5 5 5 5 5 6 5 5 5 5 5 5 5 5 5 5 5 5 5 5 5 5 5 5 6 5 5 5 5 5 5 5 5 5 5 5 5 5 6 5 5 5 6 5 5 5 6 5 6 5 5 5 5 5 5 5 5 5 5 6 5 5 6 5 5 6 5 5 6 5 5 6 5 5 6 6 5 5 5 5 5 5 5 6 5 5 5 5 5 5 5 5 5 5 5 5 5 6 5 5 5 6 5 6 5 5 5 5 5 5 5 5 5 5 6 5 5 5 6 6 5 5 5 5 5 5 5 5 5 5 5 5 5 5 5 5 6 5 6 5 5 6 5 5 5 5 5 5 5 5 5 5 6 5 5 5 5 5 5 5 5 5 5 5 5 5 5 5 5 5 5 5 5 5 5 5 5 5 5 5 5 5 5 5 5 5 5 6 5 5 5 5 6 5 5 5 6 5 5 5 5 5 5 6 5 5 5 6 5 6 5 5 5 5 5 5 5 5 5 5 6 5 5 6 5 5 6 5 5 5 6 5 6 5 5 5 5 5 5 5 6 5 5 5 6 5 5 6 5 5 6 6 5 5 5 6 5 5 5 5 6 5 5 5 5 5 5 5 5 5 5 5 5 5 5 6 5 5 5 5 5 5 6 6 5 5 6 5 5 5 6 5 5 5 5 5 5 5 5 6 6 5 5 5 5 5 5 5 5 5 5 5 5 6 5 6 5 5 6 5 5 6 5 6 5 5 6 5 6 5 5 5 6 5 6 5 5 6 5 5 5 5 5 6 6 5 5 6 5 5 5 5 5 5 5 6 5 5 5 5 5 5 5 5 5 5 5 5 5 5 5 6 5 5 5 6 5 5 5 5 5 5 5 5 6 5 5 5 5 6 6 5 5 5 5 5 5 5 5 5 5 5 5 5 5 5 5 5 6 5 5 5 5 5 5 6 5 5 5 5 6 5 6 5 5 5 6 6 5 6 5 5 6 5 5 6 5 5 5 6 5 5 6 5 5 5 5 5 5 6 5 5 5 5 5 6 5 5 5 5 5 6 5 5 5 5 5 5 5 5 5 6 5 5 5 5 5 5 5 5 5 5 5 5 5 5 5 5 5 5 5 5 5 5 5 5 5 5 5 6 5 5 5 5 5 5 5 5 5 5 6 5 5 5 5 5 5 5 5 5 5 5 5 5 5 5 5 5 5 5 5 5 5 5 5 5 5 5 5 5 5 5 5 5 5 5 5 6 5 5 5 6 5 5 5 5 5 5 5 5 5 5 5 5 5 5 5 5 5 5 5 6 5 6 6 5 5 5 6 6 5 6 6 6 5 5 6 6 5 6 6 5 5 5 5 5 5 6 5 5 6 5 6 5 6 6 5 5 5 5 5 5 5 5 5 5 5 6 5 5 6 5 5 5 5 5 5 5 5 5 5 5 5 5 5 5 5 6 6 5 5 5 5 5 6 5 5 5 5 6 6 5 5 5 5 5 6 5 6 5 5 6 5 5 6 5 5 5 5 6 5 6 5 5 5 5 5 5 5 5 5 5 6 6 5 5 6 5 5 5 5 5 6 5 5 5 5 5 6 5 5 5 6 6 6 5 5 5 5 5 5 5 5 5 5 5 6 5 5 5 6 5 5 5 5 5 5 5 5 5 5 6 5 5 5 5 5 5 5 5 5 5 5 5 5 5 5 5 5 5 5 5 6 6 6 5 5 5 5 5 6 5 5 5 6 5 5 5 5 5 6 5 5 6 5 5 5 5 5 5 6 5 5 6 6 5 5 5 5 5 5 5 5 6 5 5 5 5 5 6 5 5 5 5 5 5 5 6 6 5 5 5 5 5 6 5 5 5 6 5 5 5 6 5 5 6 5 5 5 5 5 5 5 5 6 5 5 5 5 5 5 6 5 6 5 5 5 5 5 5 5 5 5 6 5 5 5 5 5 6 5 5 5 5 5 5 5 6 5 5 5 5 5 6 
</DataArray>
<DataArray type="Float64" Name="stress" NumberOfComponents="9" format="ascii">
3488.2160542369747 -1252.6889384719177 0 -1252.6889384719177 40.912169826531262 0 0 0 0 307.18736264048493 -5.8895217233128072 0 -5.8895217233128072 0.95130406654458666 0 0 0 0 863.78931140588247 -31.215396155397254 0 -31.215396155397254 -16.174542213495027 0 0 0 0 12.740255912489829 0.48092539598641793 0 0.48092539598641793 -1.3862859089780084 0 0 0 0 1023.0563474528317 759.54287108127824 0 759.54287108127824 -605.21041776500635 0 0 0 0 3488.8531564090226 28.398362112185389 0 28.398362112185389 -506.02852768158698 0 0 0 0 241.4138396283015 -699.63542195550144 0 -699.63542195550144 290.39679237023716 0 0 0 0 1497.7040037732368 -927.89057434203437 0 -927.89057434203437 419.79703676210647 0 0 0 0 1637.3783219020843 -261.25852349573427 0 -261.25852349573427 -313.43355108426954 0 0 0 0 564.07201278439607 -680.69363718510238 0 -680.69363718510238 424.70743224293801 0 0 0 0 550.61334831631393 -569.88881026358195 0 -569.88881026358195 342.92070780670622 0 0 0 0 576.19546888219156 -776.49619045356428 0 -776.49619045356428 256.62844638257354 0 0 0 0 590.90301355061456 -604.3675802715951 0 -604.3675802715951 218.42708793279436 0 0 0 0 724.66606834586128 -874.16811477113674 0 -874.16811477113674 759.71879970697194 0 0 0 0 19.49302483267229 0.99164333329066778 0 0.99164333329066778 -2.1061591850113377 0 0 0 0 585.53036728373991 -668.85073587614806 0 -668.85073587614806 -82.627628301982668 0 0 0 0 1267.3374101971567 -1380.846508885827 0 -1380.846508885827 1083.1305325276253 0 0 0 0 8.4169807131128209 -1.331153277404951 0 -1.331153277404951 -0.4207761396288171 0 0 0 0 938.21318894957949 -94.195205763480487 0 -94.195205763480487 4.4598763302967255 0 0 0 0 1656.1557625787318 -791.42823338928019 0 -791.42823338928019 280.20672106791602 0 0 0 0 1149.9719847788365 -325.4357234122761 0 -325.4357234122761 56.64215718719457 0 0 0 0 524.82173145482375 -18.173897424419884 0 -18.173897424419884 -1.0103859245756994 0 0 0 0 501.97256601131812 4.9350336417557195 0 4.9350336417557195 159.11696134656896 0 0 0 0 784.7171907560587 -261.76337310658039 0 -261.76337310658039 139.2879945620835 0 0 0 0 414.07043534584227 -65.279049188033781 0 -65.279049188033781 235.60282331700199 0 0 0 0 254.1580132004965 43.291964462288561 0 43.291964462288561 159.64128138722566 0 0 0 0 458.04089526065945 -58.335066003992253 0 -58.335066003992253 -14.32257595005629 0 0 0 0 212.27969608538842 64.467709400854744 0 64.467709400854744 56.198481166905822 0 0 0 0 234.17317719246057 61.97622823460236 0 61.97622823460236 -105.06394742943371 0 0 0 0 687.10978695633094 -72.030934169102778 0 -72.030934169102778 -16.164662264658205 0 0 0 0 354.59946734107416 -123.27708119098722 0 -123.27708119098722 72.014302511133906 0 0 0 0 372.03547960244941 81.706503865058494 0 81.706503865058494 -90.856580652285402 0 0 0 0 203.61910214831005 45.331095086595383 0 45.331095086595383 -42.855173075593257 0 0 0 0 74.23898677003308 213.53228696461701 0 213.53228696461701 -87.397557896674812 0 0 0 0 504.4163828191522 -267.54385114660317 0 -267.54385114660317 38.775553352837392 0 0 0 0 602.90337328945316 -391.64320609120375 0 -391.64320609120375 151.69012243385748 0 0 0 0 307.35893000279611 -281.21201399273252 0 -281.21201399273252 170.18138415797466 0 0 0 0 261.03181194628269 20.811422319190797 0 20.811422319190797 -35.634059682466841 0 0 0 0 209.24846840805549 45.687013648383754 0 45.687013648383754 -104.75956510509229 0 0 0 0 64.755989859506371 88.992940714722977 0 88.992940714722977 -52.264388078497177 0 0 0 0 125.53918211509153 130.4920565757576 0 130.4920565757576 -58.815045356207747 0 0 0 0 255.63296809788881 4.4032919369200272 0 4.4032919369200272 -69.081728573855116 0 0 0 0 83.741166105042794 45.606485202211843 0 45.606485202211843 -48.362059462040179 0 0 0 0 142.52573985469644 77.74563792557467 0 77.74563792557467 -111.2879240209154 0 0 0 0 69.788824190167361 105.71794872661053 0 105.71794872661053 -49.449382151334703 0 0 0 0 73.668131908772921 47.6331833572101 0 47.6331833572101 -92.91668960768402 0 0 0 0 58.155575126031181 15.293316310107684 0 15.293316310107684 -132.21359412297738 0 0 0 0 91.082671890665267 -22.260528944585964 0 -22.260528944585964 3.0814119808720521 0 0 0 0 169.02847221120464 -3.0786251399962339 0 -3.0786251399962339 -345.77251598799148 0 0 0 0 212.58215312695393 -345.09217554679844 0 -345.09217554679844 -1231.0221725419883 0 0 0 0 87.876143261644756 -658.65763152737793 0 -658.65763152737793 -468.80792054919721 0 0 0 0 90.360574708111187 -18.363723994808939 0 -18.363723994808939 1.2648196934956948 0 0 0 0 145.75756091088442 -136.54335963140832 0 -136.54335963140832 -319.90961886509285 0 0 0 0 188.46658475439472 106.65807965016234 0 106.65807965016234 -185.36554310940551 0 0 0 0 -51.977777740285092 -10.15435634343703 0 -10.15435634343703 -554.82282925480354 0 0 0 0 344.37343664025684 -341.73173439882027 0 -341.73173439882027 -1508.2048448734063 0 0 0 0 -86.411120806231338 -8.5724841808443557 0 -8.5724841808443557 -576.75043494106126 0 0 0 0 654.19826248698519 251.53960541233425 0 251.53960541233425 -1291.0857967759696 0 0 0 0 75.290851481911801 -12.880647764832595 0 -12.880647764832595 0.92765126752275706 0 0 0 0 322.51303327732603 -195.15684985216649 0 -195.15684985216649 -310.89393314207331 0 0 0 0 613.40871910903661 28.545198708980365 0 28.545198708980365 -715.69006446572587 0 0 0 0 681.44777618506487 1329.7709609874105 0 1329.7709609874105 537.88915185874805 0 0 0 0 3493.2573782749168 1767.8788716958866 0 1767.8788716958866 -361.30144945058856 0 0 0 0 2569.2077946387653 1190.7890249814113 0 1190.7890249814113 -667.89047264916599 0 0 0 0 2103.8787971558049 2134.0954047220339 0 2134.0954047220339 922.91568794663124 0 0 0 0 31.622252888879473 -4.5161547047241513 0 -4.5161547047241513 3.7080702897955975 0 0 0 0 -285.9669962939297 -233.47570589034356 0 -233.47570589034356 1079.679756836895 0 0 0 0 1203.02640817457 -1687.9602017697066 0 -1687.9602017697066 2335.960656165194 0 0 0 0 3489.9956643070764 -1999.2680708608552 0 -1999.2680708608552 827.18796604244903 0 0 0 0 1615.6396309154661 -1096.9145710364376 0 -1096.9145710364376 394.43238910383559 0 0 0 0 3503.9173368633874 -984.49396099513626 0 -984.49396099513626 -97.853476742898437 0 0 0 0 1600.7537529558936 -1272.723495096074 0 -1272.723495096074 822.38604265476727 0 0 0 0 453.72553101126687 -717.92051460565415 0 -717.92051460565415 617.93780283903891 0 0 0 0 482.79798200550431 -478.42494894169852 0 -478.42494894169852 220.43130856284199 0 0 0 0 -0.15304174166521989 -280.76083996593991 0 -280.76083996593991 422.68380221358188 0 0 0 0 1421.1767492617801 -154.11551215510045 0 -154.11551215510045 162.75352140888356 0 0 0 0 1391.6242797836603 -97.973309056893982 0 -97.973309056893982 66.380202687797009 0 0 0 0 1321.4806580203731 -192.67983380998612 0 -192.67983380998612 147.8294287383444 0 0 0 0 1374.8954373212764 -238.76751872457976 0 -238.76751872457976 167.01452781390458 0 0 0 0 1411.3290134948911 -207.01588895857381 0 -207.01588895857381 107.92129322960261 0 0 0 0 1435.5482825995277 -172.79977956750957 0 -172.79977956750957 149.95233013603794 0 0 0 0 1408.5440486927982 -153.70729656108031 0 -153.70729656108031 163.71624598479946 0 0 0 0 1459.4007772307305 -71.642476398133539 0 -71.642476398133539 228.90924222730246 0 0 0 0 1488.8874424067326 -52.408310135096087 0 -52.408310135096087 187.88889303733947 0 0 0 0 1518.5902200888831 -10.283049278665931 0 -10.283049278665931 225.34598051626966 0 0 0 0 1531.2538374210417 -79.465320301075934 0 -79.465320301075934 153.17095797408356 0 0 0 0 1634.5043447749285 -31.677269233263466 0 -31.677269233263466 48.597877196049438 0 0 0 0 1639.1417967676589 -56.188842171896766 0 -56.188842171896766 60.629633758173128 0 0 0 0 1536.5256557678294 -139.70297316515729 0 -139.70297316515729 0.069407263221630405 0 0 0 0 1486.7869042266611 -143.38210535215921 0 -143.38210535215921 108.10788966291875 0 0 0 0 1477.3099750610127 -130.93871020548201 0 -130.93871020548201 105.5824438882394 0 0 0 0 1438.0017812068545 -204.31340131937114 0 -204.31340131937114 73.293185182019215 0 0 0 0 1458.3876179899526 -189.77295321909588 0 -189.77295321909588 33.208338645965185 0 0 0 0 1475.5202416948305 -121.75985748175735 0 -121.75985748175735 51.638505927048641 0 0 0 0 1433.2045521252694 -174.33331431950032 0 -174.33331431950032 0.020820765649229689 0 0 0 0 1474.1319119131585 -242.67135290792393 0 -242.67135290792393 22.889334799944436 0 0 0 0 1453.174412657856 -267.24289993445018 0 -267.24289993445018 90.2820981535192 0 0 0 0 1433.322992404399 -182.82731086912 0 -182.82731086912 18.693547634599327 0 0 0 0 1428.1212035578501 -222.48157642421785 0 -222.48157642421785 112.25440647998971 0 0 0 0 1424.8766139067884 -237.00424523647393 0 -237.00424523647393 58.062365937335869 0 0 0 0 1403.3120550163439 -278.93110281194947 0 -278.93110281194947 90.193309902085844 0 0 0 0 1386.7406681300199 -248.28219583028158 0 -248.28219583028158 118.35639674557896 0 0 0 0 1459.4928937724471 -228.72079449785906 0 -228.72079449785906 18.573474750639832 0 0 0 0 1469.6375662503415 -163.32933003765868 0 -163.32933003765868 -4.0827790196449314 0 0 0 0 1579.4242424131808 -280.63674400450361 0 -280.63674400450361 34.753535883564211 0 0 0 0 1584.684067296068 -173.8782448375847 0 -173.8782448375847 -22.485045926964858 0 0 0 0 1562.6724545941033 -140.26836924586826 0 -140.26836924586826 -69.454909189182217 0 0 0 0 1435.163450384016 -11.789445014203451 0 -11.789445014203451 -23.575423593933692 0 0 0 0 1642.0057511999621 -20.27809734909124 0 -20.27809734909124 -23.550114020464122 0 0 0 0 1270.9003762595239 -60.493734731399798 0 -60.493734731399798 15.386167095964197 0 0 0 0 1338.9978930235811 -137.61885498279705 0 -137.61885498279705 -0.099867614258002391 0 0 0 0 1505.5151606635482 -173.85330283373577 0 -173.85330283373577 -13.722681657159796 0 0 0 0 1435.4652074845508 -192.62822807405178 0 -192.62822807405178 -11.69608984803574 0 0 0 0 1316.8920643514575 -101.73622765215752 0 -101.73622765215752 -14.521228097080646 0 0 0 0 1268.7132497870443 -164.92180719359769 0 -164.92180719359769 -0.15533953943608483 0 0 0 0 971.87188214206253 -41.891816423301101 0 -41.891816423301101 23.264086345775116 0 0 0 0 1367.2819949344812 -71.678352831792637 0 -71.678352831792637 -27.52819564499481 0 0 0 0 396.81169353782025 38.895820637791338 0 38.895820637791338 248.98205560834771 0 0 0 0 1.6515189810707085 0.48405992181062629 0 0.48405992181062629 -1.4964998447435214 0 0 0 0 623.70026499007145 194.45500493938459 0 194.45500493938459 101.34893412002461 0 0 0 0 483.03047001906089 62.402367220155433 0 62.402367220155433 0.55926891656723576 0 0 0 0 -79.587997436552541 371.47228738956761 0 371.47228738956761 -145.5444669535037 0 0 0 0 421.10153457061824 80.280307537935656 0 80.280307537935656 -114.97176563936027 0 0 0 0 1471.6633139038531 358.71886128578734 0 358.71886128578734 -314.03252173307629 0 0 0 0 2.7943599432306527 0.082965863946640184 0 0.082965863946640184 -2.6515568859945722 0 0 0 0 0.96407104158018342 2.7170026748858334 0 2.7170026748858334 -4.2945442774172129 0 0 0 0 1678.7488815649704 90.994509277167481 0 90.994509277167481 30.97447832746343 0 0 0 0 -137.37403989455925 52.184094367408875 0 52.184094367408875 -58.121686500193277 0 0 0 0 -485.05372028630518 187.83773011539537 0 187.83773011539537 93.705014994311 0 0 0 0 -32.016729581861 98.87001281302787 0 98.87001281302787 -23.713360541270276 0 0 0 0 33.704587902604544 120.33183939395676 0 120.33183939395676 -55.070600839659505 0 0 0 0 1677.7928787464116 68.941057184464398 0 68.941057184464398 -10.824362259142163 0 0 0 0 1578.4016212500137 200.75950299928729 0 200.75950299928729 -185.47367306571095 0 0 0 0 -0.63250028425978044 8.7298276910741777 0 8.7298276910741777 -13.316968795343186 0 0 0 0 2.6561111162741398 -0.5140240681677426 0 -0.5140240681677426 -1.1748041858423219 0 0 0 0 2209.466144654667 19.570142131756711 0 19.570142131756711 -271.75305895664269 0 0 0 0 1816.0078293188417 238.25741103068572 0 238.25741103068572 -298.55125351041988 0 0 0 0 74.250593137665419 24.462381353874662 0 24.462381353874662 -39.444617790612313 0 0 0 0 29.047805675494601 77.08332918372173 0 77.08332918372173 -34.593580424594165 0 0 0 0 104.76610549079487 26.144536256899755 0 26.144536256899755 -131.82068136695625 0 0 0 0 99.512545478355605 10.36305493909731 0 10.36305493909731 -93.650919802800672 0 0 0 0 81.648327093785042 -23.632137799634343 0 -23.632137799634343 0.50920222365864642 0 0 0 0 343.9266480023216 -514.72711199653395 0 -514.72711199653395 -978.57125386910138 0 0 0 0 -782.23607995910152 -536.60674524096555 0 -536.60674524096555 -187.46638513947073 0 0 0 0 2617.5910626014229 1323.7281341294288 0 1323.7281341294288 293.5734017919458 0 0 0 0 680.22548129135976 -1110.5460217667551 0 -1110.5460217667551 1928.7760021229765 0 0 0 0 23.839824624728578 -2.6559684342636318 0 -2.6559684342636318 -4.8579647097279697 0 0 0 0 19.549793097850895 -3.261934465392045 0 -3.261934465392045 -3.9985577561271306 0 0 0 0 12.562365032747087 9.2385444029761743 0 9.2385444029761743 -26.161639932159318 0 0 0 0 837.97906197102839 395.34026281155843 0 395.34026281155843 583.49788523250209 0 0 0 0 2113.4568297316728 -183.08263873810165 0 -183.08263873810165 -32.965138196345379 0 0 0 0 2600.5326452947629 -160.66246090967525 0 -160.66246090967525 -134.81779126928723 0 0 0 0 4472.0263059888093 -975.08658769127851 0 -975.08658769127851 219.36774673467335 0 0 0 0 2228.3100444217707 -942.74029306620014 0 -942.74029306620014 2500.2727047891185 0 0 0 0 3854.1261037443328 299.71847951782502 0 299.71847951782502 766.00948588098822 0 0 0 0 1661.8779146993838 -841.02189176652098 0 -841.02189176652098 840.36020185571215 0 0 0 0 2133.4518093859224 -524.38224693101574 0 -524.38224693101574 760.50341341542435 0 0 0 0 1830.1485254961444 -959.22030306562806 0 -959.22030306562806 1188.7475589835688 0 0 0 0 1797.723898396509 -783.1210544365299 0 -783.1210544365299 507.33562002003418 0 0 0 0 2941.1327789386996 -854.31892319694248 0 -854.31892319694248 49.279948621821859 0 0 0 0 1782.4322215558859 -794.16136999161006 0 -794.16136999161006 376.7531212287513 0 0 0 0 2035.0412479823499 -467.93408132611114 0 -467.93408132611114 -26.770414482772139 0 0 0 0 2120.8203496921196 -538.48826149982165 0 -538.48826149982165 3.8069866790899027 0 0 0 0 2285.3042624080554 -105.48981224502836 0 -105.48981224502836 -226.49393298823543 0 0 0 0 2068.6839292776713 -148.767251542449 0 -148.767251542449 -194.81815180745571 0 0 0 0 1890.9420033135175 -211.22558578772043 0 -211.22558578772043 -81.728509817331542 0 0 0 0 1779.8773560538248 22.650252513998794 0 22.650252513998794 -253.12424280550715 0 0 0 0 1614.6832439209957 9.9728770511010367 0 9.9728770511010367 -57.043173285532703 0 0 0 0 1689.9176665867853 -345.48055415508634 0 -345.48055415508634 -3.3756673651379572 0 0 0 0 1722.2547125828569 -410.71391529349944 0 -410.71391529349944 89.97715697786407 0 0 0 0 1484.9934124507563 -309.03617559086695 0 -309.03617559086695 48.106697218645422 0 0 0 0 1493.9047339887147 -348.16960059857428 0 -348.16960059857428 137.40143979274467 0 0 0 0 1318.6842839130313 -285.66379790678599 0 -285.66379790678599 252.82282062958848 0 0 0 0 1312.3222154153045 -341.64485636261043 0 -341.64485636261043 211.10956888792907 0 0 0 0 1123.5191028366971 -404.80854707769345 0 -404.80854707769345 367.9054803137542 0 0 0 0 1140.178171328138 -363.79903594848997 0 -363.79903594848997 461.16238278253786 0 0 0 0 1056.4032091141853 -272.26240471533026 0 -272.26240471533026 361.21870016273124 0 0 0 0 1274.8461074242368 -578.47091016897025 0 -578.47091016897025 486.19813353944301 0 0 0 0 1422.2859586704581 -441.555723306853 0 -441.555723306853 294.85056947167413 0 0 0 0 1430.4893527569802 -463.42307268176182 0 -463.42307268176182 182.65669747889433 0 0 0 0 1579.8521649853792 -562.03222092389205 0 -562.03222092389205 226.47962953092929 0 0 0 0 1396.9110240897717 -673.2441276425584 0 -673.2441276425584 512.53351576368232 0 0 0 0 859.17316768797173 -506.54923305997954 0 -506.54923305997954 800.25332454535373 0 0 0 0 1344.321309315259 -566.20113291570658 0 -566.20113291570658 472.44311457031745 0 0 0 0 1061.357865021113 -601.28964458787414 0 -601.28964458787414 1007.3118949710533 0 0 0 0 1069.8427472949552 -449.92769280515313 0 -449.92769280515313 444.69351522823627 0 0 0 0 696.45058198970219 -554.44421525570863 0 -554.44421525570863 563.28708155647291 0 0 0 0 164.61518566058658 -272.94211403084944 0 -272.94211403084944 681.2529284990369 0 0 0 0 683.30495500589313 -266.22696799946186 0 -266.22696799946186 591.13461473147549 0 0 0 0 878.9431950590515 -344.12184326634633 0 -344.12184326634633 549.74189387213119 0 0 0 0 746.18478579288058 21.1346307204185 0 21.1346307204185 514.58867602680823 0 0 0 0 821.63903505592498 17.013571230638462 0 17.013571230638462 442.99354517920801 0 0 0 0 381.0769549352699 34.025529888006531 0 34.025529888006531 557.68626803382404 0 0 0 0 299.50553101845435 198.44641288011428 0 198.44641288011428 306.58452898390669 0 0 0 0 526.07700991399361 439.64781939946442 0 439.64781939946442 481.72428506086112 0 0 0 0 790.59231379936682 351.14435988900493 0 351.14435988900493 413.40459669130308 0 0 0 0 867.6354972836798 292.7843514030385 0 292.7843514030385 384.4774764363608 0 0 0 0 941.13463844648504 320.95624397887173 0 320.95624397887173 174.68056921911182 0 0 0 0 1061.2102466863871 -91.358213297699422 0 -91.358213297699422 290.27076805808406 0 0 0 0 1221.2049770913509 -133.57824601703351 0 -133.57824601703351 278.287436713852 0 0 0 0 1227.2382317779993 -192.39600020661601 0 -192.39600020661601 160.65389433302744 0 0 0 0 1130.0932947159054 67.651881406109396 0 67.651881406109396 91.911136561188187 0 0 0 0 1327.8844410584716 -28.976118122380967 0 -28.976118122380967 139.05743746616895 0 0 0 0 122.48587916589167 -299.87532928235305 0 -299.87532928235305 238.11931641978236 0 0 0 0 302.29520113792387 -306.6440354494905 0 -306.6440354494905 -5.0220352898677447 0 0 0 0 290.14450189965191 -530.18785699706791 0 -530.18785699706791 5.97109656438397 0 0 0 0 375.12095795922505 27.415526409929839 0 27.415526409929839 642.4462474223219 0 0 0 0 503.90215194293341 -167.42701610025665 0 -167.42701610025665 -184.31732607741924 0 0 0 0 -106.61897504690569 223.52315685547228 0 223.52315685547228 -380.76189181817301 0 0 0 0 -108.73960528084717 -712.51413755431167 0 -712.51413755431167 -136.74629193655574 0 0 0 0 -433.53940355988743 -295.24061763994655 0 -295.24061763994655 42.804611513313034 0 0 0 0 25.065840872150147 115.24235073718214 0 115.24235073718214 425.50226699827135 0 0 0 0 237.72163147862739 -181.15429991854944 0 -181.15429991854944 -8.958812377841241 0 0 0 0 301.30507483652036 270.9905190424754 0 270.9905190424754 -840.47343986020906 0 0 0 0 31.878614872549576 -1.8171640190810017 0 -1.8171640190810017 -1.9153462906077707 0 0 0 0 726.9849310696809 -237.71886163227578 0 -237.71886163227578 -1330.2988302619337 0 0 0 0 -92.940195055958611 -240.6086434855435 0 -240.6086434855435 461.82279149265878 0 0 0 0 1187.5901250305033 -627.65565512908847 0 -627.65565512908847 -505.78244024759113 0 0 0 0 665.68188323301729 1023.122575110948 0 1023.122575110948 181.01132190396322 0 0 0 0 15.729257662828559 -0.50829826582942061 0 -0.50829826582942061 -0.50242707079704751 0 0 0 0 38.41620404922287 275.5565690022367 0 275.5565690022367 -734.55908679526578 0 0 0 0 1580.8279934825696 943.66295638034353 0 943.66295638034353 -553.70041193960242 0 0 0 0 1627.4183237162943 316.61562071823823 0 316.61562071823823 -461.78885259604306 0 0 0 0 -141.67722400573257 258.08950669152733 0 258.08950669152733 -430.2211226261677 0 0 0 0 1474.246390363056 212.99075941639444 0 212.99075941639444 37.460187248557531 0 0 0 0 8.5349737648682549 1.3897390427368848 0 1.3897390427368848 -0.19192529099784927 0 0 0 0 1152.0634591507842 -550.24212618020135 0 -550.24212618020135 105.04003902459098 0 0 0 0 167.37892679248762 -31.244685235633881 0 -31.244685235633881 5.6426985912251126 0 0 0 0 582.33924707841652 966.08084842332585 0 966.08084842332585 -418.06812758268939 0 0 0 0 22.165635869441019 -4.7192916850841407 0 -4.7192916850841407 -0.9092753307391489 0 0 0 0 691.78501954676176 74.720407390015396 0 74.720407390015396 -1241.3758382019371 0 0 0 0 16.511402736602832 -5.2164162377436867 0 -5.2164162377436867 -5.1222613880245076 0 0 0 0 779.48692013972322 -386.56927472172816 0 -386.56927472172816 173.49876853820911 0 0 0 0 37.53919931923582 -14.139257937252834 0 -14.139257937252834 -4.5261316109927545 0 0 0 0 -76.473334347261698 -365.51889507953956 0 -365.51889507953956 -1807.6925542496183 0 0 0 0 2.2908804249425998 -3.3594067771963836 0 -3.3594067771963836 2.8582648166800859 0 0 0 0 -293.25769208161364 -943.59754739618302 0 -943.59754739618302 -1013.0866619300449 0 0 0 0 1685.0236645409896 -686.74768851192744 0 -686.74768851192744 -1032.1422609778317 0 0 0 0 2292.8845698033401 -620.728314808405 0 -620.728314808405 239.57262969930753 0 0 0 0 1627.1780540368345 78.770600030352284 0 78.770600030352284 618.3236087669643 0 0 0 0 -842.47301730159234 -1486.6606972343343 0 -1486.6606972343343 290.9603241483569 0 0 0 0 2527.9346575429954 -847.19136913393095 0 -847.19136913393095 403.32843025681018 0 0 0 0 1903.7542858998422 -1676.1624048730268 0 -1676.1624048730268 273.41770745289119 0 0 0 0 1064.7376240852755 -1158.2922744791731 0 -1158.2922744791731 62.211138850274892 0 0 0 0 1860.6484150067699 -1655.3671325677024 0 -1655.3671325677024 126.36672493156357 0 0 0 0 758.6268047173071 -1560.0844712448438 0 -1560.0844712448438 329.75297818782769 0 0 0 0 3656.8249982158063 -1964.7137599227306 0 -1964.7137599227306 28.142378143905262 0 0 0 0 729.09011408545575 -959.39294159435076 0 -959.39294159435076 262.21564077546964 0 0 0 0 605.48505571740134 -322.16268440881498 0 -322.16268440881498 -253.28345472479305 0 0 0 0 764.58816326664237 -1082.390918852341 0 -1082.390918852341 -182.93084076777004 0 0 0 0 1327.0666595683197 -492.33049561509722 0 -492.33049561509722 39.514652343235639 0 0 0 0 716.29621947072155 -502.36020420456293 0 -502.36020420456293 -38.610340318981677 0 0 0 0 3488.9409865011185 -974.83968047667258 0 -974.83968047667258 -50.941888084645285 0 0 0 0 2417.7888095041126 -2118.3548361376188 0 -2118.3548361376188 1451.3795774576595 0 0 0 0 17.775678294971328 -3.8188640087869103 0 -3.8188640087869103 -2.5518670009500748 0 0 0 0 3387.183407903949 -293.2306202310445 0 -293.2306202310445 -196.11674221087554 0 0 0 0 3476.1495561601405 -697.06265255485005 0 -697.06265255485005 -1454.2789606258143 0 0 0 0 1956.3188026852586 967.10313469961784 0 967.10313469961784 -3258.6035775100386 0 0 0 0 -86.728945905535511 60.326443132487157 0 60.326443132487157 -179.62920097510732 0 0 0 0 1229.3256873343271 -765.05298238333239 0 -765.05298238333239 320.7047841758822 0 0 0 0 1087.1769004912785 -483.398894471924 0 -483.398894471924 752.20168919779508 0 0 0 0 2969.4781222804686 -121.04828753085837 0 -121.04828753085837 3.3960493221898105 0 0 0 0 2800.6245916039147 -1338.5188711559965 0 -1338.5188711559965 -245.40256422638822 0 0 0 0 2130.0643826349115 -801.84083964816148 0 -801.84083964816148 -47.731855736320085 0 0 0 0 1489.1243118000057 -618.0708833095307 0 -618.0708833095307 -58.477980345091055 0 0 0 0 1482.0526380050594 -475.03115000051889 0 -475.03115000051889 -514.18545301517315 0 0 0 0 -127.01622684289759 -198.63429268992104 0 -198.63429268992104 287.1070336728464 0 0 0 0 -413.43355456396239 -750.72352241437954 0 -750.72352241437954 -72.320058678593682 0 0 0 0 -761.67799367486623 -422.51909706457917 0 -422.51909706457917 -299.22165210214098 0 0 0 0 -727.27264960397588 -639.3609373074421 0 -639.3609373074421 1058.9933809386057 0 0 0 0 597.96298961229331 -1296.0169541282644 0 -1296.0169541282644 -105.99676606675803 0 0 0 0 2.3128092948106485 -6.5700397425717227 0 -6.5700397425717227 8.4506848346404837 0 0 0 0 770.03660575767935 -1236.278338716344 0 -1236.278338716344 -1018.3597039431752 0 0 0 0 -289.74148141787737 -1117.6012632666407 0 -1117.6012632666407 -66.249718085851782 0 0 0 0 17.299627004531516 -13.775924564219082 0 -13.775924564219082 9.72516446211133 0 0 0 0 176.58564786072566 6.2313860965661974 0 6.2313860965661974 92.496211265571901 0 0 0 0 1321.7755422802566 -334.56881165856856 0 -334.56881165856856 65.318939121279186 0 0 0 0 786.40849345702736 -399.52792794288007 0 -399.52792794288007 377.99021082482659 0 0 0 0 2.7340348615119296 -5.0525025894366706 0 -5.0525025894366706 7.3948399764806068 0 0 0 0 -913.66627666765635 -485.90303423346222 0 -485.90303423346222 240.48812581799174 0 0 0 0 1400.2978729168535 30.542746079601784 0 30.542746079601784 -54.200487885640975 0 0 0 0 -251.33531628367928 -1146.2493269392171 0 -1146.2493269392171 -176.2617438719293 0 0 0 0 6.551676099432143 -13.112520911949701 0 -13.112520911949701 15.840389510653054 0 0 0 0 1059.93320370937 -557.48011812489597 0 -557.48011812489597 -812.11904262889732 0 0 0 0 684.29572747750353 -142.37709302055137 0 -142.37709302055137 321.16935478342361 0 0 0 0 553.7579485983224 159.15830110422394 0 159.15830110422394 -293.13475955202381 0 0 0 0 578.31541117775487 -247.1491593404196 0 -247.1491593404196 222.81617203775744 0 0 0 0 724.29321685548348 -107.698650360942 0 -107.698650360942 4.333772550474805 0 0 0 0 788.61195543923532 -413.55964281357092 0 -413.55964281357092 -232.44788699249511 0 0 0 0 643.41518521460966 -482.62176223152102 0 -482.62176223152102 150.04466390551079 0 0 0 0 485.99189350892266 -306.21661024971286 0 -306.21661024971286 198.19765316493749 0 0 0 0 456.15329689624195 -261.72733114641693 0 -261.72733114641693 194.87340565996669 0 0 0 0 555.37112037700717 -226.67300734487014 0 -226.67300734487014 219.09958396137372 0 0 0 0 551.24131232781292 -177.8470855414879 0 -177.8470855414879 231.14847982198538 0 0 0 0 777.11271788127488 -202.42517473760398 0 -202.42517473760398 188.60177295267158 0 0 0 0 596.14445320452796 -169.8542585909675 0 -169.8542585909675 220.55116193575077 0 0 0 0 777.65710933167247 -175.81325277273564 0 -175.81325277273564 186.32345785276186 0 0 0 0 827.32966043004126 -59.730719113286852 0 -59.730719113286852 -66.631220645286078 0 0 0 0 537.31242942648532 -123.50934340094238 0 -123.50934340094238 277.18182647136223 0 0 0 0 1859.170502225621 345.45745718317312 0 345.45745718317312 -222.15468083359565 0 0 0 0 1544.9488958813708 585.15903348432175 0 585.15903348432175 144.76468839704614 0 0 0 0 2046.0179053823215 -722.0137784318016 0 -722.0137784318016 9.7119016920890999 0 0 0 0 2122.9512738431536 592.09113327927332 0 592.09113327927332 3.9995308968357222 0 0 0 0 1674.6798986072608 235.59396821472217 0 235.59396821472217 74.033499918356711 0 0 0 0 1645.6811570331192 253.09111061850433 0 253.09111061850433 975.33306274165693 0 0 0 0 1507.1140509153338 257.49991408162623 0 257.49991408162623 193.02429901945663 0 0 0 0 1420.4303878449864 232.83637116036039 0 232.83637116036039 105.57779005347447 0 0 0 0 1428.7670602386206 335.66922826715756 0 335.66922826715756 118.4521512839566 0 0 0 0 4.7941467429950695 -6.7075241897004076 0 -6.7075241897004076 -4.5871495985906439 0 0 0 0 3364.6197559056891 65.710607657158292 0 65.710607657158292 -127.10881039072018 0 0 0 0 1253.334093424317 277.70496651177712 0 277.70496651177712 114.68018812955711 0 0 0 0 1368.0662640057635 223.27934046335002 0 223.27934046335002 92.067003591180082 0 0 0 0 4.3075990653989837 -2.2116164868029387 0 -2.2116164868029387 -2.1925956414447381 0 0 0 0 3595.4029674516496 215.190512058178 0 215.190512058178 -755.71957448863964 0 0 0 0 3500.8914411853693 244.72433689833471 0 244.72433689833471 87.168077908760239 0 0 0 0 1693.6955258183298 79.711381175606078 0 79.711381175606078 -380.09086074972396 0 0 0 0 1597.1465047476522 166.24515662128692 0 166.24515662128692 85.85339320087192 0 0 0 0 1703.2577539563354 148.62475473298184 0 148.62475473298184 -68.280907996980204 0 0 0 0 1988.1438876246684 301.34607622998084 0 301.34607622998084 -450.96776354475384 0 0 0 0 1716.9207001641553 166.14285220226662 0 166.14285220226662 -481.55139572877306 0 0 0 0 1622.9096638825577 373.01327182117382 0 373.01327182117382 -269.41959734755289 0 0 0 0 1649.1579338184529 253.46485363531087 0 253.46485363531087 -98.976143706648827 0 0 0 0 1736.6396015573118 508.854211274595 0 508.854211274595 -279.63434166729263 0 0 0 0 1586.9722573135659 627.82360983140882 0 627.82360983140882 -357.24720691667721 0 0 0 0 1822.422318945908 526.22574120085574 0 526.22574120085574 -724.84969081313511 0 0 0 0 2429.1348475531413 764.08882510848457 0 764.08882510848457 -638.05652298554901 0 0 0 0 2632.3089004909998 70.977510888298184 0 70.977510888298184 -763.92102050858034 0 0 0 0 2755.8846886237297 284.73175938373566 0 284.73175938373566 -988.89065859468758 0 0 0 0 1895.1824713953974 71.094358169087343 0 71.094358169087343 -902.03303560128347 0 0 0 0 3500.0689068908082 738.12176381107065 0 738.12176381107065 -1162.5234163156824 0 0 0 0 1788.6085105178936 992.15624461105131 0 992.15624461105131 -604.71483539181543 0 0 0 0 2467.9749603790879 908.2713670257242 0 908.2713670257242 -731.60381750439717 0 0 0 0 1529.5443239565284 601.71801951203906 0 601.71801951203906 -364.64590519533022 0 0 0 0 1558.1005368094993 570.97065007380763 0 570.97065007380763 -391.4588828172416 0 0 0 0 592.93793656553316 606.47352399089141 0 606.47352399089141 -115.43094645509689 0 0 0 0 1587.9029631011338 590.3248284061707 0 590.3248284061707 -384.11997503479006 0 0 0 0 1081.35486603139 348.53564752733735 0 348.53564752733735 -186.03321306927728 0 0 0 0 1286.240130063361 -152.41829437542174 0 -152.41829437542174 -183.18565788185379 0 0 0 0 767.05428296529408 -14.397416143458983 0 -14.397416143458983 -642.09847601767365 0 0 0 0 367.76043588185712 -371.48062264591852 0 -371.48062264591852 -361.8444342542839 0 0 0 0 189.63154256733833 17.424017164010593 0 17.424017164010593 -167.85418367465354 0 0 0 0 90.133317795858602 -138.59748916067997 0 -138.59748916067997 24.643278164066658 0 0 0 0 -36.762335917359451 -86.736908043413692 0 -86.736908043413692 -297.09220093222325 0 0 0 0 475.08877677035343 -260.62160532839698 0 -260.62160532839698 -314.95650086952384 0 0 0 0 50.365158989261545 -351.96995670140711 0 -351.96995670140711 206.60664395435003 0 0 0 0 357.32270705019619 -583.40613495228911 0 -583.40613495228911 196.64701269093689 0 0 0 0 693.54871274896868 -462.64225502363053 0 -462.64225502363053 177.29757588228807 0 0 0 0 725.43351240715447 -141.81520040147532 0 -141.81520040147532 246.93035632307755 0 0 0 0 -218.93022132321494 -121.79026772636848 0 -121.79026772636848 512.49651876120129 0 0 0 0 300.02492208533658 -384.17079561256935 0 -384.17079561256935 68.760334078274354 0 0 0 0 297.96481563253474 -386.12354942792723 0 -386.12354942792723 280.01734948062688 0 0 0 0 -259.32359439291758 57.816803897064233 0 57.816803897064233 -227.29739879687236 0 0 0 0 -50.878731050321221 -470.05195969790157 0 -470.05195969790157 282.43183866637207 0 0 0 0 163.15671294539061 -860.33596122692086 0 -860.33596122692086 335.23212840815603 0 0 0 0 18.112377839172296 -5.516441699225993 0 -5.516441699225993 1.2129461673439521 0 0 0 0 2150.2472355135542 776.32128277411221 0 776.32128277411221 -711.24297228039927 0 0 0 0 38.709357884210874 -13.549517050226378 0 -13.549517050226378 1.9660664020333927 0 0 0 0 347.6107381289612 -578.23831830162089 0 -578.23831830162089 -1236.5384715712757 0 0 0 0 498.86422835839767 389.90447082727974 0 389.90447082727974 -368.80834833510289 0 0 0 0 1757.5570720138494 538.90895589253523 0 538.90895589253523 -349.19657308124124 0 0 0 0 705.27680487082034 645.36576771299747 0 645.36576771299747 -214.91222638775571 0 0 0 0 3500.0370752419171 -292.08586220538183 0 -292.08586220538183 -1284.0324587957039 0 0 0 0 397.89009724010248 143.6590147292853 0 143.6590147292853 201.77921395935255 0 0 0 0 -56.678494047628192 -683.86635156718057 0 -683.86635156718057 -159.23979895336595 0 0 0 0 219.0033279006675 -717.86476320603413 0 -717.86476320603413 -997.77567492731737 0 0 0 0 -444.64733281992085 -408.95543506643639 0 -408.95543506643639 318.78964559133101 0 0 0 0 705.41207531802502 -1821.0267108896917 0 -1821.0267108896917 -88.63090022379356 0 0 0 0 20.898433829772074 -7.5971223159898713 0 -7.5971223159898713 0.74191119202616918 0 0 0 0 1203.9646711325331 -1172.5506910188326 0 -1172.5506910188326 13.014726531641827 0 0 0 0 1479.2454621628203 -556.65027251802462 0 -556.65027251802462 244.82844812433018 0 0 0 0 728.15380251709576 -150.86857071964721 0 -150.86857071964721 426.75099675082765 0 0 0 0 1906.0718668019908 -204.57446302531434 0 -204.57446302531434 428.73239809906852 0 0 0 0 2134.1021856148509 -732.77556711342186 0 -732.77556711342186 219.2912936569121 0 0 0 0 952.96746817672101 370.8059837289361 0 370.8059837289361 327.56222473035677 0 0 0 0 1133.7735872107951 -142.00125826992894 0 -142.00125826992894 -16.859116962603821 0 0 0 0 1592.9228389619529 54.736911001609542 0 54.736911001609542 450.89969505897989 0 0 0 0 1766.5854298241102 394.08031741481273 0 394.08031741481273 222.2426255560581 0 0 0 0 1937.848526424008 183.26531226012366 0 183.26531226012366 352.46556668080757 0 0 0 0 3526.0404397047751 1570.2982147706443 0 1570.2982147706443 454.13047199290827 0 0 0 0 1742.6693501679838 1015.8498722805139 0 1015.8498722805139 676.28973725069136 0 0 0 0 2626.5961512760696 171.69538901421492 0 171.69538901421492 26.201427424171925 0 0 0 0 2651.3909251207224 775.9733995345664 0 775.9733995345664 28.676902224719015 0 0 0 0 1905.9665348849376 613.07586909226666 0 613.07586909226666 16.144141464000654 0 0 0 0 2201.8122523948696 335.81202597759034 0 335.81202597759034 -249.70593160621365 0 0 0 0 1841.0830538678129 477.35497902993313 0 477.35497902993313 -53.80235127956621 0 0 0 0 1864.4356500547074 319.0893025874409 0 319.0893025874409 -108.21875738017684 0 0 0 0 2046.8720857302978 232.8282048182034 0 232.8282048182034 -71.904920081819 0 0 0 0 2039.9503038156399 366.93629167227073 0 366.93629167227073 -5.4893471999735084 0 0 0 0 2031.165281656271 464.02279278435674 0 464.02279278435674 -314.79431315557895 0 0 0 0 1997.2147245012616 164.04175501566377 0 164.04175501566377 -135.95985889745316 0 0 0 0 1999.7911967689652 257.8319268315023 0 257.8319268315023 -479.25048098943057 0 0 0 0 2520.8070307753569 -157.78950857363512 0 -157.78950857363512 -188.18756279539662 0 0 0 0 3495.7640221445254 41.886646386553203 0 41.886646386553203 -624.0610071643739 0 0 0 0 1374.1578783252407 313.60593886306071 0 313.60593886306071 -34.572598992961503 0 0 0 0 1562.8630446080497 331.64860125278074 0 331.64860125278074 73.296906533079891 0 0 0 0 1400.536159090494 188.79924905757889 0 188.79924905757889 143.69186864356629 0 0 0 0 1400.8490156805929 107.52530197281658 0 107.52530197281658 -100.42341046450508 0 0 0 0 1409.3382495418045 322.73592527447408 0 322.73592527447408 -68.467166697440007 0 0 0 0 1441.6368854382799 448.31111433598073 0 448.31111433598073 10.255246437360256 0 0 0 0 10.070149497760104 -8.263004110296194 0 -8.263004110296194 -9.8062951969256744 0 0 0 0 1291.2241905153705 -952.36702015056983 0 -952.36702015056983 679.53850630958095 0 0 0 0 753.59721254277974 190.95629780276818 0 190.95629780276818 179.17944695135361 0 0 0 0 6.1774258724727105 -3.6947185777165714 0 -3.6947185777165714 0.41314432379468607 0 0 0 0 3318.2056808957877 1194.9449751562174 0 1194.9449751562174 16.906996678646792 0 0 0 0 195.40265770243695 178.54631225928432 0 178.54631225928432 206.05196642200349 0 0 0 0 1884.8295157989705 400.12388717328304 0 400.12388717328304 -400.72737067162336 0 0 0 0 3497.5430439809934 1481.3028546391083 0 1481.3028546391083 467.36273572098543 0 0 0 0 9.6435091388394198 2.5590276418950282 0 2.5590276418950282 2.2251476709540894 0 0 0 0 26.506764751616601 -12.160111122744652 0 -12.160111122744652 -13.405143861387975 0 0 0 0 1277.62225893703 587.39332076761684 0 587.39332076761684 425.86530561423024 0 0 0 0 1591.9905737453082 379.68719985791176 0 379.68719985791176 -74.588398627122331 0 0 0 0 1429.8887336602056 471.58275934611265 0 471.58275934611265 21.641793758621134 0 0 0 0 1305.3566723345066 337.32162093742909 0 337.32162093742909 126.21354675752809 0 0 0 0 1935.6924105618673 203.83333052164642 0 203.83333052164642 -1005.8369744616616 0 0 0 0 2068.9733800128015 522.94174602165776 0 522.94174602165776 -1898.1776699833601 0 0 0 0 451.13962998872739 84.047961029225576 0 84.047961029225576 -1004.1273987987033 0 0 0 0 -1431.3596444019204 -1074.5475093387197 0 -1074.5475093387197 -1345.8424110474466 0 0 0 0 3499.9799510988014 238.09187444825162 0 238.09187444825162 -1706.6666703775932 0 0 0 0 1803.4351889249447 328.40120527366389 0 328.40120527366389 -1239.8597888157078 0 0 0 0 2507.3149481090295 -192.86836139062393 0 -192.86836139062393 -1350.8682109679226 0 0 0 0 2.7232583753273047 -2.5937044434580372 0 -2.5937044434580372 -7.164413551003733 0 0 0 0 722.72669907940144 -2258.7710375932843 0 -2258.7710375932843 -473.91946448864928 0 0 0 0 1056.6998960327473 -489.53735075396344 0 -489.53735075396344 -2000.6233490845993 0 0 0 0 1883.5484191927899 194.36681963932656 0 194.36681963932656 -1600.5714104613971 0 0 0 0 1308.1111884943675 -1334.4362872023612 0 -1334.4362872023612 494.75521241472961 0 0 0 0 2489.2781522360747 -1423.6913788779416 0 -1423.6913788779416 167.36590917177455 0 0 0 0 1946.7194886957732 -441.51166557428451 0 -441.51166557428451 1180.1808996084651 0 0 0 0 6.2750631811848621 -4.3527403543312175 0 -4.3527403543312175 -13.475056829775744 0 0 0 0 2611.6173116141545 -892.24904980666395 0 -892.24904980666395 138.76488300850178 0 0 0 0 3497.9867886835382 -934.931885870663 0 -934.931885870663 -311.03906332717372 0 0 0 0 1270.6507411874336 -655.16244232431973 0 -655.16244232431973 620.94758432690287 0 0 0 0 3664.8482212297167 -49.563097778349402 0 -49.563097778349402 183.62313575075586 0 0 0 0 13.694181494175226 -5.7263871064653955 0 -5.7263871064653955 -5.5883598843391731 0 0 0 0 -1040.884478815613 -1882.8890020022741 0 -1882.8890020022741 -1047.4547333137643 0 0 0 0 885.88231181140327 -2872.9510009934852 0 -2872.9510009934852 -785.46136670476153 0 0 0 0 1907.986346343816 -574.90363680551968 0 -574.90363680551968 -79.492666700408336 0 0 0 0 1426.8519875666098 -1400.7674875100311 0 -1400.7674875100311 -759.15110569165006 0 0 0 0 826.38770957062661 -46.813256105741118 0 -46.813256105741118 -1165.5707557775152 0 0 0 0 448.82535926385754 -341.16106096702072 0 -341.16106096702072 216.02999186747277 0 0 0 0 1142.5292225327612 -996.68357101247284 0 -996.68357101247284 101.36614876192368 0 0 0 0 63.096672914182633 12.104858844193515 0 12.104858844193515 -4.4389130942002648 0 0 0 0 3499.8876024434539 -1523.3708159064222 0 -1523.3708159064222 584.71766349268034 0 0 0 0 1855.1810054532762 -567.8845331692454 0 -567.8845331692454 197.12040191026207 0 0 0 0 1812.0620575476496 -1036.7040430832144 0 -1036.7040430832144 729.00003182409409 0 0 0 0 1633.8330229233979 -648.16083793544942 0 -648.16083793544942 -151.15955415765393 0 0 0 0 8.0349499321715001 -2.0354366690876375 0 -2.0354366690876375 -7.1801978959991715 0 0 0 0 2310.3720536428045 -882.95361106149483 0 -882.95361106149483 -62.229088531722994 0 0 0 0 1724.9215763055981 -1021.0931115978472 0 -1021.0931115978472 -88.342028293463272 0 0 0 0 3487.3400798304042 -3020.8040349251323 0 -3020.8040349251323 1547.0631107769427 0 0 0 0 25.153869376805545 2.6063603711254579 0 2.6063603711254579 0.54115914915176 0 0 0 0 563.19056740059386 1166.7452301835917 0 1166.7452301835917 348.10010564250729 0 0 0 0 -175.95465922090625 -155.60922814218787 0 -155.60922814218787 744.94157177926138 0 0 0 0 58.309218110346777 11.500937733606211 0 11.500937733606211 -3.2376752186462872 0 0 0 0 472.58946563670906 328.04744469486718 0 328.04744469486718 -868.06849018212461 0 0 0 0 -26.711229949227345 -23.698430944334575 0 -23.698430944334575 1024.2094399922219 0 0 0 0 1243.4784347597761 -1202.4032090282128 0 -1202.4032090282128 284.89836063348923 0 0 0 0 1410.5440884837062 -1570.7699813800025 0 -1570.7699813800025 1854.3180674642135 0 0 0 0 2200.6496686801293 -709.77296281666759 0 -709.77296281666759 174.67783959034932 0 0 0 0 9.3389596333206129 1.8140219779671973 0 1.8140219779671973 0.54870340045454724 0 0 0 0 230.60889950012279 220.10902332909453 0 220.10902332909453 349.20576269427499 0 0 0 0 2361.7815349199918 -925.34606928107223 0 -925.34606928107223 -56.470661645739071 0 0 0 0 2634.4065552267575 -880.65293870704215 0 -880.65293870704215 -53.602644618415127 0 0 0 0 2472.849343714397 -1718.7607105175243 0 -1718.7607105175243 793.11177672926294 0 0 0 0 1258.6977716222609 -851.26972743203214 0 -851.26972743203214 174.83379815237254 0 0 0 0 1156.0476305222219 -31.015161914618048 0 -31.015161914618048 -153.58499592070277 0 0 0 0 1263.9098726235243 -326.65517657807118 0 -326.65517657807118 -384.90434569205416 0 0 0 0 18.684935372836378 5.5156794954495219 0 5.5156794954495219 0.024546440698331631 0 0 0 0 3497.2829817319071 -1347.3382036210942 0 -1347.3382036210942 152.33881872781129 0 0 0 0 1148.9455621438938 -264.88669281980737 0 -264.88669281980737 -70.077932846092509 0 0 0 0 3492.5731111046998 478.40994649152555 0 478.40994649152555 -286.29342435864112 0 0 0 0 94.646869913940463 -97.009974961393809 0 -97.009974961393809 733.70739865200756 0 0 0 0 5002.1115706815253 437.42206717707313 0 437.42206717707313 -1407.1052045208462 0 0 0 0 -1224.6023914976904 -1107.2367563410844 0 -1107.2367563410844 -259.39501870763252 0 0 0 0 10.122328810403701 -9.2371911262218163 0 -9.2371911262218163 5.4867096591539308 0 0 0 0 -268.83512005824741 -1115.5020033688802 0 -1115.5020033688802 -671.66051061210328 0 0 0 0 -615.5230018677612 -238.5330464251324 0 -238.5330464251324 -422.32842454976344 0 0 0 0 -167.40021528067882 -360.67537041954802 0 -360.67537041954802 800.3641675715271 0 0 0 0 401.94392768345051 -638.09532888643741 0 -638.09532888643741 -557.16963634439162 0 0 0 0 33.182564917225278 -30.467450099345101 0 -30.467450099345101 20.652710628811995 0 0 0 0 582.35326372647251 189.39454460996905 0 189.39454460996905 101.29293549294277 0 0 0 0 2180.8166114167871 -140.63103658592738 0 -140.63103658592738 -670.72228318228633 0 0 0 0 2117.7865486880364 -247.22282280796657 0 -247.22282280796657 -445.9972443849926 0 0 0 0 3726.0519578079984 -573.26728733577693 0 -573.26728733577693 -598.3624721311819 0 0 0 0 4049.580667984068 -1861.0932038783462 0 -1861.0932038783462 749.5745072116772 0 0 0 0 2687.7326834689484 -1153.5402121099389 0 -1153.5402121099389 522.85963487780828 0 0 0 0 4698.0906508556509 289.6160467114571 0 289.6160467114571 -96.650933579075001 0 0 0 0 -2201.0496663189842 -917.53725846143129 0 -917.53725846143129 1045.9944120236912 0 0 0 0 16.421438471435614 -15.042900429609141 0 -15.042900429609141 12.85183025332535 0 0 0 0 2113.1721947604929 630.48994513789228 0 630.48994513789228 -141.56929077365271 0 0 0 0 1934.7511060518809 -1507.2403481043489 0 -1507.2403481043489 915.57962947786507 0 0 0 0 2558.9880703389936 -216.43449070637394 0 -216.43449070637394 1022.3137588924592 0 0 0 0 2958.9707656007799 -1879.2105863385846 0 -1879.2105863385846 332.62011719562588 0 0 0 0 2941.1593207164697 -1854.629165508748 0 -1854.629165508748 319.26388613389088 0 0 0 0 2500.4053291711316 -822.06536340194214 0 -822.06536340194214 406.83154267655999 0 0 0 0 1264.866134032156 -345.84064195404949 0 -345.84064195404949 53.871928946416119 0 0 0 0 1237.6966415334246 -712.85203504244828 0 -712.85203504244828 -662.26959452271421 0 0 0 0 1519.8722786102662 -1040.2338704028791 0 -1040.2338704028791 530.15221234129331 0 0 0 0 1376.211435732781 -29.605900851900628 0 -29.605900851900628 184.62679236120448 0 0 0 0 1784.2081629912191 -255.89352733894188 0 -255.89352733894188 1148.9117665604526 0 0 0 0 2375.1951724332321 -1140.6334479402658 0 -1140.6334479402658 584.3480187951626 0 0 0 0 4105.8886529625315 -318.52214700470694 0 -318.52214700470694 826.9639022232318 0 0 0 0 2035.2894416848867 -765.97286846321731 0 -765.97286846321731 1827.8811125189632 0 0 0 0 1913.4601373789283 -1106.8549991111556 0 -1106.8549991111556 940.97541055962051 0 0 0 0 1368.932478612689 -70.980048134583512 0 -70.980048134583512 -335.42594828854044 0 0 0 0 1749.6247811135327 -1678.0133304319033 0 -1678.0133304319033 852.71141390989987 0 0 0 0 29.682652622962848 3.7569557161066456 0 3.7569557161066456 -1.9412347314749647 0 0 0 0 3755.3925561036267 -2725.0445075278185 0 -2725.0445075278185 1360.1008327788454 0 0 0 0 833.13406583374308 1558.9488159443238 0 1558.9488159443238 -776.48662971420413 0 0 0 0 -327.5211326504068 209.12669377840712 0 209.12669377840712 413.09744516641604 0 0 0 0 1160.6737667144334 153.39103961970841 0 153.39103961970841 397.06835684973498 0 0 0 0 2911.9269938348734 614.22582331326703 0 614.22582331326703 -347.83235533687161 0 0 0 0 1042.5562131763509 343.29584990486768 0 343.29584990486768 583.23515970148765 0 0 0 0 1158.0008700192175 268.73093389282224 0 268.73093389282224 597.77756436468007 0 0 0 0 1296.6425077374456 294.76038972332276 0 294.76038972332276 543.98230844599584 0 0 0 0 1114.0122655127707 197.94338115910227 0 197.94338115910227 711.73579752858086 0 0 0 0 3048.4231563430585 -1219.2015645020335 0 -1219.2015645020335 837.75222215948702 0 0 0 0 1603.3969962061492 -409.26652730843443 0 -409.26652730843443 448.97642137555476 0 0 0 0 1930.5015655924853 -940.49015785996562 0 -940.49015785996562 399.72005878106802 0 0 0 0 1772.478174183856 -749.15041082500409 0 -749.15041082500409 1299.7466977059553 0 0 0 0 1715.1307989388515 -1080.8626131428191 0 -1080.8626131428191 1225.1473505727363 0 0 0 0 3.5999611892342926 -5.779607747459437 0 -5.779607747459437 12.643114338245329 0 0 0 0 1847.5542640991334 -393.58961037276657 0 -393.58961037276657 338.44798475188827 0 0 0 0 1483.6971636343205 -1007.5703697428554 0 -1007.5703697428554 619.85772028668885 0 0 0 0 -251.35374365605821 -161.94195768815075 0 -161.94195768815075 512.52844602030154 0 0 0 0 -242.25893006163096 -273.99015527347183 0 -273.99015527347183 832.33681451183975 0 0 0 0 -493.29976777323463 115.47843842996144 0 115.47843842996144 890.05130420775595 0 0 0 0 -358.59720355761965 -460.21926919654879 0 -460.21926919654879 1319.4528299423687 0 0 0 0 -100.61869806447066 -139.9627628300675 0 -139.9627628300675 -119.06539087389865 0 0 0 0 -223.65326098506921 -191.94156250803417 0 -191.94156250803417 524.91660525324369 0 0 0 0 -134.31706452841172 -261.50955383054406 0 -261.50955383054406 -216.18617410573825 0 0 0 0 -135.23699672775547 -213.05341560405395 0 -213.05341560405395 -59.645110964083869 0 0 0 0 -517.27613709653815 -348.80619347495303 0 -348.80619347495303 78.507037150211545 0 0 0 0 8.3774184790028698 -15.354767585612606 0 -15.354767585612606 26.746148532168881 0 0 0 0 360.26560188742224 -55.067981974216821 0 -55.067981974216821 314.98162109637883 0 0 0 0 1752.4309415766184 -531.70171771118044 0 -531.70171771118044 409.13845210204795 0 0 0 0 2370.26112647439 -767.43108101713494 0 -767.43108101713494 296.28365278162721 0 0 0 0 944.04039430231205 284.95420864659388 0 284.95420864659388 220.42460756459411 0 0 0 0 399.00882443356386 -193.85585455860291 0 -193.85585455860291 53.816507432627077 0 0 0 0 213.26202113564796 -161.9154448353097 0 -161.9154448353097 337.65039749815287 0 0 0 0 451.25267966145475 -356.95211931199924 0 -356.95211931199924 128.6350851672496 0 0 0 0 413.78968297436222 -383.0234458616045 0 -383.0234458616045 214.91155363728285 0 0 0 0 1014.9846637068331 -716.05500916829055 0 -716.05500916829055 151.20736667623805 0 0 0 0 575.13562301024649 -652.49505307885238 0 -652.49505307885238 664.56324828374591 0 0 0 0 672.38286701044672 -59.425971040919592 0 -59.425971040919592 29.469275466438376 0 0 0 0 399.91149361593125 -80.164583070843037 0 -80.164583070843037 641.57715304604335 0 0 0 0 471.08734793701296 -833.60881897400714 0 -833.60881897400714 793.76132212413881 0 0 0 0 3.0251435476476729 -6.4260858216398731 0 -6.4260858216398731 8.7058364702733115 0 0 0 0 -598.99124335252418 -335.25895769642648 0 -335.25895769642648 880.38985435287987 0 0 0 0 -548.15886413962289 34.311124909864589 0 34.311124909864589 662.6981566070275 0 0 0 0 -35.218913085100212 -234.98731538446168 0 -234.98731538446168 312.24067789004539 0 0 0 0 -82.274492950513377 -145.92881491651428 0 -145.92881491651428 234.33656939694265 0 0 0 0 -73.367204573045456 -109.18913203609009 0 -109.18913203609009 34.487140339713733 0 0 0 0 27.109655868480331 -170.86778278257225 0 -170.86778278257225 -107.06203171590096 0 0 0 0 -70.423282704708981 -301.13590904529428 0 -301.13590904529428 58.53841437757967 0 0 0 0 246.18304517203069 63.893736722115591 0 63.893736722115591 -154.94977758757705 0 0 0 0 167.48993945656548 -321.36490731755157 0 -321.36490731755157 44.014410139555821 0 0 0 0 488.38936860501417 -146.5988990190599 0 -146.5988990190599 -11.515612687348039 0 0 0 0 633.03857942095783 193.38225991362924 0 193.38225991362924 -328.41909377293223 0 0 0 0 545.8878776100828 -152.79150347976315 0 -152.79150347976315 -452.93751535564115 0 0 0 0 275.64721361930424 -175.89631637597176 0 -175.89631637597176 -259.72186779024378 0 0 0 0 25.222886710573221 127.39228767752729 0 127.39228767752729 -473.56710507694061 0 0 0 0 2.4234036817420019 -0.41609120956118772 0 -0.41609120956118772 -5.4713072191252614 0 0 0 0 416.32701047253795 -90.055342984596109 0 -90.055342984596109 59.014534876097969 0 0 0 0 -88.371735626657028 -349.51578746018367 0 -349.51578746018367 -200.69957538124254 0 0 0 0 -1.4520801047888199 -1.8592210239621956 0 -1.8592210239621956 -0.47471620373802548 0 0 0 0 980.43076107162051 241.06042311483361 0 241.06042311483361 -1532.303908200869 0 0 0 0 -25.331556451274082 -119.44979136336406 0 -119.44979136336406 627.20152014258156 0 0 0 0 9.2946628228964983 -159.32724059379234 0 -159.32724059379234 -189.49984196806736 0 0 0 0 9.5643813244630564 -2.105761174894937 0 -2.105761174894937 0.85069598852871664 0 0 0 0 230.10800935286898 832.48975800532935 0 832.48975800532935 571.07174149809725 0 0 0 0 445.21947696863208 255.12580877232358 0 255.12580877232358 28.758820447072139 0 0 0 0 -112.42150580109592 -420.80572049493912 0 -420.80572049493912 182.58862736939409 0 0 0 0 675.89411790089071 638.9079375477213 0 638.9079375477213 -933.99853762830389 0 0 0 0 -9.2702266009749223 -5.474293466398958 0 -5.474293466398958 -0.56369885748841408 0 0 0 0 -145.54428759377333 -33.822826887069823 0 -33.822826887069823 354.91340047833978 0 0 0 0 116.49695335079741 -200.63265207685345 0 -200.63265207685345 -880.51677737532737 0 0 0 0 -74.701961087173459 142.23253013674559 0 142.23253013674559 98.166509267652145 0 0 0 0 -45.206796870246762 -341.99410334171171 0 -341.99410334171171 -269.20172506018025 0 0 0 0 -76.301157181835151 -201.70943707444621 0 -201.70943707444621 -84.674580886416152 0 0 0 0 -67.587469003665319 -304.89337322970044 0 -304.89337322970044 -225.18623689982269 0 0 0 0 12.14452411171078 -250.03869371059409 0 -250.03869371059409 -484.99240061922501 0 0 0 0 -22.047755459288169 -13.687991613249771 0 -13.687991613249771 5.2749041519063722 0 0 0 0 -71.035358551267166 -184.28907436295259 0 -184.28907436295259 23.125956242735811 0 0 0 0 51.229612557227057 -20.865554564603372 0 -20.865554564603372 4.2086023666573702 0 0 0 0 110.33118461663253 -91.934345131499867 0 -91.934345131499867 245.8735440444234 0 0 0 0 425.10948276078852 -254.31531961411929 0 -254.31531961411929 208.25827105628923 0 0 0 0 1105.6851330069476 -18.069705719982267 0 -18.069705719982267 -1447.6584834561108 0 0 0 0 285.91922147455625 55.252509776088118 0 55.252509776088118 -78.628593928148803 0 0 0 0 210.21732002741192 73.279112085479028 0 73.279112085479028 -82.909518474016295 0 0 0 0 332.74268646640849 101.97058416007076 0 101.97058416007076 -204.55478627995853 0 0 0 0 -0.40907009123640492 0.50655362868580767 0 0.50655362868580767 -6.9268072048736187 0 0 0 0 -375.77268730487685 -69.532079486139338 0 -69.532079486139338 180.19739969248712 0 0 0 0 -122.50956327676249 364.06150354307283 0 364.06150354307283 -198.46295662037119 0 0 0 0 66.704887302890711 -174.56823493072716 0 -174.56823493072716 -58.436681222769948 0 0 0 0 71.565484351332998 -39.19638602194118 0 -39.19638602194118 -158.63066214232822 0 0 0 0 51.736958072891412 -18.326799314702228 0 -18.326799314702228 2.2240403487635625 0 0 0 0 -50.321071327693062 -375.53697257790918 0 -375.53697257790918 -146.70252484444046 0 0 0 0 -471.45033148194489 611.07781506652191 0 611.07781506652191 -515.60156884306707 0 0 0 0 191.44332497408323 -210.52070962697053 0 -210.52070962697053 35.521838146469236 0 0 0 0 -101.68254391985465 7.5827310657236353 0 7.5827310657236353 -69.499793300916281 0 0 0 0 0.49298411718336865 -219.09298891362505 0 -219.09298891362505 96.57464480829276 0 0 0 0 33.633467224294691 71.124769767595581 0 71.124769767595581 332.09530386784536 0 0 0 0 114.31523979231133 51.543217263812494 0 51.543217263812494 12.55948164109941 0 0 0 0 55.996469121754075 -18.51683145209779 0 -18.51683145209779 0.59487536061095625 0 0 0 0 125.3683030978209 -229.3802572831155 0 -229.3802572831155 -348.80545361017448 0 0 0 0 15.322003169807431 -21.016757625161517 0 -21.016757625161517 -95.650478458572252 0 0 0 0 317.19951259728987 -30.460967986622563 0 -30.460967986622563 -90.804163388647794 0 0 0 0 147.86397197765473 -272.57153024483068 0 -272.57153024483068 373.32829956129717 0 0 0 0 477.97905257442471 131.79109370608967 0 131.79109370608967 6.2586872579906867 0 0 0 0 495.98269427430296 294.28031896538079 0 294.28031896538079 129.60342560558638 0 0 0 0 477.18649786707829 193.26706160242793 0 193.26706160242793 -59.018716543815572 0 0 0 0 536.83414782758337 -84.994160126459974 0 -84.994160126459974 -273.37119080814227 0 0 0 0 844.13540803958313 -246.99738527434602 0 -246.99738527434602 113.30985809532558 0 0 0 0 479.44530188788121 246.50921328875188 0 246.50921328875188 157.17164057462696 0 0 0 0 220.01815644813178 -10.042934647431139 0 -10.042934647431139 28.440725651450066 0 0 0 0 792.11643473539152 -9.8991615242102853 0 -9.8991615242102853 522.70829991056439 0 0 0 0 893.91283366344578 -33.523122849712763 0 -33.523122849712763 249.61017805291567 0 0 0 0 540.04173066536532 338.8092580183087 0 338.8092580183087 154.76550072235864 0 0 0 0 296.0990682097472 266.21013547538496 0 266.21013547538496 190.35008668111914 0 0 0 0 207.0373520066787 50.918466348737638 0 50.918466348737638 127.00604351447146 0 0 0 0 -219.60357217033743 -296.27929658698395 0 -296.27929658698395 -140.82852703627032 0 0 0 0 12.981392786412215 -19.573558362593019 0 -19.573558362593019 27.937956002012303 0 0 0 0 -156.66297952402965 -217.99477353666043 0 -217.99477353666043 -291.70506868677694 0 0 0 0 -151.4296673827339 -181.39885881198643 0 -181.39885881198643 -270.63679495553879 0 0 0 0 -193.06959215403913 -175.29353444950357 0 -175.29353444950357 -218.77630245538603 0 0 0 0 -86.47707561677089 -24.108688939621061 0 -24.108688939621061 -6.4322328257694608 0 0 0 0 0.77770319795601495 -8.902369577400524 0 -8.902369577400524 5.9741079721535097 0 0 0 0 462.77458765543997 416.28292909635275 0 416.28292909635275 387.52703410393622 0 0 0 0 358.96515128295869 326.09026748986253 0 326.09026748986253 315.36735410396614 0 0 0 0 57.36479041299026 35.619053221425929 0 35.619053221425929 -9.2471265383882724 0 0 0 0 35.960534123496984 -43.446284949619695 0 -43.446284949619695 7.2662892543500659 0 0 0 0 403.30042423401028 321.00191275453471 0 321.00191275453471 182.11432040433465 0 0 0 0 615.27800853090594 88.498686413213363 0 88.498686413213363 -90.694945452971297 0 0 0 0 333.38573189304589 285.34623807578191 0 285.34623807578191 244.31364440562174 0 0 0 0 669.14294585183234 271.066510833552 0 271.066510833552 131.59483932200055 0 0 0 0 454.87284601136344 128.85381771081938 0 128.85381771081938 269.93161228421195 0 0 0 0 459.60107467022317 193.01814946853028 0 193.01814946853028 -8.8594610536574692 0 0 0 0 386.07457719705417 82.319558544385472 0 82.319558544385472 24.444232532568094 0 0 0 0 416.26952537204488 159.03217372438985 0 159.03217372438985 75.17247955417406 0 0 0 0 532.24558562549646 168.61266889909894 0 168.61266889909894 64.325049251641758 0 0 0 0 471.28130700089605 80.651111750434438 0 80.651111750434438 -132.85359804828113 0 0 0 0 359.47169466145351 -12.859425083122687 0 -12.859425083122687 -134.01399690863036 0 0 0 0 7.9171925864150268 -0.0010848397051148595 0 -0.0010848397051148595 -0.96891515280653095 0 0 0 0 266.75444275247719 196.081960024399 0 196.081960024399 179.75926811863974 0 0 0 0 389.20023078676604 77.765378648631668 0 77.765378648631668 -72.466119812186662 0 0 0 0 362.27834106887167 154.5752382093151 0 154.5752382093151 197.20649117563516 0 0 0 0 372.56292695095908 5.6511047470730773 0 5.6511047470730773 -63.206846013212271 0 0 0 0 372.47731515554915 -30.425447483143216 0 -30.425447483143216 -166.75184575613912 0 0 0 0 356.01955077306775 80.542764714603436 0 80.542764714603436 -139.35012231601195 0 0 0 0 359.23849226696257 -10.554554994979526 0 -10.554554994979526 -191.45167849759127 0 0 0 0 397.76789661521616 7.5151468835420019 0 7.5151468835420019 -234.84971194684204 0 0 0 0 397.13894183267257 81.372206898166951 0 81.372206898166951 -79.432104534445898 0 0 0 0 292.88620493424241 -139.48293163438029 0 -139.48293163438029 -268.88272431875134 0 0 0 0 275.41792595804691 -138.83381168984772 0 -138.83381168984772 -254.24542965635919 0 0 0 0 163.5000032888056 -236.89264953974907 0 -236.89264953974907 -341.52842771462929 0 0 0 0 264.00028819398722 -232.21215184600715 0 -232.21215184600715 -395.72951195994574 0 0 0 0 360.0669007810211 -83.122540130299967 0 -83.122540130299967 -412.55119088979154 0 0 0 0 309.04945389843488 -77.284832561898838 0 -77.284832561898838 -205.59069282982637 0 0 0 0 349.14183136545034 -13.508529710114544 0 -13.508529710114544 -179.73807363051674 0 0 0 0 447.89656238402677 81.90086890421162 0 81.90086890421162 -231.20008513262837 0 0 0 0 417.37373551018391 -198.97668477974594 0 -198.97668477974594 -545.26426845594506 0 0 0 0 219.39350949920481 -106.53645318889176 0 -106.53645318889176 -241.821917623427 0 0 0 0 461.84270871255285 11.000980921999144 0 11.000980921999144 -373.02432573930491 0 0 0 0 212.39592292350426 -194.7570154239711 0 -194.7570154239711 -377.5463350139795 0 0 0 0 -62.156976512764231 -509.6316928977194 0 -509.6316928977194 -577.35753864506273 0 0 0 0 226.06161325413268 -155.61103821365214 0 -155.61103821365214 -528.94540747151041 0 0 0 0 152.03907170145976 -213.75181637329297 0 -213.75181637329297 -387.927562029814 0 0 0 0 -36.254365865170257 -388.60899157130916 0 -388.60899157130916 -468.74887931089461 0 0 0 0 -96.417892583820503 -289.75917642606782 0 -289.75917642606782 -554.76021671293347 0 0 0 0 -219.31385552142456 -230.76449857305397 0 -230.76449857305397 -155.98293772161014 0 0 0 0 -291.22386361343524 -476.88660203378276 0 -476.88660203378276 -359.24769567824751 0 0 0 0 55.737174486057484 -356.48811865501193 0 -356.48811865501193 -417.936877871246 0 0 0 0 -336.84010934487742 1154.17189661101 0 1154.17189661101 3141.5327434954838 0 0 0 0 -634.70435250905257 -378.27705823233538 0 -378.27705823233538 445.07791496423988 0 0 0 0 26.438813868190259 -42.221932278256133 0 -42.221932278256133 39.566997161986123 0 0 0 0 75.622560631811211 -94.717718710837289 0 -94.717718710837289 -76.683483658824116 0 0 0 0 63.30163799886941 -80.83539721132729 0 -80.83539721132729 -89.092104182664116 0 0 0 0 70.19605792521179 -107.30925309320082 0 -107.30925309320082 38.516128109484271 0 0 0 0 62.448428535863059 -54.172642439043557 0 -54.172642439043557 5.8094321097669308 0 0 0 0 536.12822381517617 -121.98417371635514 0 -121.98417371635514 -201.89662583370136 0 0 0 0 238.34356255839521 -169.46518593617657 0 -169.46518593617657 -208.24676008703909 0 0 0 0 69.84589831189669 -213.59011089470442 0 -213.59011089470442 -217.80681074289532 0 0 0 0 269.78731444300502 -102.13575347427559 0 -102.13575347427559 -155.81444796131109 0 0 0 0 139.7698513395153 -275.15046658782558 0 -275.15046658782558 -257.34151571899747 0 0 0 0 303.77533287971528 -273.05777116799482 0 -273.05777116799482 -277.3710570104231 0 0 0 0 196.34732054764754 -243.65325317858947 0 -243.65325317858947 -239.89080179352459 0 0 0 0 199.17646943063301 -237.78978842908145 0 -237.78978842908145 -289.44682703520994 0 0 0 0 114.92998268920928 -234.0836221223467 0 -234.0836221223467 -267.61656941659021 0 0 0 0 193.49114834515785 -217.71698174427729 0 -217.71698174427729 -285.56837213275139 0 0 0 0 222.6968982637336 -89.172078442782549 0 -89.172078442782549 -200.75501026488382 0 0 0 0 75.918558185148868 -167.78680507194622 0 -167.78680507194622 -189.8945173583852 0 0 0 0 258.79278137019719 -114.52355889674891 0 -114.52355889674891 -204.22806904046956 0 0 0 0 255.482582408491 8.1424556541560378 0 8.1424556541560378 -110.38160655841421 0 0 0 0 296.48696293459216 -22.773211554960199 0 -22.773211554960199 -166.21334255656075 0 0 0 0 289.47757888612978 54.21910595476038 0 54.21910595476038 -148.40842713195343 0 0 0 0 185.65935189039737 -124.56440868782011 0 -124.56440868782011 -151.39155507064243 0 0 0 0 205.25838359624686 -63.307570727954044 0 -63.307570727954044 -63.070808141274028 0 0 0 0 175.02947113665869 -104.82859824944899 0 -104.82859824944899 -120.50841680305803 0 0 0 0 189.74425704377427 -118.64752935392062 0 -118.64752935392062 -210.37927435988968 0 0 0 0 84.594383761577774 -205.42553267396943 0 -205.42553267396943 -158.98865818984086 0 0 0 0 15.396596293689072 -141.47057444600614 0 -141.47057444600614 -6.7844517535304476 0 0 0 0 -0.41375684220633957 2.0886483308892849 0 2.0886483308892849 -3.6179556762106699 0 0 0 0 80.249277400776919 -102.80178668311146 0 -102.80178668311146 -7.9951426641418948 0 0 0 0 116.99132344527607 -51.124866036816456 0 -51.124866036816456 43.579981106238847 0 0 0 0 131.39832799206488 -132.0693124997224 0 -132.0693124997224 -56.456399181912275 0 0 0 0 99.956803437045892 -117.22304898926632 0 -117.22304898926632 -51.961138555263915 0 0 0 0 120.50528261960426 -94.674609185592544 0 -94.674609185592544 -27.349610739638592 0 0 0 0 240.10484805519445 264.29627085139509 0 264.29627085139509 -463.10074098609311 0 0 0 0 28.388293118971575 4.9929548018598666 0 4.9929548018598666 -13.272311676444053 0 0 0 0 109.42915227456979 -81.56520746046408 0 -81.56520746046408 -40.05064706956 0 0 0 0 90.733647124349829 -41.711856659527314 0 -41.711856659527314 -5.7587714353756105 0 0 0 0 126.30114722016151 -49.469597314819111 0 -49.469597314819111 20.687861339405572 0 0 0 0 135.4465024209876 -72.040554913961614 0 -72.040554913961614 27.781739480029501 0 0 0 0 179.04272281072917 -72.704795188468779 0 -72.704795188468779 2.621513451107603 0 0 0 0 81.917455107674158 -30.073715392532975 0 -30.073715392532975 -17.926950067970651 0 0 0 0 27.942319316353334 -14.791963919832625 0 -14.791963919832625 -4.7240645474340184 0 0 0 0 172.24260192180373 242.65248060279373 0 242.65248060279373 93.507677697845793 0 0 0 0 101.25709613292854 -36.680816587914379 0 -36.680816587914379 -3.8249276096724265 0 0 0 0 204.36171463310166 -240.63066730432911 0 -240.63066730432911 112.81489963762397 0 0 0 0 158.9432788458289 -125.8336920325346 0 -125.8336920325346 -40.662381104912129 0 0 0 0 -24.967053478647571 -12.406383449469001 0 -12.406383449469001 32.112497817796275 0 0 0 0 54.598169772653819 339.65370344864971 0 339.65370344864971 -259.20721498228977 0 0 0 0 186.0721902849491 -29.840642999947022 0 -29.840642999947022 -240.30372225388055 0 0 0 0 -33.612013443560045 -13.021114751894277 0 -13.021114751894277 28.779021865833776 0 0 0 0 31.799820223037386 -123.88188524107318 0 -123.88188524107318 278.30750961781814 0 0 0 0 187.19948059858143 216.25532687794021 0 216.25532687794021 165.7224358275198 0 0 0 0 11.06408515317321 -5.8371227873561722 0 -5.8371227873561722 3.9966035796028336 0 0 0 0 946.94029616424814 -642.9148214758643 0 -642.9148214758643 97.904289131605765 0 0 0 0 126.01647543320723 -363.97917543272069 0 -363.97917543272069 570.98060450900812 0 0 0 0 942.07040459211566 -698.31327047124432 0 -698.31327047124432 -146.55217853980139 0 0 0 0 1090.8314537382685 -448.32294779948279 0 -448.32294779948279 -349.84214702814643 0 0 0 0 -13.008861198380018 6.2088566054322598 0 6.2088566054322598 11.131880643662257 0 0 0 0 1209.4012093111814 -194.37717542747305 0 -194.37717542747305 118.62365896455594 0 0 0 0 16.311720585696065 -3.351836494428527 0 -3.351836494428527 1.0183455114956925 0 0 0 0 85.812844806547218 -66.946551985049084 0 -66.946551985049084 -69.531748276438009 0 0 0 0 125.28265746604302 -54.006534021252833 0 -54.006534021252833 -285.28101550043766 0 0 0 0 -42.933884188569209 -94.891630923580124 0 -94.891630923580124 -38.472323500108359 0 0 0 0 57.138089488464175 -106.3115386956581 0 -106.3115386956581 -187.7260007050736 0 0 0 0 60.85320647914341 2.5643206184549854 0 2.5643206184549854 -106.30232546175887 0 0 0 0 23.964780013908552 -4.1131013740297568 0 -4.1131013740297568 -6.5556003194075432 0 0 0 0 71.241442474973155 24.6948049106322 0 24.6948049106322 -84.502021588551571 0 0 0 0 27.03825444936956 3.2507265855494367 0 3.2507265855494367 -65.397488006226283 0 0 0 0 1.0815655493207323 14.658894929556595 0 14.658894929556595 -43.4899099677829 0 0 0 0 160.6899847463792 32.144804413077509 0 32.144804413077509 -36.37783899742135 0 0 0 0 290.41992066336388 137.52236341949538 0 137.52236341949538 -12.754707011402388 0 0 0 0 180.96029299996917 5.8462783871378861 0 5.8462783871378861 -43.493776381776115 0 0 0 0 4.4403316925932064 -0.60526026152903967 0 -0.60526026152903967 -21.764128455620678 0 0 0 0 -156.15001112478058 -101.97593799605579 0 -101.97593799605579 -69.574800646867061 0 0 0 0 1.835585003351639 3.2350074140966498 0 3.2350074140966498 -10.32115201724864 0 0 0 0 311.2535075064352 82.723458576515668 0 82.723458576515668 -27.724445742311218 0 0 0 0 338.64987047562317 -96.939549810249446 0 -96.939549810249446 -39.552545439344158 0 0 0 0 290.18522850277077 60.194509844654021 0 60.194509844654021 -98.947576222548378 0 0 0 0 276.41239212060464 30.527510455511219 0 30.527510455511219 -97.785210462087207 0 0 0 0 265.63237142621074 33.972088828850247 0 33.972088828850247 -46.080000093268609 0 0 0 0 250.0746930429159 -52.259405996001078 0 -52.259405996001078 -115.47330018902358 0 0 0 0 326.83164252341885 -37.358175020989165 0 -37.358175020989165 -70.478603219173237 0 0 0 0 249.42601762132836 -40.312302025184181 0 -40.312302025184181 25.36191937545027 0 0 0 0 188.11775477294577 -24.427799211463935 0 -24.427799211463935 -70.979632626659168 0 0 0 0 213.53413457488932 -69.30934914455429 0 -69.30934914455429 -81.787689536224207 0 0 0 0 108.30203773104768 -62.309025371899907 0 -62.309025371899907 -79.756477911203547 0 0 0 0 213.37986759791238 9.9107118598103625 0 9.9107118598103625 -69.636775054565078 0 0 0 0 8.4377828847259053 -6.0690609006760923 0 -6.0690609006760923 1.2982396181240941 0 0 0 0 94.377052777700726 -35.57561942920686 0 -35.57561942920686 -20.482687231838781 0 0 0 0 510.07809152019036 592.25706273800461 0 592.25706273800461 -553.08752138707223 0 0 0 0 150.43003333893648 -29.485830512286611 0 -29.485830512286611 -101.10813540922391 0 0 0 0 -355.67887078131753 -257.29669599643989 0 -257.29669599643989 -177.13669131121969 0 0 0 0 39.664647513112868 27.201261603035448 0 27.201261603035448 -35.568822806534001 0 0 0 0 15.68794072206725 6.6720424333662294 0 6.6720424333662294 -54.179864447104059 0 0 0 0 32.477742579059395 0.75080262101891382 0 0.75080262101891382 -28.004452201712098 0 0 0 0 121.38785382390779 -21.523470218598959 0 -21.523470218598959 -80.113671837991205 0 0 0 0 3.4169235477170332 -3.7223043066600283 0 -3.7223043066600283 -1.4427101026300022 0 0 0 0 45.093600953485293 12.635206641682942 0 12.635206641682942 -17.02799391290614 0 0 0 0 129.19495186072891 -144.38587330899077 0 -144.38587330899077 104.19247329105247 0 0 0 0 27.138501097546396 -152.56205740362452 0 -152.56205740362452 99.375845694598752 0 0 0 0 12.858830813327586 -40.910107298898041 0 -40.910107298898041 -26.227949780749327 0 0 0 0 235.39528100338066 -91.715878912630075 0 -91.715878912630075 -24.030875967532069 0 0 0 0 177.18973010727859 -102.0188170107123 0 -102.0188170107123 -45.326712129053703 0 0 0 0 110.36960616506258 -39.118418769489097 0 -39.118418769489097 -56.014519977792816 0 0 0 0 162.05402977500489 -80.859907115004262 0 -80.859907115004262 -53.941677198115258 0 0 0 0 163.96734498208025 -67.341287218447349 0 -67.341287218447349 10.408082947778894 0 0 0 0 0.84898689105561154 -27.824528937012637 0 -27.824528937012637 0.84649748367393762 0 0 0 0 186.70349961984175 -45.752847109162758 0 -45.752847109162758 -39.237131656036809 0 0 0 0 -25.25232566673003 79.075653170366081 0 79.075653170366081 -90.94913317377052 0 0 0 0 209.24132020823163 13.886533615077951 0 13.886533615077951 -412.98904271198285 0 0 0 0 81.631501433315862 -71.384549349686495 0 -71.384549349686495 17.33962948288513 0 0 0 0 -335.6801041913277 182.62072895370488 0 182.62072895370488 1170.7187459662573 0 0 0 0 12.544779041238836 -36.428431765543586 0 -36.428431765543586 19.716236273120305 0 0 0 0 249.01166034588095 -400.19288301001916 0 -400.19288301001916 -55.816942442417712 0 0 0 0 163.11308517112047 -207.84770605969243 0 -207.84770605969243 -23.346826441511439 0 0 0 0 -35.811967644127435 -265.1031285201334 0 -265.1031285201334 625.32036527523564 0 0 0 0 193.78623515685467 -118.30610445545244 0 -118.30610445545244 23.555367650547964 0 0 0 0 156.40071471016563 -469.22746799064817 0 -469.22746799064817 346.4687780427721 0 0 0 0 40.769673262402648 -54.388019548547163 0 -54.388019548547163 396.16393953329134 0 0 0 0 163.9126266103267 -131.45713473066007 0 -131.45713473066007 61.922730889475133 0 0 0 0 147.5406933784252 -243.40061074749337 0 -243.40061074749337 315.36112294936538 0 0 0 0 123.34582278706694 -103.84503370892071 0 -103.84503370892071 60.930613537036152 0 0 0 0 178.35665486828657 -54.143061399758722 0 -54.143061399758722 -131.2607902853556 0 0 0 0 59.446748866226699 6.6078297750574393 0 6.6078297750574393 -42.641534850117296 0 0 0 0 72.7170119129878 -11.733849738448953 0 -11.733849738448953 -32.648815987991611 0 0 0 0 53.725711387931369 -2.7770261538616978 0 -2.7770261538616978 53.252883247805244 0 0 0 0 49.896560047414802 -37.973404755737967 0 -37.973404755737967 12.372367476123335 0 0 0 0 74.143565399225281 -33.202088078624399 0 -33.202088078624399 -59.65193917918441 0 0 0 0 27.365534523652656 -29.600405629749432 0 -29.600405629749432 -22.152785139893787 0 0 0 0 165.07775626399962 -40.301899961437016 0 -40.301899961437016 -5.8463628398428682 0 0 0 0 153.71015142166289 -13.449295979928934 0 -13.449295979928934 -63.294542227043053 0 0 0 0 196.01657862833645 -9.8751044036685727 0 -9.8751044036685727 -34.681868308065532 0 0 0 0 145.48602325244428 -14.758129203750741 0 -14.758129203750741 -0.4042422098912084 0 0 0 0 130.64476663409857 -21.9221564538827 0 -21.9221564538827 -3.222945205345273 0 0 0 0 136.89798008460639 3.659562551855629 0 3.659562551855629 -39.290595995297117 0 0 0 0 106.64371786834454 -44.632953227070345 0 -44.632953227070345 -38.15009804798683 0 0 0 0 65.83463815140567 11.787307727627535 0 11.787307727627535 -99.691891402927467 0 0 0 0 64.53924428060418 -87.165941368718336 0 -87.165941368718336 27.532987669936574 0 0 0 0 389.46220083015214 -169.63460262047283 0 -169.63460262047283 71.282032232298661 0 0 0 0 215.02158973529004 -83.751112158524847 0 -83.751112158524847 58.940108129319469 0 0 0 0 157.19251705850183 -14.929345124825886 0 -14.929345124825886 -13.225600398205643 0 0 0 0 -3.1599145654216585 -50.245184147767141 0 -50.245184147767141 6.2817143539068709 0 0 0 0 266.73987407246295 -142.4953387227697 0 -142.4953387227697 -25.552427212787734 0 0 0 0 80.207440918835346 -34.148647130268728 0 -34.148647130268728 -13.669962601748921 0 0 0 0 110.57640947054097 -25.697777096973368 0 -25.697777096973368 -11.41669308003884 0 0 0 0 128.42181058479926 -36.244432702536209 0 -36.244432702536209 -10.10130831077128 0 0 0 0 52.630883707904601 -27.96207087498755 0 -27.96207087498755 -2.8125288021725412 0 0 0 0 76.89891317168167 -63.61413918603921 0 -63.61413918603921 20.901126782897336 0 0 0 0 91.74915924826746 -76.438846586916952 0 -76.438846586916952 31.759211783785304 0 0 0 0 44.957912580139237 -19.550019620904095 0 -19.550019620904095 -33.457040961869595 0 0 0 0 181.24408804573554 -89.667697628629526 0 -89.667697628629526 26.051003456021935 0 0 0 0 84.870875807098855 -43.788743526126154 0 -43.788743526126154 69.968883260745315 0 0 0 0 74.336099656091392 -89.151130317766729 0 -89.151130317766729 41.899799486631991 0 0 0 0 68.650120421218162 -51.119885670152144 0 -51.119885670152144 104.16823890030787 0 0 0 0 84.252907016598328 -35.034825791517505 0 -35.034825791517505 264.62709532950794 0 0 0 0 83.329200834836229 -49.665564804969108 0 -49.665564804969108 97.857065981439519 0 0 0 0 71.546986641842523 -74.491231917870209 0 -74.491231917870209 110.96592066675748 0 0 0 0 84.275841991504421 -45.448494190192719 0 -45.448494190192719 -29.055854307359255 0 0 0 0 129.71262842200485 -102.78876449324252 0 -102.78876449324252 14.806920927377632 0 0 0 0 77.837152766325744 -68.113369216335371 0 -68.113369216335371 24.120895342370801 0 0 0 0 87.697961123717391 -98.013539581625736 0 -98.013539581625736 -7.7824973687154682 0 0 0 0 46.52728957855652 -42.460193880333378 0 -42.460193880333378 -33.729327336875144 0 0 0 0 95.74233951230417 -75.51842419197169 0 -75.51842419197169 -88.918389369997385 0 0 0 0 54.772902308319317 -69.242716097422544 0 -69.242716097422544 -46.55807670013246 0 0 0 0 50.974994823041925 -32.326435669818693 0 -32.326435669818693 86.609199129071158 0 0 0 0 22.784929850050048 -66.039132984778917 0 -66.039132984778917 96.530761867306865 0 0 0 0 65.600534729096083 -39.651682848784027 0 -39.651682848784027 13.42622148844074 0 0 0 0 43.33442247082985 -57.005735019427448 0 -57.005735019427448 70.222639475055075 0 0 0 0 39.248253500665669 24.566601330358935 0 24.566601330358935 125.54893266299496 0 0 0 0 143.04949623399079 -172.0785183578073 0 -172.0785183578073 -87.445048901136943 0 0 0 0 78.03036335441945 -46.445986391896639 0 -46.445986391896639 8.5574061864707467 0 0 0 0 87.458757300656998 -89.936827778858628 0 -89.936827778858628 -18.395714587783459 0 0 0 0 483.05953412912277 -167.82613682100805 0 -167.82613682100805 -17.484592589007661 0 0 0 0 -25.303784846495873 -40.39043514510216 0 -40.39043514510216 10.787084773669143 0 0 0 0 101.22179209547267 -75.845908744692451 0 -75.845908744692451 -8.2616733100924193 0 0 0 0 615.91488083256263 -377.05678633140997 0 -377.05678633140997 126.27887977673186 0 0 0 0 -3.3998962568382751 -8.9865584147756881 0 -8.9865584147756881 2.3958813083618442 0 0 0 0 -23.768616356147049 191.40700021470366 0 191.40700021470366 115.71061577833643 0 0 0 0 -8.0288597171092988 -185.9381504236917 0 -185.9381504236917 121.43092388883815 0 0 0 0 304.18782621606442 -258.75244990313604 0 -258.75244990313604 119.96460564547817 0 0 0 0 797.85437957133399 507.16375511636397 0 507.16375511636397 -113.00989347438554 0 0 0 0 761.68861499547347 -237.51140954301616 0 -237.51140954301616 146.09929378802275 0 0 0 0 1174.1872559748081 -45.387716581867835 0 -45.387716581867835 -352.31091467659553 0 0 0 0 16.672036509385062 -10.47140237327892 0 -10.47140237327892 -31.320281409750191 0 0 0 0 -3.7709956704238676 1.6414677740156698 0 1.6414677740156698 -7.0702963810745381 0 0 0 0 155.54958370353597 -116.58604040108719 0 -116.58604040108719 -81.02996176006809 0 0 0 0 724.82269935404111 -267.0201887272051 0 -267.0201887272051 169.55236043430614 0 0 0 0 231.03285004135978 -154.76315673912677 0 -154.76315673912677 -145.37615444357039 0 0 0 0 271.96762895258871 -20.15886171315293 0 -20.15886171315293 -96.377649695900345 0 0 0 0 283.07030639328877 -48.311402693271475 0 -48.311402693271475 -85.085051600648143 0 0 0 0 298.41494727951067 -48.350503776875939 0 -48.350503776875939 -109.5812211138543 0 0 0 0 231.46123243889116 -98.127815972134798 0 -98.127815972134798 -109.41919096824085 0 0 0 0 246.80981405302055 -33.8987203976491 0 -33.8987203976491 -85.186938064341575 0 0 0 0 249.22445458782022 -88.674471899221999 0 -88.674471899221999 -111.38624697192722 0 0 0 0 234.30962669260043 -44.667632292123926 0 -44.667632292123926 -94.442160064273594 0 0 0 0 223.46412261496062 30.207238687524722 0 30.207238687524722 -97.354157356520773 0 0 0 0 173.87893029780207 -70.020380891003526 0 -70.020380891003526 -56.63424366090544 0 0 0 0 195.89522220911749 68.206157840472997 0 68.206157840472997 -14.597558049452005 0 0 0 0 179.30081219672502 29.651697766953703 0 29.651697766953703 -138.98520311040784 0 0 0 0 140.11435261937731 -23.986086860780915 0 -23.986086860780915 -98.051766804202316 0 0 0 0 -63.175476681994041 89.860298926895553 0 89.860298926895553 -42.945589293748526 0 0 0 0 173.7130710233796 -80.162099173053548 0 -80.162099173053548 -81.408084576796682 0 0 0 0 775.83214008771847 -164.25462540010642 0 -164.25462540010642 36.92091956497552 0 0 0 0 620.1720252273517 -21.226857993694466 0 -21.226857993694466 -77.197488782499022 0 0 0 0 500.66451203455654 -78.011255879898727 0 -78.011255879898727 17.655735062676285 0 0 0 0 293.71947135111986 60.627495320947673 0 60.627495320947673 -47.535910654901045 0 0 0 0 30.592835170367376 -1.3582626958944068 0 -1.3582626958944068 -22.366330640597962 0 0 0 0 199.09187872181246 -5.6157228199826932 0 -5.6157228199826932 20.567075636176014 0 0 0 0 265.64175938877997 28.947278445727477 0 28.947278445727477 -73.838500410119082 0 0 0 0 107.73827805643469 44.705265040535451 0 44.705265040535451 0.87654678270112019 0 0 0 0 219.05432275182375 20.091443792076063 0 20.091443792076063 -43.937989923342229 0 0 0 0 89.904799055448166 -44.423977046617097 0 -44.423977046617097 -68.447283334485746 0 0 0 0 767.63458579509643 -219.77477052880238 0 -219.77477052880238 124.88030899777755 0 0 0 0 560.77426828589159 -287.45953759999168 0 -287.45953759999168 275.79664415599382 0 0 0 0 -9.9721829681220697 29.378787337842287 0 29.378787337842287 8.7985280614239851 0 0 0 0 587.60041408904362 -330.59464331542483 0 -330.59464331542483 238.51268590436018 0 0 0 0 590.61542404365969 -76.423891612301645 0 -76.423891612301645 -139.7713672810346 0 0 0 0 74.119984851908839 -25.005092635945573 0 -25.005092635945573 19.35378500166189 0 0 0 0 291.10318275874306 146.11834868296091 0 146.11834868296091 -82.957218647849004 0 0 0 0 59.795798153032635 2.1748954002062568 0 2.1748954002062568 20.776415701303829 0 0 0 0 22.199024766216553 4.2715764925503663 0 4.2715764925503663 -7.9193050188187044 0 0 0 0 85.412615682082759 34.341853507371567 0 34.341853507371567 -29.098346976775282 0 0 0 0 157.98111809183411 -22.915967462132578 0 -22.915967462132578 5.4481241937760387 0 0 0 0 115.45747449649934 6.1299319557228955 0 6.1299319557228955 13.724783432182448 0 0 0 0 89.919827412055326 -19.72962739653704 0 -19.72962739653704 14.570176041985782 0 0 0 0 103.94192189026742 -11.957973762009395 0 -11.957973762009395 -10.759435336782158 0 0 0 0 85.299112817265268 -25.925116934969083 0 -25.925116934969083 -1.0998349587857774 0 0 0 0 245.48464195252018 19.14381180529017 0 19.14381180529017 -119.81542067727605 0 0 0 0 240.36209228173539 -1.9599850151798819 0 -1.9599850151798819 -95.455686939636507 0 0 0 0 170.41040240920847 -48.724261511653367 0 -48.724261511653367 77.146095137378325 0 0 0 0 1154.5118447129389 -697.18472151471599 0 -697.18472151471599 328.63988775038365 0 0 0 0 1538.8147085368873 -727.35792555149283 0 -727.35792555149283 190.58299339144122 0 0 0 0 1181.5948010635402 -514.74395432909307 0 -514.74395432909307 185.26660972045804 0 0 0 0 719.05476515442206 -563.4598135941435 0 -563.4598135941435 475.69636576441803 0 0 0 0 1058.4123586467285 -595.1417055786726 0 -595.1417055786726 414.07356016411052 0 0 0 0 1495.8242931482982 -876.37170924608733 0 -876.37170924608733 393.23838136396745 0 0 0 0 1025.5903118418928 -688.03024408466501 0 -688.03024408466501 565.53857834215421 0 0 0 0 621.04336957857595 384.63285827668915 0 384.63285827668915 -885.2988822776606 0 0 0 0 93.554950449556401 44.859979151513528 0 44.859979151513528 -1.5332522803140298 0 0 0 0 22.052488620978693 355.17628541792237 0 355.17628541792237 -260.73423620397921 0 0 0 0 414.68447734194342 181.30269062882212 0 181.30269062882212 -242.83234471446292 0 0 0 0 187.43777385823296 85.480127930138636 0 85.480127930138636 -109.74720825418899 0 0 0 0 195.35440792425652 6.9570825866624091 0 6.9570825866624091 -112.3108828591121 0 0 0 0 257.16051210399746 13.638423387709281 0 13.638423387709281 -98.033032642351827 0 0 0 0 325.68732112502039 93.167139522660818 0 93.167139522660818 -112.59680030843725 0 0 0 0 610.15799770417311 65.017851825652031 0 65.017851825652031 -240.74277692753913 0 0 0 0 384.82054365939257 18.536324044057892 0 18.536324044057892 -108.94035372262852 0 0 0 0 417.20043786216775 6.7083562612452852 0 6.7083562612452852 -134.23578545229248 0 0 0 0 359.77822776957328 52.187478278868184 0 52.187478278868184 -114.75285727629031 0 0 0 0 317.54680670951348 21.10599054694535 0 21.10599054694535 -97.451686401992049 0 0 0 0 335.47056735708975 20.608686644178874 0 20.608686644178874 -146.34324054254239 0 0 0 0 -694.27091384034611 582.26971278345945 0 582.26971278345945 -300.83833188673088 0 0 0 0 1.4704394128576368 1.2090857624147304 0 1.2090857624147304 -1.6194040504771152 0 0 0 0 82.172716748271398 38.150298172127307 0 38.150298172127307 -1.5309431800207367 0 0 0 0 608.05145274403901 -157.87326099052802 0 -157.87326099052802 -136.79107070110695 0 0 0 0 -873.92338022407057 412.83555311004352 0 412.83555311004352 -98.102277956967555 0 0 0 0 314.97460422934091 -107.97019620122933 0 -107.97019620122933 1.4172786524836738 0 0 0 0 1458.1508687763362 -881.47666207291832 0 -881.47666207291832 706.35731354968948 0 0 0 0 1549.5683978378174 -1120.3295963035612 0 -1120.3295963035612 883.25467788675041 0 0 0 0 2247.3728177797166 -1314.5838394448629 0 -1314.5838394448629 614.04477021860896 0 0 0 0 1415.0151474523373 -1022.6904478940794 0 -1022.6904478940794 749.62768848006874 0 0 0 0 3499.0644729846144 -1520.4218814707672 0 -1520.4218814707672 319.27888164978862 0 0 0 0 2729.4482875263075 -1395.437658193388 0 -1395.437658193388 511.06653079154955 0 0 0 0 2645.3409506739422 -966.25468217395519 0 -966.25468217395519 137.44771039092552 0 0 0 0 2710.4944621093764 -1067.0309965362749 0 -1067.0309965362749 67.32887703035766 0 0 0 0 3499.5574690934604 -1072.1424877237844 0 -1072.1424877237844 -102.48717154251139 0 0 0 0 2675.690354509572 -1027.5769008870247 0 -1027.5769008870247 130.71536366693491 0 0 0 0 2814.2066423538045 -642.35196871927963 0 -642.35196871927963 -266.26977365523828 0 0 0 0 1741.3576192374039 -827.72398290981243 0 -827.72398290981243 320.00071214904995 0 0 0 0 2229.9627401440239 -715.7650376019734 0 -715.7650376019734 61.611739974762372 0 0 0 0 1707.9058216761605 -726.84367815886048 0 -726.84367815886048 195.06525658270527 0 0 0 0 1541.4637748302885 -716.37441586062494 0 -716.37441586062494 234.03137976459664 0 0 0 0 1916.2907849343937 -1006.6529499432678 0 -1006.6529499432678 354.31558475879461 0 0 0 0 1814.1785190053379 -801.29314121554842 0 -801.29314121554842 177.2175057808349 0 0 0 0 2013.5278194942512 -708.07000426631953 0 -708.07000426631953 11.57541703516813 0 0 0 0 2370.5446027185881 -848.79680406978196 0 -848.79680406978196 46.225420075018704 0 0 0 0 2293.6344416480115 -627.13360818707838 0 -627.13360818707838 -69.968428866994074 0 0 0 0 1995.8583678092541 -655.97711978921916 0 -655.97711978921916 -2.8038533151710681 0 0 0 0 1817.0053738724237 -621.87468277425035 0 -621.87468277425035 9.0723687727126503 0 0 0 0 3501.1108407659458 -678.39526104820141 0 -678.39526104820141 -286.67050853947211 0 0 0 0 2731.5202506106866 -286.88971271761062 0 -286.88971271761062 -208.10167448824311 0 0 0 0 2134.4090915362776 -206.86206282270228 0 -206.86206282270228 -216.82827427819805 0 0 0 0 3492.1613837681289 311.56645306106577 0 311.56645306106577 -199.55367113268656 0 0 0 0 1497.9502039915988 -795.51642919690812 0 -795.51642919690812 -114.10572963556541 0 0 0 0 540.87528592657054 694.01354310979627 0 694.01354310979627 3.6280133739012128 0 0 0 0 11.09500616728883 2.2493902449354444 0 2.2493902449354444 0.27504055780680148 0 0 0 0 1973.8504526608958 -724.92248077830118 0 -724.92248077830118 -103.95025772694621 0 0 0 0 2011.8603751245282 -683.62618643797919 0 -683.62618643797919 -195.66556512473554 0 0 0 0 1980.5845119577971 -594.71996406833932 0 -594.71996406833932 35.156558724254154 0 0 0 0 2115.8518059984526 -997.84016364186868 0 -997.84016364186868 -141.00977839747696 0 0 0 0 1526.4857011395925 -740.62751993757729 0 -740.62751993757729 -8.7973535274281005 0 0 0 0 2206.4466884437461 -745.41267808753082 0 -745.41267808753082 -261.05254044582728 0 0 0 0 1734.6698752511656 -311.12742491266926 0 -311.12742491266926 -280.75689296743525 0 0 0 0 2593.5834006963369 -462.80521592584461 0 -462.80521592584461 -543.40119177063241 0 0 0 0 2035.5244683313331 -497.95953542310508 0 -497.95953542310508 -170.61710609023487 0 0 0 0 1519.054825114461 -444.66685670499339 0 -444.66685670499339 -38.364925799947329 0 0 0 0 1519.8373851300742 -429.2398238188573 0 -429.2398238188573 265.74671494497056 0 0 0 0 1077.7103379093096 -66.972756076122636 0 -66.972756076122636 -29.772725874518613 0 0 0 0 1736.9451869213051 -226.25616426660997 0 -226.25616426660997 -255.71215031369445 0 0 0 0 1030.1060042912432 18.53779719872324 0 18.53779719872324 -286.71579517432917 0 0 0 0 942.58098635058195 268.15242531924758 0 268.15242531924758 -925.6705769140375 0 0 0 0 -615.30028667765146 6.3159350682752233 0 6.3159350682752233 150.11014082207237 0 0 0 0 3202.630478989573 251.79122466620629 0 251.79122466620629 -446.35394365476623 0 0 0 0 16.996354347560271 -14.422748217402976 0 -14.422748217402976 9.1456130747909228 0 0 0 0 31.107676750680042 -32.779458618887233 0 -32.779458618887233 21.419715891713714 0 0 0 0 4456.9638673352092 494.4162791185812 0 494.4162791185812 -1418.2062312927619 0 0 0 0 -677.68163885356989 -1734.9241942916092 0 -1734.9241942916092 294.67451662609562 0 0 0 0 1153.4863939167844 -1753.3824622111811 0 -1753.3824622111811 48.806203211184709 0 0 0 0 442.37597080224077 -1177.1756394321185 0 -1177.1756394321185 337.95617787086655 0 0 0 0 1134.1262726563582 -161.09322616909435 0 -161.09322616909435 -320.58588698620133 0 0 0 0 914.99603814550574 -402.34641151995379 0 -402.34641151995379 572.07610155851057 0 0 0 0 902.30378926232515 -267.81108372945158 0 -267.81108372945158 197.69085140819726 0 0 0 0 -12.881516858818941 -589.27087797013564 0 -589.27087797013564 981.88845172541301 0 0 0 0 1257.332801308934 -1148.9608003533804 0 -1148.9608003533804 1027.0370320253435 0 0 0 0 1103.7356622556786 -417.2861083875024 0 -417.2861083875024 449.89425973238838 0 0 0 0 1241.5817899740996 -694.54611499381508 0 -694.54611499381508 576.62445767667373 0 0 0 0 2434.0724713433374 -845.67065478037057 0 -845.67065478037057 184.18756889684778 0 0 0 0 1645.7458577927318 -336.00854572096625 0 -336.00854572096625 98.40545259492211 0 0 0 0 -635.99595518490241 -484.59494916678159 0 -484.59494916678159 221.62406503129841 0 0 0 0 -0.53842332349041477 -1.8918098472751765 0 -1.8918098472751765 8.0292393368171453 0 0 0 0 107.0666049081774 -128.32701976850558 0 -128.32701976850558 -318.46929285081086 0 0 0 0 47.807810367969068 -41.318167750903285 0 -41.318167750903285 -189.38204389155817 0 0 0 0 81.477240281466948 -35.37220489838046 0 -35.37220489838046 -184.28096927531169 0 0 0 0 59.867839012385048 -52.256235529034711 0 -52.256235529034711 28.825799641905178 0 0 0 0 724.87317785689083 -184.84611647631817 0 -184.84611647631817 169.56449042460014 0 0 0 0 78.984230077767279 -43.487825220051036 0 -43.487825220051036 -190.2368392052241 0 0 0 0 25.763675997407603 -6.7656398654649408 0 -6.7656398654649408 21.756745366468696 0 0 0 0 80.06451411103626 -87.36408257587027 0 -87.36408257587027 -12.007887617139204 0 0 0 0 0.064872202171429194 -0.89031912131795821 0 -0.89031912131795821 4.790075744205442 0 0 0 0 673.99163994143237 -244.52359940266791 0 -244.52359940266791 260.79713007863967 0 0 0 0 1268.3977791881189 -495.95177711522911 0 -495.95177711522911 133.52253600278112 0 0 0 0 999.15880804711196 -178.96533517826725 0 -178.96533517826725 83.148456737535426 0 0 0 0 939.75574801795301 -425.96955744218769 0 -425.96955744218769 167.54182429089059 0 0 0 0 1058.0803591746808 -375.40334924393505 0 -375.40334924393505 109.68105491828527 0 0 0 0 1227.7639010690036 -662.43080610515199 0 -662.43080610515199 193.38611225455418 0 0 0 0 1035.442244961027 -522.81657344485973 0 -522.81657344485973 222.19705392118794 0 0 0 0 1182.0320910693081 -634.14668677608745 0 -634.14668677608745 264.07317932556191 0 0 0 0 1248.0422335579133 -597.16268827766407 0 -597.16268827766407 284.27997028300712 0 0 0 0 1278.453235293231 -607.47802043867034 0 -607.47802043867034 219.56180167409818 0 0 0 0 1483.1692961559493 -641.72305089376459 0 -641.72305089376459 146.17903953355409 0 0 0 0 1466.8620820400756 -660.77105787015785 0 -660.77105787015785 185.03619521758571 0 0 0 0 1814.0378906240974 -640.25928706219713 0 -640.25928706219713 86.563941400683746 0 0 0 0 1225.2016849249703 -530.43996150464602 0 -530.43996150464602 242.74795698464865 0 0 0 0 1195.3415497962887 -573.70524514893748 0 -573.70524514893748 275.066904416169 0 0 0 0 1265.1274480239263 -548.74527727386078 0 -548.74527727386078 249.08725610790771 0 0 0 0 12.405807675939286 35.758624901531221 0 35.758624901531221 -71.417792808363629 0 0 0 0 13.415399529419574 5.5733575836882778 0 5.5733575836882778 1.038257867892594 0 0 0 0 91.666398929715797 38.150125061644076 0 38.150125061644076 -77.337790766419971 0 0 0 0 4.2262942808556545 15.423934957046072 0 15.423934957046072 61.928899918316574 0 0 0 0 -79.902714903877495 70.531156863060687 0 70.531156863060687 -52.411210266700436 0 0 0 0 -32.334188773013011 37.574066400208437 0 37.574066400208437 -30.009923921421432 0 0 0 0 -31.061040596468956 29.338760134301992 0 29.338760134301992 -23.892997675782681 0 0 0 0 42.963504348765127 44.02118449577722 0 44.02118449577722 -85.345988828639747 0 0 0 0 2.1205161102134085 0.46626327592238681 0 0.46626327592238681 0.079692293981088014 0 0 0 0 29.969330315465413 11.377834033364252 0 11.377834033364252 -7.0616964124728838 0 0 0 0 4.1055883698214402 5.4727806412078621 0 5.4727806412078621 -10.983924675863829 0 0 0 0 50.244754941755673 38.896950255052104 0 38.896950255052104 20.172035586733273 0 0 0 0 5.6388080939650536 72.365754916984997 0 72.365754916984997 -2.2430323647040495 0 0 0 0 -17.663854019570863 33.923624824636136 0 33.923624824636136 55.837377368055172 0 0 0 0 -70.830692816023657 87.18404380065391 0 87.18404380065391 2.7186689717341324 0 0 0 0 -36.156544071331155 -22.404140094628929 0 -22.404140094628929 191.52893036589171 0 0 0 0 5.4088220624238943 0.83151656326393208 0 0.83151656326393208 0.37349500125668511 0 0 0 0 307.57423635657324 -263.923060783035 0 -263.923060783035 41.462885490732788 0 0 0 0 120.22956880275524 59.735333776393418 0 59.735333776393418 -80.920571257181109 0 0 0 0 258.35557043560402 -143.07317736450386 0 -143.07317736450386 -51.810460637922461 0 0 0 0 311.73758488652675 -154.49348967481023 0 -154.49348967481023 -89.250857018580518 0 0 0 0 25.503367493132828 141.95429164212396 0 141.95429164212396 -362.76141797381797 0 0 0 0 3.7288775818690567 0.086581704914337365 0 0.086581704914337365 -1.6142081499023675 0 0 0 0 525.54432774951238 -327.20661355926188 0 -327.20661355926188 10.852236290117617 0 0 0 0 484.56294661276206 -0.68710798615668978 0 -0.68710798615668978 -210.04450762771557 0 0 0 0 258.03354092088557 146.26487081940058 0 146.26487081940058 -271.18421564452456 0 0 0 0 265.99690234711306 94.647265601598519 0 94.647265601598519 -227.37802470639508 0 0 0 0 108.02997814705577 48.237603696945541 0 48.237603696945541 -76.032934353912424 0 0 0 0 107.75586542324891 45.98659085899908 0 45.98659085899908 -65.390562041360681 0 0 0 0 29.23847805911646 99.125616675509718 0 99.125616675509718 -34.009201861485963 0 0 0 0 -39.817731459639617 35.812267950030218 0 35.812267950030218 -22.291169599871864 0 0 0 0 -42.538992816625978 43.813408401367269 0 43.813408401367269 -27.338411042284861 0 0 0 0 -136.57695432886248 161.43021594462789 0 161.43021594462789 -56.542716603305053 0 0 0 0 10.467958088920568 17.075674503873415 0 17.075674503873415 -22.029556683795818 0 0 0 0 -56.75728519770928 408.67438231916503 0 408.67438231916503 -489.92220842881034 0 0 0 0 -71.187078065504465 16.9906166850094 0 16.9906166850094 14.336945743129945 0 0 0 0 -2.0751267819653521 2.770310740854768 0 2.770310740854768 -5.4422986109503562 0 0 0 0 -356.6726909771096 143.26836321021983 0 143.26836321021983 -36.757099880649548 0 0 0 0 13.006596905855986 -93.767167375573081 0 -93.767167375573081 -427.99414458756655 0 0 0 0 111.48029866625438 122.44871274716388 0 122.44871274716388 35.073197831292532 0 0 0 0 197.51054631610896 151.04587742292983 0 151.04587742292983 -247.22659434075649 0 0 0 0 567.80439643948921 350.2626392217353 0 350.2626392217353 -82.258513371069967 0 0 0 0 319.17062546190573 422.83173909128345 0 422.83173909128345 262.5938669952136 0 0 0 0 75.993246751939296 66.03708689318637 0 66.03708689318637 -3.5929897457572224 0 0 0 0 16.209157217044009 8.1131438257926973 0 8.1131438257926973 -2.5523757606583448 0 0 0 0 29.18446016983944 31.816025253336193 0 31.816025253336193 144.75120857528464 0 0 0 0 18.124455757089891 44.796590429411026 0 44.796590429411026 -33.724177743163636 0 0 0 0 3.7871320889222204 10.337222632843094 0 10.337222632843094 -15.826991134105782 0 0 0 0 31.428050443682878 -7.9386787814028139 0 -7.9386787814028139 17.338809068014825 0 0 0 0 78.365973547748581 -238.04643054575104 0 -238.04643054575104 314.45520058375587 0 0 0 0 0.77831362767917156 0.65074288683761949 0 0.65074288683761949 5.4912533702079713 0 0 0 0 988.85385557287373 732.60929359368356 0 732.60929359368356 168.09182435270668 0 0 0 0 1239.9052259573218 68.702421694077657 0 68.702421694077657 -128.68654057333333 0 0 0 0 6.2230603324680942 2.9504984845450934 0 2.9504984845450934 1.7863631169021055 0 0 0 0 1089.322240664289 -401.9551019094306 0 -401.9551019094306 33.943691792089794 0 0 0 0 1336.0593451983368 368.51714656708191 0 368.51714656708191 369.14775242678934 0 0 0 0 206.97077291997994 503.41745680707345 0 503.41745680707345 838.04074284204944 0 0 0 0 888.57732388405566 213.447188452305 0 213.447188452305 790.83023267534008 0 0 0 0 190.38733411632711 275.13256181288398 0 275.13256181288398 839.41173681753207 0 0 0 0 11.483924108964857 -156.94684046991824 0 -156.94684046991824 598.6689533241979 0 0 0 0 1031.5150754871775 -74.049580631763774 0 -74.049580631763774 -48.69091329962248 0 0 0 0 1110.0422841973923 343.66792982309971 0 343.66792982309971 22.389281582718468 0 0 0 0 601.13552326333001 -14.468952839512689 0 -14.468952839512689 -94.690123115035021 0 0 0 0 886.19959526262392 54.942297153863819 0 54.942297153863819 -163.19154440336843 0 0 0 0 825.0068293903405 -205.37057554448961 0 -205.37057554448961 -39.035374479646634 0 0 0 0 901.64368882581766 64.710505849164292 0 64.710505849164292 -157.05203801728567 0 0 0 0 852.81056871575765 -98.036011775966017 0 -98.036011775966017 -71.673435742197398 0 0 0 0 351.66364791160595 56.911267308467359 0 56.911267308467359 -45.165912545580795 0 0 0 0 35.669855357089546 12.753690801692755 0 12.753690801692755 -11.156148200788721 0 0 0 0 29.650004832641855 8.60433798921175 0 8.60433798921175 -6.3001770322048181 0 0 0 0 38.22256365690555 17.662174123214754 0 17.662174123214754 -8.4188944318357244 0 0 0 0 0.64750460052891867 34.893879315074628 0 34.893879315074628 -26.610463788424568 0 0 0 0 168.09848077076458 68.378632054795162 0 68.378632054795162 -69.124533032810177 0 0 0 0 129.87279736506025 -87.646905596514443 0 -87.646905596514443 94.648912510921946 0 0 0 0 8.7109558020983116 2.4339021811904189 0 2.4339021811904189 -12.924162039491225 0 0 0 0 184.65899652767985 -124.75143906125959 0 -124.75143906125959 110.39711977478237 0 0 0 0 350.98064474547573 121.71182921166837 0 121.71182921166837 -52.747976057682536 0 0 0 0 682.91519440658158 38.210460861584124 0 38.210460861584124 -42.559988053251914 0 0 0 0 33.066877599572763 10.298637216168572 0 10.298637216168572 -13.32241735311618 0 0 0 0 31.713485819389462 10.786322144121641 0 10.786322144121641 -2.4062696804335246 0 0 0 0 30.26913043998502 16.963529833919893 0 16.963529833919893 -19.339614392094518 0 0 0 0 35.137784515023668 16.090974461567384 0 16.090974461567384 -25.331918552583375 0 0 0 0 38.849653239016334 23.262692106858822 0 23.262692106858822 -23.507144132579924 0 0 0 0 47.498766998789506 21.325142902169318 0 21.325142902169318 -49.408109975222033 0 0 0 0 34.132509057817515 2.517088088575747 0 2.517088088575747 -32.845582544295212 0 0 0 0 3.8186119852130247 -1.6720452700264303 0 -1.6720452700264303 -8.0861887035360631 0 0 0 0 36.477647915351554 34.449733782741532 0 34.449733782741532 -12.051584053382612 0 0 0 0 36.428560255329216 39.572409399696369 0 39.572409399696369 -2.5295119733345928 0 0 0 0 52.359029785649909 43.411669009684374 0 43.411669009684374 -31.854824051642936 0 0 0 0 43.60683685571712 10.411411861507077 0 10.411411861507077 74.767856763952295 0 0 0 0 42.870676717691822 74.141785643781986 0 74.141785643781986 60.38747129152398 0 0 0 0 44.008763690610067 58.81761282624575 0 58.81761282624575 3.2347483527073564 0 0 0 0 16.088789875750081 55.337286902130472 0 55.337286902130472 67.781804683112568 0 0 0 0 10.803187635581708 40.29617854893695 0 40.29617854893695 29.048142417166673 0 0 0 0 0.8893593725952087 5.7252932162283514 0 5.7252932162283514 8.4215028236758371 0 0 0 0 5.0860637480418944 6.0298693908791421 0 6.0298693908791421 -19.479006704879911 0 0 0 0 -3.5676342617662158 29.194551596828205 0 29.194551596828205 59.686957995050761 0 0 0 0 -5.6759385091718286 20.326673598370689 0 20.326673598370689 32.422115593613853 0 0 0 0 1.6190768841479439 19.565651722623443 0 19.565651722623443 29.71751253219918 0 0 0 0 13.361610462336103 30.215621975114118 0 30.215621975114118 15.7358921280902 0 0 0 0 14.719031190936221 27.107157701406322 0 27.107157701406322 17.67827390774255 0 0 0 0 5.917150925291935 15.379829964322198 0 15.379829964322198 19.828471008742781 0 0 0 0 12.354286205605604 21.123870790686851 0 21.123870790686851 3.0704843218300084 0 0 0 0 2.5706083106233564 15.857215415296196 0 15.857215415296196 22.281187887456326 0 0 0 0 -1.7426773336483166 7.7174129713530419 0 7.7174129713530419 28.350191706762416 0 0 0 0 0.67291131810634397 6.8786825208389928 0 6.8786825208389928 20.556056578687276 0 0 0 0 0.28574616060359403 7.529228354262159 0 7.529228354262159 19.738925712445052 0 0 0 0 7.0894125169434119 10.115333977202681 0 10.115333977202681 8.0725141590428393 0 0 0 0 5.1784326546185184 11.587781437650847 0 11.587781437650847 9.9729842081287643 0 0 0 0 16.621950776694575 11.287389642689959 0 11.287389642689959 -7.3306023587356322 0 0 0 0 4.9059415698175144 2.9136194077877917 0 2.9136194077877917 -7.1016973037440039 0 0 0 0 23.308358423470054 10.274037026723818 0 10.274037026723818 -26.773834078310756 0 0 0 0 16.426761017297395 11.202448406733311 0 11.202448406733311 -7.3649736923525779 0 0 0 0 14.977157658817305 4.7266763846619142 0 4.7266763846619142 -21.987013691359607 0 0 0 0 28.076542472030269 14.771924949714958 0 14.771924949714958 -22.68985366729612 0 0 0 0 31.997850719999406 23.135114259098373 0 23.135114259098373 -11.948588254501374 0 0 0 0 31.882422968163155 25.691029335250278 0 25.691029335250278 -24.325531332224273 0 0 0 0 16.620093298667729 17.290239807321708 0 17.290239807321708 -0.42832249215280171 0 0 0 0 734.93011277909318 -72.755838892294605 0 -72.755838892294605 -27.925008355535283 0 0 0 0 11.037706025373296 15.489930817543197 0 15.489930817543197 14.732988858959629 0 0 0 0 951.27096620155498 -328.04752440718994 0 -328.04752440718994 173.55745621305141 0 0 0 0 1363.763160656541 309.48058387125275 0 309.48058387125275 5.3901877675152718 0 0 0 0 710.74776633267174 86.492743416392841 0 86.492743416392841 -40.381869860232655 0 0 0 0 2000.6230173994409 194.72846789992036 0 194.72846789992036 -3.4159169698423284 0 0 0 0 -57.513443046216707 -113.69904226363565 0 -113.69904226363565 -2.5841993937137886 0 0 0 0 3.2599055202851304 -1.0456006400802522 0 -1.0456006400802522 -3.0271640200247312 0 0 0 0 275.99870577751426 -159.76876090084625 0 -159.76876090084625 -86.846888712443615 0 0 0 0 1859.2001344956589 -318.46389966297284 0 -318.46389966297284 173.38498200977651 0 0 0 0 4.5950545101281648 5.2406621476808937 0 5.2406621476808937 5.6103930326708564 0 0 0 0 2574.6800603955198 -88.25401946918646 0 -88.25401946918646 -233.91924816018582 0 0 0 0 -708.38087638277648 553.11461897179254 0 553.11461897179254 -110.75267016217549 0 0 0 0 493.76252019634921 154.85874435992264 0 154.85874435992264 -135.53159449933082 0 0 0 0 -462.10745414951452 77.104753675420397 0 77.104753675420397 33.011462287689938 0 0 0 0 74.646044620058092 714.2813502273716 0 714.2813502273716 -206.62277464360886 0 0 0 0 1402.463885514866 713.57319214355903 0 713.57319214355903 -303.68968968126319 0 0 0 0 734.04832127709233 580.49578547572673 0 580.49578547572673 -143.67843624200214 0 0 0 0 767.70401618382311 -82.992986326544269 0 -82.992986326544269 379.83407815403507 0 0 0 0 1560.1838964392682 -56.273072724067333 0 -56.273072724067333 -98.19185152866703 0 0 0 0 1565.5828685558809 472.22238923903933 0 472.22238923903933 264.59407380342964 0 0 0 0 353.52431837601762 -91.235757489027492 0 -91.235757489027492 183.63932762487093 0 0 0 0 260.18370438410784 83.238204557291283 0 83.238204557291283 147.59331541462598 0 0 0 0 705.13034764655458 -110.23689212511454 0 -110.23689212511454 -95.210227529456461 0 0 0 0 367.76259380434931 29.506425361498259 0 29.506425361498259 77.856636088847154 0 0 0 0 736.31568760643131 22.852314869518523 0 22.852314869518523 26.955683682241215 0 0 0 0 710.27912503574589 -25.321741707007163 0 -25.321741707007163 -103.89390283102694 0 0 0 0 241.07561777539377 14.258758898445194 0 14.258758898445194 36.680619904827836 0 0 0 0 255.88346081787313 -36.066178991739434 0 -36.066178991739434 -31.613163415051531 0 0 0 0 320.13138864291977 249.46308870965186 0 249.46308870965186 32.841583895768963 0 0 0 0 957.09240034518007 270.60894671691312 0 270.60894671691312 -129.1773973633608 0 0 0 0 727.38737095119723 153.55905010482275 0 153.55905010482275 -149.89637975742653 0 0 0 0 893.97525655419304 288.39210906891367 0 288.39210906891367 -129.02826289357654 0 0 0 0 -245.99644997576797 466.56461444253819 0 466.56461444253819 172.2939692500222 0 0 0 0 -0.15724981650905079 1.320938022963972 0 1.320938022963972 4.1183253373315409 0 0 0 0 1006.6896692734081 440.26819272398598 0 440.26819272398598 -162.58315501789912 0 0 0 0 914.82327614907263 389.25755366261637 0 389.25755366261637 -171.90051249293174 0 0 0 0 38.682360016129678 -36.198410224404142 0 -36.198410224404142 2.6504225942962876 0 0 0 0 -11.437303394428454 -41.876094399212889 0 -41.876094399212889 9.2680220606762305 0 0 0 0 -28.809921214080532 -10.758942032613959 0 -10.758942032613959 79.258289654266264 0 0 0 0 -4.1925056014879374 -92.531425923988536 0 -92.531425923988536 -67.378412751320866 0 0 0 0 24.914444218069548 -13.438617554661505 0 -13.438617554661505 8.0684615854552248 0 0 0 0 11.033783219987527 -10.228134724049596 0 -10.228134724049596 12.480798090138705 0 0 0 0 8.070203494222369 -7.57230692095618 0 -7.57230692095618 10.837063828803366 0 0 0 0 0.92138757501743385 6.3119987510508508 0 6.3119987510508508 17.727005199893028 0 0 0 0 5.871569492854178 -2.3810648097896774 0 -2.3810648097896774 7.0011065371363657 0 0 0 0 4.2632783703156747 -4.7882668612728594 0 -4.7882668612728594 16.06640605868597 0 0 0 0 -0.10076232871506363 -4.8934666153218132 0 -4.8934666153218132 20.862598179253837 0 0 0 0 -0.47627129917964339 3.3941983314762183 0 3.3941983314762183 24.308132902893703 0 0 0 0 0.37950856989482418 4.5431136483020964 0 4.5431136483020964 14.665788065052766 0 0 0 0 1.4002158179646358 5.2014992369877291 0 5.2014992369877291 13.74752667620487 0 0 0 0 -0.26690711400806322 7.6158975252265009 0 7.6158975252265009 25.40324176591821 0 0 0 0 -0.25619105045916513 7.514700846037158 0 7.514700846037158 21.436301725523663 0 0 0 0 0.31031740724574775 3.7872095710627036 0 3.7872095710627036 22.751170145056676 0 0 0 0 -1.6016089146723971 4.4486977658307296 0 4.4486977658307296 23.571735686931788 0 0 0 0 -6.7866591038564366 10.052910804039584 0 10.052910804039584 45.811924874440592 0 0 0 0 -7.0043292522896081 6.4930059823127522 0 6.4930059823127522 28.532870634819119 0 0 0 0 -1.053578132763505 -5.2623639960584114 0 -5.2623639960584114 32.922353564887999 0 0 0 0 -2.6012996709323488 2.6482687456955318 0 2.6482687456955318 31.604065741616068 0 0 0 0 -14.761906826752238 -16.152492384950165 0 -16.152492384950165 24.569046849439474 0 0 0 0 12.597879491520871 -23.045900460508619 0 -23.045900460508619 24.000130917054776 0 0 0 0 -36.943473259554594 -28.267562093147717 0 -28.267562093147717 43.772896393631527 0 0 0 0 -15.431419372355776 -6.4015828578308174 0 -6.4015828578308174 57.945984800928272 0 0 0 0 -10.695334692078177 6.9293423031704151 0 6.9293423031704151 43.496960165372002 0 0 0 0 -14.831129218859132 11.845636781054054 0 11.845636781054054 54.398970931521035 0 0 0 0 -6.2516274083754979 26.524071426572846 0 26.524071426572846 79.475203032161517 0 0 0 0 -3.3136884161503986 27.216741089559946 0 27.216741089559946 68.394298096088676 0 0 0 0 23.431237146610783 45.26479913661214 0 45.26479913661214 78.391733997566917 0 0 0 0 -25.740631014487008 26.273258487010025 0 26.273258487010025 111.41059679857244 0 0 0 0 -35.696016949776094 -3.126638307916437 0 -3.126638307916437 70.815715572790396 0 0 0 0 135.33013823779766 -14.126367590355585 0 -14.126367590355585 77.248476994441944 0 0 0 0 128.00085156437126 52.650357328835526 0 52.650357328835526 60.357928592515762 0 0 0 0 23.178131423526111 58.984904548832503 0 58.984904548832503 134.79887966837123 0 0 0 0 119.30312750801386 87.125438758999735 0 87.125438758999735 112.18637612069142 0 0 0 0 32.947554552694783 -3.8088975278624275 0 -3.8088975278624275 122.19251553063805 0 0 0 0 315.92813089120318 -71.045838754071156 0 -71.045838754071156 56.609821762231604 0 0 0 0 -53.553663852217142 9.5258038669544476 0 9.5258038669544476 108.33773273826773 0 0 0 0 -103.32615110580809 -70.740596063542398 0 -70.740596063542398 57.244072404047984 0 0 0 0 23.551469254038238 16.668164483101464 0 16.668164483101464 81.534763804836984 0 0 0 0 4.6795537895523012 -158.98602047942859 0 -158.98602047942859 -201.64594207588016 0 0 0 0 -134.01863156123727 -92.686979220341527 0 -92.686979220341527 84.591710550443167 0 0 0 0 29.556452065990015 19.772515534879858 0 19.772515534879858 -112.11143731414359 0 0 0 0 -1.2493911413496477 -3.0461140679177561 0 -3.0461140679177561 -0.95688353657672565 0 0 0 0 -250.91850362639525 -92.059376239702033 0 -92.059376239702033 65.574666306039944 0 0 0 0 151.41515185500612 -196.28210647904052 0 -196.28210647904052 -176.41386574216767 0 0 0 0 50.348670057624986 131.90723015313597 0 131.90723015313597 -56.740004760518786 0 0 0 0 23.946792295842897 8.7740261071830901 0 8.7740261071830901 76.56264098475549 0 0 0 0 51.265062910495544 3.2153995539608786 0 3.2153995539608786 -11.869597939431515 0 0 0 0 8.0344544211990225 -13.073974048378588 0 -13.073974048378588 -18.272075076485301 0 0 0 0 84.438703785737744 -31.850293850361595 0 -31.850293850361595 -78.670213205783512 0 0 0 0 74.217384159426729 -66.462730779335288 0 -66.462730779335288 -154.11075448079282 0 0 0 0 62.088130265678046 -67.463058501592968 0 -67.463058501592968 -67.292256828045396 0 0 0 0 41.539143080917711 1.7580118928271986 0 1.7580118928271986 -9.6630439502764602 0 0 0 0 54.392945068677363 0.93915345815912588 0 0.93915345815912588 -10.213963960709407 0 0 0 0 54.045205843809526 10.792132753511851 0 10.792132753511851 -3.2181069488251524 0 0 0 0 7.0306246493840305 -0.49330826115561877 0 -0.49330826115561877 -5.8122553083266748 0 0 0 0 -14.196227768698009 -154.79299724457223 0 -154.79299724457223 19.205536480062619 0 0 0 0 -64.377155130767278 -58.100700649451312 0 -58.100700649451312 -72.548233830561003 0 0 0 0 51.372657358173456 2.1806204126145303 0 2.1806204126145303 -15.67449063563754 0 0 0 0 96.675702891516266 -22.53178589095296 0 -22.53178589095296 -78.194271561396704 0 0 0 0 38.331064033708174 -1.6731013825341403 0 -1.6731013825341403 -6.0035485164198983 0 0 0 0 27.516947795724263 -2.2897677921332615 0 -2.2897677921332615 -32.508491548167513 0 0 0 0 32.408595281856833 -10.235861258552404 0 -10.235861258552404 147.03744814104903 0 0 0 0 16.440633353879093 -45.405113398617686 0 -45.405113398617686 55.974418209504393 0 0 0 0 73.46770079739872 54.846111638431694 0 54.846111638431694 -5.8231137742404826 0 0 0 0 1.1811781055430401 -1.6195031728380143 0 -1.6195031728380143 -0.18516956187712713 0 0 0 0 125.40975460111076 -58.734262327971692 0 -58.734262327971692 -51.538380304452403 0 0 0 0 135.49914333110064 44.951726994602268 0 44.951726994602268 -101.67721741763307 0 0 0 0 84.925747192668496 -73.322705223854427 0 -73.322705223854427 25.329386799511212 0 0 0 0 41.487240021961043 -27.336885153997173 0 -27.336885153997173 -23.125498258012158 0 0 0 0 0.92011574971547816 -34.960220873837329 0 -34.960220873837329 50.313578325690742 0 0 0 0 15.647274698763972 -8.2670385966953859 0 -8.2670385966953859 -2.5173206990542729 0 0 0 0 -10.709793397174508 -12.121146572415569 0 -12.121146572415569 21.299451775493253 0 0 0 0 17.304460216473672 -3.7581768953344294 0 -3.7581768953344294 1.694545759257835 0 0 0 0 33.27644797108951 4.005418719372301 0 4.005418719372301 -34.271665284181381 0 0 0 0 4.1747846066125831 -0.044342240398805188 0 -0.044342240398805188 -1.1430110127446476 0 0 0 0 42.86200446303701 51.727088801818354 0 51.727088801818354 -207.30680634777286 0 0 0 0 -3.0187590754940175 -46.948844113237556 0 -46.948844113237556 -92.45883467641579 0 0 0 0 48.566911009154865 76.188845045515336 0 76.188845045515336 -102.43170331009605 0 0 0 0 -8.0946469678092399 -62.555853407301811 0 -62.555853407301811 -138.35545833869674 0 0 0 0 80.778087889339076 23.267854449464949 0 23.267854449464949 -41.412582286347629 0 0 0 0 122.58608695849398 40.026548283255011 0 40.026548283255011 -94.899926327644607 0 0 0 0 116.73666507128655 25.108059941557826 0 25.108059941557826 -101.07612572708331 0 0 0 0 -1.9213695195167162 5.4992675372247248 0 5.4992675372247248 -15.005709956472661 0 0 0 0 359.42721974736196 -6.471509662824019 0 -6.471509662824019 -334.20113990922073 0 0 0 0 38.509260708058719 128.68946831966241 0 128.68946831966241 78.251913328254091 0 0 0 0 49.472234547465632 135.91587740582281 0 135.91587740582281 -173.01308928154629 0 0 0 0 -2.876879400206235 -42.649347198718829 0 -42.649347198718829 11.751537919579732 0 0 0 0 21.587418896416864 -0.93828874463854217 0 -0.93828874463854217 -1.4016505319011181 0 0 0 0 32.943485418370983 -25.755796872397127 0 -25.755796872397127 -4.6008566965672344 0 0 0 0 -29.879603626028256 97.265682084754673 0 97.265682084754673 -191.70122854296983 0 0 0 0 33.265045600368467 -13.257246343012866 0 -13.257246343012866 -27.314032039257427 0 0 0 0 42.048663566960386 14.602748634083426 0 14.602748634083426 -22.72201266146044 0 0 0 0 17.972877430976752 0.16371505732703429 0 0.16371505732703429 -0.23117911487850967 0 0 0 0 5.6388325397501831 1.9397115874851529 0 1.9397115874851529 0.31365637550671766 0 0 0 0 14.164969661165117 0.3585438845687321 0 0.3585438845687321 -0.3388272965862712 0 0 0 0 51.583938775773277 -79.374937742428301 0 -79.374937742428301 -191.84229626664023 0 0 0 0 16.149389375044848 -18.350265693795563 0 -18.350265693795563 18.551797533396893 0 0 0 0 41.867716127766471 -123.32550205398843 0 -123.32550205398843 -141.08099916013589 0 0 0 0 505.5876789270842 384.12340593165897 0 384.12340593165897 -57.81613992394864 0 0 0 0 -77.037530571349635 -31.770546872471527 0 -31.770546872471527 180.4998816682396 0 0 0 0 935.1836848425155 329.40599246457214 0 329.40599246457214 -237.84016085079156 0 0 0 0 966.98991526645477 269.05222051596047 0 269.05222051596047 -245.81147868280914 0 0 0 0 242.87988462967769 -138.34917278777226 0 -138.34917278777226 63.76170292047378 0 0 0 0 461.3350032774033 335.56618681979944 0 335.56618681979944 157.81626439576917 0 0 0 0 1051.1826740736142 361.12106182115741 0 361.12106182115741 -13.930456871139199 0 0 0 0 495.51286740740034 254.01662184727525 0 254.01662184727525 -208.70816715818273 0 0 0 0 592.01661704642174 97.317140277696581 0 97.317140277696581 44.638745436381214 0 0 0 0 595.08976454017102 266.8414329415873 0 266.8414329415873 -266.1597701798546 0 0 0 0 603.42905372213863 247.96779435250028 0 247.96779435250028 -226.72970304959495 0 0 0 0 176.65840674373612 63.901985791042534 0 63.901985791042534 -191.29989418214421 0 0 0 0 118.36815913020109 -140.64021293796372 0 -140.64021293796372 -404.77455557122357 0 0 0 0 271.46487216288369 -4.6453060476897008 0 -4.6453060476897008 -388.91569126362629 0 0 0 0 62.749159392857109 -83.852176720801253 0 -83.852176720801253 -462.72463936852546 0 0 0 0 57.168514085395145 -243.29809845934506 0 -243.29809845934506 -829.23511962695966 0 0 0 0 -29.241759087599348 -167.29197280334233 0 -167.29197280334233 -128.05396989560086 0 0 0 0 211.50338546813873 59.131211524483888 0 59.131211524483888 -68.405598067960455 0 0 0 0 202.66079347298364 162.65500434329147 0 162.65500434329147 -341.90444298992702 0 0 0 0 90.091002191431471 -101.71392237132977 0 -101.71392237132977 -602.82914381044588 0 0 0 0 -180.49778686365244 -391.57142585786141 0 -391.57142585786141 -332.58893215432727 0 0 0 0 -370.77921039082867 146.68446370053584 0 146.68446370053584 -412.80546985735327 0 0 0 0 70.040524608833948 -178.96321643139299 0 -178.96321643139299 -207.51112372381613 0 0 0 0 -42.051391850705841 -268.96886392653118 0 -268.96886392653118 -20.872395644898916 0 0 0 0 95.96458727659774 -84.747970822669913 0 -84.747970822669913 118.19660102741909 0 0 0 0 212.78164992173697 -128.75946921668617 0 -128.75946921668617 160.10728094584783 0 0 0 0 612.09293908072868 227.23071401834295 0 227.23071401834295 -101.40206585282868 0 0 0 0 52.59090641545481 45.18019724138361 0 45.18019724138361 -28.709514998006853 0 0 0 0 511.45994113077541 -141.0634127761225 0 -141.0634127761225 477.20641967297752 0 0 0 0 303.47425488567387 120.99064596425978 0 120.99064596425978 183.25496742387153 0 0 0 0 206.96688427037589 -122.03931014242016 0 -122.03931014242016 115.68156978244838 0 0 0 0 149.53318703945843 1.5179831600760281 0 1.5179831600760281 291.84857379952325 0 0 0 0 510.13646830619837 156.37361832544468 0 156.37361832544468 112.37061808210728 0 0 0 0 451.02638123435463 -483.31889184020906 0 -483.31889184020906 74.744332932348584 0 0 0 0 926.91278287067689 414.85382568611419 0 414.85382568611419 242.36020609937009 0 0 0 0 133.7747636411641 -295.04988267889729 0 -295.04988267889729 182.53026036295273 0 0 0 0 7.7168016276650064 -0.16747093024979587 0 -0.16747093024979587 0.080358627685597428 0 0 0 0 760.41263916723437 615.72377696304056 0 615.72377696304056 145.26613601985923 0 0 0 0 15.368414364893397 -30.013200916439018 0 -30.013200916439018 -15.429027055583958 0 0 0 0 73.751710451189865 -66.090277842902765 0 -66.090277842902765 -23.083618820614902 0 0 0 0 -6.2451009114447515 -11.46356359398726 0 -11.46356359398726 -19.022712450284189 0 0 0 0 20.66342589922715 34.250477509863231 0 34.250477509863231 43.380411279191208 0 0 0 0 -191.06867677236733 -18.191727901124978 0 -18.191727901124978 62.243043560508397 0 0 0 0 559.46710110123968 94.806112296506853 0 94.806112296506853 -99.254980354806094 0 0 0 0 30.762608460107003 -4.0810088072731219 0 -4.0810088072731219 -97.645067423403816 0 0 0 0 -63.388375636008277 -141.14476628796513 0 -141.14476628796513 -70.283688689463361 0 0 0 0 -39.749685940939798 39.945295093673096 0 39.945295093673096 -104.01575771502212 0 0 0 0 230.38518814501003 -92.058911793971674 0 -92.058911793971674 -70.179808954422015 0 0 0 0 128.27076206413767 -169.8269583881015 0 -169.8269583881015 -60.41411741910099 0 0 0 0 123.45123140998476 -242.25005883492122 0 -242.25005883492122 -121.36025568526929 0 0 0 0 181.50583332691895 -234.36449146749862 0 -234.36449146749862 -142.00793778624711 0 0 0 0 155.25317911420279 -205.79651424552742 0 -205.79651424552742 -118.71654527972987 0 0 0 0 472.52460202642396 -257.34672874262537 0 -257.34672874262537 -101.33521911198932 0 0 0 0 227.09830073740159 -168.00800014153174 0 -168.00800014153174 -109.79034803296008 0 0 0 0 217.90384500661821 -258.34368746181474 0 -258.34368746181474 -133.87648582659494 0 0 0 0 116.02930552729231 -242.56242071994052 0 -242.56242071994052 -120.11756536146527 0 0 0 0 96.514789160893997 -154.30025946376827 0 -154.30025946376827 -196.36960711400457 0 0 0 0 109.85461325323558 -198.06664672584134 0 -198.06664672584134 -242.80079420814468 0 0 0 0 51.589906035966123 -273.38588428569437 0 -273.38588428569437 -119.96732425338041 0 0 0 0 119.72481712154695 -204.88973851637934 0 -204.88973851637934 -68.133305746838005 0 0 0 0 94.911335815082339 -231.55250536177775 0 -231.55250536177775 -34.357871814525879 0 0 0 0 87.875653382725432 -161.24939542109701 0 -161.24939542109701 73.796874790723678 0 0 0 0 174.63833107306164 -87.97604770778527 0 -87.97604770778527 19.931200804769105 0 0 0 0 108.98793325908628 -22.818012825398 0 -22.818012825398 145.45192686305063 0 0 0 0 107.21534397574578 -65.073703365185338 0 -65.073703365185338 -7.2303185926371043 0 0 0 0 118.76625759903254 -198.15806608452334 0 -198.15806608452334 -140.5254947299677 0 0 0 0 76.235466139245545 -21.588831677817097 0 -21.588831677817097 -60.364054214983412 0 0 0 0 -260.6251985744093 -72.522755681438781 0 -72.522755681438781 -16.825025262782219 0 0 0 0 -0.33540344001352196 -0.75886273001925986 0 -0.75886273001925986 -1.7806117874731724 0 0 0 0 11.551667979605554 -60.60360530700882 0 -60.60360530700882 -26.581033779900508 0 0 0 0 54.676621514539875 -84.35652798200806 0 -84.35652798200806 -188.11081444171896 0 0 0 0 51.037222807724902 -79.304504459262944 0 -79.304504459262944 -63.94437884545232 0 0 0 0 8.7926256767677842 -74.556911872598533 0 -74.556911872598533 87.530331544052132 0 0 0 0 -2.8426111458902596 -133.07922162648168 0 -133.07922162648168 91.921767829633751 0 0 0 0 12.792461019809707 -39.434177662497689 0 -39.434177662497689 77.162377331453968 0 0 0 0 -1.6297966738648597 -2.3603198937757242 0 -2.3603198937757242 -5.4722005354514263 0 0 0 0 -124.0012199828052 -10.435793867603593 0 -10.435793867603593 -4.572799453526045 0 0 0 0 57.245045854451746 -99.097197438391504 0 -99.097197438391504 -59.372170786976994 0 0 0 0 13.523762559634633 -163.74297026640983 0 -163.74297026640983 30.880369291949364 0 0 0 0 45.122217402182287 -116.77293853485173 0 -116.77293853485173 64.594190569452962 0 0 0 0 64.037744641624158 -13.643436508428294 0 -13.643436508428294 -6.2944081516579899 0 0 0 0 10.429825565140632 -5.970234856922076 0 -5.970234856922076 -10.833339573475508 0 0 0 0 -233.65946462081774 259.84663799702639 0 259.84663799702639 49.243088157527836 0 0 0 0 153.61219095479646 47.179147116023557 0 47.179147116023557 -10.889412687780805 0 0 0 0 162.01371245450719 7.838423176398635 0 7.838423176398635 5.2465527484673657 0 0 0 0 19.664788965041225 -1.5948231410020526 0 -1.5948231410020526 60.987243391158245 0 0 0 0 158.45587572479417 -27.311464968130849 0 -27.311464968130849 -40.101047805731127 0 0 0 0 282.96826475927082 42.384976767507851 0 42.384976767507851 19.395393875309082 0 0 0 0 162.57954441574202 9.6622134894296039 0 9.6622134894296039 47.350466230516759 0 0 0 0 282.87728493480245 21.747490331246581 0 21.747490331246581 -18.134830817753937 0 0 0 0 255.93995634319435 53.747646945955694 0 53.747646945955694 -9.8611529047734621 0 0 0 0 288.28408887963451 15.071904946646555 0 15.071904946646555 -82.054362813186344 0 0 0 0 330.80395275737101 95.509379644076944 0 95.509379644076944 -9.8313407056559186 0 0 0 0 416.72680551835947 -64.386365635171387 0 -64.386365635171387 -69.927618750281908 0 0 0 0 432.0390374595454 15.165516050967483 0 15.165516050967483 -150.25547658733922 0 0 0 0 431.7385387602917 52.551328634296169 0 52.551328634296169 -132.45531389431471 0 0 0 0 236.98477258950879 17.468590106937882 0 17.468590106937882 -68.229705971502426 0 0 0 0 187.52100931793393 39.455792335063506 0 39.455792335063506 -22.311844522889714 0 0 0 0 194.11995468363602 -124.60706222113822 0 -124.60706222113822 43.476720956155987 0 0 0 0 92.129112700204132 -20.025543536834448 0 -20.025543536834448 -34.491006583389208 0 0 0 0 115.94622975190578 32.41573631517349 0 32.41573631517349 -67.610103412214357 0 0 0 0 21.750077469982344 24.548884719585431 0 24.548884719585431 -29.109617227460593 0 0 0 0 103.12059226412021 9.9326193377195295 0 9.9326193377195295 30.853431619882031 0 0 0 0 117.83871105692015 -34.871098396818297 0 -34.871098396818297 -53.051535047584366 0 0 0 0 232.35929183398548 8.675816729080907 0 8.675816729080907 -73.49531224706152 0 0 0 0 12.080894340268969 6.3805223444994468 0 6.3805223444994468 -10.172725999443138 0 0 0 0 1113.6668177600804 396.86171912142964 0 396.86171912142964 -444.85169839041851 0 0 0 0 6.286036776414619 -0.21505305826195098 0 -0.21505305826195098 -0.30405919715495489 0 0 0 0 106.74795347109466 -21.057415752939733 0 -21.057415752939733 -62.361738910556596 0 0 0 0 -38.040270740253618 -198.41446459347515 0 -198.41446459347515 385.34241792467509 0 0 0 0 72.340986793249613 -80.086404767747808 0 -80.086404767747808 -438.18243556613379 0 0 0 0 525.74931709327211 -354.8521879579007 0 -354.8521879579007 -291.01567237527786 0 0 0 0 64.323838739150744 -20.663847332875491 0 -20.663847332875491 -2.9901611359184672 0 0 0 0 162.01837858796353 -352.21776661695145 0 -352.21776661695145 256.10154607294896 0 0 0 0 42.638502613750461 -37.64053198492411 0 -37.64053198492411 -90.36467804825952 0 0 0 0 75.467603557823168 0.98256245588595448 0 0.98256245588595448 -55.670697661946178 0 0 0 0 -67.327283247999731 53.224990102583888 0 53.224990102583888 -29.787799959370659 0 0 0 0 58.667668745123336 -19.489708438552341 0 -19.489708438552341 1.2490854236203024 0 0 0 0 72.463839803807787 -85.937985281201691 0 -85.937985281201691 -215.51178762144355 0 0 0 0 -19.201661805062031 -125.21733976348983 0 -125.21733976348983 302.24402172705874 0 0 0 0 292.18020047602477 -203.86087740390542 0 -203.86087740390542 -120.59957982056989 0 0 0 0 323.97811515795047 -23.221845530471541 0 -23.221845530471541 190.73237571288746 0 0 0 0 91.091989738170923 405.43407633237825 0 405.43407633237825 -133.37739252002757 0 0 0 0 515.75649938308197 121.88157010671648 0 121.88157010671648 33.613783668943825 0 0 0 0 295.66506634043071 10.094055110319118 0 10.094055110319118 75.151559129149518 0 0 0 0 545.46082149062568 173.75521809736028 0 173.75521809736028 -51.111495699018178 0 0 0 0 351.87576570202873 126.33258223547784 0 126.33258223547784 93.061027656031911 0 0 0 0 3.7499747708480982 0.69054966669642681 0 0.69054966669642681 -1.0119953557742365 0 0 0 0 757.3548557614522 -145.54828286849056 0 -145.54828286849056 -69.851773950196275 0 0 0 0 196.41761508702621 2.6312570541686 0 2.6312570541686 -106.22307714138674 0 0 0 0 654.83696195013181 44.493407809964765 0 44.493407809964765 -253.15585964732554 0 0 0 0 671.85056606345461 -94.53261639920629 0 -94.53261639920629 -160.18135812164155 0 0 0 0 119.72973625049053 -29.465651777760741 0 -29.465651777760741 -152.36550154821134 0 0 0 0 200.21651457957523 11.009200555850157 0 11.009200555850157 -183.9532809530283 0 0 0 0 6.6089137973752372 1.139856079447803 0 1.139856079447803 -1.8809127868833011 0 0 0 0 202.05414461627515 67.280215564271657 0 67.280215564271657 -221.04204588241146 0 0 0 0 67.212998534454528 -35.239069264115699 0 -35.239069264115699 -44.740600390759028 0 0 0 0 18.738204004890093 5.7649710676650656 0 5.7649710676650656 -0.54144775039987891 0 0 0 0 435.00175920332686 -100.38959812409826 0 -100.38959812409826 -452.04088054626664 0 0 0 0 60.612490150029771 10.987829728363977 0 10.987829728363977 -230.40021910090127 0 0 0 0 119.59245133248623 -52.429978186150493 0 -52.429978186150493 -183.27561245163406 0 0 0 0 81.546004635667487 252.85285852376592 0 252.85285852376592 -310.4573678523966 0 0 0 0 8.3174112568189855 1.0605043899266491 0 1.0605043899266491 -1.3276985592333883 0 0 0 0 781.12069449610317 -765.97691027702069 0 -765.97691027702069 319.80241244373337 0 0 0 0 1006.8676320438171 -355.87546484165478 0 -355.87546484165478 -76.083277153620656 0 0 0 0 618.70244527168688 -406.29311854703155 0 -406.29311854703155 6.6225572066505265 0 0 0 0 290.65829819881765 -80.223681309985295 0 -80.223681309985295 -149.43129476033755 0 0 0 0 482.3856750394043 1.8285291502252221 0 1.8285291502252221 -799.59387543117919 0 0 0 0 641.01265262599918 -218.87786167796821 0 -218.87786167796821 -284.18827979948037 0 0 0 0 398.98175229982735 -341.93944341360066 0 -341.93944341360066 95.75522610966982 0 0 0 0 430.83832485399034 -404.96212935209405 0 -404.96212935209405 207.5215230709432 0 0 0 0 438.23826197866219 -330.58452929724081 0 -330.58452929724081 76.820205881800575 0 0 0 0 316.20397176932602 -239.78390698916337 0 -239.78390698916337 101.4057930228696 0 0 0 0 303.06121133399574 -90.86065180023661 0 -90.86065180023661 36.075872009787417 0 0 0 0 70.015905240775425 23.331366256220925 0 23.331366256220925 -6.9968991678976273 0 0 0 0 268.58644461561198 -52.010139368856017 0 -52.010139368856017 14.851232554032322 0 0 0 0 359.5356253128848 -29.337260508134023 0 -29.337260508134023 -144.69702407120349 0 0 0 0 442.70953729964094 -170.0985519853657 0 -170.0985519853657 25.648802184718079 0 0 0 0 414.13803832574558 -234.49045442572742 0 -234.49045442572742 -77.663561980440136 0 0 0 0 264.29996645955543 -125.49914386759519 0 -125.49914386759519 28.219922550609795 0 0 0 0 92.667196325579425 58.033134348468593 0 58.033134348468593 -217.88397449483637 0 0 0 0 93.320910954425926 0.36228163634859811 0 0.36228163634859811 -208.33134520852764 0 0 0 0 20.374740470288089 35.74705472614005 0 35.74705472614005 -194.62444401409812 0 0 0 0 87.609313996106721 183.72653670594332 0 183.72653670594332 -286.41665183029909 0 0 0 0 44.038075198885792 11.351482144519842 0 11.351482144519842 3.791418220452206 0 0 0 0 323.93232926230849 -544.64036753827531 0 -544.64036753827531 492.77513396301492 0 0 0 0 480.24636940491837 -292.16304379034477 0 -292.16304379034477 307.52290104480198 0 0 0 0 632.84887726458692 -1148.897457167036 0 -1148.897457167036 1349.2251538603996 0 0 0 0 14.565767424920836 4.0931019937800741 0 4.0931019937800741 2.3541711590839469 0 0 0 0 1546.6174069923691 33.854129669294252 0 33.854129669294252 -352.5627630214658 0 0 0 0 19.132275629545916 9.0820366451843739 0 9.0820366451843739 2.6156712413258596 0 0 0 0 121.7610716392237 897.96178811910727 0 897.96178811910727 -547.50052304137898 0 0 0 0 389.96447255420208 -637.63067164286258 0 -637.63067164286258 45.238903892712642 0 0 0 0 155.13773787427635 -61.811802260729564 0 -61.811802260729564 -86.124860288183299 0 0 0 0 121.92011632048525 39.420318161191972 0 39.420318161191972 -37.776227493466649 0 0 0 0 133.34872116491897 59.33269185082554 0 59.33269185082554 -60.805384995956047 0 0 0 0 133.80078701781167 41.602582243200231 0 41.602582243200231 -99.741972363528475 0 0 0 0 112.70302757025638 6.6160003461941415 0 6.6160003461941415 -184.10369906681535 0 0 0 0 79.422099267940212 14.721163141125089 0 14.721163141125089 -99.498061738582692 0 0 0 0 107.88441317263641 24.449290369213486 0 24.449290369213486 -128.13234685280713 0 0 0 0 100.96486396460023 30.819664782738073 0 30.819664782738073 -64.129595850023179 0 0 0 0 103.42433250657632 41.370605435783546 0 41.370605435783546 -75.305641638896304 0 0 0 0 105.92045496968058 56.74503457333185 0 56.74503457333185 -64.600223648574683 0 0 0 0 99.267949699555174 51.050466630993469 0 51.050466630993469 -51.243363038567622 0 0 0 0 87.968559115906828 57.884597345702787 0 57.884597345702787 2.8628555516970664 0 0 0 0 137.13555944020482 66.075230760086015 0 66.075230760086015 -46.110115936295188 0 0 0 0 81.477781231718836 39.246604404994287 0 39.246604404994287 -43.656455478525459 0 0 0 0 89.056359697482549 39.594942412722958 0 39.594942412722958 -58.586309904547761 0 0 0 0 79.145144275273196 23.42000804363488 0 23.42000804363488 -53.05273964279877 0 0 0 0 62.00496446264151 44.612736737054092 0 44.612736737054092 -78.899873945782019 0 0 0 0 54.65370330735459 32.059293920100572 0 32.059293920100572 -51.178597056042236 0 0 0 0 88.586160248029046 44.210506208595689 0 44.210506208595689 -41.194092160894797 0 0 0 0 134.04361178759427 17.57505189397034 0 17.57505189397034 -67.243393849931635 0 0 0 0 14.437608742392221 22.839288366762318 0 22.839288366762318 -42.496644719844355 0 0 0 0 104.92423684614869 21.814454390914193 0 21.814454390914193 -49.530862984585838 0 0 0 0 284.03457060983055 -147.62569476429644 0 -147.62569476429644 240.42945696718198 0 0 0 0 657.3607364001291 136.71446979963639 0 136.71446979963639 -125.41848988744186 0 0 0 0 18.55620008083396 19.546466131752808 0 19.546466131752808 -58.101102497794443 0 0 0 0 52.828909930824011 36.042425153440945 0 36.042425153440945 -56.572778282326908 0 0 0 0 160.01369854647055 37.830037707251904 0 37.830037707251904 -41.178896130393696 0 0 0 0 53.51334979472449 22.192532001216023 0 22.192532001216023 -86.734332571853884 0 0 0 0 455.23253435751758 -167.95006023121971 0 -167.95006023121971 -119.04767863402958 0 0 0 0 15.27294134775002 89.461691312895709 0 89.461691312895709 -18.271017708128056 0 0 0 0 28.407074725056916 2.4177772942099978 0 2.4177772942099978 -7.6288363192952282 0 0 0 0 32.444035311142216 90.304746089084801 0 90.304746089084801 -42.244288382993545 0 0 0 0 303.97581324662315 -294.82128947194724 0 -294.82128947194724 244.00897087205522 0 0 0 0 11.569675303005909 16.041268333945169 0 16.041268333945169 -22.609402396862677 0 0 0 0 51.615716541714072 21.201224652707012 0 21.201224652707012 -43.525173381606749 0 0 0 0 11.532856721722055 78.287546563858996 0 78.287546563858996 -34.908428024526074 0 0 0 0 50.555417110299459 15.545051464217977 0 15.545051464217977 -90.529863271269278 0 0 0 0 26.170182987720182 27.144589818801478 0 27.144589818801478 -57.32707563513577 0 0 0 0 19.728069257093722 31.148792546199438 0 31.148792546199438 -33.993707190746818 0 0 0 0 85.288108381588245 45.61977657611169 0 45.61977657611169 -105.34279307236284 0 0 0 0 79.752971788053401 5.3213799569493858 0 5.3213799569493858 -63.56122557204435 0 0 0 0 55.222089584868684 6.9290449739920454 0 6.9290449739920454 -38.231879372538671 0 0 0 0 90.072846154886065 -13.365679421036475 0 -13.365679421036475 -74.907133159977093 0 0 0 0 79.998891408617752 5.4032791846382082 0 5.4032791846382082 -50.1499347401138 0 0 0 0 38.264105488924542 5.9137463379706787 0 5.9137463379706787 -20.63766378944274 0 0 0 0 48.664790421409407 21.087109728532198 0 21.087109728532198 -58.022153361691068 0 0 0 0 29.665915411547758 74.796566807483032 0 74.796566807483032 -106.25526291324059 0 0 0 0 50.798539356321271 34.378938020411262 0 34.378938020411262 -62.732847876893928 0 0 0 0 -0.6249617876164848 -8.131430141169858 0 -8.131430141169858 -134.66747889364888 0 0 0 0 75.839066004249617 -39.291371605124368 0 -39.291371605124368 -183.71337322343061 0 0 0 0 201.24805990168534 102.39646221057956 0 102.39646221057956 -143.40987459721964 0 0 0 0 0.39745129058690054 33.341436322679314 0 33.341436322679314 -73.46001218061852 0 0 0 0 14.120107593152696 21.533623061841695 0 21.533623061841695 -12.170597596923763 0 0 0 0 79.490511562646134 0.73072262524419784 0 0.73072262524419784 -198.48258487981366 0 0 0 0 98.749835740309209 90.321016322761352 0 90.321016322761352 -71.858323691437249 0 0 0 0 175.83183283428662 47.337759227420065 0 47.337759227420065 -156.07176281507418 0 0 0 0 101.4067592620122 -3.7128878846756379 0 -3.7128878846756379 -106.30748322826366 0 0 0 0 54.280627536328154 -9.5831098366694931 0 -9.5831098366694931 -5.5046077584822477 0 0 0 0 80.350148241355782 0.78606261576351244 0 0.78606261576351244 -28.994377401726524 0 0 0 0 124.40823099893896 -33.70267510416852 0 -33.70267510416852 -232.9201509443883 0 0 0 0 43.67476068684482 -8.280120368610369 0 -8.280120368610369 -122.01772763598728 0 0 0 0 10.00160989820219 -11.372400004583433 0 -11.372400004583433 -10.628638232260327 0 0 0 0 22.543540394632146 39.288402813916946 0 39.288402813916946 -71.386245374509599 0 0 0 0 81.844248279601743 31.133085066093372 0 31.133085066093372 -32.261181927999132 0 0 0 0 79.929080685353256 12.89209910720092 0 12.89209910720092 -41.657051410010354 0 0 0 0 70.327214034696226 17.906372024232041 0 17.906372024232041 -8.4862618182510232 0 0 0 0 91.171055532933678 57.71055103732624 0 57.71055103732624 65.19095856667991 0 0 0 0 82.955897364285192 35.744491120461134 0 35.744491120461134 -176.95890485711516 0 0 0 0 15.266443931970571 -61.539414782334916 0 -61.539414782334916 -206.2225969069641 0 0 0 0 29.053698745876318 -41.183135062359725 0 -41.183135062359725 -250.41418362506374 0 0 0 0 69.12046860778355 -76.722228703799374 0 -76.722228703799374 -317.3861428477594 0 0 0 0 30.796591852324553 -6.2773949839493426 0 -6.2773949839493426 1.6030929311313216 0 0 0 0 180.42353731530602 163.32431066520621 0 163.32431066520621 134.13547531148379 0 0 0 0 313.32638480796595 103.20178450555659 0 103.20178450555659 -52.032848001650564 0 0 0 0 227.17096810138901 71.353989664996334 0 71.353989664996334 -28.878118149400507 0 0 0 0 202.27940234570997 15.115527436048069 0 15.115527436048069 -66.950496946463318 0 0 0 0 180.71002901047177 -5.6600641870250001 0 -5.6600641870250001 -142.58535289428437 0 0 0 0 27.87277592307737 86.60510148541826 0 86.60510148541826 -134.34586270593172 0 0 0 0 96.31356256637082 -31.613961803042457 0 -31.613961803042457 -289.59221134724248 0 0 0 0 118.51897765851754 60.943064688288359 0 60.943064688288359 -187.83218092499271 0 0 0 0 122.05084282686585 28.665263631654398 0 28.665263631654398 -119.20296064801005 0 0 0 0 160.77855093447397 182.53918222305896 0 182.53918222305896 62.669523067437694 0 0 0 0 212.52087862860935 195.53479133959445 0 195.53479133959445 -111.227311199242 0 0 0 0 -9.5565150919978805 18.161797535995547 0 18.161797535995547 -41.923968742743071 0 0 0 0 -165.62882704597723 -219.84387870654882 0 -219.84387870654882 -192.40892588109728 0 0 0 0 172.19302695310034 203.52904422828374 0 203.52904422828374 -66.515731833340396 0 0 0 0 138.59354130615247 43.773523838197434 0 43.773523838197434 55.122235296232247 0 0 0 0 147.88418563107552 99.512458621869882 0 99.512458621869882 -149.27409055122348 0 0 0 0 118.46907496542553 -22.513749878181898 0 -22.513749878181898 -190.9368693357892 0 0 0 0 111.91734394573541 6.5780686143954199 0 6.5780686143954199 -156.81454856525852 0 0 0 0 230.56884629968772 48.749031551357689 0 48.749031551357689 -5.7998427945756248 0 0 0 0 262.35102464193915 20.59206840076223 0 20.59206840076223 -368.75501393895502 0 0 0 0 732.87761615788622 419.87115517764209 0 419.87115517764209 -35.767491071040297 0 0 0 0 524.10915616621787 144.32224346699741 0 144.32224346699741 -315.4938173565514 0 0 0 0 -120.17754212622094 -115.10574400663251 0 -115.10574400663251 -45.246680737256838 0 0 0 0 -240.81279407936381 79.351893137383371 0 79.351893137383371 127.70657260207493 0 0 0 0 -214.29431177670267 -741.24446816595412 0 -741.24446816595412 -784.38161216322658 0 0 0 0 256.59642533690203 1172.90172022357 0 1172.90172022357 1049.8794972502592 0 0 0 0 -2.666249693319628 5.4713818463754649 0 5.4713818463754649 -13.882438544918886 0 0 0 0 438.187018882134 119.85123564437328 0 119.85123564437328 -294.96771043590485 0 0 0 0 -890.21816996372945 -1658.9023235696363 0 -1658.9023235696363 -913.12545995359426 0 0 0 0 100.61028504056958 -41.317556348454659 0 -41.317556348454659 -16.347767489812668 0 0 0 0 -1.9659909622881173 -5.0095598720185563 0 -5.0095598720185563 -7.8836515226191279 0 0 0 0 128.32789907540428 -189.73758588836057 0 -189.73758588836057 208.44805437338619 0 0 0 0 338.98132094473112 -292.11078776861473 0 -292.11078776861473 88.84032400903493 0 0 0 0 228.02571107110998 -93.583292209670844 0 -93.583292209670844 57.61228348466102 0 0 0 0 604.18947729967476 36.258141205900216 0 36.258141205900216 -141.94313069231495 0 0 0 0 0.65891014665058378 -4.1789632225308253 0 -4.1789632225308253 -11.360103093600072 0 0 0 0 481.58989880110312 367.32109543162596 0 367.32109543162596 -133.26479786376061 0 0 0 0 18.954049142638041 -10.080576714759289 0 -10.080576714759289 2.2671267417470577 0 0 0 0 602.25525665950408 -306.73956206134551 0 -306.73956206134551 -85.064686541234551 0 0 0 0 915.71564326742646 -726.65294054805486 0 -726.65294054805486 1004.06070629856 0 0 0 0 1119.9811995128694 493.87091500029783 0 493.87091500029783 -125.57341755044331 0 0 0 0 229.49278450752263 642.76921675723815 0 642.76921675723815 400.65876783435851 0 0 0 0 228.2369317226985 123.77396753725588 0 123.77396753725588 -264.55318024243479 0 0 0 0 135.87432701485704 120.75787480672295 0 120.75787480672295 -122.95263195859843 0 0 0 0 317.9243215155002 111.91862518926837 0 111.91862518926837 -173.98998813681828 0 0 0 0 83.024971460450615 59.927390102285699 0 59.927390102285699 -167.16972510663982 0 0 0 0 117.28099215916882 -24.006442698501814 0 -24.006442698501814 -182.29614164962186 0 0 0 0 143.85667354162433 42.850475326455125 0 42.850475326455125 -195.14574753107127 0 0 0 0 172.97424785735348 -13.534458724580873 0 -13.534458724580873 -178.57794051978544 0 0 0 0 497.44795612439339 359.24603204311552 0 359.24603204311552 -38.045319523733724 0 0 0 0 179.57071390540659 247.53910417945235 0 247.53910417945235 56.806427130247357 0 0 0 0 384.65728384798422 364.79532370413938 0 364.79532370413938 97.151727027675065 0 0 0 0 469.48017238787725 205.14868930301668 0 205.14868930301668 -150.24678023479251 0 0 0 0 525.87044905906077 275.66616204437116 0 275.66616204437116 153.37278852167822 0 0 0 0 674.07234044437064 640.6352487606473 0 640.6352487606473 399.31086366044474 0 0 0 0 205.53400627906376 325.34404574654889 0 325.34404574654889 380.9444599822055 0 0 0 0 15.650483436015975 -5.3699406756669674 0 -5.3699406756669674 -2.1053640255989272 0 0 0 0 457.02171558117152 421.35381708178625 0 421.35381708178625 56.444561664520279 0 0 0 0 585.53091534238592 451.68444330038335 0 451.68444330038335 61.079687475456012 0 0 0 0 207.10685855797067 246.32779738275823 0 246.32779738275823 358.2852058392964 0 0 0 0 240.66099979540741 270.76274977578635 0 270.76274977578635 324.40993144530268 0 0 0 0 349.86967000296499 145.58337493297506 0 145.58337493297506 323.94143477050761 0 0 0 0 352.53983349211921 208.47378289746155 0 208.47378289746155 645.29451774586653 0 0 0 0 932.64935978737049 -42.502710727101203 0 -42.502710727101203 260.46404663989574 0 0 0 0 601.48344559673569 194.75440903309845 0 194.75440903309845 127.18523762691484 0 0 0 0 319.72731267289055 119.39379416098564 0 119.39379416098564 295.48046674692591 0 0 0 0 545.95916958674206 421.32869752196893 0 421.32869752196893 55.184319569651905 0 0 0 0 8.4203050163630166 0.73218045042876057 0 0.73218045042876057 -0.14742770686591877 0 0 0 0 386.59405207137024 -319.22658246504261 0 -319.22658246504261 326.52005716454937 0 0 0 0 883.41623244511175 299.85188718543611 0 299.85188718543611 -67.11739411856729 0 0 0 0 586.35671904990159 340.58549254800914 0 340.58549254800914 26.915576698875384 0 0 0 0 70.303473718944588 290.37760860215099 0 290.37760860215099 106.74319095493547 0 0 0 0 606.49602798284832 293.20689991528616 0 293.20689991528616 -20.425590836031461 0 0 0 0 240.93682657052705 247.39339718193196 0 247.39339718193196 78.090741194118436 0 0 0 0 -97.882375711236818 -101.95234008716443 0 -101.95234008716443 -32.668861967328212 0 0 0 0 661.25133681403531 124.94344726808049 0 124.94344726808049 150.14391442693432 0 0 0 0 325.61979137272283 191.93093576013507 0 191.93093576013507 148.97667245357297 0 0 0 0 618.11240005344735 197.6742172704362 0 197.6742172704362 60.757165701304984 0 0 0 0 547.68136803543166 313.09967660622613 0 313.09967660622613 78.22446020989446 0 0 0 0 804.97048722264299 296.84742318104509 0 296.84742318104509 64.504123078042085 0 0 0 0 739.39945155047462 366.19382209553623 0 366.19382209553623 140.05351807427633 0 0 0 0 767.53680201472889 347.00130749693653 0 347.00130749693653 -10.367791175512593 0 0 0 0 800.35872505053703 292.00292464968709 0 292.00292464968709 63.148342859748482 0 0 0 0 748.05173753598501 343.87746200062088 0 343.87746200062088 52.603135319078774 0 0 0 0 794.7482981498033 474.92926308689061 0 474.92926308689061 219.29712467802347 0 0 0 0 841.36064216689556 391.24002648535179 0 391.24002648535179 297.92398122126269 0 0 0 0 865.37727173924577 338.99098022734984 0 338.99098022734984 144.00346760622415 0 0 0 0 1005.8438348020136 157.4772580286708 0 157.4772580286708 171.49664761086206 0 0 0 0 589.34509044405422 218.22760059222674 0 218.22760059222674 183.47723902879898 0 0 0 0 545.19911605426023 85.912429136793435 0 85.912429136793435 486.42362916435377 0 0 0 0 510.70869430466701 166.87005299304155 0 166.87005299304155 297.26636307504486 0 0 0 0 589.38253633704153 314.92630221450463 0 314.92630221450463 196.3058037754281 0 0 0 0 420.7212737849477 301.57281039144544 0 301.57281039144544 200.46345318404155 0 0 0 0 590.56015812652186 377.95012550597767 0 377.95012550597767 182.64931272132344 0 0 0 0 484.60129457157745 274.85958678227325 0 274.85958678227325 238.41452642169997 0 0 0 0 -798.00325365512981 1376.2920858909474 0 1376.2920858909474 526.72336389997417 0 0 0 0 17.898592665520169 -10.978057836220913 0 -10.978057836220913 5.5351653586906053 0 0 0 0 504.96411475252535 470.63875558385826 0 470.63875558385826 424.8390373453467 0 0 0 0 -64.808830366207985 -176.4112477088147 0 -176.4112477088147 88.651537630614257 0 0 0 0 -78.129374162577733 208.9815809234733 0 208.9815809234733 133.92619874042816 0 0 0 0 -487.71522948373013 538.11572789414674 0 538.11572789414674 865.19709649015294 0 0 0 0 -487.94842916927155 520.86329222003042 0 520.86329222003042 887.92278797674669 0 0 0 0 160.92256059775536 -212.51921867922556 0 -212.51921867922556 189.2819639836589 0 0 0 0 126.86362504361023 -38.566355293084598 0 -38.566355293084598 -49.830323442871759 0 0 0 0 643.87483687895292 -172.62083338778166 0 -172.62083338778166 98.742586240242872 0 0 0 0 7.9873667381297935 4.6317731737265291 0 4.6317731737265291 2.8427568141664743 0 0 0 0 1148.114457904936 755.12897076378204 0 755.12897076378204 509.38422670681348 0 0 0 0 936.71047064060258 -596.80946453105753 0 -596.80946453105753 1515.3851198985103 0 0 0 0 8.4265543900191346 -4.534897036674387 0 -4.534897036674387 3.7790893042961287 0 0 0 0 703.24171771691817 116.60713004995887 0 116.60713004995887 570.0528591036018 0 0 0 0 1428.5031275806105 364.35218708501588 0 364.35218708501588 257.09421642433608 0 0 0 0 1162.8960669960361 -164.99029749236638 0 -164.99029749236638 572.69788940644776 0 0 0 0 371.38670423453732 121.40930736470455 0 121.40930736470455 1035.8946208609832 0 0 0 0 1168.824260883961 167.19612514066262 0 167.19612514066262 -32.895774150598299 0 0 0 0 427.02767067434615 637.53001927534069 0 637.53001927534069 716.11562498089643 0 0 0 0 936.81896786946163 -207.66362575693347 0 -207.66362575693347 148.26527974310648 0 0 0 0 776.93219964407399 204.30611226311999 0 204.30611226311999 -5.3810602884668697 0 0 0 0 430.95849961040949 -134.65403851736846 0 -134.65403851736846 166.23120099818743 0 0 0 0 81.478871097577212 -120.86753527264636 0 -120.86753527264636 -150.95981301903657 0 0 0 0 101.63070843447315 654.27734211861889 0 654.27734211861889 -134.13181137733045 0 0 0 0 455.4654483875056 40.644098195211882 0 40.644098195211882 -611.22966811966944 0 0 0 0 515.10838573601359 -176.15501163305726 0 -176.15501163305726 -335.03756038194842 0 0 0 0 425.3068391916604 -185.91360842413997 0 -185.91360842413997 -176.37834497128824 0 0 0 0 358.32017612334312 -71.24005118361174 0 -71.24005118361174 -267.0243397487659 0 0 0 0 549.78670734048137 -236.09509801892955 0 -236.09509801892955 -164.62813508977797 0 0 0 0 288.37856946490501 319.51675262614572 0 319.51675262614572 -52.403379922524778 0 0 0 0 203.02970565392752 53.866854871056603 0 53.866854871056603 -29.778828278882656 0 0 0 0 0.88823555776303209 3.1985444701475103 0 3.1985444701475103 12.283789504208094 0 0 0 0 413.7577367621052 105.23286161263059 0 105.23286161263059 -17.825178840911576 0 0 0 0 623.82535421628927 335.6704802446186 0 335.6704802446186 -55.077827298096054 0 0 0 0 481.63792221905169 80.989492869918195 0 80.989492869918195 -122.08279512804438 0 0 0 0 462.02725556986843 465.14517651551068 0 465.14517651551068 -96.191347147266924 0 0 0 0 429.81299997425958 419.93556674862657 0 419.93556674862657 -108.47271540899601 0 0 0 0 308.6581051095709 337.69278681175638 0 337.69278681175638 -663.07025850831997 0 0 0 0 336.98825992335333 481.34729518268614 0 481.34729518268614 -135.13319151534461 0 0 0 0 203.26503824946121 426.03723784480235 0 426.03723784480235 165.3395777280648 0 0 0 0 334.61911937227705 436.66639944704912 0 436.66639944704912 205.86990053681984 0 0 0 0 322.9003342599317 546.97809556035099 0 546.97809556035099 -57.004165242853105 0 0 0 0 194.77491201387647 339.33797088504213 0 339.33797088504213 162.65141133732504 0 0 0 0 193.65531795920833 337.18930956391159 0 337.18930956391159 514.44916080057828 0 0 0 0 470.59410885660327 485.22614284231167 0 485.22614284231167 178.42792751473462 0 0 0 0 318.42227229595301 -5.1371857553685913 0 -5.1371857553685913 573.89053344472404 0 0 0 0 326.21255315030248 334.7873894350447 0 334.7873894350447 421.00171430528735 0 0 0 0 165.1667391423689 285.26030025292675 0 285.26030025292675 304.41725230061587 0 0 0 0 78.938127642337349 71.168190449279791 0 71.168190449279791 299.78172806018165 0 0 0 0 69.070936121854174 105.04744844433299 0 105.04744844433299 232.85335549510637 0 0 0 0 74.62234284360602 142.91705869815723 0 142.91705869815723 174.40620538282656 0 0 0 0 40.112491968262475 18.123217285795818 0 18.123217285795818 89.93267357319246 0 0 0 0 124.91029945266018 170.7087703226706 0 170.7087703226706 65.106858334879689 0 0 0 0 276.0336427834045 269.61853784019877 0 269.61853784019877 106.51779093839741 0 0 0 0 18.8429786547822 109.89237793331858 0 109.89237793331858 95.750263641357833 0 0 0 0 60.414783027565136 48.918046397329363 0 48.918046397329363 -2.2432307934859637 0 0 0 0 -73.96511748134435 -39.104167151470165 0 -39.104167151470165 84.692712272714743 0 0 0 0 3.2558402565882716 37.731317043451554 0 37.731317043451554 91.252972142114231 0 0 0 0 -31.989706685279089 -47.188041439720337 0 -47.188041439720337 64.79498176391553 0 0 0 0 -2.7264278034044196 0.86581238499444879 0 0.86581238499444879 3.5605975094754641 0 0 0 0 -27.125246334951953 -82.439984307245595 0 -82.439984307245595 57.181106309251959 0 0 0 0 41.47457824619778 -17.748911174594923 0 -17.748911174594923 133.90592230870652 0 0 0 0 22.272923474418349 -8.3104718389483878 0 -8.3104718389483878 133.22355081901787 0 0 0 0 -17.804137991217431 -95.62103047237315 0 -95.62103047237315 94.454751754433346 0 0 0 0 0.80571603923453949 -96.740129462406458 0 -96.740129462406458 -28.848184957280864 0 0 0 0 -27.774791367788566 -83.048198623988696 0 -83.048198623988696 21.335901218031722 0 0 0 0 -60.21418240154162 -63.490112158732245 0 -63.490112158732245 16.240718607542021 0 0 0 0 -49.286736582536832 -55.207095741837747 0 -55.207095741837747 58.540632302060203 0 0 0 0 -46.650804467615671 -69.524774285720923 0 -69.524774285720923 30.533931166765342 0 0 0 0 -5.9030666918697534 -68.047344288338536 0 -68.047344288338536 27.603271625105663 0 0 0 0 -46.92909677051648 -89.861349370403786 0 -89.861349370403786 82.789525247637812 0 0 0 0 -56.369165431111469 -82.430689156398103 0 -82.430689156398103 85.855238358477436 0 0 0 0 161.92185219824023 154.45311327472837 0 154.45311327472837 416.74203300694353 0 0 0 0 338.33815984580724 125.38458174167545 0 125.38458174167545 366.25508104228629 0 0 0 0 393.30892707595194 27.856660604327317 0 27.856660604327317 228.50618322316996 0 0 0 0 165.93543273670412 78.085178001618473 0 78.085178001618473 219.81886514591497 0 0 0 0 101.52779725569417 -60.974207146422486 0 -60.974207146422486 173.62778274255652 0 0 0 0 74.321653193837847 79.238541996041022 0 79.238541996041022 278.80764739481674 0 0 0 0 9.6249839204610907 -19.526238861348475 0 -19.526238861348475 156.13280965528065 0 0 0 0 41.492946324935474 -52.180339078526004 0 -52.180339078526004 37.604270766166337 0 0 0 0 38.757862440885219 -78.914556077327688 0 -78.914556077327688 -41.071276472162026 0 0 0 0 -34.375105303537566 -71.478812193255635 0 -71.478812193255635 58.252413841033558 0 0 0 0 67.434820323564054 -25.826949423273845 0 -25.826949423273845 159.26932612992641 0 0 0 0 104.43403759531793 -37.727060124343552 0 -37.727060124343552 28.430999533391514 0 0 0 0 -14.711841224780073 -34.774733190948609 0 -34.774733190948609 33.872943828312145 0 0 0 0 175.76451068703318 34.403272290606992 0 34.403272290606992 130.91595282309936 0 0 0 0 132.28982860729593 59.732659943040971 0 59.732659943040971 252.94509766064584 0 0 0 0 190.23704733846535 -9.8010831429262453 0 -9.8010831429262453 -5.6674264618427515 0 0 0 0 104.9421869423677 88.936163294734797 0 88.936163294734797 113.31039630323266 0 0 0 0 433.44916379470669 50.66189849049988 0 50.66189849049988 100.76644217962075 0 0 0 0 154.15419122540334 -61.664743688112253 0 -61.664743688112253 -449.80841901976578 0 0 0 0 45.926206871838076 -189.50546368593518 0 -189.50546368593518 -231.64422849014591 0 0 0 0 371.66418762402463 90.606332378484353 0 90.606332378484353 18.024770425980478 0 0 0 0 20.811814962711651 70.459554858196952 0 70.459554858196952 77.989264113635727 0 0 0 0 179.89302813709946 -13.648708459854447 0 -13.648708459854447 -227.76113116227134 0 0 0 0 46.895903961180011 4.828053748846969 0 4.828053748846969 1.5265974604600387 0 0 0 0 -158.73203689648653 2.0830088091867083 0 2.0830088091867083 -156.66899657920226 0 0 0 0 79.638033648447163 -88.49107986715353 0 -88.49107986715353 -80.084450563124847 0 0 0 0 42.803375197923742 -24.529654681017291 0 -24.529654681017291 -154.41512652112806 0 0 0 0 -71.320955179980956 -82.176039608313658 0 -82.176039608313658 -34.6378760508602 0 0 0 0 7.6597422157647088 -104.0608321947866 0 -104.0608321947866 -178.24256548699304 0 0 0 0 -38.369169456600503 -158.52976052598387 0 -158.52976052598387 -175.37783787910303 0 0 0 0 -43.348680889313982 43.742103263052542 0 43.742103263052542 -3.8939464135380604 0 0 0 0 26.970553461491363 4.872469418034143 0 4.872469418034143 1.9502435570161651 0 0 0 0 134.98245216970099 -61.48874701531031 0 -61.48874701531031 -42.933763225692644 0 0 0 0 -144.81739286973607 121.10714200436234 0 121.10714200436234 56.499094177318739 0 0 0 0 18.46081638588285 -1.5943638516106553 0 -1.5943638516106553 -0.32462173934634231 0 0 0 0 2.1393394179148686 0.10108606185835711 0 0.10108606185835711 0.12067211753419715 0 0 0 0 86.912076384411193 -32.498020459839154 0 -32.498020459839154 -183.78640626891638 0 0 0 0 15.217714370028261 -2.3892965987383761 0 -2.3892965987383761 -23.334630314823158 0 0 0 0 10.432556319248533 -1.833973736336926 0 -1.833973736336926 -0.80123219023883996 0 0 0 0 -19.137833842396503 -87.300450547635137 0 -87.300450547635137 -126.60665910927901 0 0 0 0 51.208505244325352 -24.380045081036542 0 -24.380045081036542 -85.204115369851024 0 0 0 0 -27.513958057308628 -64.246409724581213 0 -64.246409724581213 -66.321449779197792 0 0 0 0 -87.582023881856003 -25.201616095491772 0 -25.201616095491772 -67.832141069839054 0 0 0 0 20.742675872528878 -2.6780584963193199 0 -2.6780584963193199 0.086663677654689686 0 0 0 0 -9.0285278269802802 -73.117165062921458 0 -73.117165062921458 -135.1377831505738 0 0 0 0 41.822566604590975 -107.93807942842159 0 -107.93807942842159 -281.92591066969317 0 0 0 0 -23.077748644194799 -83.907675237941248 0 -83.907675237941248 -34.728812738720762 0 0 0 0 -19.023071396055457 8.610780495050335 0 8.610780495050335 -198.91727618953519 0 0 0 0 26.58576573713799 -14.27463062396032 0 -14.27463062396032 -14.055398430735579 0 0 0 0 26.851409087495995 -23.416114421570455 0 -23.416114421570455 -15.255074156429828 0 0 0 0 6.2666409326063217 -0.73740024735547394 0 -0.73740024735547394 0.19838189410410956 0 0 0 0 -9.8212009313283488 -11.962167057495208 0 -11.962167057495208 12.558050197185366 0 0 0 0 -0.16979355664807372 -21.026349284063599 0 -21.026349284063599 17.924398933849261 0 0 0 0 11.074595337770006 3.330362833065692 0 3.330362833065692 4.6488781065654621 0 0 0 0 18.735326339956373 4.1253335184040907 0 4.1253335184040907 -27.354810095815651 0 0 0 0 18.515083338061231 6.0725751988557022 0 6.0725751988557022 -12.205249516425283 0 0 0 0 18.43907436405425 -12.807547667198378 0 -12.807547667198378 4.8451898425291802 0 0 0 0 -13.033574199489522 4.1284159210639473 0 4.1284159210639473 -1.9338206124157296 0 0 0 0 5.6640213243954349 16.333639731199241 0 16.333639731199241 -16.751616138469217 0 0 0 0 35.815697871548764 -8.5191452226785032 0 -8.5191452226785032 2.1893925719541585 0 0 0 0 61.606891070776328 -59.610749016686896 0 -59.610749016686896 40.264506641067783 0 0 0 0 23.427641813294031 -26.497087214613884 0 -26.497087214613884 12.971011448617674 0 0 0 0 74.551830447766406 -74.007757369638512 0 -74.007757369638512 -5.5954448867528299 0 0 0 0 32.915750011285127 -11.599973907368053 0 -11.599973907368053 8.7478268413497062 0 0 0 0 125.80520549747598 -26.46672281975907 0 -26.46672281975907 0.3220812630306682 0 0 0 0 2.1668694137469231 -3.3788455228249177 0 -3.3788455228249177 -0.7022069136838045 0 0 0 0 -165.43397858846583 -166.18561956216604 0 -166.18561956216604 -105.59994694703528 0 0 0 0 177.18917916133069 -42.047053063336534 0 -42.047053063336534 -3.3762423084158399 0 0 0 0 160.43639112426536 -98.929303392859538 0 -98.929303392859538 -12.314680099922043 0 0 0 0 304.85964650606911 -31.076565792358906 0 -31.076565792358906 11.77069033519615 0 0 0 0 159.29764981690823 -35.197923774892843 0 -35.197923774892843 16.748576204157416 0 0 0 0 -65.15327044865262 36.632996194673979 0 36.632996194673979 10.664108624026994 0 0 0 0 94.375340135389706 -85.518507065681661 0 -85.518507065681661 -150.46988802367832 0 0 0 0 131.8268192858377 -29.418387892195824 0 -29.418387892195824 -89.265833262484193 0 0 0 0 95.255025387275964 0.55930926401015313 0 0.55930926401015313 -343.80021616983322 0 0 0 0 103.44407114338537 -190.59701690368593 0 -190.59701690368593 -256.82234780140243 0 0 0 0 133.05523376814381 -28.120260063989178 0 -28.120260063989178 -322.88478204334206 0 0 0 0 -66.732799522447749 -20.270238128975507 0 -20.270238128975507 23.370130955718196 0 0 0 0 11.275614118916565 -163.1618160235198 0 -163.1618160235198 -87.6847152664443 0 0 0 0 263.90477917391399 -74.602881054074714 0 -74.602881054074714 -56.932838655280648 0 0 0 0 0.47098917380174044 -0.35275126403196566 0 -0.35275126403196566 -0.30520865325319058 0 0 0 0 155.69925075249921 -156.65545077193156 0 -156.65545077193156 -88.787287950205155 0 0 0 0 137.28706061934645 -127.03825989466304 0 -127.03825989466304 -46.218782186955764 0 0 0 0 133.58007436550906 -165.02025217309279 0 -165.02025217309279 -72.129465079478905 0 0 0 0 138.58479753762367 -142.69068236936118 0 -142.69068236936118 -16.488617828582392 0 0 0 0 96.923298280496965 -204.93871864982248 0 -204.93871864982248 -15.412043217422706 0 0 0 0 114.44995339646994 -182.64974244838231 0 -182.64974244838231 -86.98958829966341 0 0 0 0 96.743746572603413 -137.5946788440483 0 -137.5946788440483 -141.90208858836741 0 0 0 0 81.396040944877313 -225.56111465633512 0 -225.56111465633512 -66.060739831813862 0 0 0 0 95.032967262188322 -174.34155151339883 0 -174.34155151339883 8.4235808510147763 0 0 0 0 104.05648263706826 -214.21103737402063 0 -214.21103737402063 42.219039788185455 0 0 0 0 79.669760525021047 -183.94230364978063 0 -183.94230364978063 60.41940592150786 0 0 0 0 76.801918644583566 -174.08138900834695 0 -174.08138900834695 138.13254250613045 0 0 0 0 85.577012619694869 -125.41883793380481 0 -125.41883793380481 46.542045562587191 0 0 0 0 96.866530672370573 -166.3186078220474 0 -166.3186078220474 47.864425681733792 0 0 0 0 92.945491603255505 -150.27266547507224 0 -150.27266547507224 -17.099583165878698 0 0 0 0 48.906311604965595 -148.17473770907236 0 -148.17473770907236 128.55551114690979 0 0 0 0 48.220051122887526 -122.59241131336739 0 -122.59241131336739 61.929001630501716 0 0 0 0 35.173979412127665 -57.911784525149528 0 -57.911784525149528 59.729316706795544 0 0 0 0 4.835422577947611 -66.601486158725038 0 -66.601486158725038 85.144307483664761 0 0 0 0 27.219979065441294 -120.41929536960561 0 -120.41929536960561 110.9957847784317 0 0 0 0 22.090322539246699 -102.00862095007301 0 -102.00862095007301 156.86631734766706 0 0 0 0 -17.564822792657651 2.521308891525905 0 2.521308891525905 110.33957983165692 0 0 0 0 34.578966421991936 -125.40591005554711 0 -125.40591005554711 362.99166778838685 0 0 0 0 113.57227705407422 -163.81329710457521 0 -163.81329710457521 128.92329289892609 0 0 0 0 54.032384358200943 -175.56642971919916 0 -175.56642971919916 224.32290548688025 0 0 0 0 -8.8194889038641122 -35.990808529086792 0 -35.990808529086792 224.59550145935509 0 0 0 0 340.55829888304106 -58.937826351702995 0 -58.937826351702995 152.68929243951652 0 0 0 0 265.20290387081332 -226.85305855939009 0 -226.85305855939009 226.22164177600757 0 0 0 0 103.61681476096783 -151.16208059652433 0 -151.16208059652433 190.94208991313235 0 0 0 0 715.8259118530259 -294.00828833387504 0 -294.00828833387504 288.64957350741679 0 0 0 0 389.88600059990495 -43.104857500656806 0 -43.104857500656806 66.716636574901713 0 0 0 0 449.07047807387244 219.85700396752495 0 219.85700396752495 96.211793600426063 0 0 0 0 209.24875139465439 -78.429065887158231 0 -78.429065887158231 151.03171581436507 0 0 0 0 50.572670137262321 -202.28738816495252 0 -202.28738816495252 45.783301473169558 0 0 0 0 91.098668059810734 -130.09929401972965 0 -130.09929401972965 111.79074657430465 0 0 0 0 248.14232203052961 -161.3611078826948 0 -161.3611078826948 108.79158411723074 0 0 0 0 262.68616243428187 294.45200815722256 0 294.45200815722256 62.865335010463923 0 0 0 0 168.669061042674 293.51185178308197 0 293.51185178308197 322.71624519213287 0 0 0 0 868.92680412590744 270.0171761818367 0 270.0171761818367 144.9152639295894 0 0 0 0 481.71871962457953 41.720613018523864 0 41.720613018523864 11.283734523434759 0 0 0 0 470.83098608536238 268.55103283850985 0 268.55103283850985 -138.12461093392722 0 0 0 0 541.14608633003081 109.26240023933428 0 109.26240023933428 -713.85041993899267 0 0 0 0 5.1770416950617744 4.2198563404077678 0 4.2198563404077678 -0.51497309501252642 0 0 0 0 -89.821716234495398 332.4338507212608 0 332.4338507212608 793.51922133459243 0 0 0 0 613.99978064239258 54.060141870640223 0 54.060141870640223 -266.67062107237598 0 0 0 0 325.37784915765224 554.2070549771388 0 554.2070549771388 271.76760904683306 0 0 0 0 67.909656362433452 -70.241725644243161 0 -70.241725644243161 -318.37087520502428 0 0 0 0 270.61770273782895 127.57741858404279 0 127.57741858404279 -245.73623898617461 0 0 0 0 -73.827566549938638 243.60167544688375 0 243.60167544688375 -262.41457174171228 0 0 0 0 116.20592421619222 266.20411511524344 0 266.20411511524344 -362.09848868708013 0 0 0 0 59.475191271922085 69.5489681449817 0 69.5489681449817 -149.81507470247288 0 0 0 0 120.94609421340283 195.99225943975398 0 195.99225943975398 -830.47896962499362 0 0 0 0 5.2033300051983638 0.48293529870417728 0 0.48293529870417728 -0.31712037794677528 0 0 0 0 -22.777159013297933 329.17392246329428 0 329.17392246329428 200.33442421948712 0 0 0 0 -183.73314563678287 -267.5131598981975 0 -267.5131598981975 -193.68885431616491 0 0 0 0 -51.755961018250673 -115.8685426626289 0 -115.8685426626289 -33.601123301288681 0 0 0 0 26.82585934488452 -246.06528503877871 0 -246.06528503877871 -162.57376608478398 0 0 0 0 65.041033307701582 -157.12752119170545 0 -157.12752119170545 -233.42263784391434 0 0 0 0 77.936092891117369 -158.71709653448059 0 -158.71709653448059 -55.283746660876204 0 0 0 0 125.68330173062714 -127.17181430717847 0 -127.17181430717847 -39.02267411820867 0 0 0 0 247.60442003763455 -14.348449643400727 0 -14.348449643400727 -127.38794655661241 0 0 0 0 43.821732148586307 -15.344373477980298 0 -15.344373477980298 118.50171847447064 0 0 0 0 201.52368634431332 33.428888032121449 0 33.428888032121449 161.98650641905374 0 0 0 0 -146.58739110104216 99.549848897357151 0 99.549848897357151 -151.78041902780933 0 0 0 0 247.53004350830361 -58.13204882683209 0 -58.13204882683209 -571.0014581294763 0 0 0 0 -179.78257888229564 -294.35419583746989 0 -294.35419583746989 -401.16755835535787 0 0 0 0 62.82061807680293 -9.4346638332995099 0 -9.4346638332995099 -295.1811595027084 0 0 0 0 -5.2221939655719325 143.16108409797198 0 143.16108409797198 -620.73147575549683 0 0 0 0 3.1435481949783366 3.9995511261893526 0 3.9995511261893526 -0.48846563185111291 0 0 0 0 6.6317504305278732 -0.033320062364310843 0 -0.033320062364310843 -3.0014478270906437 0 0 0 0 29.750832774370792 -268.59275239333647 0 -268.59275239333647 -502.06644395475814 0 0 0 0 46.112710039160447 -3.4956423939961496 0 -3.4956423939961496 -295.88001809345133 0 0 0 0 14.557181017531548 83.679694837087482 0 83.679694837087482 122.37046322498645 0 0 0 0 1.9576005054364032 2.8287870657269707 0 2.8287870657269707 41.742981292170953 0 0 0 0 3.6542521798464804 63.562849395891902 0 63.562849395891902 20.416362636322447 0 0 0 0 30.624185883881211 49.604173456940892 0 49.604173456940892 7.5498709248093547 0 0 0 0 14.885092263042736 56.192755398907849 0 56.192755398907849 6.4154037078122936 0 0 0 0 21.242235825862736 42.121786526246069 0 42.121786526246069 -10.789558637194204 0 0 0 0 45.225937520054487 19.493308866419881 0 19.493308866419881 11.1531490055213 0 0 0 0 42.232614859691239 27.095923521887926 0 27.095923521887926 37.826137643747643 0 0 0 0 46.538323320820766 15.656644008518782 0 15.656644008518782 3.1582577989996139 0 0 0 0 13.564886022824794 43.702017532217724 0 43.702017532217724 -185.60634607933753 0 0 0 0 100.58920633341768 -105.95374005862868 0 -105.95374005862868 -283.08420183844828 0 0 0 0 33.894467521182378 9.5959758932204409 0 9.5959758932204409 -9.0885882740481065 0 0 0 0 19.771286227208748 2.9156633643346979 0 2.9156633643346979 -0.53412100840530474 0 0 0 0 36.400410781218426 10.037023240805745 0 10.037023240805745 -0.37273808021601296 0 0 0 0 43.305661898646349 14.621731111206913 0 14.621731111206913 1.7752487429011543 0 0 0 0 113.44513678176736 104.37283752078187 0 104.37283752078187 -32.353058208997055 0 0 0 0 18.494905839185151 8.2639741960291673 0 8.2639741960291673 3.8056269917627263 0 0 0 0 80.523447398853023 37.610917375334907 0 37.610917375334907 -11.003829257127677 0 0 0 0 3.6800674816331593 63.561244987632477 0 63.561244987632477 82.348442155281077 0 0 0 0 83.994574941069004 29.694945834434066 0 29.694945834434066 2.0121794529113686 0 0 0 0 -51.776123851039699 66.993135008204746 0 66.993135008204746 114.5875013360419 0 0 0 0 -51.845326068621944 91.763836013058608 0 91.763836013058608 88.097534494663705 0 0 0 0 24.605519751804266 52.820388500355577 0 52.820388500355577 19.284669634749537 0 0 0 0 -34.070242515212158 31.98485407444241 0 31.98485407444241 -96.871622702840796 0 0 0 0 -15.38086955610197 86.378695620208873 0 86.378695620208873 59.927125673035334 0 0 0 0 33.434496564091262 7.8477499105200437 0 7.8477499105200437 -5.1329986943077772 0 0 0 0 31.798360202694312 2.1700212593787001 0 2.1700212593787001 -23.060930348917282 0 0 0 0 184.7831482210604 -43.706963616334178 0 -43.706963616334178 -157.95146664558987 0 0 0 0 52.402431852448714 15.161707648431076 0 15.161707648431076 -9.8448152035012839 0 0 0 0 17.791638196767963 4.5299608654834174 0 4.5299608654834174 -11.028558519805301 0 0 0 0 28.379533636016276 0.44040256632891328 0 0.44040256632891328 -19.327906944344249 0 0 0 0 9.7902320904986482 7.2204972413447308 0 7.2204972413447308 -33.976640272721852 0 0 0 0 62.427910024531471 -1.8178228162190351 0 -1.8178228162190351 -7.7515047598822484 0 0 0 0 -66.609818808326963 78.704407250007989 0 78.704407250007989 -18.765829330041015 0 0 0 0 44.685876761400309 3.5941531773246425 0 3.5941531773246425 -2.3361478271094711 0 0 0 0 13.974003454757735 -0.25715880743223174 0 -0.25715880743223174 -3.4835615196293537 0 0 0 0 14.768011906184256 7.4562922748918936 0 7.4562922748918936 -34.482382299644087 0 0 0 0 24.767546576275237 6.3809478597826015 0 6.3809478597826015 -1.7519235310523973 0 0 0 0 23.015721521714852 7.0330047228924712 0 7.0330047228924712 0.31089874496362047 0 0 0 0 15.160572750045787 26.94025818649073 0 26.94025818649073 4.2562354733419738 0 0 0 0 44.381989701256288 8.3748641642977599 0 8.3748641642977599 -3.6552624979172208 0 0 0 0 22.869766005023848 22.315924084138715 0 22.315924084138715 -124.24576385635919 0 0 0 0 211.12310963230266 9.0967068301806648 0 9.0967068301806648 -490.44156630011821 0 0 0 0 24.283195949000401 -5.3313869329204859 0 -5.3313869329204859 -6.0947716224729813 0 0 0 0 30.308782958658412 23.389697261674883 0 23.389697261674883 -124.40368669373493 0 0 0 0 29.979210092200731 72.650370317539085 0 72.650370317539085 10.241186444189086 0 0 0 0 185.71611559994926 244.10020807523512 0 244.10020807523512 158.45941970360337 0 0 0 0 5.1759259657919756 24.585349528041405 0 24.585349528041405 71.233266938690178 0 0 0 0 0.66019786199143482 -2.2048605533671974 0 -2.2048605533671974 1.2761475689918937 0 0 0 0 -86.862236591296096 6.364878785726205 0 6.364878785726205 52.590244538363436 0 0 0 0 -18.488256507504047 39.35842309135063 0 39.35842309135063 -35.798861456418308 0 0 0 0 5.7943869445278455 3.3736631391037974 0 3.3736631391037974 -17.161899646647196 0 0 0 0 209.48784810007783 -195.80698439223232 0 -195.80698439223232 100.67672289823736 0 0 0 0 281.78976027261524 155.36659096188987 0 155.36659096188987 -76.182025154368802 0 0 0 0 70.686616643477464 -57.700656633878452 0 -57.700656633878452 11.571596609604967 0 0 0 0 238.49840046062309 -56.31518447526372 0 -56.31518447526372 -18.225662390306354 0 0 0 0 116.59240753829363 3.4217753855130013 0 3.4217753855130013 -35.414639636350785 0 0 0 0 139.80540386795474 35.22457259893693 0 35.22457259893693 -24.857345837187495 0 0 0 0 -0.98276334791935582 1.9659685018602033 0 1.9659685018602033 -5.3162586199294068 0 0 0 0 13.589524642484321 95.728821060242922 0 95.728821060242922 -13.031453691621266 0 0 0 0 141.37832917463675 38.578664927387308 0 38.578664927387308 -18.268466336495408 0 0 0 0 69.084366459501325 34.833976417724671 0 34.833976417724671 24.269443894678602 0 0 0 0 84.318504510840285 49.131099322699583 0 49.131099322699583 25.382036997877485 0 0 0 0 59.053768049780047 49.63213371019242 0 49.63213371019242 2.8679846270946427 0 0 0 0 17.915020836233452 16.911037598857405 0 16.911037598857405 24.771615537453272 0 0 0 0 108.08919433900155 7.8921382811039393 0 7.8921382811039393 25.155688253623726 0 0 0 0 77.338369809018332 37.765718644296925 0 37.765718644296925 7.951034597765215 0 0 0 0 112.79462245086324 48.815103192098377 0 48.815103192098377 10.682942705534302 0 0 0 0 72.250385200997698 59.444933117564091 0 59.444933117564091 23.323078786504198 0 0 0 0 12.255128188099363 56.707164679977225 0 56.707164679977225 26.274636761708745 0 0 0 0 67.012362362409476 100.13526136653127 0 100.13526136653127 27.609061570648691 0 0 0 0 -202.36840226877393 47.731882737149135 0 47.731882737149135 58.177819501427621 0 0 0 0 8.7720336997345214 7.774237015719109 0 7.774237015719109 -4.8804626202201185 0 0 0 0 126.58941666872124 -27.797453034717364 0 -27.797453034717364 -34.734595100481329 0 0 0 0 209.41782390767185 32.661685056849819 0 32.661685056849819 -31.139541808037393 0 0 0 0 -1.5036370738659457 0.23918784107426916 0 0.23918784107426916 -2.3831321792334386 0 0 0 0 2.4198425870272331 -3.1376171084248199 0 -3.1376171084248199 50.369762917884145 0 0 0 0 -561.30527530019754 -27.238790337106821 0 -27.238790337106821 210.13359611967826 0 0 0 0 -12.85175513527065 -29.494296182391736 0 -29.494296182391736 10.534704960622548 0 0 0 0 -208.95425878328388 76.54047835363599 0 76.54047835363599 58.352237454915667 0 0 0 0 -312.88433033958427 -135.64503036886344 0 -135.64503036886344 30.802384739306945 0 0 0 0 -142.79864500538679 -66.631142716394606 0 -66.631142716394606 -112.80693947233158 0 0 0 0 -174.81096591505411 16.285883563831476 0 16.285883563831476 83.387949743664649 0 0 0 0 -52.78966520234826 54.678131129499889 0 54.678131129499889 -17.997471667372338 0 0 0 0 -53.182618268503575 105.45860401177151 0 105.45860401177151 129.7213377277767 0 0 0 0 -127.93871370716079 73.491952777651022 0 73.491952777651022 -73.458063359406879 0 0 0 0 -137.74134038064221 51.259930687602264 0 51.259930687602264 78.342717470493881 0 0 0 0 -51.061676757817622 124.63936246746744 0 124.63936246746744 47.575816308331014 0 0 0 0 25.747689683572389 56.285481390998939 0 56.285481390998939 263.91626927375364 0 0 0 0 0.32085318129975349 128.44963314369807 0 128.44963314369807 84.293094710147216 0 0 0 0 153.38159407706826 88.957896313359925 0 88.957896313359925 199.84354214434916 0 0 0 0 109.13857124678907 -103.31065365473933 0 -103.31065365473933 230.38367715560867 0 0 0 0 167.37464626691508 -51.006053502270788 0 -51.006053502270788 194.63505946674923 0 0 0 0 74.563866361157125 -41.082378397505636 0 -41.082378397505636 118.65854714495254 0 0 0 0 72.050449917849619 -54.687219507231021 0 -54.687219507231021 51.316615308048313 0 0 0 0 -52.359766603702155 39.458452978354785 0 39.458452978354785 183.36592420654233 0 0 0 0 -11.010639050757163 -17.327375234990541 0 -17.327375234990541 88.133972858213383 0 0 0 0 91.642306514913798 -92.691438113408822 0 -92.691438113408822 76.438850840837404 0 0 0 0 151.74576720684126 -144.92713761621326 0 -144.92713761621326 108.66935512553658 0 0 0 0 107.25980222471844 -73.80335627630302 0 -73.80335627630302 82.446364333181918 0 0 0 0 123.27268637761154 -156.77806880320986 0 -156.77806880320986 152.76244641928315 0 0 0 0 149.45271666581539 -157.49925573000905 0 -157.49925573000905 65.530548736011951 0 0 0 0 -281.89598935928007 -244.93852373774575 0 -244.93852373774575 70.309082237931761 0 0 0 0 1.0934585969860962 -1.6735968355085475 0 -1.6735968355085475 -0.15603784195019443 0 0 0 0 534.11807327403949 -111.53833833702424 0 -111.53833833702424 -9.6129967064680386 0 0 0 0 153.4006171792862 -131.66382377788705 0 -131.66382377788705 116.91104284608036 0 0 0 0 274.35359070476261 -89.331778959866369 0 -89.331778959866369 77.153361968523313 0 0 0 0 141.28950438708125 49.512647965860197 0 49.512647965860197 45.27899971248462 0 0 0 0 75.454473602309008 -1.9965103053036728 0 -1.9965103053036728 61.941715660674163 0 0 0 0 178.84935913896697 -59.286798329884732 0 -59.286798329884732 4.804302323005686 0 0 0 0 -7.4657971285778331 72.132892770270701 0 72.132892770270701 91.430872791004731 0 0 0 0 1.5304505125095602 -63.919253501829189 0 -63.919253501829189 25.387200335828311 0 0 0 0 7.219746797665664 6.9586919707829367 0 6.9586919707829367 2.5828565115850468 0 0 0 0 101.97140334843425 10.116531935433159 0 10.116531935433159 -93.122916070446081 0 0 0 0 3.2474672007665504 56.861136292517585 0 56.861136292517585 25.082250738150833 0 0 0 0 91.305361992446706 139.52737232613617 0 139.52737232613617 23.582386873815267 0 0 0 0 188.13416783056164 149.03702101695535 0 149.03702101695535 -144.10909203990559 0 0 0 0 0.23685549434509312 8.2366500954186286 0 8.2366500954186286 6.0507395418983645 0 0 0 0 10.763319010129635 34.501857536543639 0 34.501857536543639 -60.926484930314473 0 0 0 0 248.96408736139711 148.79579952689392 0 148.79579952689392 30.705704878047982 0 0 0 0 98.905888746390701 56.998218873797668 0 56.998218873797668 211.47212061734899 0 0 0 0 -0.41062787601350692 -0.23818972422706075 0 -0.23818972422706075 0.19078428480947274 0 0 0 0 43.554341538954759 96.51099091805736 0 96.51099091805736 29.152781193075043 0 0 0 0 97.80151432204002 75.707361124748786 0 75.707361124748786 33.088184825533062 0 0 0 0 40.027774370333645 86.660662762369611 0 86.660662762369611 43.795331941031691 0 0 0 0 42.422440672107768 71.113222958011761 0 71.113222958011761 114.63151010992442 0 0 0 0 78.996950968692545 121.88383540165296 0 121.88383540165296 97.668435012117698 0 0 0 0 80.423923663562164 1.0623082002375668 0 1.0623082002375668 63.311742865582232 0 0 0 0 81.682975990086561 -11.889139939764391 0 -11.889139939764391 95.762766087009368 0 0 0 0 43.108477095680428 -32.192917811305051 0 -32.192917811305051 106.47633546088036 0 0 0 0 63.770289102598326 59.864375012369692 0 59.864375012369692 -191.38107080988266 0 0 0 0 -206.41265075371484 372.35712415479156 0 372.35712415479156 135.41314908800268 0 0 0 0 -383.54265542945359 -71.141605666693067 0 -71.141605666693067 244.83806419652501 0 0 0 0 -41.904425241285935 77.387934049096657 0 77.387934049096657 -145.94535651214028 0 0 0 0 1.4921144433584175 0.55492468969702813 0 0.55492468969702813 0.3072292041371405 0 0 0 0 526.68628365565382 -193.51247091066585 0 -193.51247091066585 180.81984528718576 0 0 0 0 411.50434776246038 -333.35783484544424 0 -333.35783484544424 146.27529292411282 0 0 0 0 1.1883459530051326 -1.531525173297041 0 -1.531525173297041 24.144025128089549 0 0 0 0 634.68051229891717 -127.71378115651441 0 -127.71378115651441 1.6023383950830521 0 0 0 0 578.27671607974662 -95.524455464061376 0 -95.524455464061376 -15.175204658545141 0 0 0 0 506.25833978867013 99.410255377309269 0 99.410255377309269 86.426234966448362 0 0 0 0 458.20214595459402 37.905105137426347 0 37.905105137426347 456.63572859975261 0 0 0 0 585.75590468612518 -153.07908413607007 0 -153.07908413607007 190.75227768479576 0 0 0 0 409.95116100643645 -85.952535432920399 0 -85.952535432920399 199.96714402494575 0 0 0 0 427.81705856557528 -157.51616167175246 0 -157.51616167175246 316.86651102247947 0 0 0 0 278.96930686422274 -242.70588103067416 0 -242.70588103067416 313.35766990174011 0 0 0 0 375.77365967158403 -407.97265505696021 0 -407.97265505696021 151.18867997340294 0 0 0 0 301.71539849099645 -327.57748315941018 0 -327.57748315941018 351.01411169100811 0 0 0 0 279.38495250916458 -502.40235745465293 0 -502.40235745465293 41.576266826492571 0 0 0 0 231.49099229004059 -203.92178209757117 0 -203.92178209757117 70.685249622219089 0 0 0 0 320.68861156405183 -296.28836628457157 0 -296.28836628457157 179.18667543450329 0 0 0 0 285.03183413247461 -212.79983441357672 0 -212.79983441357672 -261.60496564206142 0 0 0 0 297.30730467269314 -462.57402308302721 0 -462.57402308302721 -247.92365166899813 0 0 0 0 -208.92059560921916 -727.22993108678111 0 -727.22993108678111 740.4342812255486 0 0 0 0 519.12753491937474 202.84211563311567 0 202.84211563311567 387.88391608418709 0 0 0 0 210.94249513774412 119.00949590144518 0 119.00949590144518 970.99685310877931 0 0 0 0 135.39445967208303 -102.02854563167955 0 -102.02854563167955 434.45004741855882 0 0 0 0 601.22282036967226 483.13462143325842 0 483.13462143325842 1302.2982355057011 0 0 0 0 1.0253297424397232 -0.79471158934171626 0 -0.79471158934171626 9.3669631203671582 0 0 0 0 709.82798119815561 -238.16562334641026 0 -238.16562334641026 68.463281406822716 0 0 0 0 502.44168673782019 93.532729356039525 0 93.532729356039525 468.0588118140713 0 0 0 0 502.56944252910034 84.473379202165574 0 84.473379202165574 423.2427112178425 0 0 0 0 306.78331036624877 48.912133886981962 0 48.912133886981962 421.31619683596273 0 0 0 0 -1.6011223295429602 -1.8839503427705893 0 -1.8839503427705893 -0.36740043416417389 0 0 0 0 488.66537383948162 103.38023548698447 0 103.38023548698447 321.24074905440557 0 0 0 0 909.92316644989478 356.17597390781384 0 356.17597390781384 376.29615412810824 0 0 0 0 1227.544456300122 111.95759784288157 0 111.95759784288157 220.57273352175162 0 0 0 0 844.89272489538416 160.15120723385144 0 160.15120723385144 413.24873112309115 0 0 0 0 921.34331908235617 20.275086125712278 0 20.275086125712278 446.63524544036318 0 0 0 0 1234.1513493803941 270.72798513090447 0 270.72798513090447 64.869656149334787 0 0 0 0 1037.1076550089747 287.43022644312975 0 287.43022644312975 106.93666308400952 0 0 0 0 633.82874753241413 -199.42135120167893 0 -199.42135120167893 148.07171932158599 0 0 0 0 1103.0121089659224 -12.6067232121909 0 -12.6067232121909 -47.4128662049593 0 0 0 0 418.61327781958244 -13.279569527956482 0 -13.279569527956482 127.35379162752497 0 0 0 0 1234.6032861288768 358.95451914486398 0 358.95451914486398 -198.58569733014156 0 0 0 0 1335.0210217456624 364.41909826061419 0 364.41909826061419 -202.85453227829839 0 0 0 0 1041.824070136674 748.43762033175199 0 748.43762033175199 417.85853822973513 0 0 0 0 576.81156156488578 254.70210899523681 0 254.70210899523681 87.872870839672032 0 0 0 0 176.72617595137126 294.87449719925053 0 294.87449719925053 529.84417398160804 0 0 0 0 107.33227951469598 170.27187267187765 0 170.27187267187765 389.57016917285091 0 0 0 0 -30.853676259546774 41.634351904075629 0 41.634351904075629 307.07856348685073 0 0 0 0 362.78357897864771 110.24377973772607 0 110.24377973772607 92.382793659511663 0 0 0 0 358.19514881350915 81.210725509784425 0 81.210725509784425 -4.5893642445162186 0 0 0 0 6.6843029385635191 3.8284509291147728 0 3.8284509291147728 -0.64079930382299999 0 0 0 0 669.95713797905773 -130.86615525489037 0 -130.86615525489037 -788.89977801512896 0 0 0 0 224.49636602336977 533.64256617375304 0 533.64256617375304 633.02663605909038 0 0 0 0 -120.41827095890767 -301.40478245738814 0 -301.40478245738814 -118.3461227171374 0 0 0 0 1712.3606486045755 345.24753541750965 0 345.24753541750965 -90.737603414333535 0 0 0 0 1201.3784864083136 357.93536210001093 0 357.93536210001093 -391.94932046157146 0 0 0 0 1233.82788469363 525.64385881922271 0 525.64385881922271 58.476152797486975 0 0 0 0 1033.2657505042116 373.99620138394431 0 373.99620138394431 264.51810163627488 0 0 0 0 6.2634656757041682 0.16057767789908439 0 0.16057767789908439 -3.2301152914897155 0 0 0 0 277.72140479346854 76.944476997176935 0 76.944476997176935 84.32257772454841 0 0 0 0 1334.4731381307602 907.40177201476308 0 907.40177201476308 543.76395260093568 0 0 0 0 586.85556801949861 385.17327799806822 0 385.17327799806822 468.18067541463142 0 0 0 0 11.421459856168923 -1.4523419054329594 0 -1.4523419054329594 -4.5777929501024506 0 0 0 0 438.28150178197575 369.32013166515071 0 369.32013166515071 180.6012422895808 0 0 0 0 -37.278662859127508 254.15661479060509 0 254.15661479060509 376.3579243811887 0 0 0 0 -172.56212582656008 50.043538769743009 0 50.043538769743009 19.03743748126027 0 0 0 0 238.50444450872601 189.77536806312219 0 189.77536806312219 -259.37608085431521 0 0 0 0 89.08508438833087 245.11340835464966 0 245.11340835464966 381.1978068539309 0 0 0 0 337.61227069618326 425.9257629940787 0 425.9257629940787 189.97347564331608 0 0 0 0 164.78989144556544 163.51921724342617 0 163.51921724342617 233.06646742609269 0 0 0 0 61.505702428898076 201.93691396346912 0 201.93691396346912 -23.79990894479306 0 0 0 0 11.816966664766369 216.09328333843632 0 216.09328333843632 247.31672341589638 0 0 0 0 11.668435179272024 6.504445420350951 0 6.504445420350951 -1.2539792189954506 0 0 0 0 229.96492549993854 337.02099237272569 0 337.02099237272569 -307.23805445259353 0 0 0 0 -328.56933553210547 253.6558097402019 0 253.6558097402019 140.8018678938588 0 0 0 0 374.99663996999152 -123.66856107595595 0 -123.66856107595595 650.77617393866967 0 0 0 0 218.68118195312127 420.09901893652432 0 420.09901893652432 58.039202499741805 0 0 0 0 244.64708703543874 147.29165590291905 0 147.29165590291905 159.7985824546181 0 0 0 0 -79.199249216391763 115.29621358946292 0 115.29621358946292 640.19750809388825 0 0 0 0 112.64214267241186 325.95867044459283 0 325.95867044459283 356.43392244641109 0 0 0 0 99.891167457826668 352.7507583192255 0 352.7507583192255 458.54945542476617 0 0 0 0 489.39327162556583 769.43750363159415 0 769.43750363159415 873.5961464711072 0 0 0 0 812.15626067576522 272.76778018428195 0 272.76778018428195 -113.38749173819087 0 0 0 0 221.53513687266968 53.488188000730588 0 53.488188000730588 92.168116438171637 0 0 0 0 -0.98153855048957439 -1.9712834605203611 0 -1.9712834605203611 -0.28139160106280769 0 0 0 0 185.57028239557985 -131.22259358397787 0 -131.22259358397787 57.587437751193647 0 0 0 0 57.975898739532568 375.00508335829181 0 375.00508335829181 338.08078958014357 0 0 0 0 1.9028868265450001 249.99405810077769 0 249.99405810077769 208.44829959888102 0 0 0 0 8.035106981835952 1.8723229506403207 0 1.8723229506403207 0.94537899758338906 0 0 0 0 63.720546177915821 210.55784295966555 0 210.55784295966555 26.070264311780193 0 0 0 0 -29.915913673357863 335.81122431505901 0 335.81122431505901 200.18553938858167 0 0 0 0 268.28502686554566 451.09802830162243 0 451.09802830162243 62.879521967430264 0 0 0 0 8.0316257166637683 1.3430146846069846 0 1.3430146846069846 -4.5302445827574775 0 0 0 0 7.9087415241474446 -10.94950891359403 0 -10.94950891359403 87.596880464379865 0 0 0 0 227.34238253321382 34.026216689318971 0 34.026216689318971 -127.5030997209933 0 0 0 0 13.415235123713501 -46.454753576254006 0 -46.454753576254006 43.975144641000952 0 0 0 0 118.06582896859618 -117.27510511032142 0 -117.27510511032142 -105.68957590489208 0 0 0 0 130.4668155265972 -145.3689121351963 0 -145.3689121351963 -42.401904782032943 0 0 0 0 61.955064514747903 -3.3652151636165399 0 -3.3652151636165399 -3.7655304502030846 0 0 0 0 -11.076334238002801 -0.20437470033741079 0 -0.20437470033741079 -27.125970589447206 0 0 0 0 -27.005834483657964 76.576662601961289 0 76.576662601961289 -25.367899940014468 0 0 0 0 131.78277351983706 -182.79869217513442 0 -182.79869217513442 -46.434570888067356 0 0 0 0 170.79321716056438 -119.98500172763306 0 -119.98500172763306 -26.708382584933133 0 0 0 0 -519.61785324894299 94.063993231571203 0 94.063993231571203 236.23019536690117 0 0 0 0 240.20696917036548 -60.626677639778791 0 -60.626677639778791 9.6165907722024713 0 0 0 0 115.10923928116972 296.87318866496207 0 296.87318866496207 272.21434858439534 0 0 0 0 182.53161727223778 -86.999886238016188 0 -86.999886238016188 -2.441782014164346 0 0 0 0 -93.233013349032262 133.41377277566244 0 133.41377277566244 198.04331965294296 0 0 0 0 349.0957601445989 348.88365973214331 0 348.88365973214331 288.330530771349 0 0 0 0 116.95495112100616 -1.5629800926508324 0 -1.5629800926508324 64.624180752409302 0 0 0 0 39.325734290265245 -168.59327796127218 0 -168.59327796127218 57.709431144895461 0 0 0 0 106.83998423587764 -27.814921943502668 0 -27.814921943502668 -202.84395065311128 0 0 0 0 1.1502785501866697 -2.1254223981930238 0 -2.1254223981930238 0.84081570162335062 0 0 0 0 223.49925350452395 67.901455930709744 0 67.901455930709744 -132.72063823461212 0 0 0 0 69.968850639648736 34.595261004708846 0 34.595261004708846 -57.386042045938211 0 0 0 0 64.163993038237095 23.262382800993237 0 23.262382800993237 -34.061111249808164 0 0 0 0 -4.8487349158676807 35.67048000496743 0 35.67048000496743 -61.714621536563754 0 0 0 0 0.064236676815198734 36.415432057316139 0 36.415432057316139 -41.727966327598324 0 0 0 0 -9.7793407520221081 -1.0498995336461121 0 -1.0498995336461121 -72.4832333083923 0 0 0 0 -4.4252770473685814 43.631947308901829 0 43.631947308901829 -44.896302376413587 0 0 0 0 -11.965403739406611 50.67725901785343 0 50.67725901785343 -16.736597575105407 0 0 0 0 16.95197244459996 61.286674437918919 0 61.286674437918919 -5.2596740961171236 0 0 0 0 14.22294868624158 10.706917377921741 0 10.706917377921741 1.1004031654292703 0 0 0 0 10.147430034980061 24.875706876321374 0 24.875706876321374 -41.952777313864772 0 0 0 0 -108.76593790145125 -0.094431281447441506 0 -0.094431281447441506 73.185339180023561 0 0 0 0 -3.9763951959102997 59.042351358245554 0 59.042351358245554 38.120702797705576 0 0 0 0 175.9271939304308 -23.032127419237668 0 -23.032127419237668 22.164215315781803 0 0 0 0 33.144118853495456 47.732146628387909 0 47.732146628387909 73.548903738730814 0 0 0 0 142.65174578431834 47.211923431203559 0 47.211923431203559 -31.35641287175531 0 0 0 0 134.42631262003488 19.649080740675515 0 19.649080740675515 127.00988474126643 0 0 0 0 231.88484897873423 25.979166936089996 0 25.979166936089996 90.159119278189792 0 0 0 0 417.81005358330731 -208.64777315517858 0 -208.64777315517858 141.29830785942886 0 0 0 0 360.84101185087638 -143.31301301186673 0 -143.31301301186673 35.686346799016434 0 0 0 0 151.03837288729483 -70.962673871309022 0 -70.962673871309022 170.46290156979444 0 0 0 0 367.96770734649908 -99.959025027203523 0 -99.959025027203523 285.5540681329781 0 0 0 0 467.62410091371567 -128.24498525953641 0 -128.24498525953641 232.88487924225606 0 0 0 0 676.01934970576258 73.930595936393104 0 73.930595936393104 218.059247896437 0 0 0 0 18.610105092026288 -0.7443570275070428 0 -0.7443570275070428 0.62497271812793542 0 0 0 0 525.60620539249794 -536.15154574304665 0 -536.15154574304665 -63.033594637057831 0 0 0 0 -186.81910743609478 127.51329152631661 0 127.51329152631661 117.01929116214842 0 0 0 0 69.308693252707599 -86.56548720750834 0 -86.56548720750834 252.82271405228084 0 0 0 0 98.136373852365068 295.63391641185353 0 295.63391641185353 -249.59923141892887 0 0 0 0 235.08533282189092 129.11784866965115 0 129.11784866965115 -89.409714579971478 0 0 0 0 110.86618245951831 154.94338006963471 0 154.94338006963471 -57.031906815325783 0 0 0 0 184.9205396270554 115.98700389312035 0 115.98700389312035 122.42815444183407 0 0 0 0 47.489928353919879 -2.1105925407565564 0 -2.1105925407565564 -0.27681875110320497 0 0 0 0 528.36924593136064 -31.624892229726811 0 -31.624892229726811 -467.86031161566643 0 0 0 0 59.755458228319185 237.79301633503019 0 237.79301633503019 293.79487631352094 0 0 0 0 114.03642872582714 62.59859624759747 0 62.59859624759747 390.72932919624509 0 0 0 0 905.67550377616135 1031.8857782482874 0 1031.8857782482874 1275.9212894127663 0 0 0 0 180.35073075304535 332.16016605382504 0 332.16016605382504 602.6919339837259 0 0 0 0 1963.4820626447327 824.36054456269449 0 824.36054456269449 133.72826179736057 0 0 0 0 1766.0397237794359 -372.45653843253649 0 -372.45653843253649 -127.78423994655168 0 0 0 0 1046.6959385137525 870.83398840521477 0 870.83398840521477 926.5855768474421 0 0 0 0 431.71410753865348 176.4126274564544 0 176.4126274564544 252.47340232076567 0 0 0 0 2203.3771498612623 84.799950283376802 0 84.799950283376802 -188.73636060053605 0 0 0 0 1061.9394935625096 0.92355984567097948 0 0.92355984567097948 -169.50899001104699 0 0 0 0 1505.3539373467356 700.42152691842716 0 700.42152691842716 321.43399697519635 0 0 0 0 1553.3832160827005 615.98628635394607 0 615.98628635394607 102.81840033422486 0 0 0 0 1489.1670170480065 624.2623533393546 0 624.2623533393546 262.52966732609093 0 0 0 0 1835.400642411405 -462.27545012209703 0 -462.27545012209703 -464.32642133433478 0 0 0 0 1167.0069504320963 -237.64182035611563 0 -237.64182035611563 -31.544054579908334 0 0 0 0 1573.9882709710364 687.2357307070256 0 687.2357307070256 224.24552800463755 0 0 0 0 1100.1178090523608 -23.07497765134633 0 -23.07497765134633 836.03378027038207 0 0 0 0 1.9813125073182718 0.37508266741190255 0 0.37508266741190255 12.942548967204466 0 0 0 0 519.06250453814573 626.14306523256369 0 626.14306523256369 111.96692127228221 0 0 0 0 16.088504988325781 -1.5002696698155393 0 -1.5002696698155393 -0.66810312616544332 0 0 0 0 1614.8107471591356 478.38428948583783 0 478.38428948583783 -282.54712641306895 0 0 0 0 678.82693371208734 -804.48838297650536 0 -804.48838297650536 -426.8912093748595 0 0 0 0 759.55992431337654 -593.01609181880349 0 -593.01609181880349 -152.244621205763 0 0 0 0 757.40015046476037 -572.66063726401546 0 -572.66063726401546 -281.31326180096244 0 0 0 0 1619.3856327629474 -521.64420320260433 0 -521.64420320260433 -435.51911732105077 0 0 0 0 909.88100709778519 79.704222056160461 0 79.704222056160461 68.521037750859705 0 0 0 0 1.3812217742291395 0.27692777658637624 0 0.27692777658637624 27.810863618122802 0 0 0 0 1720.4710059408098 1012.3628048662081 0 1012.3628048662081 815.49552024896525 0 0 0 0 1164.9030902847589 28.572428191072959 0 28.572428191072959 -74.592555392068789 0 0 0 0 790.66959725445486 -99.214445909586175 0 -99.214445909586175 -104.15627102676945 0 0 0 0 646.31336450652452 -358.70333520285294 0 -358.70333520285294 86.895432734219185 0 0 0 0 689.83668044693331 -372.31847087199509 0 -372.31847087199509 -77.006149660616757 0 0 0 0 1090.1050801257261 -383.7880542893181 0 -383.7880542893181 -174.33278292351815 0 0 0 0 1328.5877596318023 142.90896501679015 0 142.90896501679015 -98.357153548338886 0 0 0 0 1090.2040490730869 333.73940819331028 0 333.73940819331028 -27.812059068065764 0 0 0 0 939.58488808948823 247.90707730277623 0 247.90707730277623 63.712729355852844 0 0 0 0 1189.2767290240154 174.61114917614191 0 174.61114917614191 222.25413120895439 0 0 0 0 1120.9429015871356 521.58554408237626 0 521.58554408237626 354.01096786870221 0 0 0 0 761.07172444635216 512.60009603500532 0 512.60009603500532 395.55542262953804 0 0 0 0 1885.4205867110832 97.61186917717724 0 97.61186917717724 195.77544270369913 0 0 0 0 1145.8885108081886 831.14761676612034 0 831.14761676612034 655.68327296301391 0 0 0 0 1328.6370356549887 361.49539248620738 0 361.49539248620738 -11.224385412007166 0 0 0 0 914.81809303235059 139.10744940654709 0 139.10744940654709 201.95728930879471 0 0 0 0 657.29545419600618 321.54253704341096 0 321.54253704341096 125.24142457090306 0 0 0 0 769.50460435604327 195.22132031567014 0 195.22132031567014 848.754160062035 0 0 0 0 904.44151681018047 82.884761977809944 0 82.884761977809944 180.06551231680004 0 0 0 0 368.16134222863184 66.290359378874086 0 66.290359378874086 336.65581065160819 0 0 0 0 575.67046859567381 -320.42762187445248 0 -320.42762187445248 53.482876724020798 0 0 0 0 -180.23934212203312 -3.1844789708591179 0 -3.1844789708591179 123.71832423960365 0 0 0 0 997.83934955658697 177.12591139264686 0 177.12591139264686 -135.21110760047827 0 0 0 0 349.98871536212391 244.53703866440753 0 244.53703866440753 -16.011191386273595 0 0 0 0 796.00290313828737 110.24440458573326 0 110.24440458573326 -103.76192210148133 0 0 0 0 -56.944738643651363 -88.083523288899528 0 -88.083523288899528 -3.1119539032688408 0 0 0 0 455.7239809916282 44.041197271775275 0 44.041197271775275 -141.99925618902807 0 0 0 0 243.37795159735833 -212.76997809470902 0 -212.76997809470902 -33.945771796326881 0 0 0 0 161.9223494519174 -20.348587372197471 0 -20.348587372197471 -91.106286162596007 0 0 0 0 -0.27393923690067368 0.025848265838902762 0 0.025848265838902762 -8.8966688806674217 0 0 0 0 66.578950140275992 17.450319014041497 0 17.450319014041497 23.450533482176297 0 0 0 0 -68.318405508078285 -358.11832328057176 0 -358.11832328057176 402.27210508135454 0 0 0 0 489.70453260328941 -516.37773111147453 0 -516.37773111147453 235.12327411821161 0 0 0 0 525.71854214867926 -223.44133701727378 0 -223.44133701727378 145.2687451826061 0 0 0 0 0.24899071340452394 0.24817912116458274 0 0.24817912116458274 -2.2553310092673815 0 0 0 0 236.18706914952418 -281.44784132526797 0 -281.44784132526797 207.14819678630082 0 0 0 0 432.90377954517317 -238.04463720958461 0 -238.04463720958461 96.77445277586861 0 0 0 0 358.55335698375711 -292.89807277084032 0 -292.89807277084032 73.474376664133956 0 0 0 0 362.14886795994971 -358.22481118686676 0 -358.22481118686676 70.388916674886332 0 0 0 0 286.01808181669912 29.330067929553245 0 29.330067929553245 -56.652371005568455 0 0 0 0 94.697050843453326 -76.537365556571842 0 -76.537365556571842 -2.3887529157016161 0 0 0 0 -104.80115172464139 -41.826051407444879 0 -41.826051407444879 52.186210557214054 0 0 0 0 65.934306259136065 35.791989276796244 0 35.791989276796244 -15.367735635717622 0 0 0 0 -168.79337733413558 -151.20657561892199 0 -151.20657561892199 490.97509353215628 0 0 0 0 0.11155056609533176 -0.51850471793414954 0 -0.51850471793414954 6.8643176800791448 0 0 0 0 812.61778103989127 -9.8258346267617753 0 -9.8258346267617753 -98.462823122918962 0 0 0 0 1210.0401357946757 55.549431222799683 0 55.549431222799683 -49.9146092891649 0 0 0 0 4.0379199971338267 -4.1338904587218508 0 -4.1338904587218508 4.7503532116892542 0 0 0 0 952.67379945146968 -432.04331559614866 0 -432.04331559614866 -95.971532606066148 0 0 0 0 548.47968173611298 -390.22870947624858 0 -390.22870947624858 2.7095247544260701 0 0 0 0 0.53325159504525033 -0.90931861359408117 0 -0.90931861359408117 3.5940568801649144 0 0 0 0 284.81855010052095 -18.200744399420842 0 -18.200744399420842 -39.169177837335155 0 0 0 0 681.17488574704475 -277.07713742516557 0 -277.07713742516557 93.601177038404614 0 0 0 0 329.1797265689529 -59.429368582280233 0 -59.429368582280233 142.51733751782876 0 0 0 0 554.71137433274453 -38.579184606811822 0 -38.579184606811822 11.133637586500441 0 0 0 0 404.98470174925023 -26.662683928751989 0 -26.662683928751989 23.622615230442875 0 0 0 0 309.7019688419241 -113.91947797114189 0 -113.91947797114189 -0.0082572186299749162 0 0 0 0 122.46118828664476 19.103913340587429 0 19.103913340587429 47.953253078063575 0 0 0 0 119.81119464785297 5.7221721583162584 0 5.7221721583162584 -5.9937298027101065 0 0 0 0 0.19959470496098675 -0.96692242912449444 0 -0.96692242912449444 0.49635170666599848 0 0 0 0 5.4841567222028971 -2.5669848217367166 0 -2.5669848217367166 0.0066803089318762656 0 0 0 0 64.892629297275562 -23.418396606917298 0 -23.418396606917298 14.445425021643871 0 0 0 0 29.865137716391473 16.068243715589176 0 16.068243715589176 31.680186838705879 0 0 0 0 -65.578855208063032 -17.083978102633424 0 -17.083978102633424 40.877268248267683 0 0 0 0 12.041240956762636 -16.684135939087867 0 -16.684135939087867 16.319094438906895 0 0 0 0 105.50636498563108 -67.322413172824781 0 -67.322413172824781 -63.893605079008012 0 0 0 0 14.935431502748543 -71.529600584057832 0 -71.529600584057832 33.604062548306104 0 0 0 0 318.28263649356086 -94.803044199431895 0 -94.803044199431895 27.983909026550521 0 0 0 0 103.11228470304559 59.48630230815175 0 59.48630230815175 17.939244033368482 0 0 0 0 10.245894764708368 -11.103445889897529 0 -11.103445889897529 12.003487089004459 0 0 0 0 242.84948650845035 -83.993062837356092 0 -83.993062837356092 19.174856800553719 0 0 0 0 -90.945063489707536 -94.68991549232851 0 -94.68991549232851 10.233126490059476 0 0 0 0 35.265645841223886 13.017063433655039 0 13.017063433655039 -50.921152484781615 0 0 0 0 92.920715162865235 8.0861306114920808 0 8.0861306114920808 -51.754836076000629 0 0 0 0 65.676549985786551 64.808266539385045 0 64.808266539385045 -142.50944033507159 0 0 0 0 296.13386480436748 42.106842083049571 0 42.106842083049571 85.38753461562419 0 0 0 0 -0.19479783215055591 0.63057388307066731 0 0.63057388307066731 -1.5137704059803694 0 0 0 0 18.06395470413554 50.666612419068144 0 50.666612419068144 -28.679388795351315 0 0 0 0 43.808200090352329 9.1456203848366044 0 9.1456203848366044 -9.7164568472624069 0 0 0 0 35.112637299855123 9.0248472156276875 0 9.0248472156276875 4.3200057230257016 0 0 0 0 4.9854336585096064 3.0026890639865655 0 3.0026890639865655 -5.8812138701601793 0 0 0 0 37.495035599044058 -0.20365866468648619 0 -0.20365866468648619 -9.1704188854960194 0 0 0 0 33.727026732827653 -3.084820361497691 0 -3.084820361497691 -16.197129074277882 0 0 0 0 4.678924295173374 -0.94985371259082285 0 -0.94985371259082285 -17.033628261349364 0 0 0 0 28.476310611149529 0.66115863330560387 0 0.66115863330560387 -5.5658855707595194 0 0 0 0 28.523551181482617 -1.0698238771708475 0 -1.0698238771708475 -5.4245347348605719 0 0 0 0 23.581577159780238 4.2408534738348749 0 4.2408534738348749 -3.3424788547605231 0 0 0 0 27.740973774023587 -1.839220495812242 0 -1.839220495812242 -3.9120932548230485 0 0 0 0 28.686864195013186 -0.81743651309261622 0 -0.81743651309261622 -5.4075734907697779 0 0 0 0 10.533236088166056 -8.9522164453266271 0 -8.9522164453266271 3.8904532518491415 0 0 0 0 12.44730814488139 -6.4435368936368604 0 -6.4435368936368604 -2.4663333667338065 0 0 0 0 11.623242526017549 -7.9495000403499034 0 -7.9495000403499034 -4.306708625425375 0 0 0 0 24.456258614169201 -1.6078054573388441 0 -1.6078054573388441 -0.0025106558565527737 0 0 0 0 15.201410859822772 -6.4097945393623803 0 -6.4097945393623803 0.97262708954199795 0 0 0 0 24.307423375576036 0.56580086291574871 0 0.56580086291574871 -4.7477054706231732 0 0 0 0 25.737115907439147 -1.1102729712445969 0 -1.1102729712445969 -3.7805830680794901 0 0 0 0 2.5766813159004016 -0.66257038779281174 0 -0.66257038779281174 -0.17198349546397998 0 0 0 0 25.758182402700186 -2.2162759768059188 0 -2.2162759768059188 -2.4151797306291849 0 0 0 0 24.948790877009742 0.17648068349854124 0 0.17648068349854124 1.0160907756858752 0 0 0 0 25.725006759195821 -0.75668658283088264 0 -0.75668658283088264 -1.9601140868227374 0 0 0 0 28.233086126638227 0.11107270135969893 0 0.11107270135969893 0.72244195536742051 0 0 0 0 24.416088488302194 0.16183882305904262 0 0.16183882305904262 -4.512804914276785 0 0 0 0 29.611049990235188 8.7679029378914493 0 8.7679029378914493 -8.6626132913677338 0 0 0 0 23.165223542779188 4.2584800046494991 0 4.2584800046494991 -3.3384171367832254 0 0 0 0 1776.2633991743205 165.53625458020679 0 165.53625458020679 -131.85035158829834 0 0 0 0 2011.2291453543876 -333.68567512764122 0 -333.68567512764122 52.672084215676868 0 0 0 0 865.15828913982841 -230.5116359535989 0 -230.5116359535989 120.01441513968567 0 0 0 0 8.5895437932259 -2.700763933568453 0 -2.700763933568453 0.46019320206832687 0 0 0 0 2157.7187030054702 77.135750374520697 0 77.135750374520697 -138.33158812816112 0 0 0 0 23.196647624063189 -1.2103859983501115 0 -1.2103859983501115 0.0005103573937793143 0 0 0 0 3.1248836321313718 -1.339926126363963 0 -1.339926126363963 0.36948197294342533 0 0 0 0 1827.7790617946885 -80.600284100127851 0 -80.600284100127851 0.10517102816518534 0 0 0 0 1764.6962117616786 40.583077170627263 0 40.583077170627263 86.456239907315108 0 0 0 0 1805.5714458824805 107.92546801036238 0 107.92546801036238 -41.716167354493791 0 0 0 0 1940.64382994076 385.75501417046701 0 385.75501417046701 176.48037612099159 0 0 0 0 1719.3637060677138 12.721701277040609 0 12.721701277040609 -255.22680858398326 0 0 0 0 1541.233645002354 135.34103758570043 0 135.34103758570043 556.87320847520641 0 0 0 0 1490.7011442839139 -141.68421294355983 0 -141.68421294355983 326.1428562336248 0 0 0 0 427.24919966572634 60.613393947437118 0 60.613393947437118 69.864608719206444 0 0 0 0 961.49909735791152 829.72340981399316 0 829.72340981399316 395.05384850147118 0 0 0 0 5.7976847143822852 1.9886186024866817 0 1.9886186024866817 0.0061711921779346035 0 0 0 0 1127.2693273333534 198.95595087693556 0 198.95595087693556 10.820727747253159 0 0 0 0 1119.1199275483241 304.73593707338495 0 304.73593707338495 -161.07080089665487 0 0 0 0 628.99492914261646 433.7619331951812 0 433.7619331951812 178.07840589604319 0 0 0 0 1261.0049957716255 70.179960580038482 0 70.179960580038482 54.525534510195712 0 0 0 0 1510.5052797454191 -67.788469349166519 0 -67.788469349166519 -49.885241391634736 0 0 0 0 84.91351653370657 134.00704310207547 0 134.00704310207547 -158.88794088232316 0 0 0 0 30.8806778882863 317.8649158443277 0 317.8649158443277 -451.15765992672209 0 0 0 0 106.98688020787966 32.000651272572206 0 32.000651272572206 7.2265718821397584 0 0 0 0 41.023342386150034 128.51409600430185 0 128.51409600430185 -110.56439864105369 0 0 0 0 -15.437651239897605 162.01162404538496 0 162.01162404538496 -322.60441533871563 0 0 0 0 10.026950021769153 193.40430345483765 0 193.40430345483765 -227.1351803496641 0 0 0 0 -16.872441757393972 141.52071336546857 0 141.52071336546857 -120.02764429472336 0 0 0 0 -134.8484442140616 -39.738933341181109 0 -39.738933341181109 -344.95086774490846 0 0 0 0 -8.7639124635024928 77.014275564270065 0 77.014275564270065 -486.7971679538573 0 0 0 0 -133.40086981269997 10.085552039294271 0 10.085552039294271 -98.050611112928891 0 0 0 0 -445.20688210232765 54.143309938870516 0 54.143309938870516 336.4928498681893 0 0 0 0 99.230530474852515 38.630576399005058 0 38.630576399005058 7.3865979231438246 0 0 0 0 84.923154022078961 120.28843299418665 0 120.28843299418665 -182.63865255259898 0 0 0 0 354.48485524649732 423.06123692153687 0 423.06123692153687 67.538180507342986 0 0 0 0 85.622708744223928 112.69536184014063 0 112.69536184014063 -147.92132156521225 0 0 0 0 100.50683070177911 113.28320069120085 0 113.28320069120085 -184.42168559730226 0 0 0 0 78.85766034561675 112.89978326191272 0 112.89978326191272 -126.43452572523711 0 0 0 0 92.857357449887786 104.76636286037041 0 104.76636286037041 -133.72908480556211 0 0 0 0 96.422254178207368 109.47452728960252 0 109.47452728960252 -129.90506087973338 0 0 0 0 87.674692899403453 88.230296868963237 0 88.230296868963237 -88.344687277720993 0 0 0 0 75.291688780067489 74.247910161577806 0 74.247910161577806 -156.88417814304742 0 0 0 0 32.80649615713628 89.11545968540787 0 89.11545968540787 -118.29942210075262 0 0 0 0 76.863282248916221 106.33656805125331 0 106.33656805125331 -111.57149060358677 0 0 0 0 67.052646879907115 100.60351316385258 0 100.60351316385258 -48.343810442067024 0 0 0 0 66.958114251341613 85.705139746978006 0 85.705139746978006 -86.791335409455598 0 0 0 0 99.870270116836764 92.339735911682794 0 92.339735911682794 -85.459250304042556 0 0 0 0 87.639146345172776 75.492450212467205 0 75.492450212467205 -46.543038847265166 0 0 0 0 105.44050861446885 92.530507981326878 0 92.530507981326878 -87.613577511632428 0 0 0 0 90.7302676391555 69.785453814888413 0 69.785453814888413 -1.1094436815006361 0 0 0 0 123.76710555640057 82.839502342605158 0 82.839502342605158 -45.10681324565104 0 0 0 0 104.5139551833272 89.196107022010779 0 89.196107022010779 -47.662126414434866 0 0 0 0 83.643940690613817 108.14689794489217 0 108.14689794489217 -24.743300310112978 0 0 0 0 69.546805902937194 86.626607890700257 0 86.626607890700257 -74.508990273587131 0 0 0 0 85.42407104789163 112.02602743401533 0 112.02602743401533 -116.21326810930782 0 0 0 0 71.808029654901475 113.24204908642304 0 113.24204908642304 -77.235536997576844 0 0 0 0 93.70169604482362 83.348580779963925 0 83.348580779963925 -153.56307800530533 0 0 0 0 66.219076236302499 71.192573250749518 0 71.192573250749518 -58.500157254276587 0 0 0 0 83.548714384240157 111.39902528336107 0 111.39902528336107 -75.610588736791328 0 0 0 0 97.774743697365921 35.29796810916492 0 35.29796810916492 7.8122576672205915 0 0 0 0 69.173461327164659 114.35017223713469 0 114.35017223713469 -37.940894253589136 0 0 0 0 18.418039224600307 -4.8621898518068036 0 -4.8621898518068036 -6.0492170017931155 0 0 0 0 412.47525444999337 -150.81583375656646 0 -150.81583375656646 -233.91270761445594 0 0 0 0 45.830684866930824 74.651522030656395 0 74.651522030656395 -70.247434476288674 0 0 0 0 -7.3909057115561154 118.72039952307725 0 118.72039952307725 -343.98472619170752 0 0 0 0 61.082412701364888 18.855205780124194 0 18.855205780124194 2.337555173110637 0 0 0 0 84.154981716914335 73.042362312471226 0 73.042362312471226 -57.462641478989539 0 0 0 0 -40.971001577739571 411.54079524230673 0 411.54079524230673 -337.66569500254445 0 0 0 0 132.21814278347301 170.9537319765177 0 170.9537319765177 -285.34518229480477 0 0 0 0 -59.748872646130621 415.73605101515204 0 415.73605101515204 -186.09942499766112 0 0 0 0 -86.089978998643346 375.61363750919645 0 375.61363750919645 -5.290556872572779 0 0 0 0 84.248980029209633 131.94632642061242 0 131.94632642061242 -158.61221224966721 0 0 0 0 18.633976162149338 123.85798414605324 0 123.85798414605324 -14.544409666469619 0 0 0 0 -8.4022385242424207 166.14038677138024 0 166.14038677138024 3.9353506983334228 0 0 0 0 56.640067966174684 255.22204644531143 0 255.22204644531143 22.740188344836497 0 0 0 0 55.553623629966751 206.96138257906023 0 206.96138257906023 -165.12554018747142 0 0 0 0 -13.904971797761391 198.47785717003217 0 198.47785717003217 111.90899586609157 0 0 0 0 0.051937308060587384 188.31817390396782 0 188.31817390396782 9.3755212493560975 0 0 0 0 54.586108084480657 171.03560814428465 0 171.03560814428465 41.15823997670941 0 0 0 0 92.685641447606031 269.09014369060696 0 269.09014369060696 -175.16291855940881 0 0 0 0 76.814722238585091 224.11663065581797 0 224.11663065581797 161.38225274356955 0 0 0 0 138.35340201318104 88.063883204889294 0 88.063883204889294 249.97899341966331 0 0 0 0 7.1716211703314912 156.38053907647418 0 156.38053907647418 97.630864337090088 0 0 0 0 1.7452102745610318 197.42285850710283 0 197.42285850710283 95.772728336163709 0 0 0 0 -31.044265487289522 198.08872628862082 0 198.08872628862082 126.93316346132875 0 0 0 0 -26.399373399624892 195.08705596555956 0 195.08705596555956 101.91056305690472 0 0 0 0 -40.75136711828236 200.10920962558248 0 200.10920962558248 100.77715000871558 0 0 0 0 -46.189762202251586 165.88713498079233 0 165.88713498079233 78.949153074169317 0 0 0 0 7.5351906392315868 355.18463333523141 0 355.18463333523141 86.885538209558945 0 0 0 0 -38.893384317121672 158.39018404974934 0 158.39018404974934 49.341649202506233 0 0 0 0 -25.753096102474956 114.9249105258059 0 114.9249105258059 -124.68555834907306 0 0 0 0 -56.630804298416479 175.31419126398487 0 175.31419126398487 33.697580300745358 0 0 0 0 -118.30213466366695 39.81826023647784 0 39.81826023647784 -69.980048320528113 0 0 0 0 -10.942528247534497 1.8505498503732412 0 1.8505498503732412 5.2195610563132782 0 0 0 0 225.93529147333538 166.24832077312567 0 166.24832077312567 -6.4601111476231381 0 0 0 0 -12.497600727900391 54.542932302284385 0 54.542932302284385 15.238111856188629 0 0 0 0 17.447306243508137 91.876874316527278 0 91.876874316527278 33.910166746658433 0 0 0 0 -130.04470325672082 23.744849945222995 0 23.744849945222995 42.129280249085241 0 0 0 0 111.9093171153072 78.237333713817378 0 78.237333713817378 20.551703901916351 0 0 0 0 88.456532736105146 64.829657092341506 0 64.829657092341506 22.483992899874863 0 0 0 0 136.03315145686065 56.135602981445999 0 56.135602981445999 -5.4808068923583733 0 0 0 0 115.47634149218356 47.868270053400423 0 47.868270053400423 -5.3077909144940918 0 0 0 0 116.54256955843448 77.378546078700225 0 77.378546078700225 -5.5549273376822157 0 0 0 0 131.10573325314908 84.992624779829498 0 84.992624779829498 -10.709931038594533 0 0 0 0 157.82778261011117 74.981859042394987 0 74.981859042394987 -24.224817294961554 0 0 0 0 106.48054882995348 85.044477762926164 0 85.044477762926164 12.955289620486667 0 0 0 0 125.10180963401217 108.61341089876395 0 108.61341089876395 -13.088676428844028 0 0 0 0 92.656993566430174 96.750821461750036 0 96.750821461750036 49.839903150353621 0 0 0 0 112.92552545655053 92.986188256324567 0 92.986188256324567 22.674909923387304 0 0 0 0 117.24873502168339 94.458746550295984 0 94.458746550295984 -10.457224342422208 0 0 0 0 91.953209408937255 127.77201061081396 0 127.77201061081396 59.919561104324259 0 0 0 0 119.91747251947527 120.81368675996164 0 120.81368675996164 -28.344134182682694 0 0 0 0 105.54070486640558 212.40405414811795 0 212.40405414811795 36.924671206546698 0 0 0 0 194.04982373054372 226.79572600136444 0 226.79572600136444 -113.04361924808251 0 0 0 0 131.9312658914132 21.84916836367205 0 21.84916836367205 29.968281027011813 0 0 0 0 -10.562532024241079 9.8878899081461427 0 9.8878899081461427 10.217393592406383 0 0 0 0 159.26834178600984 36.910468501132911 0 36.910468501132911 -19.258520788160105 0 0 0 0 176.26043066619604 43.43115672305769 0 43.43115672305769 -17.939282282771636 0 0 0 0 142.37958071618777 57.48638870171574 0 57.48638870171574 -19.080797007350185 0 0 0 0 0.02543559252287686 1.1611545089685364 0 1.1611545089685364 2.9365376985010374 0 0 0 0 154.67994004041248 36.71278159245005 0 36.71278159245005 -11.779952189632937 0 0 0 0 184.58207319953999 -2.9400440545835584 0 -2.9400440545835584 -14.294436517764368 0 0 0 0 184.74213311218773 6.6855289705064678 0 6.6855289705064678 4.6874998744645211 0 0 0 0 176.50342249176174 37.428407722060918 0 37.428407722060918 -32.67799780638569 0 0 0 0 201.27931834966876 19.452440942830066 0 19.452440942830066 -22.615891991008372 0 0 0 0 219.54537494237593 5.7422617355049255 0 5.7422617355049255 -0.36495243575571124 0 0 0 0 228.22952088093734 24.117823562521693 0 24.117823562521693 -25.105854959297531 0 0 0 0 207.84342042947537 -14.321986507748207 0 -14.321986507748207 -11.535885714689684 0 0 0 0 157.02910163684282 75.953179592260582 0 75.953179592260582 -67.793813688945534 0 0 0 0 140.47874760741252 55.527646924299489 0 55.527646924299489 -92.970617418010448 0 0 0 0 125.48102746863151 89.840611662123024 0 89.840611662123024 -112.73050459840587 0 0 0 0 85.233724591322243 77.699262302113539 0 77.699262302113539 -78.08941221811196 0 0 0 0 101.63070251373938 77.014875722393882 0 77.014875722393882 -107.97683177891554 0 0 0 0 52.843934030737728 107.12460014812831 0 107.12460014812831 -115.89490229814227 0 0 0 0 22.650277774169808 91.439694060009145 0 91.439694060009145 -128.4403644594741 0 0 0 0 90.382089915292454 63.71651739263298 0 63.71651739263298 -129.1981438335404 0 0 0 0 46.953162378631532 133.58368677247464 0 133.58368677247464 -149.11822447553195 0 0 0 0 56.318963413883466 118.05779911460675 0 118.05779911460675 -217.51672216844611 0 0 0 0 49.884684213786386 87.773402814798729 0 87.773402814798729 -209.50104518788851 0 0 0 0 28.547411849955097 40.117425745765054 0 40.117425745765054 -303.06089159713935 0 0 0 0 9.2604958078345447 4.3261142892328905 0 4.3261142892328905 1.4706311330418596 0 0 0 0 146.2170935588656 85.797252321235305 0 85.797252321235305 -250.44369826290333 0 0 0 0 71.369814303587191 261.57801252362344 0 261.57801252362344 -122.84846978175165 0 0 0 0 -70.466979448392522 122.86621804934526 0 122.86621804934526 -13.813170112085231 0 0 0 0 139.48093292408157 166.33209210083012 0 166.33209210083012 -87.860465505635375 0 0 0 0 135.48509393324639 113.33755232698265 0 113.33755232698265 -83.221195402540701 0 0 0 0 155.58255867665866 103.69518710358528 0 103.69518710358528 -120.97092894497794 0 0 0 0 158.19676170104503 90.355752255953604 0 90.355752255953604 -54.495552976036791 0 0 0 0 149.06246961245779 93.65927057793202 0 93.65927057793202 -55.651821252367469 0 0 0 0 160.21268536774733 71.142756292851644 0 71.142756292851644 -46.826226003460434 0 0 0 0 175.33800772324321 54.856478872720778 0 54.856478872720778 -37.940823913494455 0 0 0 0 203.55642463081222 52.054615268304154 0 52.054615268304154 -51.262097203931511 0 0 0 0 178.56069366607699 71.496861272316409 0 71.496861272316409 -85.048241687008641 0 0 0 0 190.20495999690866 59.021403915040814 0 59.021403915040814 -51.209871622282066 0 0 0 0 189.84260518359952 29.035240587809355 0 29.035240587809355 -23.268862994139738 0 0 0 0 227.32215249906585 41.268966199732297 0 41.268966199732297 -20.503070383764509 0 0 0 0 154.15340233096504 49.669963754727434 0 49.669963754727434 -10.565765370406105 0 0 0 0 158.9801987662795 43.577697844875885 0 43.577697844875885 -43.443458026604134 0 0 0 0 165.54029036598513 40.929928239228715 0 40.929928239228715 -63.470142161235088 0 0 0 0 131.98393239232246 69.103598879648445 0 69.103598879648445 -48.789371633870701 0 0 0 0 138.94479181536008 67.4613611295471 0 67.4613611295471 -81.756068977327118 0 0 0 0 104.36871705502745 60.953571185272068 0 60.953571185272068 -49.352782018684081 0 0 0 0 120.13334182082872 54.076916670567492 0 54.076916670567492 -11.07539301620406 0 0 0 0 142.08316067152191 72.617268893524823 0 72.617268893524823 -45.807663190309114 0 0 0 0 125.64588030704181 71.717763969841513 0 71.717763969841513 38.176762910241138 0 0 0 0 163.96172801891225 59.172160745521943 0 59.172160745521943 -10.986081272028628 0 0 0 0 164.51353453144839 64.541319267211122 0 64.541319267211122 38.338562732598461 0 0 0 0 220.29996242406196 41.465624031085 0 41.465624031085 27.942862565039249 0 0 0 0 156.45100736462336 51.139837497489481 0 51.139837497489481 29.856372702307937 0 0 0 0 248.68350783636561 21.811258078716897 0 21.811258078716897 29.046995887324641 0 0 0 0 201.36994955092086 41.496804328579586 0 41.496804328579586 -14.231188460520492 0 0 0 0 190.50573939608876 22.997399529971176 0 22.997399529971176 34.806606986195931 0 0 0 0 207.07822785932512 37.148091541013017 0 37.148091541013017 74.730465032694212 0 0 0 0 237.90540444783983 7.2315216172745451 0 7.2315216172745451 87.07484692013189 0 0 0 0 252.90533984338981 63.822640919190349 0 63.822640919190349 62.632380272560496 0 0 0 0 168.03385635618179 105.41497179915109 0 105.41497179915109 110.47981463246674 0 0 0 0 165.73928044522472 71.247870585597468 0 71.247870585597468 62.248657908274637 0 0 0 0 154.78308670649722 14.772888494681277 0 14.772888494681277 130.54746985541792 0 0 0 0 249.52235923420812 -3.3013710912153158 0 -3.3013710912153158 -9.6981224489162194 0 0 0 0 238.23014952904487 40.185957754888818 0 40.185957754888818 34.261576341717529 0 0 0 0 230.66465503936706 -24.439974374411623 0 -24.439974374411623 105.24475532389977 0 0 0 0 276.50039909093175 -24.658178068936593 0 -24.658178068936593 89.074255005242648 0 0 0 0 275.03361643791141 -165.60746040120193 0 -165.60746040120193 282.43382521358456 0 0 0 0 408.03665378509322 -111.65640070376456 0 -111.65640070376456 38.995318766447653 0 0 0 0 567.8902034933335 -204.66248134581929 0 -204.66248134581929 90.438856246433488 0 0 0 0 292.68783481504943 -64.019936660217382 0 -64.019936660217382 130.98390921582467 0 0 0 0 412.61106376166481 -79.692266877461833 0 -79.692266877461833 83.888767542473701 0 0 0 0 476.83789383953626 -102.0148765811128 0 -102.0148765811128 -0.13284058291241393 0 0 0 0 272.92931601224336 33.879668168111507 0 33.879668168111507 94.196375502655741 0 0 0 0 311.72417216219037 113.23611931115765 0 113.23611931115765 108.75136347564313 0 0 0 0 309.29445049513015 25.41770212030341 0 25.41770212030341 84.802096412054112 0 0 0 0 409.63911557020765 -36.035329398070658 0 -36.035329398070658 0.53043038306871326 0 0 0 0 513.38727644232858 73.359348545184588 0 73.359348545184588 96.219284170396449 0 0 0 0 376.02095929648931 247.82834837560483 0 247.82834837560483 223.07775151819678 0 0 0 0 1.6979856742182164 -0.016706198995905197 0 -0.016706198995905197 -0.087187728387195962 0 0 0 0 0.99233133702364285 -1.7259424018897738 0 -1.7259424018897738 0.0026927782054870031 0 0 0 0 12.392201229726197 -1.7819064879285083 0 -1.7819064879285083 -0.0087934521345141431 0 0 0 0 5.4599272558625671 1.8669168916029526 0 1.8669168916029526 -0.060024670224871457 0 0 0 0 6.2920326658204431 -4.0340394826659329 0 -4.0340394826659329 -1.5363823457642281 0 0 0 0 4.0636810402818355 -0.47753416086277412 0 -0.47753416086277412 -0.67456285185976583 0 0 0 0 5.7912095826623045 1.2614410143750401 0 1.2614410143750401 2.8347166977629588 0 0 0 0 113.77713128652249 111.31168714569672 0 111.31168714569672 158.74232827242335 0 0 0 0 113.60313842375763 158.9177577063227 0 158.9177577063227 196.1522879243854 0 0 0 0 118.51280463518924 116.02069084821855 0 116.02069084821855 102.0897885011435 0 0 0 0 139.68028414268338 74.96796292126993 0 74.96796292126993 84.577547878718889 0 0 0 0 71.163687909051077 93.215164979908337 0 93.215164979908337 154.58718699568098 0 0 0 0 73.308692466467619 80.214957753720057 0 80.214957753720057 84.691959311674921 0 0 0 0 88.411282848217525 102.45264147022606 0 102.45264147022606 44.625799538318418 0 0 0 0 53.81331229575153 83.618513457698725 0 83.618513457698725 39.667158365353018 0 0 0 0 72.832719512294716 79.508216812880107 0 79.508216812880107 14.176500448822964 0 0 0 0 133.47306258516619 82.973674795721166 0 82.973674795721166 2.926268674928501 0 0 0 0 132.93440357485088 95.731827957923116 0 95.731827957923116 70.481983034053073 0 0 0 0 106.31591497003683 69.809577394999977 0 69.809577394999977 46.394357965621062 0 0 0 0 106.3858320817817 101.02706078319181 0 101.02706078319181 24.763629462880466 0 0 0 0 16.989819483813847 5.7804032617562484 0 5.7804032617562484 0.36680276925454547 0 0 0 0 63.319893096879241 82.435913088465981 0 82.435913088465981 26.762044729321758 0 0 0 0 79.027602623969869 103.14203250673789 0 103.14203250673789 30.102595222691043 0 0 0 0 64.82700103901152 101.77896968317597 0 101.77896968317597 20.924785035408746 0 0 0 0 84.005775003752206 86.4680622503314 0 86.4680622503314 -25.525891128392715 0 0 0 0 87.350814463730785 63.108386165993693 0 63.108386165993693 39.381965127198313 0 0 0 0 3.5006472863662452 -2.2100793612843717 0 -2.2100793612843717 0.069604631064693778 0 0 0 0 46.116887392912759 83.291483790988622 0 83.291483790988622 125.40432200770231 0 0 0 0 79.146387254151705 118.19188002108315 0 118.19188002108315 128.72207953478301 0 0 0 0 37.169006295742292 24.984835118783188 0 24.984835118783188 12.415155464985778 0 0 0 0 62.939477659936529 19.680684068946118 0 19.680684068946118 8.8682482615143812 0 0 0 0 25.939532637836237 4.4752481505801009 0 4.4752481505801009 -0.22675463633795712 0 0 0 0 23.014986275462434 8.3062864989959806 0 8.3062864989959806 1.5381982049439671 0 0 0 0 31.158269617328187 9.3597125629237965 0 9.3597125629237965 -1.5046822402811293 0 0 0 0 26.059879625536269 1.3383314500654186 0 1.3383314500654186 -1.604412569686019 0 0 0 0 52.028146460303105 -10.363428943554734 0 -10.363428943554734 0.039718477658803104 0 0 0 0 40.112964804138755 3.6336117155034211 0 3.6336117155034211 -12.6728593509464 0 0 0 0 54.271334727047361 -18.971167641036843 0 -18.971167641036843 -35.82547369059786 0 0 0 0 -15.001839614182245 -100.28216098453485 0 -100.28216098453485 -0.38090659217739448 0 0 0 0 84.896697501411836 -30.427801490994938 0 -30.427801490994938 -109.00329399533453 0 0 0 0 6.1153625552251469 3.5615603091811394 0 3.5615603091811394 -47.099785399797724 0 0 0 0 84.69149367371574 -6.3348358065827242 0 -6.3348358065827242 -24.708236309287493 0 0 0 0 82.274243958168881 -27.664749660831404 0 -27.664749660831404 -34.365279524848219 0 0 0 0 65.960277098158258 25.617262827383158 0 25.617262827383158 -16.477357180122585 0 0 0 0 81.491418195189908 10.968760564830355 0 10.968760564830355 -58.138187485099728 0 0 0 0 58.124743843189208 13.417666951649155 0 13.417666951649155 -11.019339941369743 0 0 0 0 67.163232225459069 11.97709385663398 0 11.97709385663398 -11.514083981974514 0 0 0 0 17.4164927846723 -375.94718958489216 0 -375.94718958489216 -262.71642594247186 0 0 0 0 -283.7405458475987 -295.97851669567387 0 -295.97851669567387 0.43013575839144974 0 0 0 0 -137.14402825658908 -288.75886912997288 0 -288.75886912997288 -290.50786723759455 0 0 0 0 49.748859557876131 2.4415806352813831 0 2.4415806352813831 -341.4357729116457 0 0 0 0 -127.54653608528315 -230.55100381107462 0 -230.55100381107462 92.567447267271291 0 0 0 0 16.013024375437766 -10.027882282661835 0 -10.027882282661835 -5.9915334268318308 0 0 0 0 -2.9340747460699959 -0.95253012903343404 0 -0.95253012903343404 1.0758202515195354 0 0 0 0 -109.91595140337449 -301.17332325726454 0 -301.17332325726454 -288.74669809342072 0 0 0 0 73.981479784124531 77.803952787549278 0 77.803952787549278 -55.846878754574732 0 0 0 0 134.51229658479679 -11.907743248515743 0 -11.907743248515743 -222.22077327696047 0 0 0 0 105.76658441470528 8.9948174094235949 0 8.9948174094235949 -2.9650139201622792 0 0 0 0 167.1882350735541 84.267475243945626 0 84.267475243945626 -185.57544961166593 0 0 0 0 168.25645516403893 -70.750111402711923 0 -70.750111402711923 -205.25703099025429 0 0 0 0 141.66954025872838 126.59680435481533 0 126.59680435481533 60.273055733714955 0 0 0 0 152.23181901002681 118.45183761921925 0 118.45183761921925 -12.841454905795786 0 0 0 0 215.2528687416052 46.969076261486748 0 46.969076261486748 -54.104960432799032 0 0 0 0 95.505188484341488 -25.516874787036727 0 -25.516874787036727 31.889172694384683 0 0 0 0 67.067772707887343 5.4628271989973243 0 5.4628271989973243 22.888087317451447 0 0 0 0 82.668225567237272 38.554643212968486 0 38.554643212968486 -0.78277187699545958 0 0 0 0 79.208596823154949 14.052161610790343 0 14.052161610790343 19.836115251245005 0 0 0 0 70.283223735052161 9.5070430270575059 0 9.5070430270575059 13.959895892784148 0 0 0 0 70.282540441317906 9.8156092556025136 0 9.8156092556025136 36.897600138899591 0 0 0 0 68.748364640225191 31.740009283344563 0 31.740009283344563 18.067431822902932 0 0 0 0 69.203017741063377 28.66963147682748 0 28.66963147682748 37.607628670838608 0 0 0 0 76.09265740099363 42.111708180179392 0 42.111708180179392 -57.898554100289573 0 0 0 0 129.73678476896021 24.848807246030177 0 24.848807246030177 -16.984585841866672 0 0 0 0 106.31589655084827 -47.97940578428161 0 -47.97940578428161 49.07262851490723 0 0 0 0 77.905346155399457 5.3694328644419898 0 5.3694328644419898 39.487224003189766 0 0 0 0 180.12708688341081 13.280701324214414 0 13.280701324214414 1.1072236267769595 0 0 0 0 -5.1452601781957696 22.074771255741588 0 22.074771255741588 4.1084013339619796 0 0 0 0 106.45102320751175 20.16341410109937 0 20.16341410109937 16.201434432793057 0 0 0 0 116.03183649951825 142.35226140251234 0 142.35226140251234 52.968606862025354 0 0 0 0 129.01947502062831 73.722899202942472 0 73.722899202942472 50.868104049000294 0 0 0 0 76.538744406049631 123.99057736182827 0 123.99057736182827 -6.6382694492974679 0 0 0 0 81.931678991299123 52.766628316229571 0 52.766628316229571 -19.250426162088161 0 0 0 0 36.346087673067814 24.356370578831275 0 24.356370578831275 -26.308517425458376 0 0 0 0 11.28611313293365 45.532509004429137 0 45.532509004429137 -1.6771414158220086 0 0 0 0 35.932873628497191 18.905904468279907 0 18.905904468279907 1.4461841343080311 0 0 0 0 83.248930400164681 128.74180333924323 0 128.74180333924323 -357.48197578639702 0 0 0 0 1.9292816697961825 47.092940748088608 0 47.092940748088608 -410.33478730754359 0 0 0 0 206.066656044306 94.98506355628524 0 94.98506355628524 -416.48476844046888 0 0 0 0 283.47526722372277 298.85924975142461 0 298.85924975142461 -237.73670958013759 0 0 0 0 79.898912933902466 199.13181275666329 0 199.13181275666329 -276.60623932434282 0 0 0 0 114.30592693721701 70.952011663921212 0 70.952011663921212 -320.84021513949119 0 0 0 0 271.70117910813133 54.908624786080054 0 54.908624786080054 -322.13369714135979 0 0 0 0 483.14805503106618 -369.47770756056025 0 -369.47770756056025 -417.95735009412863 0 0 0 0 223.79163393589261 35.734630129691823 0 35.734630129691823 -486.93824002976453 0 0 0 0 5.2868516002911576 5.1010495138094711 0 5.1010495138094711 -0.18214263296496735 0 0 0 0 79.310599329975958 -108.70219745413738 0 -108.70219745413738 -550.06574968063342 0 0 0 0 114.08560062698234 84.503699020915747 0 84.503699020915747 110.55575885667531 0 0 0 0 276.40187892682297 239.18131434917564 0 239.18131434917564 176.08861780089808 0 0 0 0 -0.39169040357876383 -0.33826324897680138 0 -0.33826324897680138 0.10864232014529307 0 0 0 0 331.7789121359956 -23.601617964038269 0 -23.601617964038269 19.625129291215671 0 0 0 0 162.67324931058101 10.85339227159551 0 10.85339227159551 48.969481878359261 0 0 0 0 83.895423355541425 -164.59732089955833 0 -164.59732089955833 -52.974644308498227 0 0 0 0 -99.120225147855308 -498.01290755733362 0 -498.01290755733362 -423.43158016859434 0 0 0 0 -21.733418814925699 -297.72062134776468 0 -297.72062134776468 -40.75913067889087 0 0 0 0 5.4736428108335815 -3.0500025671928626 0 -3.0500025671928626 1.3433657125219032 0 0 0 0 11.923353472004237 -91.378263204471295 0 -91.378263204471295 -121.09736516656267 0 0 0 0 11.967190360891976 -6.5103892624732538 0 -6.5103892624732538 2.3210733234117278 0 0 0 0 101.21687535232195 -178.62638090852624 0 -178.62638090852624 -383.04587149653707 0 0 0 0 703.80498583306326 297.95308547106106 0 297.95308547106106 -249.24072339365512 0 0 0 0 807.06438518634241 71.521310281053957 0 71.521310281053957 110.91006886628293 0 0 0 0 279.91150281813316 237.66186319880717 0 237.66186319880717 54.917447588375126 0 0 0 0 328.07476799934466 -30.366004304830824 0 -30.366004304830824 328.53338502135557 0 0 0 0 480.26212694981223 315.21188233272505 0 315.21188233272505 -45.706707171085327 0 0 0 0 397.80171630188852 -219.5580228860822 0 -219.5580228860822 -215.08439361874923 0 0 0 0 0.87128668219253314 -1.3796395679986517 0 -1.3796395679986517 2.9265417590459286 0 0 0 0 179.58188978202816 -143.52942534390058 0 -143.52942534390058 60.327845755161889 0 0 0 0 292.37059218210925 -86.456180852862872 0 -86.456180852862872 -1.1426358441603952 0 0 0 0 692.28548903058982 -293.29299812472436 0 -293.29299812472436 -196.89397862971191 0 0 0 0 214.83991627347859 65.776089284345744 0 65.776089284345744 -199.06021777454112 0 0 0 0 666.7486769030802 45.695374837224335 0 45.695374837224335 -326.78858945278034 0 0 0 0 51.77899988772333 -167.84595086132674 0 -167.84595086132674 -134.45058644347228 0 0 0 0 451.2819289182662 -131.79209104427287 0 -131.79209104427287 -74.905146300731303 0 0 0 0 371.65952426898912 23.01966677208685 0 23.01966677208685 -27.06926384499684 0 0 0 0 165.65341634022479 -1.4470168338102667 0 -1.4470168338102667 -68.214669713577905 0 0 0 0 296.09142924682237 -132.13207869685414 0 -132.13207869685414 49.946080641183471 0 0 0 0 140.83394364295236 -24.702437906153477 0 -24.702437906153477 102.68132333968114 0 0 0 0 854.32340291579021 -139.25682324492368 0 -139.25682324492368 -49.296991069524211 0 0 0 0 0.32745035322641769 0.47225704573364169 0 0.47225704573364169 1.317809546081838 0 0 0 0 323.25298535162437 -58.037429183038739 0 -58.037429183038739 -73.317023758254891 0 0 0 0 -75.578896760969656 -99.088010856252424 0 -99.088010856252424 6.0163647707545351 0 0 0 0 443.07460896803241 -208.25318397160822 0 -208.25318397160822 -54.259061927342259 0 0 0 0 568.59944781135709 -229.46126860150144 0 -229.46126860150144 -67.136582870100568 0 0 0 0 386.20038765639038 -294.4910266636017 0 -294.4910266636017 77.314442029659631 0 0 0 0 40.628974890976679 -106.98286500149038 0 -106.98286500149038 135.78161784209618 0 0 0 0 604.10074913100107 -522.93655168298892 0 -522.93655168298892 366.16456445597828 0 0 0 0 198.60636297985911 -112.19492200148271 0 -112.19492200148271 129.27149737778717 0 0 0 0 256.98586404384332 -57.880178066915867 0 -57.880178066915867 -7.4423463576715676 0 0 0 0 226.85661142344907 -46.041520562342043 0 -46.041520562342043 -179.21266998797 0 0 0 0 47.834308826553752 -54.190067349891933 0 -54.190067349891933 39.643047624747169 0 0 0 0 135.13646883064212 69.460740268293193 0 69.460740268293193 -87.657165933017041 0 0 0 0 93.81412371631211 4.2997093979397043 0 4.2997093979397043 -1.085312935851553 0 0 0 0 312.90103408240248 -407.09150263474771 0 -407.09150263474771 -1048.2756551877169 0 0 0 0 224.05618042743299 -755.15497955849457 0 -755.15497955849457 -116.81403364110676 0 0 0 0 722.00496833566285 285.48004674841559 0 285.48004674841559 -1532.6691262883369 0 0 0 0 1328.2592787694666 1094.3871894162342 0 1094.3871894162342 -618.98176166606925 0 0 0 0 67.980618171385117 6.3911892190480089 0 6.3911892190480089 -0.92235301960508886 0 0 0 0 1656.814786208648 265.36276535893865 0 265.36276535893865 -0.037464795500474463 0 0 0 0 82.55380338197574 -55.848518985242066 0 -55.848518985242066 650.6981619490474 0 0 0 0 243.93877006601542 1051.9151539352488 0 1051.9151539352488 486.47304246251542 0 0 0 0 -338.21432468879721 257.6015515737754 0 257.6015515737754 -392.24123674170846 0 0 0 0 24.953132032519648 3.5684262911058724 0 3.5684262911058724 0.80828661982262417 0 0 0 0 -284.41938641347951 450.62149191752155 0 450.62149191752155 275.76537080999788 0 0 0 0 -267.6175846613769 683.68058913197501 0 683.68058913197501 601.95306382613217 0 0 0 0 769.86462882658816 -91.754063661485802 0 -91.754063661485802 -113.01055726775581 0 0 0 0 15.456720978401734 4.004000288240567 0 4.004000288240567 0.48213432589652683 0 0 0 0 1070.9345916279563 888.74751279898055 0 888.74751279898055 -1518.1178097803709 0 0 0 0 42.580596182476199 4.1167575850082478 0 4.1167575850082478 -1.0959130369239864 0 0 0 0 -38.484311732288916 49.397971636494056 0 49.397971636494056 -34.459953435321289 0 0 0 0 -247.83312500629108 58.163109523518465 0 58.163109523518465 -0.010924282195801702 0 0 0 0 87.347921413340373 -16.936614253964329 0 -16.936614253964329 -0.051128604269569979 0 0 0 0 222.85752507931829 -1190.729397494305 0 -1190.729397494305 -827.6175042913369 0 0 0 0 -334.40834703294968 797.4985610622482 0 797.4985610622482 -890.97908571185553 0 0 0 0 2270.5539370455372 235.42919397776632 0 235.42919397776632 -785.85355094749514 0 0 0 0 401.6383973928896 565.82812491695017 0 565.82812491695017 1320.5121182344096 0 0 0 0 278.24752070516115 -1178.82748331628 0 -1178.82748331628 891.17531332235376 0 0 0 0 -98.697882639884483 -13.918917268226551 0 -13.918917268226551 538.89952003347867 0 0 0 0 171.03467547628679 -470.61548554615956 0 -470.61548554615956 -285.80530502266038 0 0 0 0 -162.95336097621475 -259.09049805254426 0 -259.09049805254426 -141.04867136477151 0 0 0 0 -210.28030590969138 -570.37050173863463 0 -570.37050173863463 334.36241697529158 0 0 0 0 53.736090996972052 -683.38584563987797 0 -683.38584563987797 -115.3837916043326 0 0 0 0 52.910892787971932 -0.94907925375424362 0 -0.94907925375424362 -1.8004923192635895 0 0 0 0 117.77055796934292 -524.29613340589322 0 -524.29613340589322 -655.57548237391575 0 0 0 0 529.51163796953915 -420.60310895750285 0 -420.60310895750285 -1668.8832757709706 0 0 0 0 54.646222602343187 -8.7107601800694336 0 -8.7107601800694336 5.4224815535911794 0 0 0 0 -92.691998525871895 63.053772837286033 0 63.053772837286033 -813.09875861633827 0 0 0 0 -99.222654822515324 -194.07878324773628 0 -194.07878324773628 -211.07391346594841 0 0 0 0 46.657543615467148 -2.1369369005487648 0 -2.1369369005487648 0.015430458878415348 0 0 0 0 -203.88257815007819 -194.84632287636032 0 -194.84632287636032 -194.90717957025572 0 0 0 0 -152.27834972809069 -200.96177275196169 0 -200.96177275196169 -203.43917655028872 0 0 0 0 -82.185889127082191 -189.42956648726067 0 -189.42956648726067 -203.17682644704564 0 0 0 0 -120.46016231755493 -188.946112169343 0 -188.946112169343 -219.88265722784308 0 0 0 0 -92.598565768043045 -202.45205266681387 0 -202.45205266681387 -166.09022222630847 0 0 0 0 -106.34776199165208 -219.36808650890953 0 -219.36808650890953 -179.48424654595146 0 0 0 0 -139.75763978433679 -234.05590325343064 0 -234.05590325343064 -103.04716400533289 0 0 0 0 -139.18547515844693 -230.04827052348537 0 -230.04827052348537 -109.87014439527957 0 0 0 0 -131.80211879540002 -273.04543897348321 0 -273.04543897348321 -176.88522644732984 0 0 0 0 -127.71856190264225 -208.74971635399152 0 -208.74971635399152 -333.17501975648156 0 0 0 0 -267.23863418884866 -119.7448853475837 0 -119.7448853475837 -235.62820248596472 0 0 0 0 6.9885281767183995 -18.748696775223806 0 -18.748696775223806 9.5570066692061975 0 0 0 0 48.165309200395882 -7.4598942496243632 0 -7.4598942496243632 -0.96395849033697323 0 0 0 0 33.539769876981154 -8.2125224125928824 0 -8.2125224125928824 -1.3927752792272878 0 0 0 0 1153.6368968345118 -163.35124227806102 0 -163.35124227806102 -54.594723264343656 0 0 0 0 -49.107926245196722 -177.57538544174349 0 -177.57538544174349 -213.1706963135714 0 0 0 0 17.59844677442743 -120.41490672251894 0 -120.41490672251894 -154.41425222846374 0 0 0 0 9.5921978046535514 -151.96009708666452 0 -151.96009708666452 -198.52855124376219 0 0 0 0 31.744046260209984 16.191336290454277 0 16.191336290454277 83.661852056031577 0 0 0 0 53.504780809058602 -13.786655190815679 0 -13.786655190815679 -0.1309620348454115 0 0 0 0 1.8082037866697647 -160.09854780406113 0 -160.09854780406113 -207.18047012048373 0 0 0 0 -7.4412480038590729 -163.62224272340882 0 -163.62224272340882 -206.83442558561364 0 0 0 0 3.7259337428258732 -159.46623006195841 0 -159.46623006195841 -207.57127935560493 0 0 0 0 3.9619527455142816 -154.86424154223391 0 -154.86424154223391 -200.31388158801565 0 0 0 0 -8.2362852767109871 -158.52103394137703 0 -158.52103394137703 -198.40845441354304 0 0 0 0 -21.571144426357932 -163.6757041828896 0 -163.6757041828896 -193.49929373639861 0 0 0 0 -23.082429317291826 -162.58164526300425 0 -162.58164526300425 -192.81442600105584 0 0 0 0 -42.51298593939282 -178.62856768313941 0 -178.62856768313941 -194.51690194433587 0 0 0 0 -23.47770850273082 -164.04755114531076 0 -164.04755114531076 -194.41095132995542 0 0 0 0 -38.495355213875882 -177.60661653295756 0 -177.60661653295756 -206.64515552460216 0 0 0 0 -71.449407689156942 -199.04254780201336 0 -199.04254780201336 -198.72057291160354 0 0 0 0 -47.11184747191146 -176.83149332251105 0 -176.83149332251105 -178.90473150107573 0 0 0 0 -60.685647588514257 -188.63917641884473 0 -188.63917641884473 -178.79343201551455 0 0 0 0 -79.596066013502423 -172.74703260539081 0 -172.74703260539081 -112.05255269488316 0 0 0 0 -93.701423281498137 -193.83636810600916 0 -193.83636810600916 -139.14739539527 0 0 0 0 -108.96223777299747 -183.37910943147926 0 -183.37910943147926 -109.8182033566045 0 0 0 0 -62.058697085070889 -170.40863281055863 0 -170.40863281055863 -146.29824163461308 0 0 0 0 -55.278170235163998 -152.36363543600146 0 -152.36363543600146 -120.97120692518911 0 0 0 0 -38.810323887271807 -168.70974169383226 0 -168.70974169383226 -175.51069133555939 0 0 0 0 -53.096676839748397 -171.83766402748734 0 -171.83766402748734 -146.57388838150746 0 0 0 0 -30.691570797876921 -162.98206255522928 0 -162.98206255522928 -174.0143103513401 0 0 0 0 3.155250646173954 -143.03470790874962 0 -143.03470790874962 -179.97459683489069 0 0 0 0 -13.971764782792889 -152.98011321989361 0 -152.98011321989361 -180.78586501643076 0 0 0 0 -15.480348803510424 -154.42436478881882 0 -154.42436478881882 -181.09601619661771 0 0 0 0 -13.312240652934634 -137.85120268882113 0 -137.85120268882113 -157.77743189889225 0 0 0 0 -34.243919920205371 -156.24254305155432 0 -156.24254305155432 -153.95811402799882 0 0 0 0 -36.532042350736447 -155.34603658543074 0 -155.34603658543074 -153.32083706894173 0 0 0 0 -30.222000267036492 -129.6359668733412 0 -129.6359668733412 -127.10568626685244 0 0 0 0 -32.002596458580229 -143.92299567303348 0 -143.92299567303348 -144.42772369550403 0 0 0 0 2.6570626559841912 -61.058875108653751 0 -61.058875108653751 -78.952172663900456 0 0 0 0 -47.008369855990168 -105.52477179629432 0 -105.52477179629432 -70.358364941334003 0 0 0 0 -130.47861880325945 -97.259133622126228 0 -97.259133622126228 -0.2579310734918181 0 0 0 0 -116.02289010578534 -110.97161762022552 0 -110.97161762022552 -17.861156436624697 0 0 0 0 -95.78265276181628 -11.43862870436908 0 -11.43862870436908 10.771429683927636 0 0 0 0 -147.48421984372544 -155.28534847351648 0 -155.28534847351648 -44.034652652891964 0 0 0 0 -69.053272410936188 -144.05135155884818 0 -144.05135155884818 -120.1381645466314 0 0 0 0 -85.223013613023795 -143.83490497926641 0 -143.83490497926641 -43.958865135129599 0 0 0 0 -137.96798924356699 -192.81577939829094 0 -192.81577939829094 -43.653713550397697 0 0 0 0 -144.51199707604246 -165.68895332338275 0 -165.68895332338275 -8.9612458833753408 0 0 0 0 -218.86793564251275 -187.61783029029675 0 -187.61783029029675 16.027958630120111 0 0 0 0 -237.17394625965971 -157.8633482009011 0 -157.8633482009011 60.963831864927897 0 0 0 0 -251.83138860939653 -96.361530175380267 0 -96.361530175380267 40.782891389761062 0 0 0 0 -223.92663031388656 -163.02394964740324 0 -163.02394964740324 62.56113578168879 0 0 0 0 -353.10588420051499 -24.375830073134466 0 -24.375830073134466 72.847812541392045 0 0 0 0 -184.6023957397847 -36.82485434004343 0 -36.82485434004343 32.729317268058367 0 0 0 0 -158.92241637935513 -383.67456771185289 0 -383.67456771185289 -160.66718962540267 0 0 0 0 -202.65311871649465 -251.89825550251112 0 -251.89825550251112 114.39441648443426 0 0 0 0 -193.1391716877697 -289.96410770341026 0 -289.96410770341026 -57.103305233967831 0 0 0 0 -191.19592602379271 -266.57645183576369 0 -266.57645183576369 24.400231001080556 0 0 0 0 -145.36232457090227 -217.0993143085866 0 -217.0993143085866 -80.863788769755047 0 0 0 0 -242.65215575441835 -174.78569103841937 0 -174.78569103841937 84.615645353291939 0 0 0 0 -218.02358712454998 -210.75229062467972 0 -210.75229062467972 100.16581674048484 0 0 0 0 -204.36035243261722 -250.9495994347584 0 -250.9495994347584 113.88000282682356 0 0 0 0 35.950588850930217 -28.780323599049666 0 -28.780323599049666 114.72655936653268 0 0 0 0 -192.88882813419332 -110.36090014972464 0 -110.36090014972464 306.55948404607489 0 0 0 0 -211.62559720625723 -197.79010745528404 0 -197.79010745528404 93.759177746957903 0 0 0 0 -259.7469494141842 -91.41510165176706 0 -91.41510165176706 202.94681480435958 0 0 0 0 -110.52281550811313 -136.07513698369638 0 -136.07513698369638 99.527683122952453 0 0 0 0 1.3155008719226107 -13.899300032716894 0 -13.899300032716894 7.2632204671779119 0 0 0 0 -464.21373663277336 -112.32343644960771 0 -112.32343644960771 126.02853751256964 0 0 0 0 2426.6379170677628 -154.85555781715217 0 -154.85555781715217 67.814996794375475 0 0 0 0 -350.7525768475025 -154.23344276159105 0 -154.23344276159105 123.50084975577579 0 0 0 0 -351.64858138714044 -180.11322902710438 0 -180.11322902710438 11.872653862924707 0 0 0 0 -261.18163446657672 -108.14042863353569 0 -108.14042863353569 58.839158271556471 0 0 0 0 1.1995607597366704 -7.275749127625744 0 -7.275749127625744 4.7555277699468528 0 0 0 0 -674.40680266708659 -65.674967249027986 0 -65.674967249027986 85.155046535628344 0 0 0 0 -320.19801015756093 45.937958711917759 0 45.937958711917759 -46.256949735285019 0 0 0 0 2.5807809103280306 79.72325685029972 0 79.72325685029972 103.00159026179787 0 0 0 0 -212.24865114043496 -133.71999245652552 0 -133.71999245652552 -57.519535354127356 0 0 0 0 182.31624472911062 -41.782389818838567 0 -41.782389818838567 -82.027416613266041 0 0 0 0 425.0207343861839 224.24161018087921 0 224.24161018087921 102.05479280161876 0 0 0 0 514.59570133755915 -104.12682595917556 0 -104.12682595917556 -29.153504472617442 0 0 0 0 573.30219176249375 -100.04146593450753 0 -100.04146593450753 -82.377110519856842 0 0 0 0 1394.7716256092899 -59.124969772857128 0 -59.124969772857128 -27.60306572437446 0 0 0 0 220.18726473215065 -15.48314569809358 0 -15.48314569809358 198.35225541518184 0 0 0 0 36.906029269008286 -43.299383625909066 0 -43.299383625909066 281.89956642287382 0 0 0 0 1.0436385814040463 2.0156940473966642 0 2.0156940473966642 0.31540625216889184 0 0 0 0 175.53108612389769 137.32939703217443 0 137.32939703217443 -16.152540912089989 0 0 0 0 -84.670556160530396 60.688232982990613 0 60.688232982990613 49.443815168264507 0 0 0 0 636.99541834161755 164.44910873905957 0 164.44910873905957 -15.784871382410188 0 0 0 0 0.87462728816790047 1.2687185362873947 0 1.2687185362873947 0.26930199522753195 0 0 0 0 288.36441390184336 177.5999368853056 0 177.5999368853056 -0.083679867667688007 0 0 0 0 329.94877383923449 156.35161184105237 0 156.35161184105237 -20.822277427432311 0 0 0 0 187.45161690970417 127.27095791164538 0 127.27095791164538 6.7445277810012385 0 0 0 0 336.23073174321325 117.66208260330404 0 117.66208260330404 18.477501676568295 0 0 0 0 506.67537292372072 64.658046233364161 0 64.658046233364161 61.1094674343924 0 0 0 0 511.31628686335171 114.09634698790711 0 114.09634698790711 -38.182225492290797 0 0 0 0 462.42058548057685 -11.049722095239204 0 -11.049722095239204 34.295873581869841 0 0 0 0 528.36035317124333 80.464401932523856 0 80.464401932523856 83.099052517404118 0 0 0 0 948.21926441910909 -39.759809655961021 0 -39.759809655961021 -35.333481873042729 0 0 0 0 1243.5525124054402 -80.536610967167931 0 -80.536610967167931 0.2972132342836572 0 0 0 0 926.13647449592827 106.52733752389838 0 106.52733752389838 29.091459195714499 0 0 0 0 872.11148241438786 69.716877573323188 0 69.716877573323188 22.252833903461521 0 0 0 0 1187.247799709934 -251.69045733982398 0 -251.69045733982398 69.015864915618636 0 0 0 0 1.5569256814150663 -5.9495930370858723 0 -5.9495930370858723 1.85956478781993 0 0 0 0 1433.2171210176311 -488.06343820285485 0 -488.06343820285485 291.97998395159516 0 0 0 0 1388.8684165073792 -41.040948566502863 0 -41.040948566502863 -54.751743109060271 0 0 0 0 1498.3135014780564 -168.96606017192505 0 -168.96606017192505 -43.590822764769143 0 0 0 0 1275.6981089504552 -102.48615361931832 0 -102.48615361931832 -126.42757002465078 0 0 0 0 1231.4230295293382 32.96202754511711 0 32.96202754511711 -76.138506609478014 0 0 0 0 1244.3402099339874 -112.94223824141829 0 -112.94223824141829 -38.229567231286048 0 0 0 0 1109.8125722587283 -77.331484778811927 0 -77.331484778811927 -68.142777447568733 0 0 0 0 1116.5635602811817 -134.10667825123596 0 -134.10667825123596 -99.674785892084401 0 0 0 0 1187.7161808258097 -141.17354611993352 0 -141.17354611993352 -112.63526113009334 0 0 0 0 1175.0812890223315 -121.40835482450746 0 -121.40835482450746 -112.1175761811146 0 0 0 0 1263.7325821353006 -66.444345497433233 0 -66.444345497433233 -101.77807275004216 0 0 0 0 1254.3601785302744 -241.972355907164 0 -241.972355907164 -109.40643568935479 0 0 0 0 1064.6642108183587 -220.55850045926655 0 -220.55850045926655 -108.07282071451476 0 0 0 0 730.88148620538414 -7.3241129334859352 0 -7.3241129334859352 2.1910613263082723 0 0 0 0 983.63420619472163 -71.012633422888555 0 -71.012633422888555 -67.237347785153929 0 0 0 0 722.75431995632243 -143.09349356527821 0 -143.09349356527821 22.279920035082114 0 0 0 0 924.20320505008567 -175.77584473064508 0 -175.77584473064508 9.5656220444652718 0 0 0 0 500.48480965328054 79.785931963130679 0 79.785931963130679 -4.8311810192703604 0 0 0 0 488.15573230799055 -197.67317485177887 0 -197.67317485177887 66.957453196061579 0 0 0 0 910.10036011209013 -368.53541315302846 0 -368.53541315302846 -93.529551426520015 0 0 0 0 1858.3134751190373 210.30513190847046 0 210.30513190847046 7.3922760594116426 0 0 0 0 1435.4493391727156 -287.39149814852908 0 -287.39149814852908 -117.94007378533433 0 0 0 0 931.77265358704608 -299.13439257621803 0 -299.13439257621803 -33.11470066591869 0 0 0 0 3.8017336327689577 -2.5911474408301558 0 -2.5911474408301558 -0.040556172560449077 0 0 0 0 2475.5479289794057 35.323891649132264 0 35.323891649132264 -38.851564339161087 0 0 0 0 -85.048387800168712 -170.12079052304045 0 -170.12079052304045 55.628322008912619 0 0 0 0 320.32695832240279 -351.38536144306545 0 -351.38536144306545 -59.216636996189663 0 0 0 0 1724.2267424780875 412.26832266028691 0 412.26832266028691 -197.45547798213261 0 0 0 0 101.17720572918188 132.02753586487842 0 132.02753586487842 -54.439589877168146 0 0 0 0 248.30258302755828 91.130415879347083 0 91.130415879347083 -106.10297887880779 0 0 0 0 265.16638148756465 58.93730787735808 0 58.93730787735808 -47.404034565159463 0 0 0 0 320.52172423130105 108.43011418816303 0 108.43011418816303 -19.772131928927138 0 0 0 0 316.04093049609219 130.06411613913087 0 130.06411613913087 -101.38407511200614 0 0 0 0 376.44817556016096 160.93852409042961 0 160.93852409042961 -36.571014995350197 0 0 0 0 409.77526254259283 30.171802102092556 0 30.171802102092556 -24.497353552534605 0 0 0 0 246.36016731514246 37.198101112287873 0 37.198101112287873 -66.847554946762102 0 0 0 0 289.89391487889134 100.59599141577223 0 100.59599141577223 -57.856314532366923 0 0 0 0 383.74652916265677 66.51696492746224 0 66.51696492746224 -16.852556633275299 0 0 0 0 377.93596932463697 145.59348626893279 0 145.59348626893279 -59.910913670613809 0 0 0 0 347.15966378164012 172.51873647796265 0 172.51873647796265 -94.463012986898775 0 0 0 0 0.7897388049513907 1.1707666748046961 0 1.1707666748046961 -0.11497507737086377 0 0 0 0 654.90310813571705 26.445848928232238 0 26.445848928232238 -102.87560362339377 0 0 0 0 513.75201103861036 160.09738402760183 0 160.09738402760183 -116.34395310867762 0 0 0 0 114.53380140617082 132.83227498947383 0 132.83227498947383 -58.1895225120048 0 0 0 0 -17.616286081061844 80.023090535135026 0 80.023090535135026 -67.200882035671384 0 0 0 0 55.333683183911489 5.2237621946914032 0 5.2237621946914032 -14.197277584153881 0 0 0 0 180.30723396100075 102.56627898412827 0 102.56627898412827 57.724766873462386 0 0 0 0 4.7007227384168289 5.8566534204758511 0 5.8566534204758511 8.5228196054182028 0 0 0 0 -45.874848865292734 94.570186082669352 0 94.570186082669352 509.15052989461014 0 0 0 0 204.99247636723157 80.501659163274098 0 80.501659163274098 -50.001287855268401 0 0 0 0 343.5193496994616 -17.619163907235361 0 -17.619163907235361 -12.808147445545046 0 0 0 0 498.2043542324318 109.35074359581051 0 109.35074359581051 -114.76810934734999 0 0 0 0 459.76602185110096 484.60609966975142 0 484.60609966975142 611.0357469265191 0 0 0 0 1002.5047793051635 -90.29941478022306 0 -90.29941478022306 -27.249118878008119 0 0 0 0 178.20407435370726 -21.546315233172209 0 -21.546315233172209 -130.9981597407031 0 0 0 0 -39.696856877439131 55.068689716250049 0 55.068689716250049 10.235908583284072 0 0 0 0 209.11227559769759 292.5927146639865 0 292.5927146639865 -33.090765189491037 0 0 0 0 881.33206579943726 -113.32270110052218 0 -113.32270110052218 295.01731094572642 0 0 0 0 0.65161876635794158 -6.2772996680920699 0 -6.2772996680920699 -3.0447846962933554 0 0 0 0 192.77944897834095 133.11649519094772 0 133.11649519094772 253.82054125541799 0 0 0 0 1595.2108102579368 -278.84289455418184 0 -278.84289455418184 -192.96775680328392 0 0 0 0 1054.9572502707088 245.74000335496203 0 245.74000335496203 -227.93320653646651 0 0 0 0 134.68334336430453 -25.469386882082095 0 -25.469386882082095 2.0442552688677309 0 0 0 0 347.73917541770788 -10.817720360699241 0 -10.817720360699241 -252.02448999548415 0 0 0 0 308.45582027343335 -188.47297425085753 0 -188.47297425085753 252.64375259843473 0 0 0 0 113.22661361674545 31.5792716081869 0 31.5792716081869 100.08920026993837 0 0 0 0 331.30732014763635 113.23159445118836 0 113.23159445118836 -137.33374818588663 0 0 0 0 475.451795982779 -71.868810221170406 0 -71.868810221170406 -55.154579391566585 0 0 0 0 136.87683716016181 -14.992926310067787 0 -14.992926310067787 -64.289038229666403 0 0 0 0 130.55199289572192 -15.583127530822821 0 -15.583127530822821 -45.684246640970741 0 0 0 0 138.49790380131162 -34.872893119143328 0 -34.872893119143328 -37.910953781711669 0 0 0 0 145.13550527404004 5.9276660574209927 0 5.9276660574209927 -52.406904113509427 0 0 0 0 171.31650351107237 -16.810915168292468 0 -16.810915168292468 -70.116234626034611 0 0 0 0 151.82819942824426 -71.388859075217624 0 -71.388859075217624 -94.223703259067861 0 0 0 0 173.16001896685339 -16.603163479521299 0 -16.603163479521299 -121.70336949814055 0 0 0 0 215.85981285741582 0.41248784745209832 0 0.41248784745209832 -146.20040815645825 0 0 0 0 199.52153065509629 10.598376962449038 0 10.598376962449038 -150.70626217713493 0 0 0 0 50.837778015707293 -1.3554785456367568 0 -1.3554785456367568 -4.7198693881208591 0 0 0 0 -414.91799816330604 -136.69084657589798 0 -136.69084657589798 434.57638589113776 0 0 0 0 31.073186706992018 -1.0951089842374699 0 -1.0951089842374699 -16.111203939203719 0 0 0 0 -91.844193740413175 140.09372284073083 0 140.09372284073083 -116.53954209183257 0 0 0 0 132.76552842780438 -45.509182095619508 0 -45.509182095619508 19.946327607276544 0 0 0 0 868.44956665034988 -506.08659469183357 0 -506.08659469183357 -396.69048300827052 0 0 0 0 207.21039926618687 -406.96808356570091 0 -406.96808356570091 875.66257602507585 0 0 0 0 744.29232073508319 -250.52717096729762 0 -250.52717096729762 -759.29852172056303 0 0 0 0 187.41634202645946 6.299172726838151 0 6.299172726838151 -133.14639458681177 0 0 0 0 135.81153798189916 -17.422100206336154 0 -17.422100206336154 -140.70777546028808 0 0 0 0 154.58041829372303 -7.3487044035400721 0 -7.3487044035400721 -7.3661486455570966 0 0 0 0 151.74436311342288 264.94636704943088 0 264.94636704943088 -174.61867457264918 0 0 0 0 141.39847894708822 -2.5107702817966455 0 -2.5107702817966455 -2.9018124356141488 0 0 0 0 157.87337737713278 -43.810301282141154 0 -43.810301282141154 -169.85301553112959 0 0 0 0 197.204599812776 502.9599202107139 0 502.9599202107139 291.11206577447138 0 0 0 0 535.19648472062545 -16.731655566016798 0 -16.731655566016798 -115.79717171137543 0 0 0 0 336.14950378463254 -0.64894583423813401 0 -0.64894583423813401 135.28540415181396 0 0 0 0 357.70696163489265 -16.726256663601106 0 -16.726256663601106 -101.06164459663546 0 0 0 0 372.41789841237187 8.2317034274893786 0 8.2317034274893786 -100.39962523843315 0 0 0 0 383.61864179318945 -13.479132529720573 0 -13.479132529720573 -115.27370515383876 0 0 0 0 64.392423888581106 -3.3587982644198746 0 -3.3587982644198746 -42.84149263078416 0 0 0 0 60.432540570865967 20.284781799487746 0 20.284781799487746 -78.461140417812459 0 0 0 0 -49.557654565025587 14.763758305698047 0 14.763758305698047 -116.09285158528888 0 0 0 0 -302.03199740827404 -184.6509499406036 0 -184.6509499406036 -105.06258201983997 0 0 0 0 -774.99191082538164 -64.376585985551856 0 -64.376585985551856 186.92390607278776 0 0 0 0 0.5031968811962797 -0.70279513756491951 0 -0.70279513756491951 1.499802167692124 0 0 0 0 -991.85824299465457 -285.63360731929788 0 -285.63360731929788 233.5144529985082 0 0 0 0 -261.28914815644384 82.251436520798052 0 82.251436520798052 110.43920472695027 0 0 0 0 -525.89849220146425 -376.79419409837919 0 -376.79419409837919 -91.980183314244641 0 0 0 0 133.0492232684046 -49.736072821441667 0 -49.736072821441667 46.850340637333147 0 0 0 0 21.400961352019337 0.1967999338615698 0 0.1967999338615698 -1.2573529700552761 0 0 0 0 -17.835198757675244 -63.38727110782429 0 -63.38727110782429 56.214896858514294 0 0 0 0 159.81058908270643 -84.246130121181068 0 -84.246130121181068 -99.562846959557646 0 0 0 0 -83.454517029531416 -124.69825555114221 0 -124.69825555114221 -86.03164538504916 0 0 0 0 144.44280078542943 -2.2398776992604326 0 -2.2398776992604326 -3.1285452955123674 0 0 0 0 120.6221298988259 -14.443645424309981 0 -14.443645424309981 0.35466690594184591 0 0 0 0 143.67607864763704 -241.32409904301858 0 -241.32409904301858 -92.890373155719402 0 0 0 0 130.89930425480998 -10.920447858794432 0 -10.920447858794432 -8.2588166051154985 0 0 0 0 139.29659705156519 12.050856979392847 0 12.050856979392847 -33.658845196378934 0 0 0 0 143.12956563407351 6.3676917807397331 0 6.3676917807397331 -48.296360589172764 0 0 0 0 49.331519014902767 43.702257454540018 0 43.702257454540018 -11.686926532065982 0 0 0 0 180.8747346936907 -10.981329377237671 0 -10.981329377237671 -18.41870343931987 0 0 0 0 152.09750543090558 -11.889812558861479 0 -11.889812558861479 -9.6329736586230865 0 0 0 0 427.90255112846353 -162.9427637354022 0 -162.9427637354022 -38.379032685821585 0 0 0 0 164.05284939457488 130.60727970145888 0 130.60727970145888 58.732780111660759 0 0 0 0 6.0330316436952671 8.7289563629787992 0 8.7289563629787992 1.7851626778305376 0 0 0 0 270.09752786471654 -207.03662415370468 0 -207.03662415370468 183.70441123768069 0 0 0 0 373.47050139099883 -181.99894530589245 0 -181.99894530589245 78.002920510896274 0 0 0 0 407.17691907558765 -120.55347454862294 0 -120.55347454862294 -67.002000127928113 0 0 0 0 411.67547411065607 -91.674084239521108 0 -91.674084239521108 -3.7951031930256249 0 0 0 0 352.08767239717417 -229.89692485741443 0 -229.89692485741443 133.58450667755733 0 0 0 0 60.469894678884884 89.589523078158209 0 89.589523078158209 117.84951430692126 0 0 0 0 91.875163669574249 94.839488697113211 0 94.839488697113211 -88.929054480475315 0 0 0 0 36.951630657091613 45.376011791076692 0 45.376011791076692 -20.87431905231858 0 0 0 0 178.51804275310496 17.222858448376314 0 17.222858448376314 -46.742025519754861 0 0 0 0 -17.608939977828413 -14.785383040312809 0 -14.785383040312809 80.558828339472257 0 0 0 0 130.25182236009277 28.339678288303276 0 28.339678288303276 -12.193467694773716 0 0 0 0 149.08788575905055 21.375104586998077 0 21.375104586998077 -55.061983627699647 0 0 0 0 138.99069311974745 34.560279745177013 0 34.560279745177013 -64.29649296241314 0 0 0 0 103.12530451719795 70.67156632847059 0 70.67156632847059 -63.397567056854314 0 0 0 0 157.24609152589983 73.893837416710085 0 73.893837416710085 -133.66416872261061 0 0 0 0 129.73541600420867 18.025398309771163 0 18.025398309771163 -38.814842700819327 0 0 0 0 98.978606813154329 100.10751676573938 0 100.10751676573938 -85.615802722502849 0 0 0 0 129.0253420208428 152.55280318769769 0 152.55280318769769 -258.05527135452257 0 0 0 0 125.11791108798207 83.594992328072976 0 83.594992328072976 -132.40508790387548 0 0 0 0 0.48048114380962659 0.36631855892065346 0 0.36631855892065346 -1.5139822074059897 0 0 0 0 5.7773822018207284 210.77353565975454 0 210.77353565975454 -175.05638071380531 0 0 0 0 38.794010586847435 158.59424095725217 0 158.59424095725217 -176.23832923188627 0 0 0 0 69.94975651094137 153.41530018056369 0 153.41530018056369 -177.17793171115915 0 0 0 0 40.617929470804697 34.224695671280642 0 34.224695671280642 -37.772204754325656 0 0 0 0 118.34269631611824 14.90249778240468 0 14.90249778240468 -92.713749062611896 0 0 0 0 48.365180374992633 56.451310755830718 0 56.451310755830718 -101.98215580354054 0 0 0 0 36.808411249148364 42.734585398458051 0 42.734585398458051 -30.639591701838732 0 0 0 0 -14.964199129812187 87.717307782828584 0 87.717307782828584 -15.92084968574045 0 0 0 0 140.90549350989386 32.772764992893826 0 32.772764992893826 -60.805471734727689 0 0 0 0 193.13650869218691 -54.040002105181202 0 -54.040002105181202 -205.73787771149819 0 0 0 0 220.54287873457451 -27.122366985736868 0 -27.122366985736868 -179.30324311125378 0 0 0 0 177.44118086793605 -51.163460305722879 0 -51.163460305722879 -156.61796717412471 0 0 0 0 171.26420936135401 -39.386142551734793 0 -39.386142551734793 -178.91161930021971 0 0 0 0 191.40698001236888 -8.8821912507899015 0 -8.8821912507899015 -162.64172471557845 0 0 0 0 195.55045022483682 -9.4184596101131319 0 -9.4184596101131319 -163.64973157088116 0 0 0 0 190.51738362180504 8.4269190977019264 0 8.4269190977019264 -147.55449169073654 0 0 0 0 220.51700172782876 -0.57793821985160321 0 -0.57793821985160321 -184.32569061865229 0 0 0 0 220.09524576716615 -8.0995847991675269 0 -8.0995847991675269 -194.51831342616379 0 0 0 0 210.84011105426544 51.119321257046749 0 51.119321257046749 -190.28940594574624 0 0 0 0 234.81132318752861 27.498173109381469 0 27.498173109381469 -169.45255367291702 0 0 0 0 201.69717658781155 19.244408259383817 0 19.244408259383817 -171.13080729293142 0 0 0 0 206.39201362163294 -7.3874512699998149 0 -7.3874512699998149 -132.69795437968241 0 0 0 0 195.91001902190328 18.683457549191644 0 18.683457549191644 -140.97750446876489 0 0 0 0 184.85926989251311 28.231237115088106 0 28.231237115088106 -134.02486776734713 0 0 0 0 168.30034529128898 24.528878068702852 0 24.528878068702852 -96.021737803895121 0 0 0 0 154.17320613046468 5.8180611934667468 0 5.8180611934667468 -97.133329066555234 0 0 0 0 158.08960056165233 36.316614045931146 0 36.316614045931146 -108.60433680505383 0 0 0 0 171.81022446002316 54.35695406528248 0 54.35695406528248 -108.37640501374035 0 0 0 0 172.8875082523009 61.217037644446691 0 61.217037644446691 -146.14829849756643 0 0 0 0 196.49846694418011 119.8732986279482 0 119.8732986279482 -227.36391480499879 0 0 0 0 345.89513225617702 68.505130602260806 0 68.505130602260806 -235.22033975933027 0 0 0 0 425.71040855569663 -16.745282531325643 0 -16.745282531325643 -146.24383630428656 0 0 0 0 273.60211685434842 38.834615555922142 0 38.834615555922142 -119.71730693161862 0 0 0 0 282.30603155640711 56.554801814033908 0 56.554801814033908 -190.32069208588555 0 0 0 0 249.20869315378877 28.661881305555426 0 28.661881305555426 -194.53734483108292 0 0 0 0 267.5653347456755 11.518837588382667 0 11.518837588382667 -202.11475287062825 0 0 0 0 284.53190542178345 42.111189786867612 0 42.111189786867612 -168.96710119023055 0 0 0 0 289.57984616333852 36.545286201446515 0 36.545286201446515 -199.32239349388408 0 0 0 0 302.070574754267 9.7418386283450218 0 9.7418386283450218 -226.33547128795544 0 0 0 0 279.89029342765571 6.1088147477512393 0 6.1088147477512393 -212.82381618001364 0 0 0 0 287.97125460307961 -29.292315329555777 0 -29.292315329555777 -255.88230429126179 0 0 0 0 255.24466833299084 -28.771799708526032 0 -28.771799708526032 -209.5241903379324 0 0 0 0 247.89348996751505 -18.320060162754316 0 -18.320060162754316 -224.35421773798362 0 0 0 0 390.85025050519471 86.559121541407194 0 86.559121541407194 -173.91583183095827 0 0 0 0 356.93763725251483 95.936459523676604 0 95.936459523676604 -122.15197580660379 0 0 0 0 356.69906067617558 65.545624573803138 0 65.545624573803138 -223.49996296944391 0 0 0 0 325.46550031281731 79.570033839393091 0 79.570033839393091 -160.80313652753421 0 0 0 0 303.75541592078662 9.0341736235872645 0 9.0341736235872645 -234.25975120340081 0 0 0 0 319.8790436695781 48.335707662354253 0 48.335707662354253 -197.93156639703375 0 0 0 0 325.95949719820055 48.732008140188555 0 48.732008140188555 -201.39598504034848 0 0 0 0 283.01379751951026 87.250989440125295 0 87.250989440125295 -113.84496259253319 0 0 0 0 329.58770975011976 87.297509520370411 0 87.297509520370411 -167.32920001402317 0 0 0 0 333.53362555089552 128.94252564514852 0 128.94252564514852 -119.96967429403503 0 0 0 0 327.44961585268175 134.31398345762466 0 134.31398345762466 -87.999611251289934 0 0 0 0 272.00887272747059 137.66691803358128 0 137.66691803358128 -44.347467965168562 0 0 0 0 278.48512896427565 74.508685315700177 0 74.508685315700177 -139.63712549886384 0 0 0 0 292.79498450727988 32.881425847097034 0 32.881425847097034 -25.225411284729944 0 0 0 0 210.85232105513933 89.177533828755031 0 89.177533828755031 -40.259609288516458 0 0 0 0 140.62709075442763 62.751634635828054 0 62.751634635828054 -42.935006796126345 0 0 0 0 205.85455951581025 159.36665021297426 0 159.36665021297426 18.061438419779279 0 0 0 0 146.97448420824185 76.741499614394343 0 76.741499614394343 44.285918657974889 0 0 0 0 135.43732798334531 102.27032109616653 0 102.27032109616653 3.3463496715776273 0 0 0 0 94.345313003752381 -5.4378202523735126 0 -5.4378202523735126 65.96932678122289 0 0 0 0 94.96272550114918 -0.66633616686686992 0 -0.66633616686686992 73.66788934417491 0 0 0 0 206.92850487027317 152.23450368469207 0 152.23450368469207 118.47052535718103 0 0 0 0 91.630109598998388 0.70218563622233887 0 0.70218563622233887 217.92854700384532 0 0 0 0 274.71585675091774 140.39677984453328 0 140.39677984453328 -44.536017443308623 0 0 0 0 404.37634751891892 153.8947370163819 0 153.8947370163819 -92.343679901644805 0 0 0 0 304.20054923439238 185.71892313794172 0 185.71892313794172 24.282889624944801 0 0 0 0 367.21631856428576 211.95679152616617 0 211.95679152616617 29.005545379739942 0 0 0 0 200.58893832248759 170.02140295482263 0 170.02140295482263 184.49837362103517 0 0 0 0 253.52322783674754 236.03397802619475 0 236.03397802619475 215.08476053359232 0 0 0 0 368.18429526234104 220.79886657937118 0 220.79886657937118 80.167862607181632 0 0 0 0 558.95696174172917 290.7326926260248 0 290.7326926260248 98.535234290814174 0 0 0 0 507.9687166665899 225.63090091713184 0 225.63090091713184 105.70353195136431 0 0 0 0 711.21618840070732 136.99555969450375 0 136.99555969450375 -2.3576431018345829 0 0 0 0 467.7586494318748 118.68269228379404 0 118.68269228379404 4.1936762263258061 0 0 0 0 538.41653931518522 179.93155590680499 0 179.93155590680499 -42.191463660733461 0 0 0 0 382.72084670763434 150.28928412955111 0 150.28928412955111 -42.309211465502358 0 0 0 0 470.98733634455857 108.71194132190408 0 108.71194132190408 -125.99940717568234 0 0 0 0 -224.90016657207889 -123.79491969375931 0 -123.79491969375931 -56.769647956900052 0 0 0 0 48.362856536463369 -204.43784644910079 0 -204.43784644910079 32.395715147155897 0 0 0 0 -199.10241735666614 208.87846631591947 0 208.87846631591947 -537.38050312738051 0 0 0 0 -180.35028418778165 136.34700748133764 0 136.34700748133764 35.651210097155854 0 0 0 0 14.702321785007371 -449.21857458700651 0 -449.21857458700651 -1057.3750924833275 0 0 0 0 12.714430808236926 12.796170318805672 0 12.796170318805672 -10.19159688146163 0 0 0 0 52.650068094153539 -73.548199389814044 0 -73.548199389814044 -467.75981798185512 0 0 0 0 -2.1406836559908697 286.17307572385812 0 286.17307572385812 -435.31646198527051 0 0 0 0 103.63334426139591 80.226064208790376 0 80.226064208790376 -20.307766230542256 0 0 0 0 91.228131541334733 156.58747647742553 0 156.58747647742553 -311.16936986043129 0 0 0 0 250.33622039537295 -59.584008471771767 0 -59.584008471771767 -146.79339503373512 0 0 0 0 183.97673899429356 97.612340429266396 0 97.612340429266396 -26.245814888796076 0 0 0 0 0.66222527762330685 0.51919426847959471 0 0.51919426847959471 -2.5067751683394484 0 0 0 0 51.539887432223622 -54.633984008799644 0 -54.633984008799644 -96.823726588924728 0 0 0 0 150.57966515819498 15.814656311602675 0 15.814656311602675 -60.598218505873774 0 0 0 0 64.406647279090976 -119.59263670032442 0 -119.59263670032442 45.914502812115188 0 0 0 0 -16.896236866741674 30.132948689997647 0 30.132948689997647 11.275872319047267 0 0 0 0 181.989503266057 -92.612256859526042 0 -92.612256859526042 -36.9932411310524 0 0 0 0 47.450509943417273 103.10158193783082 0 103.10158193783082 -97.322276166637494 0 0 0 0 0.087071487206230813 -0.061149765435345671 0 -0.061149765435345671 -0.90905641187010744 0 0 0 0 -123.00358759071969 127.93277035671872 0 127.93277035671872 36.155309490018226 0 0 0 0 36.390603979137268 -93.847915403325544 0 -93.847915403325544 15.051802238537675 0 0 0 0 63.296895178762497 65.369159320759763 0 65.369159320759763 -54.608082974774334 0 0 0 0 4.8822156034508453 -3.747190330206827 0 -3.747190330206827 2.3736456224647582 0 0 0 0 53.42682574436185 -323.76086108695739 0 -323.76086108695739 5.9312566293560849 0 0 0 0 148.84566960163647 -303.20093488221937 0 -303.20093488221937 -240.93765749062914 0 0 0 0 -55.659225311253977 -114.78025300928863 0 -114.78025300928863 198.90287885838666 0 0 0 0 -4.2208339733479079 -51.997999981232169 0 -51.997999981232169 12.727570728629871 0 0 0 0 -8.7660721727079363 -78.401063362719924 0 -78.401063362719924 -55.896982323954248 0 0 0 0 3.3742834675592519 -1.2823124367621759 0 -1.2823124367621759 0.23542698285801844 0 0 0 0 354.91383799749019 55.892897951276154 0 55.892897951276154 -159.175337462691 0 0 0 0 -122.14452616421477 108.1525059751778 0 108.1525059751778 114.34230638301096 0 0 0 0 233.35025486873201 237.03060546700254 0 237.03060546700254 78.513562613846318 0 0 0 0 391.43899677252921 146.52621329445788 0 146.52621329445788 87.479775318892735 0 0 0 0 453.11848438702145 192.37073036602015 0 192.37073036602015 173.59161445817813 0 0 0 0 432.37647632911103 250.09847896564332 0 250.09847896564332 174.62036132277981 0 0 0 0 447.28452684912918 221.94555908244058 0 221.94555908244058 84.92039529705562 0 0 0 0 430.60039900883385 256.48417488284838 0 256.48417488284838 50.887165930150786 0 0 0 0 389.62973333602713 163.75693761502384 0 163.75693761502384 69.922536709116343 0 0 0 0 394.08793183242233 179.57277991303022 0 179.57277991303022 -10.419836566705271 0 0 0 0 335.47547245373426 173.76133148338954 0 173.76133148338954 86.572364694920907 0 0 0 0 255.78236979388021 181.73342139444048 0 181.73342139444048 -10.384842141032152 0 0 0 0 352.52166229347131 197.53488602529228 0 197.53488602529228 -544.20720215713027 0 0 0 0 382.5584890370028 242.67209318560299 0 242.67209318560299 -56.143159764504162 0 0 0 0 390.82401703152391 239.81884260867855 0 239.81884260867855 -266.73838256143517 0 0 0 0 203.58308588150248 -44.679118835612826 0 -44.679118835612826 -253.64032547496859 0 0 0 0 16.48627141531324 -135.8061350815824 0 -135.8061350815824 -282.44535076338298 0 0 0 0 118.39218434509894 -163.83690978775303 0 -163.83690978775303 -791.60082058380067 0 0 0 0 83.028972743248346 -35.00374664121172 0 -35.00374664121172 3.4150036838177709 0 0 0 0 618.68228140521387 223.82992042349815 0 223.82992042349815 -185.96851757283366 0 0 0 0 646.85142017158796 196.35734759503657 0 196.35734759503657 -165.56859587660529 0 0 0 0 485.91614420118276 185.24190740262293 0 185.24190740262293 -277.45069477772222 0 0 0 0 490.86434831841325 238.64484179237343 0 238.64484179237343 -126.22277125575329 0 0 0 0 624.41371708533552 266.04350774014074 0 266.04350774014074 -159.09853286789166 0 0 0 0 490.04864853818435 201.43095021365048 0 201.43095021365048 -45.938220720444633 0 0 0 0 590.89695230037614 197.56457696759821 0 197.56457696759821 -119.0213750505809 0 0 0 0 506.08206762120244 276.15771299119933 0 276.15771299119933 18.93851061245573 0 0 0 0 598.56444021984316 221.48654977935826 0 221.48654977935826 -124.63568681724792 0 0 0 0 589.35524541971972 168.6393503242457 0 168.6393503242457 13.447467639478873 0 0 0 0 621.66616697212157 228.61364620955217 0 228.61364620955217 28.247420239289283 0 0 0 0 653.88936792198911 343.14223020651741 0 343.14223020651741 113.63622324178095 0 0 0 0 4.6666333378194764 -2.6826310177487755 0 -2.6826310177487755 -3.1820046609046102 0 0 0 0 546.41596899638535 214.10152637084809 0 214.10152637084809 61.573878435163465 0 0 0 0 534.41624809114546 242.96766160566688 0 242.96766160566688 155.03689518703857 0 0 0 0 346.51063755205541 171.49320019074298 0 171.49320019074298 -5.4217706755791681 0 0 0 0 254.72787997695559 127.10358017651562 0 127.10358017651562 -8.5624420545584563 0 0 0 0 179.37196965613111 25.051111085669731 0 25.051111085669731 -18.268362054795489 0 0 0 0 422.4575924489618 -23.195252914217463 0 -23.195252914217463 -35.952007845181697 0 0 0 0 207.8446875328882 -5.8550237232494737 0 -5.8550237232494737 -54.66189627177198 0 0 0 0 173.24337808251585 -28.691583891027562 0 -28.691583891027562 -12.013678691955647 0 0 0 0 247.11898803040822 74.439151827837122 0 74.439151827837122 24.088373800782392 0 0 0 0 170.23003515414166 -26.093237672036139 0 -26.093237672036139 168.37005398397332 0 0 0 0 679.33710039778816 103.8450388035078 0 103.8450388035078 -35.387519203794909 0 0 0 0 192.61788700724719 101.20279897509909 0 101.20279897509909 167.49887430833769 0 0 0 0 8.3190655573998811 -86.462807935329465 0 -86.462807935329465 -53.650093140369592 0 0 0 0 -70.841001640204922 -13.355502692415939 0 -13.355502692415939 -22.946584357284223 0 0 0 0 75.522152572142659 -2.7415325596468847 0 -2.7415325596468847 38.72487098532622 0 0 0 0 34.575561316181847 -50.855210425889055 0 -50.855210425889055 -44.586346091488849 0 0 0 0 134.1840331508829 -94.747889609781794 0 -94.747889609781794 -9.6974671760117417 0 0 0 0 37.159305855078856 -60.486065968402727 0 -60.486065968402727 -8.9809361437147572 0 0 0 0 55.769778888574365 -71.399431625337797 0 -71.399431625337797 -42.263620082537727 0 0 0 0 123.29886167960649 51.802697822725349 0 51.802697822725349 55.913055711534071 0 0 0 0 109.56617099701543 -9.214014908959598 0 -9.214014908959598 -33.175550085026771 0 0 0 0 -3.6248753287072759 -3.1390984956306056 0 -3.1390984956306056 19.386733062363874 0 0 0 0 -190.46084811894252 -118.24821936717069 0 -118.24821936717069 2.1971095345988942 0 0 0 0 -37.021447494917084 -96.392849212734291 0 -96.392849212734291 -89.07535923323212 0 0 0 0 2.0163519121717712 -3.6525647850863407 0 -3.6525647850863407 -2.8394452955663603 0 0 0 0 11.480105989423464 9.8774673032144165 0 9.8774673032144165 -59.805847180114256 0 0 0 0 -104.93128794457152 -14.58249833571972 0 -14.58249833571972 23.997222835410867 0 0 0 0 10.989594680097071 15.412000452685334 0 15.412000452685334 33.100912670736307 0 0 0 0 164.38679246687843 5.1807516651102219 0 5.1807516651102219 -30.152717684022718 0 0 0 0 159.41851205979265 73.535815253512595 0 73.535815253512595 55.86916698521236 0 0 0 0 213.73323203928885 10.243992055485705 0 10.243992055485705 7.1890632320346413 0 0 0 0 132.9729818165506 58.915938220957742 0 58.915938220957742 8.0369032309845352 0 0 0 0 81.292331138498412 -43.29328181589392 0 -43.29328181589392 -67.220049831928009 0 0 0 0 586.88438656334984 143.71916814056658 0 143.71916814056658 -123.67576373082466 0 0 0 0 547.26157969732594 117.01848247109501 0 117.01848247109501 33.365307285639574 0 0 0 0 5.5837542163788356 -3.5662093141131521 0 -3.5662093141131521 -3.686287242998171 0 0 0 0 2.2521221066279367 -2.4146873927835628 0 -2.4146873927835628 1.3018451812685594 0 0 0 0 212.64110521138355 11.05726851538293 0 11.05726851538293 2.7375948572507696 0 0 0 0 3.3790116868598687 -2.1738492160792049 0 -2.1738492160792049 -2.3889249478461991 0 0 0 0 282.19923780280078 91.167554323219974 0 91.167554323219974 -14.961216728328964 0 0 0 0 600.69529389808304 245.21620667497427 0 245.21620667497427 228.62102667117233 0 0 0 0 3.4512705744464682 -4.7464619253424871 0 -4.7464619253424871 5.9527432878730906 0 0 0 0 348.88105932660983 101.15959889127862 0 101.15959889127862 -137.87617690473235 0 0 0 0 653.24186336918501 170.83086838011786 0 170.83086838011786 -156.24084869233866 0 0 0 0 881.00538423951002 -42.80486436548324 0 -42.80486436548324 -273.16552890943785 0 0 0 0 739.81951771077001 58.32739914333979 0 58.32739914333979 -46.608913869433309 0 0 0 0 1016.8761501588888 371.00467404563642 0 371.00467404563642 -460.37619543192159 0 0 0 0 83.631409908601199 -456.32920459459388 0 -456.32920459459388 -119.45667049724398 0 0 0 0 802.51371286339418 -367.7055152200719 0 -367.7055152200719 -324.60370547732964 0 0 0 0 102.44515390373272 -402.62723400846744 0 -402.62723400846744 160.89741421000326 0 0 0 0 136.09324971440947 526.33735213711952 0 526.33735213711952 359.60780564154925 0 0 0 0 363.01384930872155 -16.601475966579073 0 -16.601475966579073 152.91896601033841 0 0 0 0 1745.2576308268835 -165.57584982401568 0 -165.57584982401568 -55.674491947459501 0 0 0 0 950.45983253740269 -620.58030361190049 0 -620.58030361190049 741.84888998726547 0 0 0 0 -25.040386345484876 -41.96447561772402 0 -41.96447561772402 47.086593283012917 0 0 0 0 185.03373291160096 -47.749630843850809 0 -47.749630843850809 16.850508760551293 0 0 0 0 97.523316204620642 59.558962886462723 0 59.558962886462723 -10.334272019454602 0 0 0 0 208.46980225182779 76.463154632649548 0 76.463154632649548 31.365031386705596 0 0 0 0 -129.50448573047834 -363.70120960588383 0 -363.70120960588383 465.89470543086827 0 0 0 0 265.27396725842846 103.06416976135051 0 103.06416976135051 17.681579896674521 0 0 0 0 2.3964636653640525 -4.7570184796005321 0 -4.7570184796005321 8.932302182893789 0 0 0 0 163.39958630636102 13.970233213028678 0 13.970233213028678 -3.8179072620114312 0 0 0 0 180.47949498362141 95.831816536894621 0 95.831816536894621 64.583095118016445 0 0 0 0 224.51428509964171 55.007388555456373 0 55.007388555456373 58.997412553837421 0 0 0 0 186.70197821327019 -6.8616003137985899 0 -6.8616003137985899 72.315973787047369 0 0 0 0 375.98216240288457 -170.40079655514 0 -170.40079655514 212.81265809086563 0 0 0 0 191.08263786784664 -137.59187484826907 0 -137.59187484826907 453.69434961965908 0 0 0 0 -54.710460088070249 390.89448348567817 0 390.89448348567817 560.53849783801525 0 0 0 0 472.18304832495778 30.832153679043586 0 30.832153679043586 42.883814377938506 0 0 0 0 0.97612375451322464 -1.5676857496772101 0 -1.5676857496772101 4.8613613805434888 0 0 0 0 289.78462583940563 174.08753378645997 0 174.08753378645997 693.70567268039485 0 0 0 0 610.32075506279944 114.49730223303845 0 114.49730223303845 117.92528146678524 0 0 0 0 147.32413307767001 108.83718790789271 0 108.83718790789271 529.47303167250448 0 0 0 0 504.00482641091367 244.82076508654609 0 244.82076508654609 281.09840893552382 0 0 0 0 197.08308193947596 429.8881098289803 0 429.8881098289803 1521.0341855047723 0 0 0 0 212.36598626126215 424.15902540543084 0 424.15902540543084 496.44143311468542 0 0 0 0 341.64258141200844 539.55486026160588 0 539.55486026160588 250.05542711203634 0 0 0 0 218.55546478920223 420.64861090073498 0 420.64861090073498 487.33052111347388 0 0 0 0 268.37621371854766 -254.79041645525467 0 -254.79041645525467 -533.99048816523555 0 0 0 0 1095.7295877472206 509.81688657586074 0 509.81688657586074 47.735313411869356 0 0 0 0 -87.407155577442609 -376.364024176557 0 -376.364024176557 1016.2479914944797 0 0 0 0 100.14615431297352 -821.70254965376444 0 -821.70254965376444 653.30922549508796 0 0 0 0 444.19807012981619 -523.35173546560418 0 -523.35173546560418 397.16583375567552 0 0 0 0 -75.629253815874108 -117.62721682662686 0 -117.62721682662686 119.01955314951374 0 0 0 0 5.3449718943427627 -4.5189104524738326 0 -4.5189104524738326 2.3355180367021688 0 0 0 0 135.63320117319381 -764.28526674333807 0 -764.28526674333807 214.52566767626195 0 0 0 0 -333.91794889843004 -245.78961000228401 0 -245.78961000228401 552.11214241966809 0 0 0 0 755.80317647298943 -168.81424675145354 0 -168.81424675145354 -67.611349954670004 0 0 0 0 0.13335852407207938 0.12373966316059182 0 0.12373966316059182 2.3076296627598829 0 0 0 0 277.13004750468826 -18.777813471543595 0 -18.777813471543595 205.39721978988473 0 0 0 0 212.87396479706513 -146.04166593349692 0 -146.04166593349692 95.312513907212633 0 0 0 0 51.135058747298899 26.248456800698477 0 26.248456800698477 -52.795463551930879 0 0 0 0 246.76405347654509 62.428737484189696 0 62.428737484189696 -72.337442663871116 0 0 0 0 109.08093795410241 23.312333680622942 0 23.312333680622942 -64.880057845416559 0 0 0 0 223.61331507225987 -16.298071088227289 0 -16.298071088227289 -411.20730295705835 0 0 0 0 163.16961021563839 -100.49361480415064 0 -100.49361480415064 -235.70231885862995 0 0 0 0 63.083366133818799 -31.085930255518157 0 -31.085930255518157 13.477782755245082 0 0 0 0 217.39567945236195 145.03871061924565 0 145.03871061924565 -19.614939288840105 0 0 0 0 459.68459047788201 217.93442131157371 0 217.93442131157371 -14.562179987858144 0 0 0 0 335.42675169998256 231.48267162374577 0 231.48267162374577 2.1632202245673398 0 0 0 0 469.18458502288559 261.55924971505465 0 261.55924971505465 103.67394559555032 0 0 0 0 914.08379262434755 396.08300276808973 0 396.08300276808973 -86.206423329374957 0 0 0 0 15.190000736090809 -6.8066054329070766 0 -6.8066054329070766 4.478447700174133 0 0 0 0 1477.8356880918145 914.68949663041815 0 914.68949663041815 524.00067164712164 0 0 0 0 42.364346012556126 -19.746328518378732 0 -19.746328518378732 9.3152426064440821 0 0 0 0 129.534975406581 -300.51506397616879 0 -300.51506397616879 -143.80079789948104 0 0 0 0 3502.8641328041704 -731.74140508856817 0 -731.74140508856817 -324.93541773696347 0 0 0 0 1467.6754276786523 -709.78047853156386 0 -709.78047853156386 189.06046313001821 0 0 0 0 2695.9378376146487 -172.59097528542384 0 -172.59097528542384 -333.73916527928532 0 0 0 0 2111.7368754988493 -565.01488175330826 0 -565.01488175330826 193.88739942347948 0 0 0 0 1648.8113404238829 -190.63471894841331 0 -190.63471894841331 -105.47839321713991 0 0 0 0 1143.4559649167641 -809.40069921340807 0 -809.40069921340807 215.70713581449775 0 0 0 0 1.3457672274050196 7.8938715558974879 0 7.8938715558974879 -0.42270140659296745 0 0 0 0 77.620504595056559 9.5857441035572748 0 9.5857441035572748 -4.0199458781742932 0 0 0 0 112.27685855810705 -65.821921977669035 0 -65.821921977669035 -89.646625019124883 0 0 0 0 8.3127868335198229 -7.5725051980220712 0 -7.5725051980220712 -9.4006160549094311 0 0 0 0 -735.67292740163248 984.57962154805637 0 984.57962154805637 329.85568190755794 0 0 0 0 1378.8519210525628 -33.401833295796223 0 -33.401833295796223 -1438.0488194578538 0 0 0 0 51.104154956452703 28.431933243615816 0 28.431933243615816 0.38393328383855085 0 0 0 0 1496.4265941687045 33.50931242240064 0 33.50931242240064 6.0532901590814028 0 0 0 0 -644.19035957995584 633.09992224041798 0 633.09992224041798 -546.22014072850425 0 0 0 0 111.84779729861475 -307.81217158822699 0 -307.81217158822699 -171.95951414194076 0 0 0 0 655.68993471260183 26.623648455751663 0 26.623648455751663 -343.82809646573537 0 0 0 0 582.00556966740987 -265.16873896389302 0 -265.16873896389302 -314.94394082511997 0 0 0 0 1254.3811188805412 231.80852199479625 0 231.80852199479625 -326.37372194954673 0 0 0 0 608.7352149731887 -18.801043491130486 0 -18.801043491130486 -423.20518738729288 0 0 0 0 458.032283057124 107.13820062672147 0 107.13820062672147 -354.914218423683 0 0 0 0 166.28359558491502 -80.75620480977193 0 -80.75620480977193 -437.23700712390024 0 0 0 0 2872.7699541372313 -1362.8122711267922 0 -1362.8122711267922 417.56714422821091 0 0 0 0 2247.361153177073 -830.73209277803699 0 -830.73209277803699 428.23902928700358 0 0 0 0 2744.0223653263965 -983.46038269778319 0 -983.46038269778319 158.54037621163752 0 0 0 0 34.088825783834892 25.339645148661276 0 25.339645148661276 5.4633530254515819 0 0 0 0 5123.5546943946974 -1503.8563780542609 0 -1503.8563780542609 736.85680225415649 0 0 0 0 2444.5327272699942 -1305.4431927032172 0 -1305.4431927032172 859.3245631302965 0 0 0 0 3497.9268274206079 1339.0609922604051 0 1339.0609922604051 725.55770782589502 0 0 0 0 1737.7500836762338 172.08068465636799 0 172.08068465636799 0.56378271576538541 0 0 0 0 15.107538206301285 9.1731778750924633 0 9.1731778750924633 3.2856401307916356 0 0 0 0 -929.55020196457917 1326.0147900551083 0 1326.0147900551083 407.68421102326124 0 0 0 0 1651.3577838725978 1815.6508480994294 0 1815.6508480994294 404.04545632257214 0 0 0 0 3410.1097074407653 826.83093061665204 0 826.83093061665204 -490.67836841845121 0 0 0 0 590.47218027001873 145.04774520055443 0 145.04774520055443 309.51356832933214 0 0 0 0 419.05100732189021 22.265345468476482 0 22.265345468476482 165.25307516135675 0 0 0 0 432.80096063327801 303.19771673535382 0 303.19771673535382 81.66710607497312 0 0 0 0 449.02911764326564 -135.29273392296676 0 -135.29273392296676 -147.77871971165814 0 0 0 0 1216.431314643065 102.61203332341114 0 102.61203332341114 -29.068347637817695 0 0 0 0 459.98674054681032 46.774109263436642 0 46.774109263436642 -144.12939332980466 0 0 0 0 449.96959515100752 40.591468810414767 0 40.591468810414767 -142.52609187265551 0 0 0 0 342.98710553523415 7.5332673691637417 0 7.5332673691637417 24.524658683419389 0 0 0 0 554.89391498784971 247.51480417663208 0 247.51480417663208 96.546849367581714 0 0 0 0 564.73394418347289 85.191154567036961 0 85.191154567036961 -50.82776728073479 0 0 0 0 315.13003977369954 -36.645393490043155 0 -36.645393490043155 0.055658820641985407 0 0 0 0 128.21403744799318 13.364584825225695 0 13.364584825225695 53.254472864365091 0 0 0 0 220.00799687708786 -31.658974631917204 0 -31.658974631917204 -38.276460898736502 0 0 0 0 292.54588501719263 84.820479829900449 0 84.820479829900449 -80.597150105402761 0 0 0 0 268.30936937974184 22.348860112290424 0 22.348860112290424 -91.105375173833053 0 0 0 0 76.087938890021178 33.603789838717006 0 33.603789838717006 -60.112236609371564 0 0 0 0 3.8502257015962869 -0.72308719078334605 0 -0.72308719078334605 -0.6715699272205955 0 0 0 0 129.85007360567397 -30.338621372665216 0 -30.338621372665216 -147.64162887924073 0 0 0 0 57.229186114047479 -126.81997201152902 0 -126.81997201152902 -260.42231669509283 0 0 0 0 -85.106416375740082 -60.941957955100122 0 -60.941957955100122 -88.755939501149214 0 0 0 0 97.126814301856939 -31.59142069245884 0 -31.59142069245884 -259.28733561264681 0 0 0 0 184.97348350987886 35.589558385719329 0 35.589558385719329 -121.70198398213742 0 0 0 0 -23.909966220460774 -168.78357611330387 0 -168.78357611330387 -351.31665922245293 0 0 0 0 -630.98240444663679 -250.3030366621042 0 -250.3030366621042 -82.414113287003602 0 0 0 0 2.2382371127583269 -0.14084454832078563 0 -0.14084454832078563 -0.67167778643501341 0 0 0 0 126.78919595078332 92.172580680770807 0 92.172580680770807 -123.88696506542283 0 0 0 0 258.56253460611333 66.183598839399679 0 66.183598839399679 -144.66011418480457 0 0 0 0 119.69097373410477 39.505295188243053 0 39.505295188243053 -105.67186396891179 0 0 0 0 167.02072446988313 105.23019354709351 0 105.23019354709351 -112.61460359956641 0 0 0 0 20.268111264507752 94.579648032817772 0 94.579648032817772 -84.374721852217931 0 0 0 0 388.50270804268075 110.56985541314799 0 110.56985541314799 -162.06044220839885 0 0 0 0 445.01026006331085 109.21493504601665 0 109.21493504601665 -166.13672258681208 0 0 0 0 467.27548360382207 133.67565969066402 0 133.67565969066402 -263.79708552810757 0 0 0 0 616.3010127924199 57.692114995509073 0 57.692114995509073 -225.7040558764827 0 0 0 0 814.87349356117193 481.49099993573486 0 481.49099993573486 14.31576937454156 0 0 0 0 758.15298038877154 301.93243194053366 0 301.93243194053366 -178.99478342253997 0 0 0 0 468.90303665609099 244.13812074502732 0 244.13812074502732 -114.6405299081365 0 0 0 0 245.52684693680931 125.38474509926645 0 125.38474509926645 -70.843445333288173 0 0 0 0 221.48211502999766 97.671772115561907 0 97.671772115561907 -79.701670835499385 0 0 0 0 360.80951392100542 258.84599390718995 0 258.84599390718995 29.468705454394239 0 0 0 0 149.63536320388084 171.48096654193159 0 171.48096654193159 82.197810426549722 0 0 0 0 124.25789669674123 32.61973813040413 0 32.61973813040413 0.3074363646310303 0 0 0 0 -276.33216765600082 -490.17747457997018 0 -490.17747457997018 -186.00815427704958 0 0 0 0 -485.20018304741825 -206.66998798364568 0 -206.66998798364568 -312.6326487321785 0 0 0 0 32.727222545829136 -546.88816157145129 0 -546.88816157145129 -238.8134453821549 0 0 0 0 751.92605658830144 416.9835622808514 0 416.9835622808514 204.64788464010371 0 0 0 0 -87.714090637891786 -532.49327942897366 0 -532.49327942897366 -212.80132530045898 0 0 0 0 445.73262125169276 389.57958554755282 0 389.57958554755282 221.49153822182234 0 0 0 0 21.096535652354646 -3.1808670802947692 0 -3.1808670802947692 0.15826443305102611 0 0 0 0 -32.54113706741191 -465.92183542974317 0 -465.92183542974317 -203.27733530627779 0 0 0 0 -106.53161631419789 -535.88313326069238 0 -535.88313326069238 -76.289551753347496 0 0 0 0 243.76297146645084 110.85313497213428 0 110.85313497213428 -141.83112448452704 0 0 0 0 49.936116031480196 0.35765272759319355 0 0.35765272759319355 -0.26009601472251931 0 0 0 0 176.46250004143803 -473.08866010445399 0 -473.08866010445399 -262.6227267933275 0 0 0 0 16.540170469839723 0.068185937014128228 0 0.068185937014128228 0.67412080416362796 0 0 0 0 254.59471646012389 -629.73153070966657 0 -629.73153070966657 1046.0013542155514 0 0 0 0 277.36401264393862 -18.996214060510312 0 -18.996214060510312 -582.84925863888077 0 0 0 0 1120.4796748360068 873.37520423466583 0 873.37520423466583 -189.24557743993228 0 0 0 0 1346.8996759913698 -515.7537592174665 0 -515.7537592174665 -552.46571348403108 0 0 0 0 34.993896811120976 -814.30586128137713 0 -814.30586128137713 -616.91388480572937 0 0 0 0 -123.46984257952226 652.32297380947318 0 652.32297380947318 -213.31687234927654 0 0 0 0 54.004511891988273 -2.6939397072260256 0 -2.6939397072260256 -1.9143559237694219 0 0 0 0 822.87397392408457 -473.29020310746762 0 -473.29020310746762 -1693.1923326457211 0 0 0 0 -127.66888237798412 198.600855402018 0 198.600855402018 -642.95845927709536 0 0 0 0 -128.8370373652142 174.19156753941297 0 174.19156753941297 57.556086609677067 0 0 0 0 288.22196340165101 357.12817109565992 0 357.12817109565992 -1095.3735605240863 0 0 0 0 -36.903809634199661 646.72726362749972 0 646.72726362749972 262.37952765965065 0 0 0 0 -22.377751883352175 348.48677615203167 0 348.48677615203167 1086.4510132218413 0 0 0 0 -510.84172824615962 287.74796783825775 0 287.74796783825775 49.207105801507041 0 0 0 0 -3.3626586834292027 3.8780248828394264 0 3.8780248828394264 -6.3261065062224686 0 0 0 0 386.95409981056946 212.47994844863308 0 212.47994844863308 184.66826302453433 0 0 0 0 458.78753876278643 563.18945030411396 0 563.18945030411396 626.7165791517989 0 0 0 0 786.12705577882116 354.93921750707125 0 354.93921750707125 239.63786934547716 0 0 0 0 332.4853937872831 326.52780661560337 0 326.52780661560337 285.24180254641988 0 0 0 0 52.077012693065626 142.8745171651974 0 142.8745171651974 -190.16388205642579 0 0 0 0 3.0684695228620456 17.807967540595712 0 17.807967540595712 -17.073330222258548 0 0 0 0 104.44277441696613 6.9537673701263998 0 6.9537673701263998 -123.60499296495902 0 0 0 0 13.302356826665346 -22.945237404319556 0 -22.945237404319556 -123.05481092775659 0 0 0 0 67.000327304305074 4.9296495860465228 0 4.9296495860465228 -6.8649871780884482 0 0 0 0 96.621841919317376 163.21308676909939 0 163.21308676909939 -98.224027280728478 0 0 0 0 5.5206177367796272 15.555225849209734 0 15.555225849209734 -17.852019687792286 0 0 0 0 294.29403477054439 11.226037134097169 0 11.226037134097169 9.769296873415442 0 0 0 0 40.628936400760097 5.5660941857810364 0 5.5660941857810364 -9.0019900284659347 0 0 0 0 549.97928974193201 624.89672226054199 0 624.89672226054199 662.42350490455829 0 0 0 0 35.821710651085596 -107.12670609997262 0 -107.12670609997262 -69.888942868236853 0 0 0 0 0.5631952114199521 -93.213065267195233 0 -93.213065267195233 -103.24087681009385 0 0 0 0 -24.379165249862126 -33.877754274482498 0 -33.877754274482498 -126.64237224795801 0 0 0 0 192.33724279051239 -48.195822748998978 0 -48.195822748998978 -135.33881529737957 0 0 0 0 136.38996305965702 52.935206251126615 0 52.935206251126615 -106.48587941379672 0 0 0 0 1.8951910771663734 -0.32039717482462038 0 -0.32039717482462038 -0.36590076245787456 0 0 0 0 54.36644476413494 26.426051481055993 0 26.426051481055993 -114.88349691923065 0 0 0 0 66.503371805168456 1.1531950390068175 0 1.1531950390068175 -1.1237408464969874 0 0 0 0 -8.8945688843086828 -45.803793863486078 0 -45.803793863486078 -117.45263738083361 0 0 0 0 -75.555440117052058 -22.266237735651472 0 -22.266237735651472 -131.47806963880686 0 0 0 0 77.656301178715751 -106.12901336927804 0 -106.12901336927804 -86.700563504209867 0 0 0 0 -4.2155092527755187 -147.38783465026276 0 -147.38783465026276 -169.23248460437969 0 0 0 0 -20.684099584654177 -51.012960222775369 0 -51.012960222775369 -82.386531743440031 0 0 0 0 0.6326707404899139 -0.15282538047061678 0 -0.15282538047061678 -0.10700276392754521 0 0 0 0 -21.697660026766243 -53.831888874377753 0 -53.831888874377753 -28.002804989063918 0 0 0 0 128.39193598529528 18.862869866032632 0 18.862869866032632 -47.781682514286025 0 0 0 0 4.6959840795025229 -33.697851401881714 0 -33.697851401881714 0.039991792232052091 0 0 0 0 20.828844762072549 -46.563057092155859 0 -46.563057092155859 -14.768012453903767 0 0 0 0 128.96674522198737 44.992717137426347 0 44.992717137426347 11.674364951553191 0 0 0 0 -19.630382963383454 -15.223994506199054 0 -15.223994506199054 -0.064624672960291896 0 0 0 0 0.66330438492366284 -0.10641178682745078 0 -0.10641178682745078 -0.029816556210687305 0 0 0 0 -13.753032734879525 -10.95236894665676 0 -10.95236894665676 -26.526895283263951 0 0 0 0 1.1367316379350996 -0.37825780440772405 0 -0.37825780440772405 -0.064601609064437987 0 0 0 0 15.522052062297007 -23.634069321966791 0 -23.634069321966791 -63.591682190595819 0 0 0 0 14.660609232443676 -35.805701241442641 0 -35.805701241442641 -32.373737305094345 0 0 0 0 -11.271622905318509 7.0711073785968992 0 7.0711073785968992 -41.146907106914171 0 0 0 0 16.365678526781267 51.982164366498445 0 51.982164366498445 20.98978975941586 0 0 0 0 81.034266046597622 31.319512693709655 0 31.319512693709655 -61.531756371918718 0 0 0 0 34.545484243062674 42.820351275126768 0 42.820351275126768 -97.199953040401539 0 0 0 0 31.642602042542421 31.679295591682866 0 31.679295591682866 -54.068965112544092 0 0 0 0 61.671575750166085 39.370953102184309 0 39.370953102184309 -153.74099573285099 0 0 0 0 90.946731658055796 -64.943439010422779 0 -64.943439010422779 -113.79012016024325 0 0 0 0 89.26162431112607 14.866599991650844 0 14.866599991650844 -128.36496125164732 0 0 0 0 31.635153570246985 -28.668566122419833 0 -28.668566122419833 -230.7623041240366 0 0 0 0 21.314383237215225 28.032675920401502 0 28.032675920401502 -88.525695531993591 0 0 0 0 823.11964715847716 484.59511238321511 0 484.59511238321511 177.37867182979062 0 0 0 0 -141.98057111974049 -267.0879565596673 0 -267.0879565596673 -298.06053086784709 0 0 0 0 -3.8191367803674154 3.406944310627722 0 3.406944310627722 -5.0268257835541998 0 0 0 0 -172.3195456333342 -83.120366335926846 0 -83.120366335926846 -103.37441403198071 0 0 0 0 114.14824398359633 -86.305474031653375 0 -86.305474031653375 -466.5399448717809 0 0 0 0 1025.5746323186322 710.52927488125488 0 710.52927488125488 146.35135413857097 0 0 0 0 1177.5051020512619 268.58523953693202 0 268.58523953693202 -327.69106527628537 0 0 0 0 550.58509289154608 280.3249989597839 0 280.3249989597839 10.885455684225235 0 0 0 0 -0.18110437590240736 2.9359530231935764 0 2.9359530231935764 -2.1403339932809899 0 0 0 0 556.99548847915139 875.83663055321563 0 875.83663055321563 421.05268442517911 0 0 0 0 932.17728071438614 48.584872934738314 0 48.584872934738314 1079.9219291764416 0 0 0 0 1.1859158829827834 1.9708070775704414 0 1.9708070775704414 -4.9445080655918137 0 0 0 0 802.66006075707628 59.533771068221469 0 59.533771068221469 -270.77635874045046 0 0 0 0 31.962064641702455 -28.858146482174362 0 -28.858146482174362 -156.66467475484632 0 0 0 0 621.83698401440051 -634.42308292077723 0 -634.42308292077723 -116.84724051246877 0 0 0 0 247.68458701332565 -86.963175642420509 0 -86.963175642420509 -31.369563761215826 0 0 0 0 379.40217765653506 -169.22356757341393 0 -169.22356757341393 -107.55648547255849 0 0 0 0 585.06333651745808 127.703117013454 0 127.703117013454 -84.752900009833013 0 0 0 0 -5.4062057051232841 -68.994693224881331 0 -68.994693224881331 -235.00854190061949 0 0 0 0 8.9821111672790721 14.059504303273917 0 14.059504303273917 -131.8320117648025 0 0 0 0 68.942180361162173 53.810227439792456 0 53.810227439792456 -144.16261257140002 0 0 0 0 88.3823041379801 -51.615057278442805 0 -51.615057278442805 -157.26675867165775 0 0 0 0 105.76198271177418 74.812078847188161 0 74.812078847188161 -287.77251032575151 0 0 0 0 133.8804166186892 15.336623896638772 0 15.336623896638772 -63.573825126532654 0 0 0 0 47.619915194867644 -0.5546880531496754 0 -0.5546880531496754 -61.462748514876544 0 0 0 0 135.21881313491031 11.33538517965988 0 11.33538517965988 -66.616449261012377 0 0 0 0 73.638680893778655 4.7805207027598353 0 4.7805207027598353 9.5425498939863758 0 0 0 0 142.80943533798563 20.958352024602661 0 20.958352024602661 -13.498505097980829 0 0 0 0 194.92329976333713 -58.133769634739949 0 -58.133769634739949 7.4213913617124945 0 0 0 0 129.85463223213446 4.6314467021911909 0 4.6314467021911909 3.0616062920249192 0 0 0 0 224.52860319778847 11.9120912274932 0 11.9120912274932 55.106277757797642 0 0 0 0 352.10205830577615 112.12062273638441 0 112.12062273638441 54.165269420900216 0 0 0 0 255.50077518858598 -18.821239261038372 0 -18.821239261038372 -8.4046867666194913 0 0 0 0 198.68202046190709 -16.223214307084433 0 -16.223214307084433 26.754294899179854 0 0 0 0 220.81085413500841 -33.924365401560614 0 -33.924365401560614 0.041886846900064355 0 0 0 0 214.98275199301133 -38.286585605021727 0 -38.286585605021727 0.28107374009954472 0 0 0 0 215.72192500688834 -14.841212092850959 0 -14.841212092850959 -7.2728427469981867 0 0 0 0 388.30070035127574 307.73539443033087 0 307.73539443033087 0.55245331838239498 0 0 0 0 0.73544801537036619 0.48064842643211136 0 0.48064842643211136 -1.4574546843509031 0 0 0 0 378.04611785387533 302.41879591509098 0 302.41879591509098 16.696993913736947 0 0 0 0 187.24545686862257 -43.439262888420956 0 -43.439262888420956 -0.02964660999059229 0 0 0 0 276.10851153825934 371.54473916990861 0 371.54473916990861 -15.882573196010185 0 0 0 0 319.93001742501656 292.9262342731314 0 292.9262342731314 93.688170105555855 0 0 0 0 15.620164951818879 185.61266867814356 0 185.61266867814356 135.99498737925398 0 0 0 0 100.30150401122773 179.73110467933913 0 179.73110467933913 35.388685336298295 0 0 0 0 71.817111577838659 321.36595473431976 0 321.36595473431976 513.02291226010243 0 0 0 0 599.55705671215765 723.8440434883089 0 723.8440434883089 326.86608617483307 0 0 0 0 938.48085617904144 -202.75333563761853 0 -202.75333563761853 -40.879269476961781 0 0 0 0 50.458956213435158 47.771205909045534 0 47.771205909045534 301.8421880237903 0 0 0 0 8.3104225698321272 4.2368939685057967 0 4.2368939685057967 1.305806358960333 0 0 0 0 5.3897131930187356 5.357836358294918 0 5.357836358294918 2.9308514906272123 0 0 0 0 -9.081528995782719 -155.84341828503761 0 -155.84341828503761 -91.042121955912933 0 0 0 0 58.055390684399754 29.471173958332542 0 29.471173958332542 26.282773658795577 0 0 0 0 17.747456888805118 18.650780849158267 0 18.650780849158267 17.149783652424254 0 0 0 0 37.366698321362492 53.761802365239419 0 53.761802365239419 -8.7172894681943944 0 0 0 0 182.66608380391517 -14.667567517711973 0 -14.667567517711973 5.2824400093622899 0 0 0 0 -38.134007096708956 58.497110386675956 0 58.497110386675956 85.092814402147269 0 0 0 0 73.811458812415367 70.874528604339957 0 70.874528604339957 -11.711627223796199 0 0 0 0 50.15176100069948 57.669302601698291 0 57.669302601698291 1.1251904269984152 0 0 0 0 87.234257925811107 53.274187275954318 0 53.274187275954318 -46.571266213580202 0 0 0 0 57.987178575938742 54.648764648927909 0 54.648764648927909 13.725640408367326 0 0 0 0 116.31048607599223 108.22953534390717 0 108.22953534390717 24.398405601575291 0 0 0 0 226.87314343130856 8.0100761905764557 0 8.0100761905764557 74.180673432538015 0 0 0 0 48.549619388642896 12.08114169811779 0 12.08114169811779 -46.013889005457713 0 0 0 0 24.772181817395847 -3.5931649730183182 0 -3.5931649730183182 -5.66158836483784 0 0 0 0 82.315245558420429 599.31955650646569 0 599.31955650646569 -172.14220608300184 0 0 0 0 580.80802800113088 348.12185164242442 0 348.12185164242442 -408.25147182219735 0 0 0 0 924.23744766524032 387.17738919619615 0 387.17738919619615 -633.62891374774699 0 0 0 0 457.78373701938835 1084.4295569051901 0 1084.4295569051901 -288.48630311311354 0 0 0 0 1073.8626121247071 474.08817824568814 0 474.08817824568814 57.718349274819047 0 0 0 0 281.04633365612244 -55.21319409181524 0 -55.21319409181524 -289.46654299390411 0 0 0 0 1130.6734933206753 -621.62800936648273 0 -621.62800936648273 88.063970150040404 0 0 0 0 270.02871721222982 -455.76802737801017 0 -455.76802737801017 431.55192823238031 0 0 0 0 13.268065827648115 0.086337638284351925 0 0.086337638284351925 1.0384717986900149 0 0 0 0 -247.83994009673188 1221.8465041632167 0 1221.8465041632167 2533.7776279110881 0 0 0 0 32.361465310273672 -18.897043879301577 0 -18.897043879301577 3.3292829759434888 0 0 0 0 32.799831970012747 -68.741653540831521 0 -68.741653540831521 -45.623217543776263 0 0 0 0 1716.2502307260875 -686.27741157952551 0 -686.27741157952551 1433.3457192701944 0 0 0 0 132.61202621684788 -171.21912999148435 0 -171.21912999148435 -241.9058381827499 0 0 0 0 1490.8913117157499 1272.0908363125873 0 1272.0908363125873 -459.1780176746488 0 0 0 0 2210.8344754648278 256.9899901908102 0 256.9899901908102 -646.98928704425589 0 0 0 0 159.48148692397808 214.97494369678265 0 214.97494369678265 -203.89074210134467 0 0 0 0 161.6071399721186 80.296106211718907 0 80.296106211718907 215.64187184299919 0 0 0 0 240.98346019182645 142.36860734994593 0 142.36860734994593 -131.34783653670456 0 0 0 0 737.97173684638619 651.17042170143714 0 651.17042170143714 218.05970039646127 0 0 0 0 482.38556834281917 819.67590827786444 0 819.67590827786444 181.36211651276972 0 0 0 0 30.132466748175545 -17.839558555773181 0 -17.839558555773181 5.8638731865566678 0 0 0 0 753.09194272320019 -100.31249681530664 0 -100.31249681530664 -171.10621510406594 0 0 0 0 -161.49411375905038 -381.11953583569175 0 -381.11953583569175 81.01946070125291 0 0 0 0 19.479687479702989 281.15804315229843 0 281.15804315229843 814.87939322393481 0 0 0 0 159.20633678637387 111.55548310609771 0 111.55548310609771 633.43741917851924 0 0 0 0 236.98236273147631 162.8858491064625 0 162.8858491064625 172.1941495895685 0 0 0 0 73.399073693275568 385.12378294153569 0 385.12378294153569 662.27501801823485 0 0 0 0 340.4150268168014 295.76188093634255 0 295.76188093634255 640.08790408520281 0 0 0 0 23.167651308279659 0.66627567023057566 0 0.66627567023057566 -7.1705816557246607 0 0 0 0 111.25031474996649 -57.477546054079994 0 -57.477546054079994 -83.351506559580685 0 0 0 0 118.27144380952814 -22.983078587663442 0 -22.983078587663442 340.59730758051558 0 0 0 0 120.91035450477023 -5.6659595216219252 0 -5.6659595216219252 -6.5938205212107226 0 0 0 0 99.408043115938199 196.96393610241773 0 196.96393610241773 354.02981622957111 0 0 0 0 224.50100421914249 222.40406935348119 0 222.40406935348119 232.47561117167993 0 0 0 0 293.77040108261281 93.39981752951644 0 93.39981752951644 198.10334981113874 0 0 0 0 93.587729474544176 144.11503886232958 0 144.11503886232958 264.35178309045705 0 0 0 0 108.60659458611917 184.64514677726299 0 184.64514677726299 194.17023787994913 0 0 0 0 60.082154752759379 173.06711598188463 0 173.06711598188463 201.94306705711142 0 0 0 0 65.183121482101342 97.75324065710646 0 97.75324065710646 88.934171889350182 0 0 0 0 95.756743714344339 37.179388043007179 0 37.179388043007179 -8.426593463131212 0 0 0 0 196.67964824382216 170.12620277900714 0 170.12620277900714 14.751878483435775 0 0 0 0 168.19325683094212 149.30094857168581 0 149.30094857168581 174.35584430122435 0 0 0 0 122.26221767495736 194.60752715689978 0 194.60752715689978 174.36644779178187 0 0 0 0 112.99129950367205 139.07011063253037 0 139.07011063253037 188.54594936312515 0 0 0 0 85.416822622268228 -129.93899242893485 0 -129.93899242893485 -155.27557197534043 0 0 0 0 149.96263922426442 -109.67271244485369 0 -109.67271244485369 -171.49641945455676 0 0 0 0 141.98357468578615 -78.659242864532644 0 -78.659242864532644 -177.27749835922225 0 0 0 0 153.90555076607052 -113.83626050440489 0 -113.83626050440489 -221.62413431274263 0 0 0 0 200.41316871299932 -69.368337175391389 0 -69.368337175391389 -180.1006125429829 0 0 0 0 126.83888753172505 -85.768757487454877 0 -85.768757487454877 -137.42126393986382 0 0 0 0 131.85602934291819 -42.688910935327385 0 -42.688910935327385 -158.12963246510799 0 0 0 0 129.78654474588166 -52.866912630188182 0 -52.866912630188182 -123.43225164989872 0 0 0 0 127.09976603044197 -82.488798165421542 0 -82.488798165421542 -111.03197251702022 0 0 0 0 98.500545733477338 -79.816402857942194 0 -79.816402857942194 -106.59204901186558 0 0 0 0 64.952114246904557 -33.835313427088124 0 -33.835313427088124 -10.009452116693076 0 0 0 0 76.832850840859464 -150.44397663025029 0 -150.44397663025029 107.47187845459433 0 0 0 0 112.69295059756769 -47.901801730731165 0 -47.901801730731165 -81.652786710817963 0 0 0 0 3.9688431105398649 -9.0874322196640485 0 -9.0874322196640485 1.2028022206579752 0 0 0 0 278.79664244463493 376.94577027588861 0 376.94577027588861 208.35042814522239 0 0 0 0 530.5859134756829 126.57707936157811 0 126.57707936157811 -84.112109817927376 0 0 0 0 165.59228952451667 16.325656619405663 0 16.325656619405663 -55.222835788727281 0 0 0 0 187.24366150285641 66.641914341751942 0 66.641914341751942 42.360775941342126 0 0 0 0 1.529708844200286 -141.61156112656445 0 -141.61156112656445 -127.69980310461233 0 0 0 0 51.87141170766283 -39.970795900836123 0 -39.970795900836123 -11.164500947423555 0 0 0 0 69.247239540491137 -81.457306346843779 0 -81.457306346843779 -60.746581450290478 0 0 0 0 0.53015347558903159 -144.43024054444902 0 -144.43024054444902 -115.46776781827293 0 0 0 0 70.226913404694642 -137.72183997266256 0 -137.72183997266256 -146.14103294246661 0 0 0 0 -16.085323547646112 -220.06846071505061 0 -220.06846071505061 -218.16501714737205 0 0 0 0 98.306350412676693 -201.93226459609036 0 -201.93226459609036 -342.97928564118411 0 0 0 0 60.274435429019832 -36.367667962706619 0 -36.367667962706619 -9.3900102912181822 0 0 0 0 -234.61689240060878 -136.51558411188068 0 -136.51558411188068 -18.090526415020122 0 0 0 0 -148.80340910432278 -322.47048415783183 0 -322.47048415783183 -300.15982135053946 0 0 0 0 -37.444562584074447 -172.75337906208193 0 -172.75337906208193 -112.28968887238989 0 0 0 0 -221.03416201248911 -492.25568661112737 0 -492.25568661112737 -821.55809089508921 0 0 0 0 -8.2947282525670971 -18.164166677275315 0 -18.164166677275315 3.8805276754767313 0 0 0 0 -13.754740121541545 -190.7226237089501 0 -190.7226237089501 -431.00934110857247 0 0 0 0 17.791839261873974 -47.173539516669052 0 -47.173539516669052 -782.79354996827533 0 0 0 0 -276.89547254306672 -428.10990617603659 0 -428.10990617603659 -641.29186807261522 0 0 0 0 105.11054337310998 -158.9313012287912 0 -158.9313012287912 -327.4772431112192 0 0 0 0 178.13546708991635 -161.12712510648407 0 -161.12712510648407 -429.0278244071477 0 0 0 0 57.977479568318813 -252.88312952590024 0 -252.88312952590024 -509.22490748044811 0 0 0 0 116.48731596380821 -41.247984620146781 0 -41.247984620146781 -532.13228077725364 0 0 0 0 229.26119536012993 -93.557022273914299 0 -93.557022273914299 -325.23406261148784 0 0 0 0 210.95877816815482 -91.971723157762312 0 -91.971723157762312 -299.25586932524538 0 0 0 0 197.99347971349926 -135.19610189227456 0 -135.19610189227456 -328.10168858177258 0 0 0 0 128.97477454363252 -141.68626036243677 0 -141.68626036243677 -232.20311616559411 0 0 0 0 97.267026639077812 -166.44950280689 0 -166.44950280689 -229.69048194874995 0 0 0 0 200.46079139216408 -100.89694373062996 0 -100.89694373062996 -259.29114524140186 0 0 0 0 230.01696816150798 -73.650680802322768 0 -73.650680802322768 -234.27892433739015 0 0 0 0 221.87849588151585 -60.048922040241678 0 -60.048922040241678 -236.67304808564131 0 0 0 0 323.33182852659957 8.8673165971968047 0 8.8673165971968047 -268.1632452706508 0 0 0 0 265.27606509845646 -42.279755064998426 0 -42.279755064998426 -259.14131227620828 0 0 0 0 280.95825473325385 -55.008597541006338 0 -55.008597541006338 -302.44770963992869 0 0 0 0 270.04221070400672 -17.44977118586803 0 -17.44977118586803 -252.88045523778783 0 0 0 0 333.21072002993606 37.366772415820606 0 37.366772415820606 -275.73124301818825 0 0 0 0 261.13493322709837 38.671075820615556 0 38.671075820615556 -330.32304184054601 0 0 0 0 220.80442261397184 -63.40334146813052 0 -63.40334146813052 -334.86237117434348 0 0 0 0 286.07147187121154 -11.162164055494031 0 -11.162164055494031 -329.97058589161901 0 0 0 0 265.7135405051522 -8.2765901050056527 0 -8.2765901050056527 -215.77436902903173 0 0 0 0 320.29680828326673 43.35750306736827 0 43.35750306736827 -213.03002435982606 0 0 0 0 216.2387838253926 12.009965009863436 0 12.009965009863436 -103.60094745463448 0 0 0 0 327.15843049361138 19.728534193211772 0 19.728534193211772 -201.37677833111775 0 0 0 0 311.55029008080601 27.273059964662252 0 27.273059964662252 -128.42111210768689 0 0 0 0 396.48539402146707 60.86912545794894 0 60.86912545794894 -199.69274345014398 0 0 0 0 380.6781441996427 56.169891188992551 0 56.169891188992551 -61.153361370539187 0 0 0 0 416.21348307114386 48.073675230729918 0 48.073675230729918 -126.73928028866203 0 0 0 0 286.72115233224758 15.260721857139288 0 15.260721857139288 -104.00359493340807 0 0 0 0 161.72382872879098 -24.256109066458976 0 -24.256109066458976 38.227155376888732 0 0 0 0 200.90872529557964 -24.324531152247118 0 -24.324531152247118 38.170875756631176 0 0 0 0 403.96897825670021 -8.570233664366242 0 -8.570233664366242 -21.552538535040327 0 0 0 0 293.34061092591583 -8.8373910957236603 0 -8.8373910957236603 -21.502840793968971 0 0 0 0 382.94733852052377 -195.00389178401838 0 -195.00389178401838 192.74150426071765 0 0 0 0 264.81610654853284 -102.74706405660004 0 -102.74706405660004 123.51601508116983 0 0 0 0 151.79485637029575 -70.869122669932494 0 -70.869122669932494 132.48427347780921 0 0 0 0 499.61455664558162 -1.6288626157238468 0 -1.6288626157238468 44.128094769578297 0 0 0 0 730.06526528157701 167.98347502437355 0 167.98347502437355 34.208356967526925 0 0 0 0 551.88763385580387 67.881141097599993 0 67.881141097599993 -61.663831778901866 0 0 0 0 417.86586651753896 -37.987739373425256 0 -37.987739373425256 37.01796373713205 0 0 0 0 -64.669010162033373 -64.297752109999237 0 -64.297752109999237 283.42594565990635 0 0 0 0 -61.519025817546208 -16.029032795994453 0 -16.029032795994453 310.12064738926438 0 0 0 0 166.79721240758954 -118.56383855652393 0 -118.56383855652393 206.24117376752292 0 0 0 0 74.006883746420499 -60.990034876341724 0 -60.990034876341724 183.89445744708905 0 0 0 0 6.7784763920790283 7.9683012264003992 0 7.9683012264003992 115.76746870137413 0 0 0 0 34.376401050838467 -1.4705018516513064 0 -1.4705018516513064 110.3497256998935 0 0 0 0 142.60647218471058 18.702823956507245 0 18.702823956507245 -43.362766779402591 0 0 0 0 -3.0323132560952217 111.59743795686131 0 111.59743795686131 -14.293152600942221 0 0 0 0 -20.276601687735365 -13.348085828191913 0 -13.348085828191913 -34.334531353798411 0 0 0 0 -46.24191068456912 -46.440797684157602 0 -46.440797684157602 -355.29770010294169 0 0 0 0 214.4473758726308 33.475109959584643 0 33.475109959584643 -217.64185492971728 0 0 0 0 88.615624340396607 59.064865322964579 0 59.064865322964579 -51.639899984683666 0 0 0 0 100.224767437845 46.07092162234153 0 46.07092162234153 -178.49831360055941 0 0 0 0 31.41758996353019 26.317279802706935 0 26.317279802706935 -175.64787863831896 0 0 0 0 152.66998099014745 26.299233751323527 0 26.299233751323527 -210.74315237705923 0 0 0 0 107.33676686133549 21.848820038016356 0 21.848820038016356 -341.45634415884024 0 0 0 0 154.22833226931107 43.527522073046157 0 43.527522073046157 -384.58059414506442 0 0 0 0 168.74901731460341 -90.452752892781632 0 -90.452752892781632 -500.1933310320378 0 0 0 0 188.60091096498945 -26.801828672693546 0 -26.801828672693546 -376.46167777815185 0 0 0 0 -7.2611810773159959 120.85806345889807 0 120.85806345889807 -348.02579433172082 0 0 0 0 111.94177124303314 -10.205854927781402 0 -10.205854927781402 -582.53790380981354 0 0 0 0 15.882224280569062 -104.25092045410145 0 -104.25092045410145 -490.62912879417399 0 0 0 0 -142.02140547730232 -169.43653763067312 0 -169.43653763067312 -647.65219589274147 0 0 0 0 -60.86752900670399 -46.769900756689907 0 -46.769900756689907 -1328.8309323035803 0 0 0 0 -347.6940178280347 -40.930897972831815 0 -40.930897972831815 -685.55664303221704 0 0 0 0 -30.207235935071367 -147.92794082165346 0 -147.92794082165346 -652.15787161777064 0 0 0 0 -231.96185837996018 144.9725601647458 0 144.9725601647458 -524.10774120555698 0 0 0 0 120.00204707703233 -175.41865952296325 0 -175.41865952296325 -1061.1680352123053 0 0 0 0 81.873258437823097 -50.475228295851025 0 -50.475228295851025 -718.31244147400184 0 0 0 0 293.25983277166233 -24.197419623165644 0 -24.197419623165644 -456.38333793457332 0 0 0 0 113.83832696261379 -220.02802062818131 0 -220.02802062818131 -570.82704532537093 0 0 0 0 80.596481476655754 173.03133229437185 0 173.03133229437185 2.873975376900944 0 0 0 0 -18.446759643236874 42.385707945244349 0 42.385707945244349 -406.41592075837889 0 0 0 0 -87.017130408137746 152.36577822040135 0 152.36577822040135 -157.51063042333271 0 0 0 0 -16.02002565265866 -78.402176844152336 0 -78.402176844152336 -298.58558345824576 0 0 0 0 -34.654461731566698 -45.790832378399955 0 -45.790832378399955 153.22145025547252 0 0 0 0 29.024308874322742 135.53916781591511 0 135.53916781591511 87.854380734124788 0 0 0 0 191.39952020502096 294.78629438807957 0 294.78629438807957 491.85828440079831 0 0 0 0 19.511589252790145 -179.00396606145068 0 -179.00396606145068 643.57778052528658 0 0 0 0 71.374726699315943 -225.97665665472732 0 -225.97665665472732 536.01417260649805 0 0 0 0 -597.64251469484589 -102.63564514017526 0 -102.63564514017526 553.19720205477438 0 0 0 0 -333.77172879764112 803.47052959660277 0 803.47052959660277 288.88564939713069 0 0 0 0 9.1788296169397654 -4.4141405575661281 0 -4.4141405575661281 3.1914633815103954 0 0 0 0 390.33191194723986 -394.85830262039917 0 -394.85830262039917 129.05794065192049 0 0 0 0 656.3773507418191 -29.011385704351483 0 -29.011385704351483 -122.53898805811696 0 0 0 0 134.73319557208742 -94.942737597564928 0 -94.942737597564928 -76.472582404901686 0 0 0 0 142.3031648567196 -271.59844885554605 0 -271.59844885554605 -190.28605103804011 0 0 0 0 65.331303932522133 -149.54068865251895 0 -149.54068865251895 89.619409553660262 0 0 0 0 142.43902817433263 -81.074668016303463 0 -81.074668016303463 -125.84591876815685 0 0 0 0 287.16762787738844 -274.29986752983518 0 -274.29986752983518 -492.25941156934459 0 0 0 0 218.03247526940686 -261.99716723911456 0 -261.99716723911456 -1139.4443928825003 0 0 0 0 58.02606222662871 -14.775409470311956 0 -14.775409470311956 -633.72039919974236 0 0 0 0 -56.526229893863274 -385.04345474998479 0 -385.04345474998479 -626.03534199982369 0 0 0 0 151.34468946254765 -48.652792780262857 0 -48.652792780262857 -17.720685362856102 0 0 0 0 -14.17135896502441 -114.2707298524939 0 -114.2707298524939 278.75072726912163 0 0 0 0 383.43466751150845 278.60772685121037 0 278.60772685121037 267.52013935852392 0 0 0 0 75.271927468582049 -6.8658485471637505 0 -6.8658485471637505 -0.9764114348166324 0 0 0 0 88.698721887278282 -12.279739802076644 0 -12.279739802076644 -4.7379610033989668 0 0 0 0 97.50444573436107 -100.68821419419407 0 -100.68821419419407 -90.863620159210313 0 0 0 0 85.82767524922383 116.91249243992701 0 116.91249243992701 -973.44814422365823 0 0 0 0 19.508326567077916 2.8583328536500119 0 2.8583328536500119 -7.0977462672264569 0 0 0 0 -395.06992977410846 -753.06798255630315 0 -753.06798255630315 -1205.5395080652354 0 0 0 0 91.115133353392594 -11.772323103613871 0 -11.772323103613871 -37.185423415719697 0 0 0 0 94.709733967349166 8.3538585364699429 0 8.3538585364699429 39.74304177930253 0 0 0 0 94.367439780340646 4.6152910225978303 0 4.6152910225978303 -1.0720048370972108 0 0 0 0 41.672818652092246 -51.933622192742405 0 -51.933622192742405 5.6517314948112016 0 0 0 0 50.642185934717418 -25.121423505523808 0 -25.121423505523808 81.189394185541005 0 0 0 0 81.951152305147843 42.804838213749235 0 42.804838213749235 121.28951709032981 0 0 0 0 83.99288070271723 25.970079452358959 0 25.970079452358959 26.393620549116577 0 0 0 0 8.6734448161150794 -132.60596816453403 0 -132.60596816453403 15.304623270912657 0 0 0 0 13.004776312576723 -69.342305255404312 0 -69.342305255404312 191.59115885475649 0 0 0 0 4.7496342489030212 59.409785282034477 0 59.409785282034477 205.7907716335389 0 0 0 0 15.02302139535459 144.67334471483747 0 144.67334471483747 343.99808123601719 0 0 0 0 23.714513628918212 96.591884141752189 0 96.591884141752189 121.80662734971281 0 0 0 0 1.1555482065159595 84.001390402725747 0 84.001390402725747 108.80625715004385 0 0 0 0 -64.643886647449108 159.8816931932048 0 159.8816931932048 95.223813185767199 0 0 0 0 100.19800913432846 121.58251140152936 0 121.58251140152936 102.5047383627932 0 0 0 0 -268.48911915832264 -108.45339032687328 0 -108.45339032687328 163.5930585132694 0 0 0 0 24.039610577900021 65.955031029428511 0 65.955031029428511 79.343959728593745 0 0 0 0 16.492835622515059 -8.797927594294336 0 -8.797927594294336 3.1177310522178439 0 0 0 0 -281.00729450790095 260.61008422151508 0 260.61008422151508 495.1645471504429 0 0 0 0 816.11209174188843 957.27196970384648 0 957.27196970384648 460.95817814233675 0 0 0 0 848.62390317714926 633.86465449270781 0 633.86465449270781 14.159278190328678 0 0 0 0 -469.70471983186144 458.2001308253989 0 458.2001308253989 820.18600329062679 0 0 0 0 45.747466265631374 -253.39037812242623 0 -253.39037812242623 120.31690589737036 0 0 0 0 263.74466458312236 32.258985704150007 0 32.258985704150007 493.85943280755873 0 0 0 0 452.19327725941548 -378.43745308760202 0 -378.43745308760202 759.40332937824905 0 0 0 0 335.67727166252735 -23.692706742805399 0 -23.692706742805399 520.22394913812889 0 0 0 0 398.62604502681995 0.89640272021696799 0 0.89640272021696799 500.05035824223535 0 0 0 0 5.068135560869905 -1.6977335915557319 0 -1.6977335915557319 0.63555286859879589 0 0 0 0 408.05941498451284 696.04919665272541 0 696.04919665272541 819.64952856507523 0 0 0 0 441.38702969589212 516.45269641755647 0 516.45269641755647 350.20913882606851 0 0 0 0 591.89351499366524 464.33305863037003 0 464.33305863037003 211.05562003710293 0 0 0 0 584.92429454249213 157.58165497610378 0 157.58165497610378 336.28315958063786 0 0 0 0 291.31542324885777 235.55070406628488 0 235.55070406628488 382.90285070149599 0 0 0 0 1149.4340124361406 -2.675061867892623 0 -2.675061867892623 226.36114288535191 0 0 0 0 169.02785015634436 324.4748572242741 0 324.4748572242741 408.40275604021622 0 0 0 0 705.32953562337207 601.95003423161745 0 601.95003423161745 361.6342894942976 0 0 0 0 168.97667832182924 48.619130412819629 0 48.619130412819629 37.718357775825098 0 0 0 0 389.90660916064735 -43.580806752466998 0 -43.580806752466998 40.962725745537682 0 0 0 0 33.530650159351353 -28.064971827279919 0 -28.064971827279919 40.626560834450174 0 0 0 0 -2.7636637570051334 -1.4972720770515906 0 -1.4972720770515906 -0.69399438449219009 0 0 0 0 277.44020272858324 221.79054895033673 0 221.79054895033673 264.32984000676583 0 0 0 0 475.30338230999041 409.34042161891671 0 409.34042161891671 74.444091318650081 0 0 0 0 301.28501141044399 467.3488047352281 0 467.3488047352281 508.06568545505223 0 0 0 0 1049.5862369205861 -77.386326688728161 0 -77.386326688728161 -24.729412122929375 0 0 0 0 1197.7971225045403 174.78135106422513 0 174.78135106422513 651.59242652355249 0 0 0 0 1159.2916872157366 106.13908847819096 0 106.13908847819096 569.34267833624961 0 0 0 0 502.85261508099575 665.33681714632758 0 665.33681714632758 805.76934785947901 0 0 0 0 194.04077467195748 257.9647501546151 0 257.9647501546151 435.54285186159632 0 0 0 0 322.92688128976442 440.57642970634447 0 440.57642970634447 517.52778563462789 0 0 0 0 310.14972014435625 255.41127904039615 0 255.41127904039615 400.93036546199664 0 0 0 0 235.0668994718053 325.13221928666439 0 325.13221928666439 347.25363070123149 0 0 0 0 309.22835690174543 208.98046919849185 0 208.98046919849185 139.87017591687709 0 0 0 0 50.147557471253151 -6.4466264108490883 0 -6.4466264108490883 -0.33875891904554201 0 0 0 0 217.42170222674031 -462.8108353604357 0 -462.8108353604357 -1018.3758849095178 0 0 0 0 190.44912639158429 -302.95491891078927 0 -302.95491891078927 -788.34766439640885 0 0 0 0 -76.907609954265354 -619.58546054089504 0 -619.58546054089504 -744.72058681918895 0 0 0 0 -159.57418866472835 -308.08312506264764 0 -308.08312506264764 -593.06653568918682 0 0 0 0 726.18246083328268 -419.03389809568853 0 -419.03389809568853 -1045.7568125476546 0 0 0 0 215.33235539218003 -375.01010355494577 0 -375.01010355494577 -705.22879355307282 0 0 0 0 479.20495261692849 70.798865786387978 0 70.798865786387978 -187.35453890404051 0 0 0 0 245.92172518171719 -77.634746647412157 0 -77.634746647412157 -417.26598638822588 0 0 0 0 173.09379270909994 -80.248672902471299 0 -80.248672902471299 61.641701928401289 0 0 0 0 223.58402602695242 -266.2444315277022 0 -266.2444315277022 72.171816800754641 0 0 0 0 579.27775794714398 -191.38904433524885 0 -191.38904433524885 -8.6988024677102658 0 0 0 0 3.7926337744869159 -2.1394430087450118 0 -2.1394430087450118 -0.18038661762689356 0 0 0 0 163.19714686443331 130.54307906791882 0 130.54307906791882 72.417201938937978 0 0 0 0 -0.0091341888094120804 3.4200605871039613 0 3.4200605871039613 -0.055447912370567121 0 0 0 0 186.82278732310806 -148.13493042013533 0 -148.13493042013533 130.79036005477928 0 0 0 0 -35.06258482652629 -196.64338803412443 0 -196.64338803412443 169.25062197935677 0 0 0 0 402.05249081623333 -190.66427687976011 0 -190.66427687976011 -3.7968950438357751 0 0 0 0 16.716100270342139 4.5249697554134123 0 4.5249697554134123 2.6392949681181186 0 0 0 0 548.8010981468251 -321.16032442125834 0 -321.16032442125834 193.33669399129417 0 0 0 0 1056.8893316306057 69.344194017314294 0 69.344194017314294 10.382525461361183 0 0 0 0 1191.186275682121 -228.07759454916777 0 -228.07759454916777 -199.28379265057174 0 0 0 0 369.37283683786518 -10.886867429348513 0 -10.886867429348513 96.755888181307455 0 0 0 0 42.294839614147804 11.036783906651777 0 11.036783906651777 -6.2734164371894643 0 0 0 0 -49.60825878669857 65.132428499862613 0 65.132428499862613 -30.433651585037921 0 0 0 0 9.1891394106339419 14.668615744075041 0 14.668615744075041 -22.260334742846162 0 0 0 0 125.50252493302833 142.57855337105593 0 142.57855337105593 -63.291977654679613 0 0 0 0 46.355661888466869 18.460879626657082 0 18.460879626657082 -1.803578281906324 0 0 0 0 116.13125550070981 116.71153874050333 0 116.71153874050333 21.582246025138602 0 0 0 0 6.2956009528279537 11.166982286098118 0 11.166982286098118 8.6226975891138409 0 0 0 0 38.367852572111588 12.472185783299551 0 12.472185783299551 -24.225434151546551 0 0 0 0 26.913393743570253 3.6415721521647875 0 3.6415721521647875 -4.0278352059676541 0 0 0 0 4.3354737448413516 15.941447696167458 0 15.941447696167458 -6.3886321946313274 0 0 0 0 463.69734028927633 -234.25836078050514 0 -234.25836078050514 -1647.7305685255337 0 0 0 0 28.336457353900187 6.1455670865360617 0 6.1455670865360617 -25.526661988552632 0 0 0 0 1167.2666085905221 -732.00554556502652 0 -732.00554556502652 -1305.7619871197996 0 0 0 0 319.4095235271343 864.38957905986331 0 864.38957905986331 -16.913076757366525 0 0 0 0 -499.31901893003669 -1187.1189648700522 0 -1187.1189648700522 -1085.358523263754 0 0 0 0 17.566294699899174 -2.3978604409222619 0 -2.3978604409222619 0.90973024359388277 0 0 0 0 -224.8752889766547 -662.20393234896324 0 -662.20393234896324 248.82139548937494 0 0 0 0 248.99504824144242 124.15423055709357 0 124.15423055709357 745.45449677744466 0 0 0 0 126.68338436764316 830.96660674103225 0 830.96660674103225 437.64749460008022 0 0 0 0 153.16288439433265 416.62204428199743 0 416.62204428199743 859.30275155507275 0 0 0 0 -171.77822072706476 493.21438520538231 0 493.21438520538231 9.2784958965651185 0 0 0 0 -24.141040310523294 452.19094382451902 0 452.19094382451902 20.635925285361054 0 0 0 0 -55.477049385459395 750.90039620227549 0 750.90039620227549 487.92524056899356 0 0 0 0 43.526538701370356 13.444464344956476 0 13.444464344956476 -3.0098014750017623 0 0 0 0 34.267691095709154 -1.1134026677077173 0 -1.1134026677077173 -4.2690877369862967 0 0 0 0 39.276404134427139 13.504131644894983 0 13.504131644894983 -58.480237372582678 0 0 0 0 441.58528327452223 236.87384440396681 0 236.87384440396681 -1468.3747667898476 0 0 0 0 127.61364437486191 231.12275441692665 0 231.12275441692665 -289.23433660437877 0 0 0 0 59.650097590580089 10.817592992348008 0 10.817592992348008 -0.52707719519482299 0 0 0 0 0.96229462770708096 6.3247089775493475 0 6.3247089775493475 -0.02778095338029854 0 0 0 0 102.61871272065764 563.97334279937297 0 563.97334279937297 -658.20493478779008 0 0 0 0 724.59749435916092 -531.1085908678574 0 -531.1085908678574 90.706346023693015 0 0 0 0 -31.056864835423767 2.1195840163934179 0 2.1195840163934179 113.54244335551181 0 0 0 0 620.60840818430006 -315.95169699268774 0 -315.95169699268774 122.80272097514705 0 0 0 0 -47.934629087871144 29.502169620635811 0 29.502169620635811 62.033631175916867 0 0 0 0 2431.6396551465732 -959.50489976780182 0 -959.50489976780182 -240.34535243526759 0 0 0 0 2635.64472484406 -1088.747654134404 0 -1088.747654134404 -312.5622740703742 0 0 0 0 1489.8561218746472 -677.27869406511945 0 -677.27869406511945 10.643945447221938 0 0 0 0 1217.2954839558515 -365.68652383431038 0 -365.68652383431038 -79.951873011634518 0 0 0 0 1510.6906205748455 -1272.4566425373951 0 -1272.4566425373951 310.41431535860971 0 0 0 0 257.6078954358527 239.662277833085 0 239.662277833085 19.431505776409438 0 0 0 0 514.24349979557792 -1120.4927516185796 0 -1120.4927516185796 1411.4586430409449 0 0 0 0 3495.0033022142161 -1927.5374730069148 0 -1927.5374730069148 508.39519456203033 0 0 0 0 2093.3467324359663 -2158.5543936339704 0 -2158.5543936339704 1967.3615232160921 0 0 0 0 2521.614929024814 -1843.6738550577384 0 -1843.6738550577384 632.24245979974239 0 0 0 0 2720.4133447303611 -1109.967978657518 0 -1109.967978657518 -164.28967155974235 0 0 0 0 157.26832140400074 658.19239031342067 0 658.19239031342067 1526.7639284532895 0 0 0 0 3480.6721829541348 2108.8724855684418 0 2108.8724855684418 710.04743824991181 0 0 0 0 23.560001743510213 4.0481020139686557 0 4.0481020139686557 4.3314416816270711 0 0 0 0 -78.029614621176734 737.82471225730944 0 737.82471225730944 527.91414036954939 0 0 0 0 -66.314305912528653 -34.827784628189875 0 -34.827784628189875 -144.10702486358764 0 0 0 0 -451.85027305544645 125.69083413076328 0 125.69083413076328 1237.2351780273734 0 0 0 0 427.00751727547322 1371.893436917195 0 1371.893436917195 1209.9156116351091 0 0 0 0 318.72642067760171 832.36363449324767 0 832.36363449324767 537.42671083243943 0 0 0 0 495.48093443606922 -186.55502010378939 0 -186.55502010378939 -592.85304415836106 0 0 0 0 1622.7574169976469 491.67558800830858 0 491.67558800830858 -203.57381216718969 0 0 0 0 910.1046369340329 1720.9865177854397 0 1720.9865177854397 1370.6963553002417 0 0 0 0 10.246806895781077 3.8938047676233474 0 3.8938047676233474 -1.3992871148235708 0 0 0 0 3494.4497155062645 990.9102720626056 0 990.9102720626056 -584.51797958777388 0 0 0 0 1237.0064900850239 267.09803779452039 0 267.09803779452039 -414.36569649314458 0 0 0 0 76.444114143705519 637.7267586123736 0 637.7267586123736 392.28125396078281 0 0 0 0 16.740456773539819 3.2977492454742077 0 3.2977492454742077 -2.3585103928089888 0 0 0 0 487.67708003797088 755.30978173042104 0 755.30978173042104 1187.7423534757672 0 0 0 0 7.7324762793251409 1.5567707381311138 0 1.5567707381311138 -0.72795169452103781 0 0 0 0 574.35778982662305 -478.48478108228232 0 -478.48478108228232 -289.93974879491344 0 0 0 0 215.82994502714428 181.95854843533419 0 181.95854843533419 196.00341858022603 0 0 0 0 1004.7633482455894 49.71164120412638 0 49.71164120412638 -61.012970351313811 0 0 0 0 1838.0246640416299 280.63668382564373 0 280.63668382564373 -53.228963716907231 0 0 0 0 137.20356135394832 143.99905038760448 0 143.99905038760448 -51.343121274093285 0 0 0 0 358.97356294740166 72.949339715954579 0 72.949339715954579 31.396209816691567 0 0 0 0 748.88713673598249 -330.12525826974439 0 -330.12525826974439 -68.758461728768907 0 0 0 0 1934.8525038758671 -334.26788980783124 0 -334.26788980783124 -299.8101777162135 0 0 0 0 2078.2084132456876 -78.63780717487424 0 -78.63780717487424 -331.96753110040947 0 0 0 0 2106.0874287998886 -117.25400483514073 0 -117.25400483514073 -400.70281172756103 0 0 0 0 51.265601563045294 -14.955209339567805 0 -14.955209339567805 0.84184726866802251 0 0 0 0 1003.9099964385005 206.77015891620402 0 206.77015891620402 112.74125183847366 0 0 0 0 2619.2601730459792 1138.6838285416916 0 1138.6838285416916 83.728068338047876 0 0 0 0 652.17097513279441 675.61246486756136 0 675.61246486756136 560.68266857730271 0 0 0 0 651.45571163613931 563.90079741632735 0 563.90079741632735 376.25552292046251 0 0 0 0 3496.0623669465349 1737.9076594594803 0 1737.9076594594803 283.40280747045807 0 0 0 0 2557.9665722814607 1288.8895281140628 0 1288.8895281140628 104.92484081067013 0 0 0 0 472.50520922963187 -1156.2004051144099 0 -1156.2004051144099 1916.916307139234 0 0 0 0 2321.3976775540505 2302.7881906734274 0 2302.7881906734274 1830.0448988049973 0 0 0 0 19.687951353011272 -5.8976423793929573 0 -5.8976423793929573 5.9242638871378341 0 0 0 0 129.62212287385773 25.22019351441395 0 25.22019351441395 -514.45158105757446 0 0 0 0 198.07454045371105 322.6139204966521 0 322.6139204966521 -411.05877255115047 0 0 0 0 331.2569728721719 -321.86514875851947 0 -321.86514875851947 566.1180948613104 0 0 0 0 -197.71021951463081 -154.29615857093427 0 -154.29615857093427 1060.3764971903968 0 0 0 0 25.309154721415752 9.7496243686726558 0 9.7496243686726558 -29.991661492235242 0 0 0 0 19.556053674357827 34.419511150119433 0 34.419511150119433 -61.409483978514345 0 0 0 0 22.980484383635485 0.037660421115106146 0 0.037660421115106146 -30.931031054761661 0 0 0 0 14.244281883200529 2.2211429894032335 0 2.2211429894032335 -6.4659232896028698 0 0 0 0 14.383327477269631 1.1135169746589781 0 1.1135169746589781 -12.501540581927657 0 0 0 0 48.289275149195419 4.380610649553919 0 4.380610649553919 -15.276427682287745 0 0 0 0 21.683749941417773 -24.554111791566811 0 -24.554111791566811 -46.73681644879116 0 0 0 0 16.954862570322803 -23.38365189969079 0 -23.38365189969079 -11.785907393424168 0 0 0 0 128.38961217112592 -31.45162252220598 0 -31.45162252220598 -110.56184307529611 0 0 0 0 8.764678360112157 118.33695740210067 0 118.33695740210067 -150.66129383989437 0 0 0 0 20.055300114804737 7.3151437627867679 0 7.3151437627867679 8.0006977165769619 0 0 0 0 121.72242542605818 30.239301319832492 0 30.239301319832492 277.52194551560376 0 0 0 0 214.29111946923149 -12.040222528231197 0 -12.040222528231197 -130.98378933383583 0 0 0 0 14.481923036666558 -38.212110773508471 0 -38.212110773508471 164.62903028381095 0 0 0 0 155.39978726343543 37.645022546246253 0 37.645022546246253 -72.355542964060362 0 0 0 0 66.978717234982469 197.41203560696366 0 197.41203560696366 154.00884769059473 0 0 0 0 687.57371997462633 937.68818965363096 0 937.68818965363096 787.46880089438991 0 0 0 0 530.0110659386628 101.17868095595877 0 101.17868095595877 81.48656649101261 0 0 0 0 2821.828214908106 775.55944856480926 0 775.55944856480926 478.35103763094565 0 0 0 0 2439.0252977078562 568.64803904795895 0 568.64803904795895 -182.03812904521828 0 0 0 0 2431.6841121755897 415.91386513915501 0 415.91386513915501 146.92108177753207 0 0 0 0 2.1385157800109482 1.8876818177578372 0 1.8876818177578372 5.5197243994029117 0 0 0 0 3273.0585834406447 746.58083904171497 0 746.58083904171497 13.407607085685441 0 0 0 0 1619.4966998727214 144.06419744138523 0 144.06419744138523 -176.73938605159009 0 0 0 0 -304.83651794115576 259.29268663834478 0 259.29268663834478 432.56813742408326 0 0 0 0 3500.0524323568716 1085.8553829926771 0 1085.8553829926771 -88.588110473341104 0 0 0 0 2818.2139705441859 699.28461324712146 0 699.28461324712146 -120.43882666413189 0 0 0 0 3499.3158842577795 572.06226110248645 0 572.06226110248645 -131.80049667203463 0 0 0 0 3080.2586013606051 244.87129683422827 0 244.87129683422827 -188.97119911438236 0 0 0 0 2831.1826065448513 527.09340257309123 0 527.09340257309123 -79.85543985279736 0 0 0 0 2685.3125487888174 20.868802275912117 0 20.868802275912117 -304.26064465551053 0 0 0 0 2580.5666391318227 -407.0228249772909 0 -407.0228249772909 -631.86035491076188 0 0 0 0 3499.079058594989 -165.38124748328497 0 -165.38124748328497 -591.48492329994372 0 0 0 0 1934.7726297806112 114.61216284812426 0 114.61216284812426 -170.83680456846992 0 0 0 0 2435.6068718074894 -537.64290721463919 0 -537.64290721463919 -364.18153497410049 0 0 0 0 2031.6066136201043 -387.90021025646979 0 -387.90021025646979 -351.16852311684863 0 0 0 0 3500.3927758071663 -700.77847861885948 0 -700.77847861885948 -702.18785015277683 0 0 0 0 102.21138047998102 146.71725075049503 0 146.71725075049503 94.610491378542292 0 0 0 0 644.90161202938179 15.752863073566232 0 15.752863073566232 -43.664072404180217 0 0 0 0 979.04949256217515 -90.475575387621035 0 -90.475575387621035 -19.195099564043858 0 0 0 0 775.09282951131172 -242.33981417112921 0 -242.33981417112921 72.452727666553699 0 0 0 0 874.5429004310281 278.15384688977576 0 278.15384688977576 -70.024726040115581 0 0 0 0 395.79359008387837 35.360109592335903 0 35.360109592335903 -42.093265699809763 0 0 0 0 7.139846713375988 -0.77414116503240393 0 -0.77414116503240393 -11.052301252182557 0 0 0 0 -86.097543338335527 -66.353962916680302 0 -66.353962916680302 62.144997922060611 0 0 0 0 542.10092967279343 -200.28219546047586 0 -200.28219546047586 93.210215582526757 0 0 0 0 90.071323571409522 718.20551807991808 0 718.20551807991808 419.07917763996875 0 0 0 0 5.5842719813090014 0.45411582898171332 0 0.45411582898171332 -1.3488572706772148 0 0 0 0 75.946306739213469 -634.56933849560824 0 -634.56933849560824 -50.401598199156183 0 0 0 0 7.3885471899204447 -1.7135753304602588 0 -1.7135753304602588 -3.2133672908643467 0 0 0 0 400.48685528888018 364.42305976951167 0 364.42305976951167 498.51188399760701 0 0 0 0 1103.3733053795004 -129.7518011611977 0 -129.7518011611977 -242.03811320189649 0 0 0 0 -4.9837261063657934 -89.288670678478184 0 -89.288670678478184 -129.53416955460801 0 0 0 0 288.76405637340758 61.984046591190975 0 61.984046591190975 -77.562593170465561 0 0 0 0 46.55804059086222 151.55415342722608 0 151.55415342722608 51.526460116279907 0 0 0 0 70.462598117408788 172.49563702738658 0 172.49563702738658 29.703731879758038 0 0 0 0 71.088705022470094 156.95839715345573 0 156.95839715345573 51.469411977506184 0 0 0 0 430.12123553956917 -23.930767909159158 0 -23.930767909159158 -24.613942685516577 0 0 0 0 230.66650430754453 -133.66584239960468 0 -133.66584239960468 90.86354411206878 0 0 0 0 127.38215949544974 -14.743214783137716 0 -14.743214783137716 13.330371425946225 0 0 0 0 194.78995072269026 146.49909263429873 0 146.49909263429873 11.014110249533815 0 0 0 0 3.5022680703733897 4.557965691023373 0 4.557965691023373 1.2772441653297457 0 0 0 0 -42.113167934501689 259.93252902061653 0 259.93252902061653 192.1005752709757 0 0 0 0 469.76455512699613 -308.26634011347369 0 -308.26634011347369 -6.8043344251064468 0 0 0 0 13.887614211071167 -0.49972577176797728 0 -0.49972577176797728 -2.7595439296404543 0 0 0 0 87.796231260494096 318.85303092932043 0 318.85303092932043 74.983991344197875 0 0 0 0 -223.68094961422321 137.88232100429514 0 137.88232100429514 124.99705924130149 0 0 0 0 398.21238296568481 241.98767597835808 0 241.98767597835808 -30.431670839059507 0 0 0 0 108.59076138784803 336.37226348577349 0 336.37226348577349 322.58972663242685 0 0 0 0 141.87745152076377 184.53625271793317 0 184.53625271793317 72.904704855343425 0 0 0 0 119.65272799890954 66.123958033229428 0 66.123958033229428 197.07625504281691 0 0 0 0 44.87168657327129 -12.253806983134382 0 -12.253806983134382 -39.103845821665345 0 0 0 0 260.36671307355573 123.80718603279706 0 123.80718603279706 -49.590293272363851 0 0 0 0 -148.58559269587204 -39.863531981893289 0 -39.863531981893289 290.68771878066127 0 0 0 0 2272.594988279976 -245.39291748909818 0 -245.39291748909818 -592.93663059070968 0 0 0 0 112.02736061522592 465.36111930258994 0 465.36111930258994 497.41953688595754 0 0 0 0 20.90535372167173 -5.0356894542533297 0 -5.0356894542533297 0.38508397824826091 0 0 0 0 -11.267075249132176 140.12966525227353 0 140.12966525227353 60.154884677974223 0 0 0 0 19.224963205773065 -1.9186794557001576 0 -1.9186794557001576 -2.6475076653487655 0 0 0 0 168.836292294538 309.69114407116172 0 309.69114407116172 78.605412559454408 0 0 0 0 265.69943552372933 160.25047468731725 0 160.25047468731725 -47.111176665076528 0 0 0 0 108.00838478121659 44.796301578154043 0 44.796301578154043 253.71851016895926 0 0 0 0 38.752921281396993 240.29642857849365 0 240.29642857849365 -89.238081549597155 0 0 0 0 4.9842056665353027 4.6404656273661757 0 4.6404656273661757 -8.1481650600053168 0 0 0 0 133.2967312407236 -54.017658206907413 0 -54.017658206907413 -294.55136521729423 0 0 0 0 -34.536321589948784 157.37101004683791 0 157.37101004683791 228.38440515592683 0 0 0 0 12.502739008443314 243.76333484144197 0 243.76333484144197 52.249687321882675 0 0 0 0 -6.345864100381732 26.776018881035725 0 26.776018881035725 4.7046298810233509 0 0 0 0 26.233034751370724 152.54940913463247 0 152.54940913463247 144.23422206712104 0 0 0 0 -20.594205199049611 -21.880340068281271 0 -21.880340068281271 111.41802660032513 0 0 0 0 5.3291523527946367 2.9919272866315652 0 2.9919272866315652 -2.0902368836685294 0 0 0 0 -8.8133383807066821 -79.080640062359947 0 -79.080640062359947 -34.696356058731226 0 0 0 0 68.924638883887383 36.948806564359302 0 36.948806564359302 -15.435152181630883 0 0 0 0 18.629641530254531 -6.591567548295739 0 -6.591567548295739 -7.0011742758492241 0 0 0 0 64.365273044284038 -3.558500292007043 0 -3.558500292007043 -10.159557544617002 0 0 0 0 96.444286118869059 -4.3625821858331619 0 -4.3625821858331619 -50.019696827644793 0 0 0 0 53.023141756464611 17.541085271467637 0 17.541085271467637 -31.172867274730379 0 0 0 0 128.01476710604038 22.988908873342098 0 22.988908873342098 -44.287808062770637 0 0 0 0 100.1442376363957 25.007134505180602 0 25.007134505180602 6.0102205754265015 0 0 0 0 63.30810651284628 -1.8338554509027745 0 -1.8338554509027745 -14.843682183484816 0 0 0 0 73.801612516434034 -58.839365201808107 0 -58.839365201808107 -90.87870242556528 0 0 0 0 58.151671493793827 -4.916667657907432 0 -4.916667657907432 -10.418908167513459 0 0 0 0 71.865546057946631 -105.54472025547329 0 -105.54472025547329 -142.93834067715858 0 0 0 0 209.98273013131256 26.482265930940798 0 26.482265930940798 -93.545251320316993 0 0 0 0 87.419186847488163 110.29313448000602 0 110.29313448000602 5.0401418794619985 0 0 0 0 36.508590824945713 71.022502937771378 0 71.022502937771378 42.682707458092068 0 0 0 0 39.181309637588129 -67.640814956191662 0 -67.640814956191662 -71.441427017690785 0 0 0 0 52.972670003623861 -1.92231693431766 0 -1.92231693431766 -11.92418906274218 0 0 0 0 58.011609471204792 -45.795758868246565 0 -45.795758868246565 -115.31516991371541 0 0 0 0 19.831260734881653 -18.443543656715974 0 -18.443543656715974 -25.406589640349921 0 0 0 0 104.45318074793613 -5.3963357413344966 0 -5.3963357413344966 -84.431585355971947 0 0 0 0 109.46152419073769 -14.123185229836508 0 -14.123185229836508 -32.358413932836811 0 0 0 0 35.490661367606663 -35.274004711724729 0 -35.274004711724729 16.731995949922748 0 0 0 0 36.454392765033845 -15.184947999233373 0 -15.184947999233373 -44.278935380812754 0 0 0 0 14.700779754159157 1.0436947905263878 0 1.0436947905263878 -4.8016175740503968 0 0 0 0 14.607760723061801 -7.7547093083139771 0 -7.7547093083139771 43.566985113123337 0 0 0 0 70.896854983402591 -0.61799858758422488 0 -0.61799858758422488 9.8820690912583586 0 0 0 0 137.06441822537818 26.639784394445314 0 26.639784394445314 47.546903708989703 0 0 0 0 113.07026231601776 -38.6353841070013 0 -38.6353841070013 31.382245210204019 0 0 0 0 341.92893154976991 160.19019792365498 0 160.19019792365498 41.547288963907477 0 0 0 0 336.93977041988546 -12.500241377058956 0 -12.500241377058956 -12.16138763370418 0 0 0 0 163.45220177500596 102.67924391438555 0 102.67924391438555 96.636412080682931 0 0 0 0 1.1080951086583255 -0.51903972482144667 0 -0.51903972482144667 0.19191439766493801 0 0 0 0 205.85951425279563 8.7778195244586641 0 8.7778195244586641 3.968715025394431 0 0 0 0 87.069367445965327 199.11401275054072 0 199.11401275054072 61.670125277190778 0 0 0 0 131.84186696489814 39.882185183428874 0 39.882185183428874 41.10296150630893 0 0 0 0 144.58133377329523 96.132055972405624 0 96.132055972405624 30.109352716172907 0 0 0 0 155.68298942984256 69.185121391379198 0 69.185121391379198 7.3670978013417141 0 0 0 0 167.1894415834613 30.340350680208758 0 30.340350680208758 -24.921711070911215 0 0 0 0 87.533720951027135 6.5770340864717127 0 6.5770340864717127 21.265349121250438 0 0 0 0 0.47970775543797117 -0.63690358916824152 0 -0.63690358916824152 -0.93304408927275162 0 0 0 0 28.764324065325582 23.922165492666977 0 23.922165492666977 8.9608874005252801 0 0 0 0 29.575504593799451 28.003176890713235 0 28.003176890713235 27.203195728519859 0 0 0 0 -49.031020349451865 131.01209964957889 0 131.01209964957889 19.274493306023942 0 0 0 0 185.77410665993375 123.43357421376413 0 123.43357421376413 -8.3948224664300142 0 0 0 0 -15.374648155004252 93.536975077391617 0 93.536975077391617 60.905385942345674 0 0 0 0 1.2220411958187469 -99.164026736872984 0 -99.164026736872984 -7.4146955971837087 0 0 0 0 1.7782738161846083 -1.582789564486319 0 -1.582789564486319 -0.62413426371117708 0 0 0 0 127.47672769690325 -84.867636491738722 0 -84.867636491738722 -69.978646676047902 0 0 0 0 48.408438262751588 43.170492759216813 0 43.170492759216813 10.28013342301756 0 0 0 0 35.596704989780847 30.941060122968338 0 30.941060122968338 3.3281572542396134 0 0 0 0 328.85726529963722 34.045377062741295 0 34.045377062741295 7.584502858461633 0 0 0 0 -2.5761853781323047 3.7232659907038794 0 3.7232659907038794 21.143821720427514 0 0 0 0 36.151073214545249 33.149177881209653 0 33.149177881209653 10.683332330608209 0 0 0 0 245.63885193525857 64.149268798358975 0 64.149268798358975 13.872503711201318 0 0 0 0 331.74282375159237 96.294341360611838 0 96.294341360611838 -28.35563618467728 0 0 0 0 257.63122001820375 65.395798138711029 0 65.395798138711029 10.459125124458978 0 0 0 0 262.98249654095844 136.561208334718 0 136.561208334718 34.162779949220294 0 0 0 0 69.807653251355077 15.930854349576748 0 15.930854349576748 16.666242176250307 0 0 0 0 9.3225650761564509 1.515385451415149 0 1.515385451415149 1.9421042328127562 0 0 0 0 4.8523745628974737 6.0100034073218964 0 6.0100034073218964 14.762295547444445 0 0 0 0 66.803858806597418 27.931219604352009 0 27.931219604352009 15.91309028705291 0 0 0 0 49.403679575538263 50.46477363777376 0 50.46477363777376 38.62007270801405 0 0 0 0 141.82313332996273 71.290201575963238 0 71.290201575963238 62.433602714568224 0 0 0 0 192.83858892950957 119.90010080633544 0 119.90010080633544 86.423962754526201 0 0 0 0 214.73529144032364 120.9399349970775 0 120.9399349970775 29.871794792022797 0 0 0 0 55.395501399616478 2.3651576560050671 0 2.3651576560050671 13.063591664854357 0 0 0 0 28.841216921525074 -4.9066377405717105 0 -4.9066377405717105 0.83612715993227127 0 0 0 0 164.50629860855042 82.67146812966007 0 82.67146812966007 70.260399055291032 0 0 0 0 45.141941221821909 14.839781867407769 0 14.839781867407769 4.5853909444768828 0 0 0 0 62.268335166707402 -3.3158222138640667 0 -3.3158222138640667 -19.893142106842788 0 0 0 0 47.054913895044592 -4.7789947447363375 0 -4.7789947447363375 1.3990516222174847 0 0 0 0 40.813792780482771 -9.1014918869427568 0 -9.1014918869427568 3.8518117906050664 0 0 0 0 29.580211555048578 5.6454881873585308 0 5.6454881873585308 5.9285781413177965 0 0 0 0 41.438862035442 -2.9846142676200955 0 -2.9846142676200955 0.4137323491940208 0 0 0 0 11.78898786730133 0.3292577432039252 0 0.3292577432039252 -2.8044851982376713 0 0 0 0 33.697480136393409 7.4040365864543887 0 7.4040365864543887 4.512750878662378 0 0 0 0 19.846659354749136 26.099331017529039 0 26.099331017529039 20.758001138630789 0 0 0 0 9.0071430947897113 3.5361385212201526 0 3.5361385212201526 0.10841827243184987 0 0 0 0 61.37257385814155 17.11548610235559 0 17.11548610235559 -30.852883752151683 0 0 0 0 81.971947889702278 -11.263670382929377 0 -11.263670382929377 -28.55191547805498 0 0 0 0 82.280497544968966 26.14609031970349 0 26.14609031970349 -36.478332110471456 0 0 0 0 88.372340314221219 6.3935341564765622 0 6.3935341564765622 -46.834358722792786 0 0 0 0 117.3747918657682 -16.893293454524382 0 -16.893293454524382 -28.693392553204831 0 0 0 0 42.091283601523173 2.6622431263012913 0 2.6622431263012913 -3.2480226004418 0 0 0 0 134.91983476681344 8.4339149841052858 0 8.4339149841052858 -83.09641192983554 0 0 0 0 23.217596712558588 53.391070459595539 0 53.391070459595539 21.019608788004007 0 0 0 0 13.534210712860457 1.9843190036933223 0 1.9843190036933223 -4.7151105008579446 0 0 0 0 38.356578522507334 74.247622234692244 0 74.247622234692244 -55.524843756432347 0 0 0 0 77.66681955729473 -47.673729477610777 0 -47.673729477610777 1.0998143559627351 0 0 0 0 8.0098482379626645 1.562213966612191 0 1.562213966612191 -1.9080782672869496 0 0 0 0 128.36545921583092 8.9963293820192121 0 8.9963293820192121 2.5166263088176493 0 0 0 0 5.9661112371950225 5.1348849038373281 0 5.1348849038373281 1.2030687653964289 0 0 0 0 95.278178183525597 -9.9102164089385951 0 -9.9102164089385951 33.957855216800453 0 0 0 0 94.711206736308668 57.893718224318945 0 57.893718224318945 47.321763991939406 0 0 0 0 47.004805732798559 61.593084813428959 0 61.593084813428959 -71.916585623472201 0 0 0 0 78.18238022152218 22.385744579634775 0 22.385744579634775 -3.6222622971995406 0 0 0 0 90.524036956845521 32.169540879497163 0 32.169540879497163 -10.041883375457701 0 0 0 0 44.418375550852616 4.6031878210231856 0 4.6031878210231856 -1.0320271141752499 0 0 0 0 44.363476810205938 -3.4265412534696722 0 -3.4265412534696722 -5.3998264576975821 0 0 0 0 19.445091727713589 -18.399355426036436 0 -18.399355426036436 -13.270589371301185 0 0 0 0 22.904923906127806 22.757371069772489 0 22.757371069772489 100.54316792524969 0 0 0 0 80.268135207174055 129.7208861628128 0 129.7208861628128 241.14950778056846 0 0 0 0 96.81100162317307 138.99723426218475 0 138.99723426218475 59.977586046627039 0 0 0 0 78.6821599870309 -5.4819578233259563 0 -5.4819578233259563 -92.857004415294568 0 0 0 0 253.61342241012608 -318.30031274723251 0 -318.30031274723251 -546.11908959233915 0 0 0 0 -146.03053547057061 -37.768807661825349 0 -37.768807661825349 105.47442929628414 0 0 0 0 6.8517837923422178 0.30298679131122697 0 0.30298679131122697 -3.6654643474228967 0 0 0 0 298.08304059236832 450.90444414303369 0 450.90444414303369 -0.38818772091599385 0 0 0 0 357.6219246201581 216.44859496849813 0 216.44859496849813 -127.7710127707287 0 0 0 0 108.5369587196692 370.49211482329815 0 370.49211482329815 813.12429416236591 0 0 0 0 2693.4479322027473 2245.973839731545 0 2245.973839731545 -133.86329888522596 0 0 0 0 -61.442029914775048 -17.10877814175592 0 -17.10877814175592 454.9526116454872 0 0 0 0 114.82535022342927 -328.50826311046728 0 -328.50826311046728 315.61347305584059 0 0 0 0 270.95973038967759 -627.95796962630243 0 -627.95796962630243 54.64170512515966 0 0 0 0 482.66361057318863 278.15630399144948 0 278.15630399144948 112.88591912142465 0 0 0 0 3.1874436145483287 -0.64530638462743894 0 -0.64530638462743894 -0.51855795552412509 0 0 0 0 -117.29666117999295 91.273142294306581 0 91.273142294306581 122.77806661037874 0 0 0 0 -12.661622322164476 -115.94096925220947 0 -115.94096925220947 -158.53537339856848 0 0 0 0 283.29695719424126 -347.05762957061256 0 -347.05762957061256 -324.83881276379179 0 0 0 0 -56.909573218174046 -172.34286842492173 0 -172.34286842492173 -412.3612790658799 0 0 0 0 3.6613942117136276 4.7901947213739575 0 4.7901947213739575 1.1832125123979935 0 0 0 0 80.371016375460385 23.132312179127155 0 23.132312179127155 -64.442829559020538 0 0 0 0 82.487467382983596 108.64346732859917 0 108.64346732859917 43.716491314957239 0 0 0 0 4.6005267380115953 18.367173116116149 0 18.367173116116149 2.132105416517593 0 0 0 0 1.8365434135473464 1.4046704053209851 0 1.4046704053209851 0.3226014472763481 0 0 0 0 66.264398479732336 3.8521916060453805 0 3.8521916060453805 -36.594204087873095 0 0 0 0 131.54432478681019 -87.124772770866031 0 -87.124772770866031 -184.00331125953289 0 0 0 0 38.972908349390934 -4.2158699242081639 0 -4.2158699242081639 -5.7866321909292786 0 0 0 0 176.32351033339 107.32557239979678 0 107.32557239979678 -3.0602118119886654 0 0 0 0 19.95820068926529 -5.3475969091819309 0 -5.3475969091819309 3.6787638987587759 0 0 0 0 65.915724089114519 2.5687791081554678 0 2.5687791081554678 14.808503752594333 0 0 0 0 46.777191745541131 -21.410336138358957 0 -21.410336138358957 14.323126763518303 0 0 0 0 3.0765122461413057 4.209051893271802 0 4.209051893271802 1.1517828322198769 0 0 0 0 69.369752729908214 -52.957222858677596 0 -52.957222858677596 57.419439516394959 0 0 0 0 133.34646314566271 -41.969020918479487 0 -41.969020918479487 -47.623245345472242 0 0 0 0 49.853336244353471 -5.0288647442271888 0 -5.0288647442271888 -1.3037612185130811 0 0 0 0 42.86910566118604 11.129434484635112 0 11.129434484635112 16.28664079697819 0 0 0 0 29.418632234330289 16.935178530930443 0 16.935178530930443 17.282887565743749 0 0 0 0 67.299063062751884 7.7893674079485891 0 7.7893674079485891 7.3647436050705437 0 0 0 0 52.458161474947701 16.782864438232991 0 16.782864438232991 6.0384771193530469 0 0 0 0 28.895031044171546 -8.9349672729777296 0 -8.9349672729777296 0.45923223326434215 0 0 0 0 41.61875717395742 -16.029614242352181 0 -16.029614242352181 9.2319839212682382 0 0 0 0 -19.916373051553819 234.29293864214856 0 234.29293864214856 245.41543244216632 0 0 0 0 236.50395803272841 1028.5162332258487 0 1028.5162332258487 426.89553481299242 0 0 0 0 21.372681529142028 12.260477752654367 0 12.260477752654367 17.157940357329608 0 0 0 0 31.830523238045316 -15.840404260479772 0 -15.840404260479772 8.530647704367766 0 0 0 0 115.899674426204 -39.735385701742871 0 -39.735385701742871 -142.61233962277583 0 0 0 0 38.901527299695971 -4.1383422598300861 0 -4.1383422598300861 -0.46547209404481915 0 0 0 0 -18.836700152191042 -63.891743265769946 0 -63.891743265769946 -42.676848321631496 0 0 0 0 -34.790116283038515 -152.41653819963312 0 -152.41653819963312 223.76710745318542 0 0 0 0 -15.660854222049238 6.8542834829640924 0 6.8542834829640924 41.505824205633871 0 0 0 0 24.231036669603782 -34.514351814290876 0 -34.514351814290876 34.595938722418282 0 0 0 0 -29.763586517676231 -38.762926092580472 0 -38.762926092580472 85.336653133821528 0 0 0 0 32.88228046778022 -88.12953383116286 0 -88.12953383116286 88.316376940693772 0 0 0 0 -33.734885273213877 -79.25756927976056 0 -79.25756927976056 279.28882047523803 0 0 0 0 -30.740603085772818 -75.1093523681119 0 -75.1093523681119 265.02792692459843 0 0 0 0 907.00424871982977 -24.607389667035022 0 -24.607389667035022 102.90806411133508 0 0 0 0 577.00358998991578 -376.36891831995831 0 -376.36891831995831 306.06485928462371 0 0 0 0 917.54346846966655 -51.70807765264135 0 -51.70807765264135 161.69931129720499 0 0 0 0 646.40379609207957 -99.84647702634885 0 -99.84647702634885 83.51230035203389 0 0 0 0 263.78108933675685 -121.73478803238959 0 -121.73478803238959 221.50876548835913 0 0 0 0 123.30919345693837 -192.8412846841627 0 -192.8412846841627 300.42477290271972 0 0 0 0 236.72125014437188 -264.65046312602681 0 -264.65046312602681 311.67173366913448 0 0 0 0 -39.198990020158817 -29.925644877915147 0 -29.925644877915147 297.52152007418448 0 0 0 0 -254.69562588479312 101.09938435286494 0 101.09938435286494 297.31086963139103 0 0 0 0 1534.8711323500611 -627.97043900266999 0 -627.97043900266999 221.9487536235938 0 0 0 0 14.366141818931936 -0.79925702072269189 0 -0.79925702072269189 1.3753240269364202 0 0 0 0 391.63162299174292 -523.57503834467661 0 -523.57503834467661 235.71931561285243 0 0 0 0 2716.6758405951841 900.51864612017187 0 900.51864612017187 312.88972414132604 0 0 0 0 332.57248727283149 -159.98591356406132 0 -159.98591356406132 387.83459259390247 0 0 0 0 839.76711378332402 -686.90075816111357 0 -686.90075816111357 483.00535827557906 0 0 0 0 1872.2223311234993 47.841157587958151 0 47.841157587958151 132.76316057128406 0 0 0 0 1152.7598779036198 -145.41851516163251 0 -145.41851516163251 303.2362621810189 0 0 0 0 2578.6544593691942 -168.17937960853033 0 -168.17937960853033 142.74858561658493 0 0 0 0 2677.5493115085328 1232.7845381493462 0 1232.7845381493462 952.62100479151741 0 0 0 0 2449.4529330972218 1032.7185303423253 0 1032.7185303423253 1878.394883419458 0 0 0 0 1852.259267157584 321.78929575098209 0 321.78929575098209 285.63267386314607 0 0 0 0 14.803392171866875 9.5586874142245115 0 9.5586874142245115 6.4659902936462093 0 0 0 0 2671.9346559976329 -553.93432559191558 0 -553.93432559191558 1195.6319685287235 0 0 0 0 1727.5223122393145 -648.22842825726377 0 -648.22842825726377 282.53227967378916 0 0 0 0 286.66616417723708 1771.9768067858965 0 1771.9768067858965 1714.7480295325777 0 0 0 0 1594.9239746362391 2633.4666437072055 0 2633.4666437072055 1384.2235120412033 0 0 0 0 9.9795001233832465 -0.34173059504119152 0 -0.34173059504119152 1.6839645956656097 0 0 0 0 -570.52503229966896 -996.35949348240013 0 -996.35949348240013 -936.95498557020619 0 0 0 0 91.663779223308666 3.7630068402809229 0 3.7630068402809229 -277.24127962866351 0 0 0 0 29.522748334646195 -5.1556147993765009 0 -5.1556147993765009 2.1769226954588827 0 0 0 0 1669.5918393749598 1244.7567005080352 0 1244.7567005080352 453.00732266745717 0 0 0 0 25.868926864701535 -5.0058545748075112 0 -5.0058545748075112 1.2798526064524625 0 0 0 0 -3347.9898068984912 2558.2187238949718 0 2558.2187238949718 1717.9442937612985 0 0 0 0 3817.5594918692368 -1033.3517696528761 0 -1033.3517696528761 2200.4635922898269 0 0 0 0 2632.207511443954 421.39984126862942 0 421.39984126862942 -78.926493786568244 0 0 0 0 1082.2759449908335 304.6915370382435 0 304.6915370382435 -86.192850741137022 0 0 0 0 1400.9109085934215 63.580779501342477 0 63.580779501342477 -126.57024433660354 0 0 0 0 1181.1656502267251 395.35833396547991 0 395.35833396547991 -96.935105643139195 0 0 0 0 563.38176117399416 -506.06140389370466 0 -506.06140389370466 271.62796602525862 0 0 0 0 77.316527082028188 -26.788192054246565 0 -26.788192054246565 131.54968219474904 0 0 0 0 643.83094049794818 -21.528524859477898 0 -21.528524859477898 -92.968651145490185 0 0 0 0 320.36875467444042 -207.9130049192006 0 -207.9130049192006 94.622068267508951 0 0 0 0 298.96278248360977 39.371188282844741 0 39.371188282844741 -50.056964726325532 0 0 0 0 460.50174291961957 -13.169177320066296 0 -13.169177320066296 -88.852564908587283 0 0 0 0 407.19797819589439 135.40029455619671 0 135.40029455619671 -91.234173498676157 0 0 0 0 630.00262527995073 184.27901310253992 0 184.27901310253992 -86.03508103963668 0 0 0 0 444.9039830479669 260.63870505246678 0 260.63870505246678 -79.396048443685459 0 0 0 0 915.12462311413401 395.44807732379996 0 395.44807732379996 -62.956048300146449 0 0 0 0 748.27991772899259 -61.308980764570833 0 -61.308980764570833 -150.01031546624284 0 0 0 0 450.45234399031324 291.56891675063775 0 291.56891675063775 57.91348001914389 0 0 0 0 225.64530049674067 253.19869778329701 0 253.19869778329701 242.66035356228497 0 0 0 0 130.29766523867147 139.54068103227519 0 139.54068103227519 117.8718843098759 0 0 0 0 332.45705740720405 197.70849213264526 0 197.70849213264526 -12.367709590877894 0 0 0 0 298.43850520213891 215.80478500880724 0 215.80478500880724 108.36134163273218 0 0 0 0 405.78787408355856 194.4330833215034 0 194.4330833215034 -14.984812121170606 0 0 0 0 432.95800342062284 152.90093743779653 0 152.90093743779653 -84.323774085527589 0 0 0 0 355.85722149741559 155.12567437314675 0 155.12567437314675 -45.370757041217246 0 0 0 0 341.19049001273743 114.50987668419987 0 114.50987668419987 -15.178744534637872 0 0 0 0 403.53556678290988 142.70290070536453 0 142.70290070536453 -61.368639130645647 0 0 0 0 380.90334566403908 141.04302088107923 0 141.04302088107923 -61.32643080597002 0 0 0 0 395.38291151387966 128.86118012052754 0 128.86118012052754 -78.791627060580083 0 0 0 0 274.82239424399086 76.144156655477843 0 76.144156655477843 -62.47351523118823 0 0 0 0 457.74181125308678 69.619244720366709 0 69.619244720366709 -79.793032532987127 0 0 0 0 398.36757050996857 209.34147374596319 0 209.34147374596319 5.1505052749669176 0 0 0 0 247.05016570868929 103.27502959966854 0 103.27502959966854 -30.587638914274976 0 0 0 0 245.80145975670894 108.86660893781152 0 108.86660893781152 -35.221254529532473 0 0 0 0 433.12460193832521 105.5051209594908 0 105.5051209594908 -51.776551418190365 0 0 0 0 415.17713275533606 128.84038331359727 0 128.84038331359727 -74.404945964987519 0 0 0 0 397.26871632144957 69.672678200286612 0 69.672678200286612 -46.590579524400027 0 0 0 0 439.08640629680303 111.30240965849032 0 111.30240965849032 -46.206986225496621 0 0 0 0 490.95073840284931 55.939168968441663 0 55.939168968441663 -48.513941441189445 0 0 0 0 757.91894160602533 61.368986387016321 0 61.368986387016321 -38.457858855529707 0 0 0 0 531.85414105638483 385.28680328972865 0 385.28680328972865 147.15206917032219 0 0 0 0 473.20959060992027 -85.968642480436529 0 -85.968642480436529 256.42833695124318 0 0 0 0 781.51429970646336 334.03184036441695 0 334.03184036441695 253.02322342027855 0 0 0 0 3.367175078841683 183.61972322993506 0 183.61972322993506 285.13304431853066 0 0 0 0 190.27222318616259 139.20918784724336 0 139.20918784724336 45.283103089477322 0 0 0 0 178.26258881602735 152.95650749169386 0 152.95650749169386 84.268485379502181 0 0 0 0 67.111747512622969 -20.744769123775768 0 -20.744769123775768 -28.288130063689096 0 0 0 0 36.216981621826562 42.285836196422451 0 42.285836196422451 119.00805300522734 0 0 0 0 40.765272726905096 36.086368141399817 0 36.086368141399817 -63.943500769336879 0 0 0 0 118.60017693543728 -91.849823854804754 0 -91.849823854804754 40.341602146185778 0 0 0 0 139.99335557026211 52.704906790674983 0 52.704906790674983 10.669234523212253 0 0 0 0 14.187151907721457 7.4731555764092619 0 7.4731555764092619 7.5926754433120927 0 0 0 0 16.322591223239726 -8.6760945010052151 0 -8.6760945010052151 9.2709440175091018 0 0 0 0 132.87970557275048 -51.403423407203647 0 -51.403423407203647 18.689136131454688 0 0 0 0 64.668852730410435 -149.52725445760007 0 -149.52725445760007 14.450847619302749 0 0 0 0 -339.39615106716701 -278.83401821858661 0 -278.83401821858661 -26.871834955712984 0 0 0 0 125.77242412958606 50.196770682037837 0 50.196770682037837 17.519269103220267 0 0 0 0 376.90770620861076 24.020524547050627 0 24.020524547050627 33.288453957702814 0 0 0 0 648.36292101415347 -116.649383081927 0 -116.649383081927 96.848674908108478 0 0 0 0 673.01670565020686 132.90068880607964 0 132.90068880607964 9.5981236003947288 0 0 0 0 3.6442364826720279 -4.0101099928942006 0 -4.0101099928942006 3.7258337347678978 0 0 0 0 591.93784859693278 113.76263040916315 0 113.76263040916315 51.495683211766845 0 0 0 0 588.40604716494636 -10.409089353784793 0 -10.409089353784793 -27.470844586515568 0 0 0 0 797.11565837297894 -162.94210816440841 0 -162.94210816440841 43.172938485008217 0 0 0 0 4.1422027082879964 3.6981713606177067 0 3.6981713606177067 3.0981693111246766 0 0 0 0 435.64277592031431 89.811180930077626 0 89.811180930077626 86.929891116935096 0 0 0 0 442.05869411798994 129.08225375404641 0 129.08225375404641 34.570506812859549 0 0 0 0 329.00142669936758 124.59787921659722 0 124.59787921659722 103.54143816169653 0 0 0 0 328.64184068721352 129.37010493596054 0 129.37010493596054 43.318837792853628 0 0 0 0 376.67660510893256 111.78109463809233 0 111.78109463809233 105.06428147985275 0 0 0 0 302.00581929891405 103.77462859771254 0 103.77462859771254 201.94487869760997 0 0 0 0 81.498064772924408 48.34210388932388 0 48.34210388932388 191.30240987597062 0 0 0 0 -34.266958523403446 -78.461759628462005 0 -78.461759628462005 65.051245225069124 0 0 0 0 0.78025732477788168 -1.4196991825525345 0 -1.4196991825525345 6.3216034077984418 0 0 0 0 -84.864662802687235 -6.6913712494601896 0 -6.6913712494601896 326.19192114855923 0 0 0 0 603.88822488653386 337.9356490600785 0 337.9356490600785 188.67484230865239 0 0 0 0 286.75446193354492 152.38186279416902 0 152.38186279416902 104.58689990605308 0 0 0 0 8.5026223221029795 -30.087487864425384 0 -30.087487864425384 -47.620874896529926 0 0 0 0 -1.8886113193420897 -13.125615886747767 0 -13.125615886747767 -48.105018831993902 0 0 0 0 -189.97805992840767 -130.51045918151976 0 -130.51045918151976 -8.8840357155545462 0 0 0 0 290.09811389755123 139.57888110996782 0 139.57888110996782 112.30556024981206 0 0 0 0 0.26421331484362476 -2.105454512066288 0 -2.105454512066288 19.061155889227322 0 0 0 0 130.21994108051513 48.221566669013555 0 48.221566669013555 101.06165931417206 0 0 0 0 38.430036319788996 -29.14315097795037 0 -29.14315097795037 13.387412382686307 0 0 0 0 61.234242837872443 -82.451342647519823 0 -82.451342647519823 -152.69660428983707 0 0 0 0 48.003583138397829 -246.83288885458037 0 -246.83288885458037 -66.26835494496936 0 0 0 0 43.706849629649611 -2.781911900136194 0 -2.781911900136194 427.35664664264368 0 0 0 0 -109.1366930893164 260.26139391776633 0 260.26139391776633 107.79241494921553 0 0 0 0 85.307527563845724 -49.238832843738237 0 -49.238832843738237 413.69141206639324 0 0 0 0 -540.28278636937102 -24.316343372236588 0 -24.316343372236588 272.41972890235047 0 0 0 0 -1.3109020468189847 -0.27934250554410056 0 -0.27934250554410056 31.619730817984639 0 0 0 0 -517.76526467696385 -199.95235434583878 0 -199.95235434583878 196.00379730379154 0 0 0 0 -0.59319141326947999 -2.0437869516609339 0 -2.0437869516609339 28.823099958025736 0 0 0 0 278.15125411834742 163.38699355701021 0 163.38699355701021 136.96817089117394 0 0 0 0 387.05014244722406 56.237993411913976 0 56.237993411913976 32.171701967272384 0 0 0 0 116.21166357650509 20.69371938636084 0 20.69371938636084 84.876725903621036 0 0 0 0 298.07286323163862 -40.205094068629705 0 -40.205094068629705 74.029741271185912 0 0 0 0 332.71147409677724 8.2226368773721674 0 8.2226368773721674 0.23764439470960497 0 0 0 0 347.18164434506252 -23.174965579641935 0 -23.174965579641935 59.839800282329492 0 0 0 0 222.02218982387058 18.227783509646656 0 18.227783509646656 24.445457320235732 0 0 0 0 -117.38576734588423 102.38689823053164 0 102.38689823053164 1.9193577476712562 0 0 0 0 -1.3984178735386941 1.9449630442648029 0 1.9449630442648029 27.456270355582994 0 0 0 0 33.010697526785407 -10.498405941654482 0 -10.498405941654482 -156.33925107906907 0 0 0 0 359.79083603444451 97.3478843719422 0 97.3478843719422 -152.39172833471275 0 0 0 0 0.37292365524599091 0.29589777406874873 0 0.29589777406874873 -0.56417000059115097 0 0 0 0 30.553106288387085 150.67549965572758 0 150.67549965572758 57.463798107992261 0 0 0 0 458.17255654354449 393.91930548199207 0 393.91930548199207 170.94849542804877 0 0 0 0 31.120338302196956 138.35790255252897 0 138.35790255252897 -41.875090145078502 0 0 0 0 10.094025821597199 54.96912259087771 0 54.96912259087771 -18.836710136718466 0 0 0 0 13.304216589365069 -88.478856120929464 0 -88.478856120929464 61.143336612237363 0 0 0 0 265.78176219849411 -174.93783309005448 0 -174.93783309005448 -20.600163701474685 0 0 0 0 282.90559652156662 -238.90435602878551 0 -238.90435602878551 144.09053058238851 0 0 0 0 697.44987175642382 -66.225565942779212 0 -66.225565942779212 -54.319491840187425 0 0 0 0 157.66898307538213 -6.3810571064204851 0 -6.3810571064204851 -59.522241832319366 0 0 0 0 74.619938801748049 -161.23236483314793 0 -161.23236483314793 -97.346926403911311 0 0 0 0 167.47498394484865 -92.712033326530218 0 -92.712033326530218 -75.135021021794273 0 0 0 0 137.98953379103932 1.691709844497268 0 1.691709844497268 21.167674857154452 0 0 0 0 159.65168909241038 -69.786984056453093 0 -69.786984056453093 36.618297143040763 0 0 0 0 64.661997946357587 0.25549916234444936 0 0.25549916234444936 10.504997959644243 0 0 0 0 71.406272822438041 18.188797228866861 0 18.188797228866861 56.770699955263581 0 0 0 0 84.121117959017283 34.402087348103123 0 34.402087348103123 -21.570737028127951 0 0 0 0 -0.76422572208684869 11.808905239226988 0 11.808905239226988 25.030007286141426 0 0 0 0 22.660498197317793 22.548717020096774 0 22.548717020096774 -15.96459593678992 0 0 0 0 11.320177244535444 33.55097653105372 0 33.55097653105372 -1.9972468483028933 0 0 0 0 21.364710645233572 46.207155665530081 0 46.207155665530081 -55.953441264912726 0 0 0 0 16.864085422969652 10.445939136229677 0 10.445939136229677 3.2819893527694237 0 0 0 0 37.027846599809436 28.523001032705949 0 28.523001032705949 -21.151149660783631 0 0 0 0 22.44613364776184 8.5725981284482735 0 8.5725981284482735 -3.1232304600914418 0 0 0 0 -13.948430723306956 46.730669343613044 0 46.730669343613044 -13.271598889045322 0 0 0 0 80.81487824152282 31.764965513676543 0 31.764965513676543 -112.74701402062146 0 0 0 0 -55.706216847487667 -10.363606982002239 0 -10.363606982002239 2.6292239075055477 0 0 0 0 15.877944299140367 2.8962369217399306 0 2.8962369217399306 1.0288289490795712 0 0 0 0 74.972385109402239 -40.122601436436526 0 -40.122601436436526 -6.1036637604647694 0 0 0 0 -11.223028076930746 -16.220614166109286 0 -16.220614166109286 -47.441721613160553 0 0 0 0 11.246786590406941 7.3231820935337444 0 7.3231820935337444 4.1749824972865373 0 0 0 0 -59.896708867076086 11.583789223785971 0 11.583789223785971 -22.320894768130756 0 0 0 0 42.488948653375701 73.452108846495321 0 73.452108846495321 -25.315508189471075 0 0 0 0 38.025358430517372 6.4209235842872658 0 6.4209235842872658 -22.505478300479808 0 0 0 0 48.850524625759135 0.87126602826356248 0 0.87126602826356248 -57.470124892892272 0 0 0 0 27.701216541900067 -20.757936999060803 0 -20.757936999060803 -37.153660388606113 0 0 0 0 -10.278376021618897 48.973848790773445 0 48.973848790773445 27.765690726791945 0 0 0 0 30.316457559501941 -1.0562750435992712 0 -1.0562750435992712 11.704786224045165 0 0 0 0 -1.8737525179154986 -2.0614822486815356 0 -2.0614822486815356 -0.062205379285085627 0 0 0 0 128.37461166954017 95.983583775990155 0 95.983583775990155 43.869011570880048 0 0 0 0 166.90566696055248 -13.106900240732898 0 -13.106900240732898 9.9945754751879576 0 0 0 0 49.830265746983059 47.47676248040807 0 47.47676248040807 27.800472807305823 0 0 0 0 12.152537417245185 2.7220594584368882 0 2.7220594584368882 17.456974062038171 0 0 0 0 11.654180218245529 70.984827435461284 0 70.984827435461284 139.36588740447951 0 0 0 0 51.517566562215507 135.69289461121525 0 135.69289461121525 133.16187622711573 0 0 0 0 37.160382514597586 249.96098803851419 0 249.96098803851419 328.16125663949481 0 0 0 0 3.4407488930854697 3.6244678806104371 0 3.6244678806104371 2.5376985242305752 0 0 0 0 15.58801624921216 135.8702440996899 0 135.8702440996899 521.17376455140129 0 0 0 0 -39.303791502494278 11.492155549349263 0 11.492155549349263 249.65258287712095 0 0 0 0 413.59716990235029 70.048203665177425 0 70.048203665177425 -27.742829821431087 0 0 0 0 -97.517146057126411 -77.943312187680021 0 -77.943312187680021 73.132916875896626 0 0 0 0 -124.39391908998732 -6.4099873955656221 0 -6.4099873955656221 4.7064256180519806 0 0 0 0 5.6996726028175004 1.3369722952615337 0 1.3369722952615337 0.44724275145305548 0 0 0 0 305.03344947933874 142.64280709770037 0 142.64280709770037 117.51581765717856 0 0 0 0 709.28682748036954 233.74616443012837 0 233.74616443012837 159.67773932242108 0 0 0 0 705.44587542687441 267.27423637521451 0 267.27423637521451 -13.09175124414287 0 0 0 0 400.69924101703873 389.34948252262961 0 389.34948252262961 281.67229123964898 0 0 0 0 520.1483022506327 -129.73127125744281 0 -129.73127125744281 -44.361895939052374 0 0 0 0 71.351497992469376 119.30434979904362 0 119.30434979904362 35.233750852370008 0 0 0 0 213.68838300221614 180.25439412139576 0 180.25439412139576 55.026412323158183 0 0 0 0 103.90079975671506 195.312741469645 0 195.312741469645 74.37047362433168 0 0 0 0 86.381249758309423 134.40409894330975 0 134.40409894330975 13.447094741697128 0 0 0 0 69.055456474390667 109.95360921261852 0 109.95360921261852 -20.931494725313428 0 0 0 0 11.473832792260509 -30.553578326112302 0 -30.553578326112302 -58.092617948520171 0 0 0 0 203.81984738659412 -12.740201553871088 0 -12.740201553871088 -106.04573139870823 0 0 0 0 3.145913351123454 -9.7490967081316739 0 -9.7490967081316739 -30.742204733689277 0 0 0 0 0.87598935955247725 -44.293300867889911 0 -44.293300867889911 22.690118683208311 0 0 0 0 -68.225012047969358 92.771735527424198 0 92.771735527424198 -22.417791710894562 0 0 0 0 8.276452326004005 67.025569693589375 0 67.025569693589375 -27.305810080743868 0 0 0 0 -96.473314354087051 100.02865210804839 0 100.02865210804839 -26.52796061096933 0 0 0 0 -125.88626741678308 63.26927764371635 0 63.26927764371635 -3.780644275807731 0 0 0 0 -163.59856309213501 223.30703315800474 0 223.30703315800474 -120.74381952096337 0 0 0 0 -127.68064637222778 56.903679537116659 0 56.903679537116659 -82.628867595150041 0 0 0 0 -72.241696459284867 50.266042041728724 0 50.266042041728724 52.799523535985031 0 0 0 0 -54.772776011790484 57.485769895912199 0 57.485769895912199 10.322755721474095 0 0 0 0 -30.279916514893557 50.178151668308033 0 50.178151668308033 4.5061054859306751 0 0 0 0 135.14075595684699 143.21027106603879 0 143.21027106603879 184.8332932574358 0 0 0 0 9.4643865530388958 2.6154132816225015 0 2.6154132816225015 5.3004427752192367 0 0 0 0 -5.8989341594096913 70.090768922764255 0 70.090768922764255 -48.170074600468979 0 0 0 0 -222.59310872131209 132.73179697948899 0 132.73179697948899 -24.762185390958166 0 0 0 0 79.390114760120923 137.81899789282943 0 137.81899789282943 -218.8218025956412 0 0 0 0 -107.59124200998485 129.80311618682629 0 129.80311618682629 -24.72845613677795 0 0 0 0 -124.97805172011795 130.4712700851498 0 130.4712700851498 -9.7488762682404513 0 0 0 0 -51.31620149238006 125.50675863916979 0 125.50675863916979 -28.193433096973024 0 0 0 0 -395.62869489651712 59.547740683308234 0 59.547740683308234 78.215799905433869 0 0 0 0 -123.9818714962374 53.379318166113151 0 53.379318166113151 10.283275584813964 0 0 0 0 -0.4395881554152794 -1.2785422413743568 0 -1.2785422413743568 1.0019989765873376 0 0 0 0 657.20845289008003 443.15967871745477 0 443.15967871745477 26.387878112141607 0 0 0 0 -267.57688142006555 215.01080080755349 0 215.01080080755349 79.345613557611841 0 0 0 0 -46.435913031160453 282.22857764236278 0 282.22857764236278 86.972940779141481 0 0 0 0 -75.654144141688448 122.05413904318493 0 122.05413904318493 44.951580510733038 0 0 0 0 -4.7540544619732827 225.9211487837706 0 225.9211487837706 132.84067519329074 0 0 0 0 62.805122854653746 267.98677024747303 0 267.98677024747303 87.776912338033981 0 0 0 0 7.0321016372636223 170.83487714454918 0 170.83487714454918 122.60565782809317 0 0 0 0 67.109998358961093 212.37289853660678 0 212.37289853660678 205.01293092554033 0 0 0 0 135.27733296400402 235.25752119604454 0 235.25752119604454 1.1624242392399537 0 0 0 0 67.879986019596799 145.9820576224671 0 145.9820576224671 6.9591114078166356 0 0 0 0 105.63617436577624 186.48872815473032 0 186.48872815473032 -145.21121429417781 0 0 0 0 410.23137155805671 -54.263414457137117 0 -54.263414457137117 -41.516912139046781 0 0 0 0 240.97621640320358 24.879893866260545 0 24.879893866260545 -12.58856326450541 0 0 0 0 126.55784624310763 -65.416322630137074 0 -65.416322630137074 61.238604770655002 0 0 0 0 1559.6557097337718 1109.3866034563512 0 1109.3866034563512 -371.00377592391737 0 0 0 0 921.83385968069797 385.7418159557526 0 385.7418159557526 -467.7592066512666 0 0 0 0 3066.1513046898544 58.297875429824899 0 58.297875429824899 -776.70539402371332 0 0 0 0 1100.3972330097913 645.69926881154743 0 645.69926881154743 -144.07150285065626 0 0 0 0 532.09127346925197 243.30501217007986 0 243.30501217007986 -154.96310990625784 0 0 0 0 283.85265071404865 88.262773472557342 0 88.262773472557342 69.077212241204052 0 0 0 0 0.21800284281671001 -2.4111392984852138 0 -2.4111392984852138 -3.1611513841447625 0 0 0 0 261.44036359790152 326.02425163341911 0 326.02425163341911 135.53664356693571 0 0 0 0 261.76215213688738 463.78465475845138 0 463.78465475845138 523.79760284118572 0 0 0 0 940.40413866176914 397.88089150338647 0 397.88089150338647 -115.3889857780963 0 0 0 0 252.9436262898671 149.23768348936528 0 149.23768348936528 450.21305143638153 0 0 0 0 616.99186196132769 308.29760410574579 0 308.29760410574579 267.70158276403527 0 0 0 0 135.31116167511573 230.4835041897752 0 230.4835041897752 399.87078961145534 0 0 0 0 5.4500964655635471 12.042963424131358 0 12.042963424131358 336.4947140130356 0 0 0 0 99.250499564504935 128.14718213491335 0 128.14718213491335 283.84516378402054 0 0 0 0 84.759839015554462 -59.147081309349687 0 -59.147081309349687 175.5606781743659 0 0 0 0 171.99156444260007 136.09768842741607 0 136.09768842741607 165.43953565750678 0 0 0 0 2231.2202471961155 1110.5207696330624 0 1110.5207696330624 571.86545281447752 0 0 0 0 2212.2377222410937 948.13037986522204 0 948.13037986522204 241.2705211433863 0 0 0 0 245.85051374468912 702.5357305257769 0 702.5357305257769 1355.947931609737 0 0 0 0 1567.0056146773868 1018.7405646190027 0 1018.7405646190027 264.60921831878829 0 0 0 0 3500.694845567315 970.4634298660917 0 970.4634298660917 -248.39858171358864 0 0 0 0 2445.0694775766528 332.8677115663337 0 332.8677115663337 -528.20547330863428 0 0 0 0 3492.9380770438029 -494.47922038417579 0 -494.47922038417579 -1121.2502045773958 0 0 0 0 1709.1985937736781 269.29325126311045 0 269.29325126311045 -495.84732679916488 0 0 0 0 1614.9726081269164 270.9574521662185 0 270.9574521662185 -231.08388994020754 0 0 0 0 11.254470120062408 -0.70593518444285852 0 -0.70593518444285852 -1.0921144769562892 0 0 0 0 -320.07232792113791 543.04120969517487 0 543.04120969517487 -245.32825967400157 0 0 0 0 11.541963432239719 -0.12253037517488696 0 -0.12253037517488696 -1.7892308260310816 0 0 0 0 1956.4450656884219 1413.0779376445546 0 1413.0779376445546 -575.04144171551013 0 0 0 0 1546.3836970954253 -1115.1869167359275 0 -1115.1869167359275 -1062.6545725551096 0 0 0 0 3493.3988756404988 605.92511563505502 0 605.92511563505502 -1029.3834384229253 0 0 0 0 1836.0060505764013 224.01770197473365 0 224.01770197473365 -825.77452088098289 0 0 0 0 3501.0830375490605 -377.11491664803452 0 -377.11491664803452 -659.24140948837999 0 0 0 0 1238.6323773420881 -427.94732313914631 0 -427.94732313914631 19.487891528220359 0 0 0 0 1933.668021096837 -508.41906269393019 0 -508.41906269393019 11.812357096138371 0 0 0 0 1925.648134663762 -139.64257121413829 0 -139.64257121413829 -84.015050522207503 0 0 0 0 1076.1175292248681 -1190.2634948115613 0 -1190.2634948115613 -950.78275995500235 0 0 0 0 -137.3468469452182 25.271222727101815 0 25.271222727101815 -33.008748136076861 0 0 0 0 1980.4417162509199 -473.67615901046287 0 -473.67615901046287 -385.73097606376257 0 0 0 0 -0.1384281320245826 -6.3190400488056611 0 -6.3190400488056611 -13.461367900552712 0 0 0 0 1955.400169504821 114.89099564074405 0 114.89099564074405 585.59330991605259 0 0 0 0 -7.4427510293012347 -71.242609735211545 0 -71.242609735211545 -51.776337074478761 0 0 0 0 228.84811997534143 33.199000485188208 0 33.199000485188208 -87.802511742032493 0 0 0 0 -167.45267247910488 219.5701866603622 0 219.5701866603622 37.886970498403571 0 0 0 0 -20.806246341973747 69.225530242400509 0 69.225530242400509 3.21340167016956 0 0 0 0 2.8627157591167176 -2.1265509126485611 0 -2.1265509126485611 -5.1674657866653213 0 0 0 0 40.919576819735994 3.4854567667507581 0 3.4854567667507581 -43.588329761985733 0 0 0 0 1451.9623921667535 -569.54399934942614 0 -569.54399934942614 90.731499814662513 0 0 0 0 1332.0134082581444 -698.04012016727165 0 -698.04012016727165 -42.433293214998798 0 0 0 0 0.056237530109368272 -11.514905254288983 0 -11.514905254288983 -24.804330634480944 0 0 0 0 16.660552579366701 10.372161228779781 0 10.372161228779781 -2.9030858868859069 0 0 0 0 1350.0563620402099 -481.78843701128613 0 -481.78843701128613 153.75405704594925 0 0 0 0 91.26099028747285 11.846822815182691 0 11.846822815182691 -53.276733860429886 0 0 0 0 -1.0560920789173309 8.8413698812662744 0 8.8413698812662744 -3.3469650449380786 0 0 0 0 4.2731561529053579 14.14633351202599 0 14.14633351202599 -26.620309050089418 0 0 0 0 94.044179845790495 66.462933430591491 0 66.462933430591491 10.494394029391174 0 0 0 0 15.111514291744179 7.2454847468739914 0 7.2454847468739914 -19.00423212875295 0 0 0 0 986.79162808068213 -711.29402536083819 0 -711.29402536083819 -576.07743944268282 0 0 0 0 675.00477033032803 -532.07219094777156 0 -532.07219094777156 186.97804148977895 0 0 0 0 0.25190896709778343 -1.4836310746078389 0 -1.4836310746078389 -1.6546657267932692 0 0 0 0 494.72841876799066 -854.46686878748937 0 -854.46686878748937 -12.866427349141077 0 0 0 0 742.79681415607047 -270.90928482493047 0 -270.90928482493047 -39.3815852195155 0 0 0 0 1168.1419200286473 -506.14552151052948 0 -506.14552151052948 144.95804108036884 0 0 0 0 992.00704174661951 -436.35537682382648 0 -436.35537682382648 287.15478209195754 0 0 0 0 3.5018077185241481 -2.7855058840440936 0 -2.7855058840440936 -5.1109509837991878 0 0 0 0 11.987447326740948 19.737384926886079 0 19.737384926886079 -20.191695663372229 0 0 0 0 10.217229485919233 17.997074068648544 0 17.997074068648544 -26.430563793438523 0 0 0 0 25.731710509044035 7.1844706019871047 0 7.1844706019871047 -16.831084338448346 0 0 0 0 15.294124453994652 14.736147126056679 0 14.736147126056679 -20.727865598022682 0 0 0 0 21.137408847693223 16.66447968133275 0 16.66447968133275 -16.915117596323398 0 0 0 0 20.368604057715856 21.630532800719266 0 21.630532800719266 -34.886541774515536 0 0 0 0 12.156625233270461 12.718960876735764 0 12.718960876735764 -18.593606561144043 0 0 0 0 12.300115547368478 10.554653525112371 0 10.554653525112371 9.4838310167215241 0 0 0 0 -22.825081243679051 20.642068205745431 0 20.642068205745431 -18.406317186381784 0 0 0 0 2.6601377874568914 3.0524000485141478 0 3.0524000485141478 -2.5284416067057709 0 0 0 0 -41.982347217974166 42.530699546441951 0 42.530699546441951 -17.744847751303496 0 0 0 0 820.70864708286535 -448.58722280116035 0 -448.58722280116035 -674.82753688142589 0 0 0 0 235.88754604005044 -74.68340299380273 0 -74.68340299380273 407.44413282041955 0 0 0 0 997.56796260963165 -736.53820239646279 0 -736.53820239646279 416.34750812917002 0 0 0 0 911.88006656812286 -350.61636886300465 0 -350.61636886300465 -234.92192383287511 0 0 0 0 995.89047936766292 -258.25452768519898 0 -258.25452768519898 -468.05024509516727 0 0 0 0 1189.3791179113687 -726.59628186513271 0 -726.59628186513271 359.07743077026953 0 0 0 0 182.74701638450642 -409.27733146577697 0 -409.27733146577697 742.3540242999336 0 0 0 0 685.01179031330321 -1132.6269844753397 0 -1132.6269844753397 1399.9372013132897 0 0 0 0 1294.0455621339606 -1068.4645920970293 0 -1068.4645920970293 579.25772180052513 0 0 0 0 3493.8155021538514 -1750.3314835415097 0 -1750.3314835415097 -12.080318560100626 0 0 0 0 2023.3466519507783 -2203.0217512896465 0 -2203.0217512896465 1430.8152883610014 0 0 0 0 1082.673418056499 -1037.0557009985293 0 -1037.0557009985293 602.68038900009981 0 0 0 0 1729.1830859362562 -1300.5120768265938 0 -1300.5120768265938 373.39133005184192 0 0 0 0 2409.2117045875839 -1007.276469904353 0 -1007.276469904353 -245.77340308029227 0 0 0 0 2141.096583273491 -924.14721837933348 0 -924.14721837933348 -229.5676831655729 0 0 0 0 1356.1309116022378 -714.93318781523419 0 -714.93318781523419 104.43045193514507 0 0 0 0 1242.4408076067921 -768.9768004696781 0 -768.9768004696781 89.892479931732964 0 0 0 0 1164.1095685144783 -813.32512276177215 0 -813.32512276177215 108.47730236475195 0 0 0 0 975.49154795929644 -630.58841715817584 0 -630.58841715817584 204.02342317853203 0 0 0 0 1063.2544930596123 -502.3245561499113 0 -502.3245561499113 -296.43117729823865 0 0 0 0 1633.965799112284 -716.54888383407774 0 -716.54888383407774 -72.043370006447219 0 0 0 0 651.62968852712947 -226.06858455993915 0 -226.06858455993915 330.36499281024192 0 0 0 0 410.3301502907816 124.38428688253202 0 124.38428688253202 325.22842746862489 0 0 0 0 273.34243888109449 169.17957933851682 0 169.17957933851682 168.68723418459695 0 0 0 0 338.11697768514568 35.373578597407914 0 35.373578597407914 250.69977643303716 0 0 0 0 117.71005029832304 167.61039393618125 0 167.61039393618125 279.41268402602248 0 0 0 0 187.35187698575464 293.96465064487575 0 293.96465064487575 61.856777184265638 0 0 0 0 161.48243276590802 -55.52000075967976 0 -55.52000075967976 286.78715293512482 0 0 0 0 811.69768025958911 -64.222814834110295 0 -64.222814834110295 203.84362237073628 0 0 0 0 332.24252663030347 175.60959640980445 0 175.60959640980445 -39.214436227246097 0 0 0 0 1188.4565509886306 -319.69204039857846 0 -319.69204039857846 74.183019576170864 0 0 0 0 771.05719205034256 -289.58560229405361 0 -289.58560229405361 173.99798027802899 0 0 0 0 1211.0784655069292 -399.96094479198132 0 -399.96094479198132 127.26815848931335 0 0 0 0 1227.994047603017 -369.93940464298851 0 -369.93940464298851 179.33179645668474 0 0 0 0 894.84922223494505 49.302220885053316 0 49.302220885053316 358.44860717116717 0 0 0 0 0.90596567277341933 1.8742730897677493 0 1.8742730897677493 1.6176816457251932 0 0 0 0 1385.9256620031811 -282.3785842917323 0 -282.3785842917323 48.786556346013185 0 0 0 0 1952.9967876098235 -98.467279773695282 0 -98.467279773695282 -64.919518796895318 0 0 0 0 1453.0903789773001 -623.25194830903388 0 -623.25194830903388 174.53364778886817 0 0 0 0 1150.1958435535271 -471.2793162593228 0 -471.2793162593228 126.72652529424613 0 0 0 0 1404.1669578890287 -404.69260578627836 0 -404.69260578627836 101.66536859176858 0 0 0 0 8.9931561680788619 6.9240850975220951 0 6.9240850975220951 7.6171580292070455 0 0 0 0 -186.49835740140406 201.80898406450589 0 201.80898406450589 -67.404414015029488 0 0 0 0 282.40464076015633 92.473961145075293 0 92.473961145075293 -150.57353499285125 0 0 0 0 1.9676337378187583 1.787952153772693 0 1.787952153772693 3.8205250814089542 0 0 0 0 -440.62304587881226 20.436926761887207 0 20.436926761887207 581.74702768911698 0 0 0 0 1205.6850799387466 130.8568751945968 0 130.8568751945968 541.87777600837921 0 0 0 0 681.15788380671438 -152.56994447613192 0 -152.56994447613192 459.50022829155716 0 0 0 0 1889.9618676638493 -420.61683387041262 0 -420.61683387041262 121.56521889397283 0 0 0 0 645.00880903302823 -282.69886574358225 0 -282.69886574358225 514.50226374318413 0 0 0 0 687.7104638303781 -242.77690383407429 0 -242.77690383407429 41.643728324676886 0 0 0 0 0.020331248460554008 -0.5014257523720147 0 -0.5014257523720147 4.048516367767153 0 0 0 0 -408.49077545356704 152.24033662430952 0 152.24033662430952 693.47942758380464 0 0 0 0 448.38544399336388 320.50526695854978 0 320.50526695854978 -73.232637444941247 0 0 0 0 513.0168282313316 20.440807994585612 0 20.440807994585612 559.06719161435467 0 0 0 0 888.88897951072977 -138.81978730563424 0 -138.81978730563424 287.90452387425421 0 0 0 0 851.6111482803899 -328.37447536602008 0 -328.37447536602008 367.06767079911123 0 0 0 0 419.020750942429 198.58627306390417 0 198.58627306390417 306.07651346050625 0 0 0 0 6.8504586859926064 2.7633372174478339 0 2.7633372174478339 2.1386442631597919 0 0 0 0 169.15648677452555 66.654588068721296 0 66.654588068721296 342.51172445938266 0 0 0 0 65.722705310829042 -176.18129856878977 0 -176.18129856878977 169.57856232727772 0 0 0 0 110.37662374834326 -65.279881026694511 0 -65.279881026694511 280.36469668742166 0 0 0 0 105.12403090547741 -120.24795539832348 0 -120.24795539832348 124.98096306516618 0 0 0 0 116.78650552949694 18.529887529278312 0 18.529887529278312 144.58132413040374 0 0 0 0 57.308288124069804 -124.08919711335011 0 -124.08919711335011 153.9428306235518 0 0 0 0 163.05086628151912 56.903104145409543 0 56.903104145409543 339.10261278744122 0 0 0 0 299.13172928606218 -57.222756158625771 0 -57.222756158625771 218.13070235920623 0 0 0 0 -228.14275429050122 -4.9402405612401026 0 -4.9402405612401026 67.777243492692833 0 0 0 0 28.039931193896336 -31.827525142027298 0 -31.827525142027298 -39.784451909890777 0 0 0 0 -16.172722030589284 -127.68403413783312 0 -127.68403413783312 151.11645213293923 0 0 0 0 33.425646454794332 -149.81541174802715 0 -149.81541174802715 99.228570950579979 0 0 0 0 28.620746988104656 -66.435044604013456 0 -66.435044604013456 69.444611211005736 0 0 0 0 4.7845479233728838 -72.972300095789933 0 -72.972300095789933 84.158057749957152 0 0 0 0 -65.683391221369675 10.042239482839022 0 10.042239482839022 60.267899683994301 0 0 0 0 -54.627872776749427 -82.05850798874053 0 -82.05850798874053 99.960704912952224 0 0 0 0 -51.196222762031539 -60.214942924323168 0 -60.214942924323168 -5.1087713116303348 0 0 0 0 -50.298272942745825 20.696902665378957 0 20.696902665378957 -24.301669423172541 0 0 0 0 0.62934128200484096 4.7070291791083037 0 4.7070291791083037 13.887281031398356 0 0 0 0 -292.25394544364099 25.731594353656988 0 25.731594353656988 70.770480182883716 0 0 0 0 36.285275819689559 46.239142643921582 0 46.239142643921582 33.462556700231005 0 0 0 0 -59.955175829783911 -38.467217303122752 0 -38.467217303122752 58.062003368793512 0 0 0 0 -111.01451206865386 -52.617831366964538 0 -52.617831366964538 69.666723678295966 0 0 0 0 -205.42651064487291 109.41700679778387 0 109.41700679778387 -11.439684307762803 0 0 0 0 -67.775761802491616 4.7341452959127253 0 4.7341452959127253 -33.259125292639965 0 0 0 0 148.13737821760878 72.381388003956545 0 72.381388003956545 157.3009743038607 0 0 0 0 153.9476889511825 9.218458293659296 0 9.218458293659296 97.37111771885111 0 0 0 0 158.54389945536968 21.377030137906331 0 21.377030137906331 29.790258618927851 0 0 0 0 265.32830589504738 -118.65251253180685 0 -118.65251253180685 34.226274072060733 0 0 0 0 459.15178174913308 192.58888926927875 0 192.58888926927875 -14.362655240686081 0 0 0 0 244.9628006467974 189.30636010675983 0 189.30636010675983 203.73032957999021 0 0 0 0 241.98604089704168 164.15079331819834 0 164.15079331819834 -3.6937381672003085 0 0 0 0 268.96964073832441 288.28088854719692 0 288.28088854719692 43.371257876134678 0 0 0 0 289.95956214085891 484.67234232079244 0 484.67234232079244 -89.037091284945063 0 0 0 0 269.84967403075257 335.596277122814 0 335.596277122814 -119.22867713333062 0 0 0 0 40.707053341815481 -35.68840117314096 0 -35.68840117314096 40.678201234849276 0 0 0 0 860.9032134088111 -516.94980021592642 0 -516.94980021592642 188.18633113379542 0 0 0 0 853.79112699281541 336.0902772557173 0 336.0902772557173 -146.51361099009569 0 0 0 0 408.33747921113536 743.07544456075868 0 743.07544456075868 291.91612537432877 0 0 0 0 13.163307084218985 -1.2089150515705356 0 -1.2089150515705356 0.10588090324102595 0 0 0 0 477.01139821353718 -575.63030523505267 0 -575.63030523505267 -510.65282115524587 0 0 0 0 13.452925225925725 0.11941087801420203 0 0.11941087801420203 -0.39922765395616933 0 0 0 0 -2.091851124263485 -614.61740372766121 0 -614.61740372766121 -1.6421261257546576 0 0 0 0 -74.102222053355945 -22.048098028863933 0 -22.048098028863933 6.4688935631520508 0 0 0 0 1.8616264356015719 5.4280601702958933 0 5.4280601702958933 12.002948648185875 0 0 0 0 -347.77499164353503 71.484057840668015 0 71.484057840668015 72.65236157875529 0 0 0 0 -228.59008015210929 18.684541534428035 0 18.684541534428035 -48.325747611971565 0 0 0 0 -213.91561619218555 66.799356474169713 0 66.799356474169713 89.529627762678956 0 0 0 0 -7.3156235028873198 -106.4084604608812 0 -106.4084604608812 174.16295518767811 0 0 0 0 203.99967551456575 277.21279429029664 0 277.21279429029664 -722.04459834975751 0 0 0 0 -257.66182818041489 446.8243594422799 0 446.8243594422799 -208.44836571731571 0 0 0 0 -370.69413190081832 374.14374181450569 0 374.14374181450569 454.87626335652794 0 0 0 0 64.449591019336367 60.00399913433148 0 60.00399913433148 57.975265541948374 0 0 0 0 7.6379531385509267 6.3036796589652511 0 6.3036796589652511 4.0751040099224314 0 0 0 0 -120.98229129541141 -37.175405859278271 0 -37.175405859278271 32.817769427668054 0 0 0 0 46.272713364298397 -47.620424216958781 0 -47.620424216958781 -82.347788623406814 0 0 0 0 78.498894353615469 39.973122427616545 0 39.973122427616545 132.7228245617477 0 0 0 0 61.407941322948318 -230.19849018205878 0 -230.19849018205878 78.622362751338187 0 0 0 0 -11.164451639444451 -66.780244016321035 0 -66.780244016321035 141.54282009681356 0 0 0 0 92.355032051651506 80.450828769359759 0 80.450828769359759 60.723287476443602 0 0 0 0 1.5549923211352947 0.36512948763640907 0 0.36512948763640907 1.2485758323585152 0 0 0 0 115.07439136713219 -88.855973855074353 0 -88.855973855074353 67.595257244169716 0 0 0 0 11.302210928755812 -7.4053134085785359 0 -7.4053134085785359 -22.993361263710568 0 0 0 0 19.303634640163807 -5.0072641163516867 0 -5.0072641163516867 0.00037973442614103181 0 0 0 0 87.02388400505879 18.085655036618846 0 18.085655036618846 -175.49541233183982 0 0 0 0 53.755506255911314 -12.745514979529844 0 -12.745514979529844 -32.077674386519902 0 0 0 0 135.31103971935227 -9.1608061153201561 0 -9.1608061153201561 -162.40843882129138 0 0 0 0 212.84368676338636 14.655893308778559 0 14.655893308778559 -76.732332543584562 0 0 0 0 59.333602356986376 -16.886978280864241 0 -16.886978280864241 -76.655706176617969 0 0 0 0 9.3575875936723705 -0.73038367324309661 0 -0.73038367324309661 -2.4044362926451921 0 0 0 0 -176.26764619081223 -166.94746741664562 0 -166.94746741664562 152.89312543939241 0 0 0 0 4.024605945305666 38.870739795341024 0 38.870739795341024 -131.982774113505 0 0 0 0 -162.77106495466433 -40.295547460327043 0 -40.295547460327043 18.710021657541802 0 0 0 0 -18.42099415048142 -10.890642708859616 0 -10.890642708859616 -57.290515860644177 0 0 0 0 -2.2012347951214224 -5.0425719710528583 0 -5.0425719710528583 0.12272260796390921 0 0 0 0 -54.076795845510787 -3.106585723874673 0 -3.106585723874673 -15.761956790945987 0 0 0 0 37.975576772777146 -10.558036657430165 0 -10.558036657430165 -9.474139567120389 0 0 0 0 14.224005836818833 4.9403175052302686 0 4.9403175052302686 -53.175213733145029 0 0 0 0 49.860347782450845 -57.322985069630477 0 -57.322985069630477 -99.842929443347543 0 0 0 0 83.146589645439235 -19.448821075132514 0 -19.448821075132514 -12.575173176402132 0 0 0 0 32.173629248354644 -3.578398411923768 0 -3.578398411923768 -0.72725760323710398 0 0 0 0 60.744319808116416 -18.182529655241524 0 -18.182529655241524 -11.1020966662104 0 0 0 0 47.417274577353965 -29.764068750562387 0 -29.764068750562387 -112.85920006412164 0 0 0 0 32.982950662844814 -43.191044394287928 0 -43.191044394287928 -93.300739967084155 0 0 0 0 13.182825841801787 -38.567378248753322 0 -38.567378248753322 -67.655571376951457 0 0 0 0 -7.6843706193976686 -9.3505184406342323 0 -9.3505184406342323 20.505961854089037 0 0 0 0 57.651399905851576 -64.757193362408003 0 -64.757193362408003 -74.387491009017509 0 0 0 0 54.805269978576689 -57.694201911365894 0 -57.694201911365894 -87.912174872124524 0 0 0 0 19.747951273806393 -50.015629231765843 0 -50.015629231765843 -71.529293732824499 0 0 0 0 56.085098753712373 -63.887141276080939 0 -63.887141276080939 -66.990292220406047 0 0 0 0 50.532378516421886 -50.028427367877278 0 -50.028427367877278 -58.099593071241969 0 0 0 0 112.91173249582062 -64.684377414061686 0 -64.684377414061686 -62.067706063269846 0 0 0 0 -10.005762682965724 -51.136019401710044 0 -51.136019401710044 -48.14154941756874 0 0 0 0 9.5388538085098844 -73.499811249966669 0 -73.499811249966669 -31.870274270561055 0 0 0 0 19.171418806212387 -61.503020352955822 0 -61.503020352955822 -60.362055165966126 0 0 0 0 -14.66644149820786 -44.404881061322556 0 -44.404881061322556 -68.787117648128742 0 0 0 0 6.0940328728502067 -2.607793889708887 0 -2.607793889708887 -6.5864523721249322 0 0 0 0 -35.140021821425762 -92.805848377073517 0 -92.805848377073517 -35.206220684569672 0 0 0 0 13.137631724908715 -0.82765954339663494 0 -0.82765954339663494 -16.535343266845757 0 0 0 0 -73.657982133910991 -68.991292100074574 0 -68.991292100074574 -24.023656780336751 0 0 0 0 46.151014539733296 -63.626823679505208 0 -63.626823679505208 13.17617956662329 0 0 0 0 147.71430624427012 151.11965329113684 0 151.11965329113684 -97.050330059089447 0 0 0 0 3.1900332264804945 -2.9356743430403114 0 -2.9356743430403114 1.3801550348173759 0 0 0 0 26.768240562956123 -3.4029235769404442 0 -3.4029235769404442 -0.34530446026944439 0 0 0 0 188.92630197968174 231.56775358861097 0 231.56775358861097 164.33300188817793 0 0 0 0 7.5572454223211025 36.456670366556267 0 36.456670366556267 -57.230794618600925 0 0 0 0 11.413875366532011 -50.118943339976965 0 -50.118943339976965 -78.980243116146312 0 0 0 0 124.83618344124261 71.979507602197046 0 71.979507602197046 -51.327543285178848 0 0 0 0 79.736060949740931 -26.764678927815339 0 -26.764678927815339 -71.148114769361797 0 0 0 0 94.339719942116062 -36.854389362936274 0 -36.854389362936274 -64.210530128692767 0 0 0 0 99.644525475916453 -12.001243375371843 0 -12.001243375371843 -32.65355639624363 0 0 0 0 272.84382337833813 47.311277103974803 0 47.311277103974803 -70.899274080621836 0 0 0 0 282.6226887722587 92.5058049772299 0 92.5058049772299 -78.083268148118123 0 0 0 0 2.8301779343217106 -1.3937707265015007 0 -1.3937707265015007 -2.0681085811687892 0 0 0 0 206.34534499548317 -5.9138555973115103 0 -5.9138555973115103 -75.504375333978714 0 0 0 0 355.38716470671352 100.5896946179174 0 100.5896946179174 250.59060495701448 0 0 0 0 784.74160949816724 316.8692179160048 0 316.8692179160048 142.76318728067011 0 0 0 0 602.93124112076111 125.86462634489068 0 125.86462634489068 202.51143954863102 0 0 0 0 32.579859775745717 14.947173365800211 0 14.947173365800211 281.65539388332922 0 0 0 0 661.72896917209437 -382.06014873719391 0 -382.06014873719391 237.09681323698442 0 0 0 0 631.78160712237877 329.04729422238665 0 329.04729422238665 139.38929261792964 0 0 0 0 9.2963095365096535 -1.8609574070054844 0 -1.8609574070054844 0.60400383286682757 0 0 0 0 721.65547341041383 21.996911841054725 0 21.996911841054725 -94.879933847959251 0 0 0 0 1126.5318238888576 83.385526813200158 0 83.385526813200158 -128.00053964791891 0 0 0 0 1180.2743597304325 483.21442037818963 0 483.21442037818963 -1086.532143262838 0 0 0 0 -385.22359187451366 -541.52080488125625 0 -541.52080488125625 721.55176337803437 0 0 0 0 -156.80614681089355 -373.50790538783485 0 -373.50790538783485 275.24573666603965 0 0 0 0 27.445993206706561 2.4620634474062832 0 2.4620634474062832 -1.398210767663572 0 0 0 0 -655.36844765616115 294.11565837095532 0 294.11565837095532 398.08678542723055 0 0 0 0 233.78592002479127 306.01758986816412 0 306.01758986816412 -751.54179096375026 0 0 0 0 -19.855241286451928 -62.49620683816795 0 -62.49620683816795 -130.46234394272619 0 0 0 0 -141.46069353495113 341.16238041755935 0 341.16238041755935 67.065812434499094 0 0 0 0 733.1709453495439 147.98126668531879 0 147.98126668531879 115.8535830956871 0 0 0 0 1498.9630471970304 -254.03306791850173 0 -254.03306791850173 -280.62883775322916 0 0 0 0 3.3057444760774644 -0.22978680273948271 0 -0.22978680273948271 4.0679871941404517 0 0 0 0 1118.7462175413384 -153.53270710395691 0 -153.53270710395691 -218.4931811229651 0 0 0 0 760.36906656908286 -517.04107665442132 0 -517.04107665442132 37.980497694627047 0 0 0 0 1366.4221543437743 -1149.3349521433174 0 -1149.3349521433174 17.483927212434651 0 0 0 0 1616.6687751571553 -335.80038454505166 0 -335.80038454505166 -226.34677275677132 0 0 0 0 1391.5389606878598 -329.32481129420989 0 -329.32481129420989 -324.1396548338821 0 0 0 0 1286.5901661971147 -443.99046546153295 0 -443.99046546153295 -257.78899616584476 0 0 0 0 1304.6124857589894 -266.48778983070952 0 -266.48778983070952 307.35182957565496 0 0 0 0 -136.27866205210375 -81.068548694680999 0 -81.068548694680999 50.660036899068018 0 0 0 0 824.33678451725427 -262.29783068925121 0 -262.29783068925121 18.191814711918823 0 0 0 0 1135.2603376237676 -550.04926375400191 0 -550.04926375400191 -166.83048296096422 0 0 0 0 1010.4392828556338 -606.31552425066138 0 -606.31552425066138 -384.95323725265962 0 0 0 0 14.0718731624101 1.9041711489247035 0 1.9041711489247035 -0.32528943518629561 0 0 0 0 350.2619701508811 710.55507395265863 0 710.55507395265863 -60.633716571126911 0 0 0 0 1122.735077235724 494.02459336837705 0 494.02459336837705 -34.730947511413888 0 0 0 0 1892.0141136778475 -300.49275062241082 0 -300.49275062241082 -54.832124749660807 0 0 0 0 1577.5723770736222 -21.459655040678626 0 -21.459655040678626 -181.71964270210037 0 0 0 0 1374.1210249326359 488.82471109248439 0 488.82471109248439 62.811861828768087 0 0 0 0 601.83270201332925 -757.63187482126727 0 -757.63187482126727 447.82029344770581 0 0 0 0 1079.3682645724984 -908.01188581347947 0 -908.01188581347947 277.6220088835671 0 0 0 0 1154.3721020067969 -112.41654953002507 0 -112.41654953002507 39.511938743275095 0 0 0 0 604.16924698255752 151.96154030266069 0 151.96154030266069 220.91902988216654 0 0 0 0 627.25602872589661 87.111424287935847 0 87.111424287935847 57.378299442519342 0 0 0 0 710.04121177006164 -69.410365085934899 0 -69.410365085934899 315.13337580095578 0 0 0 0 269.86023714476323 188.8748310332453 0 188.8748310332453 404.56743450958845 0 0 0 0 93.19773355385405 450.92041914131153 0 450.92041914131153 220.14248325055007 0 0 0 0 558.26110199307732 352.50246512503111 0 352.50246512503111 228.56838710903401 0 0 0 0 365.2576535242697 294.17454579298999 0 294.17454579298999 248.47025788803165 0 0 0 0 435.61633617071129 277.88125352475976 0 277.88125352475976 252.22497204878098 0 0 0 0 416.44670953226159 250.52985256733311 0 250.52985256733311 233.13087582964772 0 0 0 0 482.2337769275764 233.92544274080242 0 233.92544274080242 100.48770904981941 0 0 0 0 454.88771997148433 151.41618084115709 0 151.41618084115709 415.48481010665404 0 0 0 0 555.58911024688859 173.52308286322062 0 173.52308286322062 216.66200678268709 0 0 0 0 434.22803851512799 79.862279287208167 0 79.862279287208167 200.86115482628543 0 0 0 0 509.99542572855717 -92.787069701057078 0 -92.787069701057078 412.15648319255524 0 0 0 0 419.77538975702191 152.04323494946644 0 152.04323494946644 602.46640243813818 0 0 0 0 556.90510510731838 148.71629066892328 0 148.71629066892328 237.69553274006137 0 0 0 0 365.46363211931748 -369.38920693711316 0 -369.38920693711316 518.57768446136697 0 0 0 0 95.161199816153385 85.78536207197638 0 85.78536207197638 141.96747843669155 0 0 0 0 -0.67480886646560378 -0.2305539440932165 0 -0.2305539440932165 4.9884826537613467 0 0 0 0 533.90247871008614 -206.56892562334869 0 -206.56892562334869 657.94593628241319 0 0 0 0 89.545884453356848 -13.894206379099543 0 -13.894206379099543 99.549406697731541 0 0 0 0 47.763076526563964 113.27732489467229 0 113.27732489467229 750.50775942803557 0 0 0 0 -42.161637197234086 -88.174563321811434 0 -88.174563321811434 763.9539352589502 0 0 0 0 233.04931733636477 -12.916439553426812 0 -12.916439553426812 493.10902929867916 0 0 0 0 193.81109667825513 4.1182696391266518 0 4.1182696391266518 806.64672512279139 0 0 0 0 302.87256389889808 90.547805118905558 0 90.547805118905558 257.19124509154994 0 0 0 0 70.297206837552949 30.154915600450295 0 30.154915600450295 121.54518508636306 0 0 0 0 94.558039979994646 -140.5029737180414 0 -140.5029737180414 483.72645272841004 0 0 0 0 -55.657467943514348 204.36565061225372 0 204.36565061225372 -139.41981267552455 0 0 0 0 43.199594251782401 -88.141338478734781 0 -88.141338478734781 371.54848749115354 0 0 0 0 -226.85234819264224 87.346110282818813 0 87.346110282818813 487.51174279621546 0 0 0 0 -185.13531969049654 -33.943466076712639 0 -33.943466076712639 595.94583241990676 0 0 0 0 -139.5816142475669 129.338042320059 0 129.338042320059 464.15220422827616 0 0 0 0 102.31847383168497 -124.21313770041866 0 -124.21313770041866 -47.320634461123547 0 0 0 0 -38.594329563820793 -32.313723309759666 0 -32.313723309759666 -80.432114770302292 0 0 0 0 2.2599735455276004 -2.0320781554151779 0 -2.0320781554151779 1.8778422986079284 0 0 0 0 -131.02527172346163 -21.132174788851103 0 -21.132174788851103 553.06587611786745 0 0 0 0 128.00959636480547 -126.81088682375071 0 -126.81088682375071 255.64862273736605 0 0 0 0 -70.571806125795774 -4.2322542441351629 0 -4.2322542441351629 546.35771728778036 0 0 0 0 1.9626565972409651 -1.2917603428828599 0 -1.2917603428828599 1.4304744608942137 0 0 0 0 -178.07516046689125 125.62151261331849 0 125.62151261331849 873.43129490540844 0 0 0 0 66.404963925608172 20.474739888383745 0 20.474739888383745 54.478638139464401 0 0 0 0 -39.845341853128048 105.93424074581287 0 105.93424074581287 651.85018474862432 0 0 0 0 12.487100255252244 15.084109264508356 0 15.084109264508356 21.763387663369883 0 0 0 0 48.2004142478836 55.653057668948236 0 55.653057668948236 60.255382594770943 0 0 0 0 14.350750622830674 29.337745422254329 0 29.337745422254329 12.704923803050406 0 0 0 0 5.6570128531930663 -3.9752156360129263 0 -3.9752156360129263 2.6710772433496115 0 0 0 0 7.2837983514291409 26.187700833201127 0 26.187700833201127 40.553740698188307 0 0 0 0 27.574822701266385 20.380381004533945 0 20.380381004533945 -18.686299479952254 0 0 0 0 26.803604548346271 5.8227481686387872 0 5.8227481686387872 0.98883046947458531 0 0 0 0 52.734121593632153 -18.573325734398622 0 -18.573325734398622 -108.13969130000694 0 0 0 0 28.022880265379825 5.7337757431075618 0 5.7337757431075618 0.62569326291592609 0 0 0 0 34.517243277066882 -1.0532232124102165 0 -1.0532232124102165 -21.827239023540074 0 0 0 0 68.184187406950514 34.610762849625672 0 34.610762849625672 -57.213498529534213 0 0 0 0 25.27525774622336 -20.339212368732092 0 -20.339212368732092 -36.335514275377278 0 0 0 0 0.10658028892066795 -20.482143151025099 0 -20.482143151025099 -20.412975937412455 0 0 0 0 26.552166659140028 6.7492728672263738 0 6.7492728672263738 1.7443731320872446 0 0 0 0 55.352233707046253 -26.376260798339274 0 -26.376260798339274 -37.326143369177601 0 0 0 0 8.8709600466099801 -44.601001302604061 0 -44.601001302604061 -17.432760109869264 0 0 0 0 103.28715497528901 -48.302632678295588 0 -48.302632678295588 -40.781433355097022 0 0 0 0 44.068009423470357 33.426961467935769 0 33.426961467935769 107.8801451155249 0 0 0 0 131.43758033362064 47.487079590418396 0 47.487079590418396 -3.2147597615509085 0 0 0 0 1625.9464763641008 69.122963514547337 0 69.122963514547337 1346.5054299815183 0 0 0 0 846.49864824695396 630.89405287308182 0 630.89405287308182 2013.8398804188382 0 0 0 0 782.58979001193075 361.15659773587004 0 361.15659773587004 910.58449135123783 0 0 0 0 107.43642534263199 20.757007246345665 0 20.757007246345665 1308.097433795167 0 0 0 0 335.4377314606827 545.84035955684249 0 545.84035955684249 1130.1620586369077 0 0 0 0 1182.7201552343649 571.53236732825349 0 571.53236732825349 417.9262209554272 0 0 0 0 1079.6067295676039 451.38128626303842 0 451.38128626303842 606.76223305219855 0 0 0 0 1186.3851037803106 262.69302260905556 0 262.69302260905556 108.32698327478829 0 0 0 0 787.53189843834116 513.14145321984461 0 513.14145321984461 413.71089723739988 0 0 0 0 807.16977788346412 340.98086182590214 0 340.98086182590214 150.05576909706815 0 0 0 0 712.48431545081257 159.84499261358542 0 159.84499261358542 86.527527961134183 0 0 0 0 533.286824477138 332.29339465174257 0 332.29339465174257 306.75201806178165 0 0 0 0 50.611563235011999 397.20783833412088 0 397.20783833412088 620.45648910583168 0 0 0 0 538.29824469768027 414.80657288027265 0 414.80657288027265 317.58903054983148 0 0 0 0 280.17884238073748 318.83693359812764 0 318.83693359812764 281.9073789880249 0 0 0 0 -50.875001776683348 128.41943633237315 0 128.41943633237315 404.99340380454305 0 0 0 0 290.54999051903906 313.67070948191127 0 313.67070948191127 513.06036172421136 0 0 0 0 -209.11738707203767 54.016856040629818 0 54.016856040629818 883.41872755172039 0 0 0 0 -118.30668901176614 90.002876849558561 0 90.002876849558561 20.800762051122092 0 0 0 0 -51.337906470886082 91.067666628453253 0 91.067666628453253 488.67895862750106 0 0 0 0 -380.94600054531475 -141.51909766912036 0 -141.51909766912036 430.05271320481313 0 0 0 0 15.132735145813058 3.7479907919898778 0 3.7479907919898778 56.646474866454355 0 0 0 0 -132.72540520593611 -4.8124598933378593 0 -4.8124598933378593 392.74516809118995 0 0 0 0 72.797052332396561 190.59030663870453 0 190.59030663870453 429.27188416379931 0 0 0 0 45.175925012736116 79.157435816093255 0 79.157435816093255 338.09386960362053 0 0 0 0 -81.220513239248248 -111.40588941201565 0 -111.40588941201565 524.98848124782762 0 0 0 0 96.474536625217297 -201.81715808180138 0 -201.81715808180138 286.93534095279347 0 0 0 0 5.0914120755478507 101.228437130619 0 101.228437130619 325.58093010631228 0 0 0 0 21.85488803227372 8.303632095348199 0 8.303632095348199 6.2343029276379411 0 0 0 0 21.045023022968962 1.5653537661123664 0 1.5653537661123664 12.522469088555454 0 0 0 0 19.043268567074847 1.4602149574031955 0 1.4602149574031955 26.689587797594868 0 0 0 0 10.436126291257072 -12.39043993733938 0 -12.39043993733938 -7.0705901044079162 0 0 0 0 45.34950208090595 -8.6073060792462002 0 -8.6073060792462002 -38.100296054208684 0 0 0 0 20.914340922186966 5.2597935480359865 0 5.2597935480359865 3.4067374700591699 0 0 0 0 31.815069171614596 0.72486288325507076 0 0.72486288325507076 -14.348143839258682 0 0 0 0 25.028153726152169 3.3418952458691038 0 3.3418952458691038 -0.67049381242902162 0 0 0 0 8.2211322503280826 -5.4739507340073033 0 -5.4739507340073033 10.507432260607516 0 0 0 0 25.576853591212242 -8.0582188017193914 0 -8.0582188017193914 -1.6781413367397424 0 0 0 0 17.996949890817632 7.2064253494187369 0 7.2064253494187369 10.71196958456801 0 0 0 0 22.877240434740088 -19.63997719387271 0 -19.63997719387271 17.71950040411366 0 0 0 0 14.266020446550101 -20.951012208223574 0 -20.951012208223574 38.831967914175493 0 0 0 0 9.1089820029909845 -5.0977735602163783 0 -5.0977735602163783 2.0812543484793031 0 0 0 0 3.8170380961912294 -2.9776572736032705 0 -2.9776572736032705 -2.3931664111528663 0 0 0 0 -645.45538024921007 -170.9889860224298 0 -170.9889860224298 128.20319506256374 0 0 0 0 -495.76420444325777 -371.54427820646492 0 -371.54427820646492 347.70425154146358 0 0 0 0 -110.94259237321967 -425.9405753556307 0 -425.9405753556307 480.80789582335365 0 0 0 0 142.18506754467671 -7.9001692606022971 0 -7.9001692606022971 306.860144803195 0 0 0 0 -94.463535250193672 -280.00978662940679 0 -280.00978662940679 24.411022320914071 0 0 0 0 -97.425656527535466 -319.19013850244573 0 -319.19013850244573 -87.781180615485027 0 0 0 0 66.824620492960094 -463.28784010380923 0 -463.28784010380923 -135.91598834300288 0 0 0 0 -50.307094044408586 -285.74071477603457 0 -285.74071477603457 -366.35497948389173 0 0 0 0 -283.35343765743892 -134.5446459009064 0 -134.5446459009064 -340.65512572473961 0 0 0 0 -102.73980319793918 -370.8475439651337 0 -370.8475439651337 -35.060868553049886 0 0 0 0 -41.291815417658654 -320.57121804412986 0 -320.57121804412986 -378.78001959096446 0 0 0 0 107.27088598033879 -20.710999364249801 0 -20.710999364249801 -281.86001944500674 0 0 0 0 -69.287812923357706 -23.792045910447882 0 -23.792045910447882 226.3666643051381 0 0 0 0 48.2858483557211 12.046804517633632 0 12.046804517633632 -33.500943084450682 0 0 0 0 87.874581454981808 -23.91059517438018 0 -23.91059517438018 -2.6905901911304682 0 0 0 0 2.6222012396200682 -3.0469039867437289 0 -3.0469039867437289 -0.71815967597222974 0 0 0 0 -163.30669879034394 -751.44444285496138 0 -751.44444285496138 43.190744924593218 0 0 0 0 7.5997449165879516 -359.32397371269576 0 -359.32397371269576 -350.46190697642567 0 0 0 0 -506.75692122908367 406.96690977096017 0 406.96690977096017 148.8630574084641 0 0 0 0 -64.524247347799246 -262.19749990528499 0 -262.19749990528499 -347.84076366289287 0 0 0 0 248.2159727285034 9.598298444502916 0 9.598298444502916 -977.29014939829585 0 0 0 0 37.679081408833312 18.493530961474832 0 18.493530961474832 7.8938088571175538 0 0 0 0 137.99596425518394 47.313892530014982 0 47.313892530014982 -51.087763667570925 0 0 0 0 632.60815058357548 562.19417848119292 0 562.19417848119292 -1339.3897779290141 0 0 0 0 142.81377858021733 61.43591709319503 0 61.43591709319503 -24.076159993125657 0 0 0 0 387.77553216366505 -704.54229127608687 0 -704.54229127608687 -413.50433186331111 0 0 0 0 583.43010264227632 276.44837871959317 0 276.44837871959317 291.85255695466776 0 0 0 0 190.00691356645257 -529.77471317184359 0 -529.77471317184359 -127.53255114112335 0 0 0 0 117.04994127141981 -369.44363320372514 0 -369.44363320372514 617.70580909222099 0 0 0 0 104.61017178058682 -299.2256529532666 0 -299.2256529532666 -391.31861669166778 0 0 0 0 581.12133781674493 -137.87779081058761 0 -137.87779081058761 467.0325944652277 0 0 0 0 517.60688769262561 -8.8637007247671136 0 -8.8637007247671136 1813.4010011335886 0 0 0 0 299.46530198300064 -40.817071056224535 0 -40.817071056224535 -18.952869375518503 0 0 0 0 100.72801833318954 -10.610590946782395 0 -10.610590946782395 12.772861389015361 0 0 0 0 76.792846117801673 -4.9819817577767935 0 -4.9819817577767935 85.771193963337964 0 0 0 0 240.69643856641778 -24.850931075402002 0 -24.850931075402002 -3.5450108631021067 0 0 0 0 -8.894144155568938 29.383287680840908 0 29.383287680840908 17.870462656514974 0 0 0 0 58.546633909230877 -49.590300267953353 0 -49.590300267953353 -17.754306227084498 0 0 0 0 85.55129904505884 -25.36289211953931 0 -25.36289211953931 22.910361359731723 0 0 0 0 56.818687269884322 31.360150057623571 0 31.360150057623571 -22.922704497646919 0 0 0 0 25.183906261181619 70.331327598764631 0 70.331327598764631 -27.738201263932751 0 0 0 0 44.408803924833322 16.207820590128627 0 16.207820590128627 4.2091610665837118 0 0 0 0 -6.8046060019914876 13.61151429338986 0 13.61151429338986 29.318434026148452 0 0 0 0 6.1061648059287359 1.0245642684454381 0 1.0245642684454381 -0.010008318502451985 0 0 0 0 36.144849768410495 2.2849019036498817 0 2.2849019036498817 -13.66331771976337 0 0 0 0 11.55398605320147 4.3309563861347016 0 4.3309563861347016 3.1379605259473897 0 0 0 0 22.394811057518382 -27.295054973375471 0 -27.295054973375471 28.22829296646961 0 0 0 0 29.572240561752551 -32.229789490835145 0 -32.229789490835145 -10.289377962500737 0 0 0 0 23.629521081993516 4.5424599812699924 0 4.5424599812699924 -10.119258548942412 0 0 0 0 25.005711758589769 -6.1055560010674661 0 -6.1055560010674661 7.3443261905820236 0 0 0 0 16.975949269308785 43.914351092487429 0 43.914351092487429 31.629677418136566 0 0 0 0 39.397071712843172 40.776797393592318 0 40.776797393592318 69.716913488731052 0 0 0 0 -0.75718168406892339 0.10222652761170536 0 0.10222652761170536 1.073633382803155 0 0 0 0 79.674485352286865 32.188136634047453 0 32.188136634047453 22.980891349282047 0 0 0 0 -58.110875543509565 24.628488649086965 0 24.628488649086965 18.563200083928763 0 0 0 0 107.54934641757791 23.314551451402735 0 23.314551451402735 -32.716915783930602 0 0 0 0 99.865962444524484 57.830134263793809 0 57.830134263793809 -34.169144131190137 0 0 0 0 99.925078500717063 56.693430484097348 0 56.693430484097348 -16.608240542988028 0 0 0 0 283.5190210145438 51.721959392166667 0 51.721959392166667 -55.432633048500008 0 0 0 0 107.46641190068476 27.284587660749708 0 27.284587660749708 -2.0852544331024205 0 0 0 0 244.73420336490381 147.21108019387793 0 147.21108019387793 157.55102196448524 0 0 0 0 28.741222528697108 -82.653182663147504 0 -82.653182663147504 314.69574158216881 0 0 0 0 71.963731192638079 133.84129248315833 0 133.84129248315833 -19.009198027264119 0 0 0 0 140.10370275245805 57.337774388725393 0 57.337774388725393 -222.01550832671046 0 0 0 0 49.609929301916964 -69.531117724816369 0 -69.531117724816369 -12.969541483456396 0 0 0 0 -1.1828153185269912 -51.092415978111546 0 -51.092415978111546 7.7699523492194658 0 0 0 0 89.783026716526365 7.9448399951664896 0 7.9448399951664896 -193.17298934246122 0 0 0 0 6.4563984493142925 -45.825517515541875 0 -45.825517515541875 71.174877497409852 0 0 0 0 5.960679364622635 4.1233138707787091 0 4.1233138707787091 2.6478142381656018 0 0 0 0 36.197377296899504 -9.0760934804574447 0 -9.0760934804574447 30.382306718554723 0 0 0 0 106.56142416707371 -72.982045495174674 0 -72.982045495174674 82.997437571814544 0 0 0 0 1.8606143283479923 1.669224242025777 0 1.669224242025777 1.5104721312800782 0 0 0 0 46.657682383000065 176.43665073206208 0 176.43665073206208 359.30581383423453 0 0 0 0 0.10288972390117124 66.118288439104958 0 66.118288439104958 143.89170110067221 0 0 0 0 52.288474678589409 38.222150905555168 0 38.222150905555168 29.916147345053389 0 0 0 0 114.8705347558971 183.84693759717709 0 183.84693759717709 120.47872328442332 0 0 0 0 223.63513995203539 5.2514336324884425 0 5.2514336324884425 79.787166246691299 0 0 0 0 265.59358953251649 209.79492331057935 0 209.79492331057935 95.16069899527497 0 0 0 0 246.97127642847045 324.70266922676154 0 324.70266922676154 397.93395059751754 0 0 0 0 148.16027789628788 207.26114691094682 0 207.26114691094682 289.9658470446758 0 0 0 0 0.022237146178273548 0.72770238675069265 0 0.72770238675069265 6.2862831692902121 0 0 0 0 74.088299566707519 63.612386357175033 0 63.612386357175033 61.342573157282231 0 0 0 0 0.38417186306367235 0.18172260531038376 0 0.18172260531038376 2.0473492648430085 0 0 0 0 -58.160842386620061 48.080192282988492 0 48.080192282988492 5.4563976008934105 0 0 0 0 106.87452962490352 30.260721115432375 0 30.260721115432375 -2.0137468506487721 0 0 0 0 126.99944135811847 138.05868089564535 0 138.05868089564535 21.728622339175672 0 0 0 0 134.36320263709786 122.96234814759941 0 122.96234814759941 37.899222463742717 0 0 0 0 95.289171801770863 145.26580217497519 0 145.26580217497519 51.148855195447368 0 0 0 0 93.99676003915738 117.29735186180812 0 117.29735186180812 56.580467665859715 0 0 0 0 70.795866833024775 81.398926298179504 0 81.398926298179504 -12.243931498996062 0 0 0 0 112.81134588171699 119.02117962359762 0 119.02117962359762 -29.891410893616921 0 0 0 0 30.474260126175068 93.528131429372479 0 93.528131429372479 -32.004226026437237 0 0 0 0 130.62024659662166 127.93827219400896 0 127.93827219400896 -123.07745272140937 0 0 0 0 88.516300946252159 80.472615821096497 0 80.472615821096497 -136.69881002691272 0 0 0 0 106.56966480489064 120.36360560627145 0 120.36360560627145 -48.937086608351365 0 0 0 0 328.85346025592298 63.920665581984395 0 63.920665581984395 -264.96102241903554 0 0 0 0 60.314617004931279 102.34663597602287 0 102.34663597602287 -53.446904270968844 0 0 0 0 51.997564765330026 75.281561318929448 0 75.281561318929448 54.43108028212896 0 0 0 0 -143.97492485164184 22.221238911719638 0 22.221238911719638 42.239676936702949 0 0 0 0 57.524676233326772 103.42885972829687 0 103.42885972829687 39.259335402019133 0 0 0 0 121.10033905097589 114.13880003864369 0 114.13880003864369 78.278195644536254 0 0 0 0 0.16481853573245431 -0.50535323964791701 0 -0.50535323964791701 0.68612769034907917 0 0 0 0 278.47793357446699 142.261496239689 0 142.261496239689 11.263572228329394 0 0 0 0 134.56418744065741 89.746448010542508 0 89.746448010542508 41.736479249036165 0 0 0 0 133.58667108719237 117.5349351839975 0 117.5349351839975 -47.889222714622065 0 0 0 0 143.82203535926965 94.339467620447522 0 94.339467620447522 -37.949125329981939 0 0 0 0 155.90475906267602 84.631088215504406 0 84.631088215504406 -110.51580143222054 0 0 0 0 144.95154892654318 59.241997156568232 0 59.241997156568232 -34.290937214875612 0 0 0 0 118.2680895465237 82.380066312224812 0 82.380066312224812 -32.22069929422878 0 0 0 0 75.910356097701879 90.345002023215329 0 90.345002023215329 40.881422775146291 0 0 0 0 107.82282382196718 7.8195513649286568 0 7.8195513649286568 -84.070837415660208 0 0 0 0 25.677744654429262 26.887434066206424 0 26.887434066206424 49.103072562421858 0 0 0 0 57.109071940631111 8.5820642787261932 0 8.5820642787261932 -34.274196780924285 0 0 0 0 86.845756314814935 69.207758569325506 0 69.207758569325506 48.399689959848047 0 0 0 0 65.019762760981394 83.914012151755514 0 83.914012151755514 48.36975786483481 0 0 0 0 40.367343213787535 7.2475331862897292 0 7.2475331862897292 3.8704606728942963 0 0 0 0 8.3572619896563509 3.7081912695950194 0 3.7081912695950194 -1.8701602964782182 0 0 0 0 7.7594218227895908 7.7397418299351557 0 7.7397418299351557 -25.803397094681259 0 0 0 0 36.654886463321873 -14.157696987829382 0 -14.157696987829382 -63.494260111206131 0 0 0 0 -0.47273470537766116 -91.864047862556163 0 -91.864047862556163 -109.04291129650619 0 0 0 0 0.77151751553250847 -0.23749932481771197 0 -0.23749932481771197 -1.1382322262860409 0 0 0 0 224.23411779355229 30.678078501321124 0 30.678078501321124 -15.754351556815891 0 0 0 0 3.2015845608311793 -52.480693257789198 0 -52.480693257789198 -46.569283822284888 0 0 0 0 288.16338494442607 -151.06196125936731 0 -151.06196125936731 -36.009039912268236 0 0 0 0 283.68237718469754 -46.464771336854938 0 -46.464771336854938 -179.16047718777463 0 0 0 0 222.26759173220307 14.426999764894674 0 14.426999764894674 -145.05832031911177 0 0 0 0 275.93006510699342 -11.932830715425553 0 -11.932830715425553 -135.03060164993803 0 0 0 0 331.03343441911238 206.26514590834449 0 206.26514590834449 94.843636939671342 0 0 0 0 316.72511575885437 -847.65416553630166 0 -847.65416553630166 -39.716735615238576 0 0 0 0 12.017361727954153 -2.5669043398792635 0 -2.5669043398792635 1.2767172579459189 0 0 0 0 3.0734886160389578 -312.09030745374457 0 -312.09030745374457 818.18055499894308 0 0 0 0 130.25042599942094 852.78053285104079 0 852.78053285104079 439.0439980008332 0 0 0 0 46.143025270720642 21.320179128781231 0 21.320179128781231 3.1301903377345894 0 0 0 0 280.39507025207786 -344.94769871387962 0 -344.94769871387962 13.274068679669654 0 0 0 0 711.0513982884695 -90.766358144180231 0 -90.766358144180231 -184.94946160052677 0 0 0 0 -147.60417933131976 -202.46099753080034 0 -202.46099753080034 33.803126742982386 0 0 0 0 -97.233146964298157 15.461532729062583 0 15.461532729062583 142.87839555699702 0 0 0 0 12.261537681024492 275.04279362821308 0 275.04279362821308 -152.72770066013072 0 0 0 0 39.783671742141038 14.006858538420623 0 14.006858538420623 0.91401865444792207 0 0 0 0 -144.79331608545181 53.496287971964193 0 53.496287971964193 5.1655438496556485 0 0 0 0 191.09323986335221 93.006355534095746 0 93.006355534095746 -199.44598699599737 0 0 0 0 138.68869680078933 -12.584351675187008 0 -12.584351675187008 -252.07191643853344 0 0 0 0 121.49511807394083 -0.94892943532272511 0 -0.94892943532272511 -259.87309676367204 0 0 0 0 176.75847208518826 27.547300103516591 0 27.547300103516591 -246.92347914977199 0 0 0 0 142.57071508268245 68.92382251156323 0 68.92382251156323 -306.9860987970219 0 0 0 0 7.0766551712877117 7.7705210527965392 0 7.7705210527965392 -169.14826620039048 0 0 0 0 -15.496985988058441 153.03274269924941 0 153.03274269924941 -124.77726334161707 0 0 0 0 247.46194457019965 114.93974801374407 0 114.93974801374407 -267.39594666211087 0 0 0 0 59.127395423834969 -26.374330447214106 0 -26.374330447214106 -86.1693735789122 0 0 0 0 5.9755508965001951 -3.2476980962473192 0 -3.2476980962473192 -2.0195676214508218 0 0 0 0 -40.948457654401864 139.97707651318342 0 139.97707651318342 -248.01719244116248 0 0 0 0 45.513760126794296 -23.147280336098447 0 -23.147280336098447 -17.053999380996174 0 0 0 0 35.828620440460057 -4.3702424259392814 0 -4.3702424259392814 -2.3678797418790269 0 0 0 0 67.148285175891942 -120.03322565473263 0 -120.03322565473263 74.142856954020317 0 0 0 0 147.62474126159213 -78.975379678374338 0 -78.975379678374338 41.809402156374176 0 0 0 0 53.322429279793141 -5.5998916025841936 0 -5.5998916025841936 -0.47740758906820702 0 0 0 0 34.514027067805728 3.5299817482050457 0 3.5299817482050457 -9.352026123466203 0 0 0 0 19.915865851850427 5.1684541811467 0 5.1684541811467 -11.275975518025511 0 0 0 0 50.804505915992195 36.83855965708517 0 36.83855965708517 -133.62811475734725 0 0 0 0 29.189997637946163 1.8129048933968051 0 1.8129048933968051 -2.427757305106943 0 0 0 0 34.88753768170136 -6.5848385616482119 0 -6.5848385616482119 -21.171742717173061 0 0 0 0 46.864133629045682 3.7828380434812061 0 3.7828380434812061 -240.51882054097837 0 0 0 0 26.719077997502609 -1.7171606284989593 0 -1.7171606284989593 -0.96691224477763171 0 0 0 0 55.897717269202985 10.245444535464685 0 10.245444535464685 12.175430662283134 0 0 0 0 25.367313665713837 -4.8573534749544827 0 -4.8573534749544827 -6.4845736943926511 0 0 0 0 52.638385792066401 5.5198502146017745 0 5.5198502146017745 12.278989327808176 0 0 0 0 3.4884197235255403 4.7360272991311092 0 4.7360272991311092 17.91489777821139 0 0 0 0 55.9988118329602 2.6794740497912244 0 2.6794740497912244 13.941914722005095 0 0 0 0 21.805011059361277 -7.1793355565164347 0 -7.1793355565164347 -1.667823461333569 0 0 0 0 22.106345589288608 -7.5205504028358021 0 -7.5205504028358021 2.2851765056246336 0 0 0 0 29.303073996166432 -4.8658896788590216 0 -4.8658896788590216 -0.81531299245287148 0 0 0 0 26.895200693476227 -11.353745376740633 0 -11.353745376740633 -0.62832711841124933 0 0 0 0 33.640001468724222 2.1501204640774176 0 2.1501204640774176 -15.70618131514766 0 0 0 0 66.445895966091484 -37.845139848721828 0 -37.845139848721828 -160.17586725698948 0 0 0 0 32.476754299040664 -4.2331437204181634 0 -4.2331437204181634 -1.2787502100932491 0 0 0 0 911.71357809767869 145.26361054911985 0 145.26361054911985 -120.10372633961379 0 0 0 0 450.83970333983598 -312.53491570660117 0 -312.53491570660117 -104.91584298247653 0 0 0 0 -234.72028085469356 -8.319716994124974 0 -8.319716994124974 133.8602514906388 0 0 0 0 932.42648401333645 61.597254181813923 0 61.597254181813923 -274.03424294643082 0 0 0 0 476.4233903904169 178.15574828166109 0 178.15574828166109 14.84832010491391 0 0 0 0 475.14269244411116 -165.12652130255447 0 -165.12652130255447 15.814838987579492 0 0 0 0 3.5278646384963679 1.819426657830383 0 1.819426657830383 2.2687958637533789 0 0 0 0 729.23862079509126 126.26739453668006 0 126.26739453668006 50.685453567953118 0 0 0 0 689.48825968994424 207.5325008192558 0 207.5325008192558 -73.234579033790851 0 0 0 0 773.43658060528287 232.44752879581392 0 232.44752879581392 -65.84480237025582 0 0 0 0 4.2366038909749477 48.879223668632221 0 48.879223668632221 14.887623966314095 0 0 0 0 386.2027895703676 -99.223344215057821 0 -99.223344215057821 55.348646750921944 0 0 0 0 -249.35647820227314 -307.4588780148697 0 -307.4588780148697 -292.45623901574436 0 0 0 0 31.359751735219461 -18.171122846675246 0 -18.171122846675246 -1.2108835221813194 0 0 0 0 369.54288842602773 236.32419704714326 0 236.32419704714326 52.305830054715898 0 0 0 0 81.198925419463194 -118.4027116038751 0 -118.4027116038751 -295.87852169193229 0 0 0 0 130.51942665326806 -70.434575828324398 0 -70.434575828324398 -252.7565820191594 0 0 0 0 31.868171488909866 -90.860099948251445 0 -90.860099948251445 -215.64959668498341 0 0 0 0 19.296652164801344 -117.91002718075924 0 -117.91002718075924 -230.51496487449367 0 0 0 0 6.5945570044423221 -112.69364805619352 0 -112.69364805619352 -149.93665367361064 0 0 0 0 -213.26132954243803 -313.79478830719381 0 -313.79478830719381 -197.7383929851303 0 0 0 0 6.6231761429254421 -0.40863424779692537 0 -0.40863424779692537 -0.086567872706506677 0 0 0 0 65.78175307555648 -123.86554632414391 0 -123.86554632414391 -230.27853476203845 0 0 0 0 60.224751971683872 -158.45143655089214 0 -158.45143655089214 -300.95312863371169 0 0 0 0 103.81428765092278 -200.15727794270379 0 -200.15727794270379 -440.50229601471824 0 0 0 0 -151.34615913551534 -321.55453179749111 0 -321.55453179749111 -361.09202707257555 0 0 0 0 239.32308451906283 -81.021598305001135 0 -81.021598305001135 -322.90764447238098 0 0 0 0 49.968066884270229 -133.59499817978963 0 -133.59499817978963 -273.76168940671141 0 0 0 0 353.83501867390078 25.751492624332627 0 25.751492624332627 -332.98162616351965 0 0 0 0 229.834773221879 80.165745137396584 0 80.165745137396584 16.676368182761053 0 0 0 0 593.24850245279913 228.52406411700724 0 228.52406411700724 -184.15099737918081 0 0 0 0 163.25748438338996 -192.0557859019284 0 -192.0557859019284 -391.07265651582338 0 0 0 0 -69.519782155162829 -121.00881774257118 0 -121.00881774257118 -340.57157364805971 0 0 0 0 749.71695507270124 357.90244890336544 0 357.90244890336544 86.34700704318675 0 0 0 0 24.136760867655255 -13.015982309200218 0 -13.015982309200218 -2.4675373381773715 0 0 0 0 -277.94365551396459 -654.34744401753892 0 -654.34744401753892 -688.98506551963214 0 0 0 0 -84.178636634831491 -174.91025450752124 0 -174.91025450752124 -570.71497282688483 0 0 0 0 353.82967857443873 186.50887296151836 0 186.50887296151836 -241.51266484676694 0 0 0 0 280.81606603369619 -377.0360170218529 0 -377.0360170218529 -486.58587438921859 0 0 0 0 14.227344635564805 55.946189788633319 0 55.946189788633319 22.690246958235775 0 0 0 0 725.00401399739349 -564.39251584738531 0 -564.39251584738531 489.52297189647015 0 0 0 0 731.66465053007414 311.50690661879315 0 311.50690661879315 39.334030111224365 0 0 0 0 44.361799827189316 237.84050027932796 0 237.84050027932796 103.61344054778601 0 0 0 0 389.09124674638224 225.83678990362432 0 225.83678990362432 35.053056762090364 0 0 0 0 430.65366042299866 77.930729048483499 0 77.930729048483499 -128.38933274609212 0 0 0 0 29.709337156067292 19.809308814023787 0 19.809308814023787 11.935755190823608 0 0 0 0 560.76393732770521 651.72590235372729 0 651.72590235372729 -311.84163898903375 0 0 0 0 40.640338531622547 -75.43598043062957 0 -75.43598043062957 226.90875365533793 0 0 0 0 -13.598233701122808 -108.13493985799414 0 -108.13493985799414 298.7388651503943 0 0 0 0 -15.567667855983018 -119.82197390053352 0 -119.82197390053352 229.9280071704743 0 0 0 0 10.160382342044613 -96.243191443667456 0 -96.243191443667456 249.21673740378901 0 0 0 0 8.2698813010647427 -110.65224593594212 0 -110.65224593594212 219.41882428193958 0 0 0 0 -3.5368261092648936 -34.981166923066667 0 -34.981166923066667 308.56149705241842 0 0 0 0 104.58665134978946 -27.800610764850717 0 -27.800610764850717 253.48714405411738 0 0 0 0 -6.0883638397353934 -78.188556317591065 0 -78.188556317591065 234.66085788965756 0 0 0 0 -127.7918738538865 39.479404063755283 0 39.479404063755283 308.1016948809725 0 0 0 0 57.83962283359142 -4.2986214428874518 0 -4.2986214428874518 283.89244674079873 0 0 0 0 29.082346259034239 -187.49919288325964 0 -187.49919288325964 290.21695229239594 0 0 0 0 -79.738955317196087 -119.87146123507046 0 -119.87146123507046 489.20063240784839 0 0 0 0 -77.572380719007924 -80.073975578777208 0 -80.073975578777208 286.73188496311195 0 0 0 0 109.6122602129617 -207.83854370016184 0 -207.83854370016184 69.598966814509367 0 0 0 0 -14.262169248183909 -181.9645134220018 0 -181.9645134220018 221.73929843749283 0 0 0 0 -14.081258291771519 -155.08656146855628 0 -155.08656146855628 276.28070141011449 0 0 0 0 21.778489520569565 -131.07877415038092 0 -131.07877415038092 146.64896465058746 0 0 0 0 17.95191072315356 -134.64882375643151 0 -134.64882375643151 203.92963090298872 0 0 0 0 57.9860408846871 -116.33665493899116 0 -116.33665493899116 185.20106455970017 0 0 0 0 19.994975554087432 -111.0919041029083 0 -111.0919041029083 219.15612959566943 0 0 0 0 14.743736040327349 -123.31493215610317 0 -123.31493215610317 205.97390403274039 0 0 0 0 61.53364380995481 -114.14901916799818 0 -114.14901916799818 141.83247564071917 0 0 0 0 33.809102797509695 -140.33273724623905 0 -140.33273724623905 171.37577248110574 0 0 0 0 69.736317990071257 -143.31786151957067 0 -143.31786151957067 152.60974141762517 0 0 0 0 117.76231152673427 -127.47907914179268 0 -127.47907914179268 152.18126986087645 0 0 0 0 80.109026734957297 -88.108536286774779 0 -88.108536286774779 197.77777214243361 0 0 0 0 22.878058437981366 10.278489111759356 0 10.278489111759356 4.8519208279888675 0 0 0 0 120.74396051322401 -129.30054756472691 0 -129.30054756472691 125.01481047802599 0 0 0 0 400.0003470776428 -660.90599667582046 0 -660.90599667582046 -761.21275924503402 0 0 0 0 232.13049495453015 -392.97335607308833 0 -392.97335607308833 -190.75100361388468 0 0 0 0 35.403504569592769 -94.679326947133632 0 -94.679326947133632 216.72228085468669 0 0 0 0 -837.47561668507842 -189.22699321543473 0 -189.22699321543473 612.52557071708225 0 0 0 0 1363.2011647792388 151.35231735643174 0 151.35231735643174 -134.87661307217604 0 0 0 0 637.01021773047978 513.88694295101095 0 513.88694295101095 25.968170730332986 0 0 0 0 1736.3067182751729 628.94182598540715 0 628.94182598540715 -249.18641905758477 0 0 0 0 861.52567893660307 464.4752240421501 0 464.4752240421501 213.52697142732586 0 0 0 0 806.5214847291445 155.53396624582001 0 155.53396624582001 -212.2771107699582 0 0 0 0 -868.14104046143621 -1088.6080050608887 0 -1088.6080050608887 -565.33053090463272 0 0 0 0 8.9647199909908295 -4.6421563024886652 0 -4.6421563024886652 -0.86513786118814462 0 0 0 0 1525.6449728759235 1115.798216334498 0 1115.798216334498 180.17385663795721 0 0 0 0 864.26780884068285 578.18719972396593 0 578.18719972396593 598.84644277172265 0 0 0 0 742.45988636254333 203.41211346941782 0 203.41211346941782 80.633266448945051 0 0 0 0 588.61614636594823 270.29046904900406 0 270.29046904900406 58.146235518795038 0 0 0 0 879.10822482925141 201.40712014980204 0 201.40712014980204 -173.74920359022371 0 0 0 0 113.77111820329901 392.8808769416861 0 392.8808769416861 -145.23244335367099 0 0 0 0 286.23907166157733 -56.086236349453884 0 -56.086236349453884 -131.79118867504349 0 0 0 0 532.17331195688166 317.38598870249984 0 317.38598870249984 -138.87877995149137 0 0 0 0 534.72922405753525 277.70144917114601 0 277.70144917114601 -500.76971067289946 0 0 0 0 170.44025999365476 -57.077131730063115 0 -57.077131730063115 -342.67506643154138 0 0 0 0 9.2116340464241375 3.2809721998577714 0 3.2809721998577714 -5.1662169203458639 0 0 0 0 17.852957455203224 22.165437668831657 0 22.165437668831657 20.50297210041612 0 0 0 0 140.27732819593803 29.643945448498016 0 29.643945448498016 34.264311550978164 0 0 0 0 -745.42628763576795 322.93682933621983 0 322.93682933621983 23.653383732184693 0 0 0 0 194.71270345377707 231.28314221767687 0 231.28314221767687 -32.599808582927835 0 0 0 0 -113.49578027328243 79.293573309389103 0 79.293573309389103 415.28112924950074 0 0 0 0 603.52897747573388 233.82149124371119 0 233.82149124371119 -131.04077796758793 0 0 0 0 -48.182123302278342 127.18878588106145 0 127.18878588106145 -39.774576656443969 0 0 0 0 -9.6715675266992776 3.7854577312190401 0 3.7854577312190401 8.8885734210573624 0 0 0 0 -563.1994760670932 172.00123719059229 0 172.00123719059229 -49.815843719489635 0 0 0 0 -487.20352010577335 338.3259329291177 0 338.3259329291177 -194.61571783701629 0 0 0 0 -645.81231580831081 380.53645411378238 0 380.53645411378238 -86.832112699830759 0 0 0 0 546.70552120851062 152.82933763613141 0 152.82933763613141 -51.935727372951078 0 0 0 0 -289.4413175626396 142.73059678311665 0 142.73059678311665 -149.08397435163806 0 0 0 0 -0.35538902380250192 0.62630515451621704 0 0.62630515451621704 2.4523711681013776 0 0 0 0 190.89165127213346 -40.590773703912419 0 -40.590773703912419 -104.07366603704361 0 0 0 0 -608.93137571082752 156.71420262922595 0 156.71420262922595 -104.46111492617001 0 0 0 0 721.23014408023664 279.2004836090498 0 279.2004836090498 -42.285827579079069 0 0 0 0 579.05865972617903 105.49164149178023 0 105.49164149178023 -19.627757607600643 0 0 0 0 507.72399541726918 179.06558016653253 0 179.06558016653253 -27.279808564964242 0 0 0 0 690.02993985975263 210.47366537826656 0 210.47366537826656 -95.598246818518419 0 0 0 0 743.24663123170103 199.85211025907029 0 199.85211025907029 -61.274256754451926 0 0 0 0 471.25252615076533 227.94421397619044 0 227.94421397619044 -33.345698373557752 0 0 0 0 428.21254983950894 112.59392546247886 0 112.59392546247886 -99.107305986670326 0 0 0 0 557.23409273020116 304.59571132273163 0 304.59571132273163 61.727942440123115 0 0 0 0 306.97254072708893 176.57918841769515 0 176.57918841769515 173.72520604590181 0 0 0 0 -518.52247814097791 177.55896795873559 0 177.55896795873559 -108.47248805679737 0 0 0 0 0.70527914917653334 2.8936022675075748 0 2.8936022675075748 5.0462870331720318 0 0 0 0 -42.473977286397712 265.86113063193534 0 265.86113063193534 -64.628128022660349 0 0 0 0 115.22999224453451 108.51060318057216 0 108.51060318057216 191.85670960761672 0 0 0 0 201.52973662242584 18.120188995008903 0 18.120188995008903 71.302602382411351 0 0 0 0 -316.22742556594312 27.463187711984574 0 27.463187711984574 240.84707803018318 0 0 0 0 -362.24016181704428 155.72575043632696 0 155.72575043632696 263.73813265599165 0 0 0 0 4.6499413977362565 -84.02032587863323 0 -84.02032587863323 -142.60277012170695 0 0 0 0 -67.893624296440976 -20.062389258464464 0 -20.062389258464464 248.85260682192347 0 0 0 0 -98.380772743970738 216.26088795141368 0 216.26088795141368 248.57689980297437 0 0 0 0 -78.438120631006313 163.67715835849231 0 163.67715835849231 608.73384319775869 0 0 0 0 499.87661835092877 357.67611424147253 0 357.67611424147253 390.69787894365072 0 0 0 0 37.700162464629102 117.93956608632652 0 117.93956608632652 397.72767151846347 0 0 0 0 -6.3735616270787432 6.0638737716381002 0 6.0638737716381002 334.39372844134778 0 0 0 0 33.793586947482254 0.92113896940099949 0 0.92113896940099949 248.51992949061423 0 0 0 0 72.943168040786986 37.660765125933722 0 37.660765125933722 282.92192513168993 0 0 0 0 24.84787548067834 -8.6856754816435569 0 -8.6856754816435569 188.28671905609008 0 0 0 0 44.314220660133287 94.76952874971721 0 94.76952874971721 345.96408489838359 0 0 0 0 41.742011331416506 77.826495239198039 0 77.826495239198039 243.71690458786543 0 0 0 0 127.62089049733913 110.04951557856657 0 110.04951557856657 145.96989273340932 0 0 0 0 151.66086020909643 180.83443563224455 0 180.83443563224455 302.51456796572893 0 0 0 0 126.32786917134217 101.90620339267753 0 101.90620339267753 144.7751329333114 0 0 0 0 798.39165493662313 848.43871101488526 0 848.43871101488526 550.90704428163735 0 0 0 0 451.78147489897674 260.98099057471245 0 260.98099057471245 216.1850765840536 0 0 0 0 27.013420036477328 176.38521175067763 0 176.38521175067763 472.41889686370087 0 0 0 0 54.646739403589891 -101.46473282778061 0 -101.46473282778061 219.00505380728009 0 0 0 0 113.24374781093502 81.211790307435876 0 81.211790307435876 -59.785508443743311 0 0 0 0 11.017246368261794 7.7325424221790868 0 7.7325424221790868 6.3174034846992839 0 0 0 0 -78.930291269535701 367.78652815249029 0 367.78652815249029 852.95342174518737 0 0 0 0 285.82175308306432 240.6819579470905 0 240.6819579470905 -22.847793094641929 0 0 0 0 640.00848672633583 -51.009111598635172 0 -51.009111598635172 -173.00069608459125 0 0 0 0 -48.753877149290929 193.0567167988138 0 193.0567167988138 -51.301634712099258 0 0 0 0 25.487867392527917 21.911595697218459 0 21.911595697218459 17.213907413987169 0 0 0 0 -147.67104876331541 105.98564484997166 0 105.98564484997166 356.91565733968764 0 0 0 0 504.77368736395147 170.26633626000512 0 170.26633626000512 -28.418769232687509 0 0 0 0 240.6936662050357 29.323036232815866 0 29.323036232815866 -61.443666218001454 0 0 0 0 164.75584597181296 81.069325959889284 0 81.069325959889284 -91.762797326262444 0 0 0 0 136.94760285882148 97.680334539266369 0 97.680334539266369 -8.3086160758030019 0 0 0 0 83.442396469363302 17.720141164903907 0 17.720141164903907 -68.533913671538357 0 0 0 0 -42.033804863520345 -29.877066055160412 0 -29.877066055160412 34.550925064856983 0 0 0 0 50.404555541957158 23.557482207089038 0 23.557482207089038 21.677206261939819 0 0 0 0 112.7864190207838 99.859312144808428 0 99.859312144808428 -115.5317698153367 0 0 0 0 74.557564237602492 -84.323018565977691 0 -84.323018565977691 -21.203138032767129 0 0 0 0 159.23672010866721 -3.1499000188443915 0 -3.1499000188443915 -183.88977627231361 0 0 0 0 101.23010662392824 -10.63044354389524 0 -10.63044354389524 -2.4875366098162708 0 0 0 0 24.366881250528284 -4.4632542590058009 0 -4.4632542590058009 -1.0733375718642151 0 0 0 0 78.063472707587607 -7.6682119641263853 0 -7.6682119641263853 -147.7084885629356 0 0 0 0 152.95625727311472 -84.756361568747934 0 -84.756361568747934 -115.70025440521204 0 0 0 0 69.407568958162301 -86.889532959848566 0 -86.889532959848566 -47.061826858072891 0 0 0 0 91.771118768800079 -92.268743228115454 0 -92.268743228115454 -83.503698286578356 0 0 0 0 80.899421339149399 -29.605701443297619 0 -29.605701443297619 -20.479477516057159 0 0 0 0 50.960951764690343 -15.870032322092701 0 -15.870032322092701 12.009758662547103 0 0 0 0 45.535208972941405 -19.628951710950201 0 -19.628951710950201 7.2334891818441207 0 0 0 0 305.78267970662273 -340.30595514863398 0 -340.30595514863398 -234.81431255244615 0 0 0 0 -45.898161658111349 60.138914583530095 0 60.138914583530095 49.448979528273412 0 0 0 0 -13.365124910467785 -2.1901594934165587 0 -2.1901594934165587 19.489295449444398 0 0 0 0 43.540187205065195 -71.989380299113691 0 -71.989380299113691 51.147741537613911 0 0 0 0 -91.605015595130681 -78.486338444698049 0 -78.486338444698049 55.048010905306 0 0 0 0 -48.475393887950304 -74.498027998891303 0 -74.498027998891303 -96.003236828072659 0 0 0 0 -82.122059325837654 -52.123173467949982 0 -52.123173467949982 30.872966504471606 0 0 0 0 -35.243472074458623 -7.6774549808055781 0 -7.6774549808055781 92.094864583128583 0 0 0 0 -45.71109969430745 7.7925524601946563 0 7.7925524601946563 134.15018973908445 0 0 0 0 -126.19551334982134 -110.18830210430133 0 -110.18830210430133 96.139285348555859 0 0 0 0 -173.16473319663055 -161.42166990485839 0 -161.42166990485839 115.95171935685187 0 0 0 0 -101.61167078570361 -287.107693567772 0 -287.107693567772 -211.15773320681728 0 0 0 0 10.591712060620793 -5.0587067326710056 0 -5.0587067326710056 1.6914078515661384 0 0 0 0 278.40461655327545 103.88456714576205 0 103.88456714576205 -103.80593149534798 0 0 0 0 3.942269334963985 -2.2677216219097449 0 -2.2677216219097449 1.1389527936530612 0 0 0 0 416.74890482478031 -14.38743103382285 0 -14.38743103382285 -133.3764608467136 0 0 0 0 366.1619451703109 -213.68187722961557 0 -213.68187722961557 -59.832018151398415 0 0 0 0 -30.040257069079644 -193.82498563466731 0 -193.82498563466731 147.08694791518519 0 0 0 0 380.38512654521037 699.85735731705336 0 699.85735731705336 465.83392635463679 0 0 0 0 798.40204167768934 1523.6994644980041 0 1523.6994644980041 1919.2214740233721 0 0 0 0 366.41160810497331 518.78799746275195 0 518.78799746275195 326.30945707768842 0 0 0 0 56.765403519718348 282.25738049929259 0 282.25738049929259 159.69457675211015 0 0 0 0 304.68714863773766 311.20896529755328 0 311.20896529755328 96.99604913525036 0 0 0 0 243.25164008370393 236.504540575193 0 236.504540575193 31.57844494721121 0 0 0 0 1027.9767142105411 381.53596860230846 0 381.53596860230846 -86.744437611008834 0 0 0 0 923.7398246869343 -37.655876131809237 0 -37.655876131809237 -102.0320500394032 0 0 0 0 191.51837509455436 -146.22607934105372 0 -146.22607934105372 -16.538129787927346 0 0 0 0 434.2521192803415 373.00813162734266 0 373.00813162734266 -54.108793473788182 0 0 0 0 100.11657998555893 -154.09218518481339 0 -154.09218518481339 243.23287615978916 0 0 0 0 121.6039486990876 -88.284079000932707 0 -88.284079000932707 350.48245105192109 0 0 0 0 879.07510996915335 -271.90151496553881 0 -271.90151496553881 232.42728353940583 0 0 0 0 648.19516599385497 189.71282508133754 0 189.71282508133754 105.38028298030258 0 0 0 0 2615.2004148582309 417.02424613548465 0 417.02424613548465 51.421433427637339 0 0 0 0 872.72559165157872 -576.39440903985815 0 -576.39440903985815 -309.83624145237422 0 0 0 0 24.907268650597324 -6.2435409536287434 0 -6.2435409536287434 1.9541059475119713 0 0 0 0 27.755720117214842 -1.508445896847511 0 -1.508445896847511 -0.57450702807034215 0 0 0 0 1967.2695817243748 1527.3699709033363 0 1527.3699709033363 468.05937238822571 0 0 0 0 2051.3712509468605 2086.6995205038666 0 2086.6995205038666 -526.31748355798845 0 0 0 0 260.30249571482636 -170.69374546718154 0 -170.69374546718154 279.33038833747878 0 0 0 0 -35.905133287822537 109.97686778324714 0 109.97686778324714 218.43301403421935 0 0 0 0 -536.80408837870345 62.331201767754465 0 62.331201767754465 3573.3693416343158 0 0 0 0 1136.7517389156637 -45.033043408171579 0 -45.033043408171579 -141.21836433731005 0 0 0 0 1349.6352589883172 24.730854206233744 0 24.730854206233744 -164.38648876484876 0 0 0 0 1070.6388261975517 55.510184210881562 0 55.510184210881562 -18.764649870998255 0 0 0 0 1409.2959197715572 296.44424149146471 0 296.44424149146471 -182.29744639193814 0 0 0 0 1202.6420270559356 420.65628101776019 0 420.65628101776019 141.00359192330325 0 0 0 0 697.16201536437347 202.61527782316125 0 202.61527782316125 715.07681266117288 0 0 0 0 815.17800945006456 -71.6309444837716 0 -71.6309444837716 -31.727129103654988 0 0 0 0 -977.19173062044138 70.647879017810965 0 70.647879017810965 853.24999458693992 0 0 0 0 -433.41693308064714 332.19126343326207 0 332.19126343326207 698.96991970055569 0 0 0 0 -305.17263034670759 -821.09584113076198 0 -821.09584113076198 837.47317387740748 0 0 0 0 -276.09397232198933 859.97519602644684 0 859.97519602644684 576.50289743282337 0 0 0 0 -653.16125346432455 -649.95115976557918 0 -649.95115976557918 1210.3664851766757 0 0 0 0 -737.69098401594965 12.051540341010877 0 12.051540341010877 2231.6500089378001 0 0 0 0 48.014492788405619 -5.8824302708777028 0 -5.8824302708777028 -0.94924070906271751 0 0 0 0 197.52958803351612 367.52492591410237 0 367.52492591410237 -352.32372975266071 0 0 0 0 278.35478682784196 76.792433572384198 0 76.792433572384198 108.88318746163077 0 0 0 0 84.815665373710544 -481.11928508448773 0 -481.11928508448773 -507.44188394781213 0 0 0 0 -386.8375354291793 150.00821611389767 0 150.00821611389767 775.38604731936812 0 0 0 0 855.1881473619178 525.56157075731971 0 525.56157075731971 316.72590314377021 0 0 0 0 -4.0812130848062225 -199.62097566672196 0 -199.62097566672196 -121.89074404203166 0 0 0 0 0.11968719471208078 2.6542442731452027 0 2.6542442731452027 9.5315977694853515 0 0 0 0 -0.03170444295666508 6.8040674785522199 0 6.8040674785522199 22.605841171675809 0 0 0 0 -331.04267898243779 177.8450132840162 0 177.8450132840162 6.173184285201387 0 0 0 0 452.40431130193156 0.6993060977033565 0 0.6993060977033565 -192.49527001573915 0 0 0 0 127.55721887780237 395.75137975598682 0 395.75137975598682 -54.718854292530949 0 0 0 0 504.88288097374419 155.32342510235776 0 155.32342510235776 -89.27163342685526 0 0 0 0 1131.3609859770804 340.3664660048189 0 340.3664660048189 -188.25441962418063 0 0 0 0 1073.4190976019891 185.61650370921416 0 185.61650370921416 -21.259940418761616 0 0 0 0 1099.2208948616644 225.6923600462319 0 225.6923600462319 -147.30585841529683 0 0 0 0 1235.20185326094 335.07393718783533 0 335.07393718783533 -131.70242909505532 0 0 0 0 400.45119932587113 449.97450695205225 0 449.97450695205225 134.39441313305906 0 0 0 0 1163.3595122493607 116.12746044552568 0 116.12746044552568 -183.60370411133499 0 0 0 0 2201.4263963805279 -92.690942805878876 0 -92.690942805878876 -174.73564034598553 0 0 0 0 1092.4526002122784 909.71553543220307 0 909.71553543220307 1108.0589948428078 0 0 0 0 708.1310769635802 184.71838842855641 0 184.71838842855641 -129.34166790017116 0 0 0 0 -447.27645444041991 -27.600248657872726 0 -27.600248657872726 699.65612614363636 0 0 0 0 586.49269216203356 107.0613001151296 0 107.0613001151296 -165.50031792703521 0 0 0 0 1691.6959474064934 225.80909354100459 0 225.80909354100459 -218.66669625031 0 0 0 0 969.90307548217424 -512.81920997619909 0 -512.81920997619909 544.115235289255 0 0 0 0 100.92444100966895 -0.94211016310788409 0 -0.94211016310788409 -189.17874400610708 0 0 0 0 129.60209319532805 82.814174638597024 0 82.814174638597024 -28.798671330132947 0 0 0 0 24.200374699129071 50.755290708854517 0 50.755290708854517 -27.796783805903942 0 0 0 0 -0.84394155048135988 6.2777186284011179 0 6.2777186284011179 24.877376676212066 0 0 0 0 48.813485919057712 7.3137997783428546 0 7.3137997783428546 16.341688693107699 0 0 0 0 42.928573088043777 16.291639797870857 0 16.291639797870857 10.344543635415448 0 0 0 0 19.654370744805831 -7.520795477083972 0 -7.520795477083972 -7.5120493098577565 0 0 0 0 37.405512298337271 8.1415057140234239 0 8.1415057140234239 3.5379083553291366 0 0 0 0 48.619989481061566 14.013013618255968 0 14.013013618255968 -25.5539708646902 0 0 0 0 5.0265570926118741 -0.78705920171823607 0 -0.78705920171823607 -4.1762878863287618 0 0 0 0 33.609524420233356 -30.456490825516767 0 -30.456490825516767 -22.419422823674438 0 0 0 0 81.437571139249485 30.331489029002114 0 30.331489029002114 -282.27099841170548 0 0 0 0 172.01716709110769 -324.77058567922631 0 -324.77058567922631 205.20353199301371 0 0 0 0 1.5138714392574002 2.0925762546750413 0 2.0925762546750413 -0.085720744896521595 0 0 0 0 261.22309248186866 -59.983093775026418 0 -59.983093775026418 9.831656428258043 0 0 0 0 14.151495744250298 12.129157226359148 0 12.129157226359148 -4.5611435242939926 0 0 0 0 40.618000589587609 -3.9560569882037271 0 -3.9560569882037271 -2.9687283711386954 0 0 0 0 18.100876301879907 46.032587842485327 0 46.032587842485327 25.815053515052568 0 0 0 0 151.22157439844341 -129.4125429104563 0 -129.4125429104563 99.000834943523842 0 0 0 0 241.82252224774857 -100.682145791523 0 -100.682145791523 -1.9907005380999649 0 0 0 0 210.77116359582942 -160.14962278294161 0 -160.14962278294161 69.569136042838068 0 0 0 0 -65.289627292037039 177.35189217088646 0 177.35189217088646 -313.54727020688733 0 0 0 0 -78.57091761751326 177.26200025668504 0 177.26200025668504 -244.87664449617569 0 0 0 0 34.390567208974005 11.739618643620709 0 11.739618643620709 -2.8237189342750337 0 0 0 0 329.9997330972692 -268.78601960729793 0 -268.78601960729793 137.28976686320766 0 0 0 0 413.6635192510148 -253.09964704055301 0 -253.09964704055301 138.92183247957269 0 0 0 0 223.12393401640657 -128.52980313073954 0 -128.52980313073954 211.20955923576639 0 0 0 0 466.64740691408952 22.567829148433702 0 22.567829148433702 256.58826419417528 0 0 0 0 -125.03413605599417 126.36834188917146 0 126.36834188917146 -306.03519859401695 0 0 0 0 -208.25587831367375 227.99324628432191 0 227.99324628432191 -376.42222968462738 0 0 0 0 -17.25685671845622 69.766069061066787 0 69.766069061066787 -252.14283763121603 0 0 0 0 -37.747153013075149 143.85490002411325 0 143.85490002411325 -373.80800729165276 0 0 0 0 19.4423563153141 76.264978274764871 0 76.264978274764871 -271.93297821971828 0 0 0 0 38.692671007116587 -33.90835513440561 0 -33.90835513440561 -261.94497566708424 0 0 0 0 25.218579659554962 -13.728372844610021 0 -13.728372844610021 -285.70573886759485 0 0 0 0 4.4310665533284919 -12.535650234808145 0 -12.535650234808145 -229.91555853340833 0 0 0 0 23.019321755095007 8.0550878753633697 0 8.0550878753633697 -359.44795809921123 0 0 0 0 -11.106373860939129 13.945252696845955 0 13.945252696845955 -267.37647713322622 0 0 0 0 15.917233202322677 -99.268688710030347 0 -99.268688710030347 -314.84820824870758 0 0 0 0 -13.509483674035437 118.00472411606779 0 118.00472411606779 -552.72538931371037 0 0 0 0 148.68323154231803 42.728181620881742 0 42.728181620881742 -880.17746384723887 0 0 0 0 -440.95845819478563 42.385783992343022 0 42.385783992343022 -410.6777791881932 0 0 0 0 7.3150614023093112 3.1203847390491006 0 3.1203847390491006 0.32496042126822289 0 0 0 0 900.46296339121557 -696.78058574504041 0 -696.78058574504041 490.57231225408123 0 0 0 0 -191.84375509919118 1173.6018618418193 0 1173.6018618418193 -232.4553384810697 0 0 0 0 525.911265885803 -455.33056922832111 0 -455.33056922832111 97.265627842358299 0 0 0 0 83.061484293932153 28.357737778177579 0 28.357737778177579 397.09564062487061 0 0 0 0 22.60295350106945 7.1257338970153832 0 7.1257338970153832 -2.8286886376130109 0 0 0 0 -88.996808965202945 -160.82532002578819 0 -160.82532002578819 537.05212377025373 0 0 0 0 366.4320410195869 -665.14114155062225 0 -665.14114155062225 245.13613418406931 0 0 0 0 -61.375331547355927 427.16817965245059 0 427.16817965245059 -812.13275629334157 0 0 0 0 457.93453813536098 -113.19417840724122 0 -113.19417840724122 -108.50184432231981 0 0 0 0 387.95149567947965 103.70387521796118 0 103.70387521796118 46.334612268060482 0 0 0 0 2.1163094314751163 -2.3430131902989615 0 -2.3430131902989615 2.5718184557865946 0 0 0 0 813.39149058759813 229.52348054508684 0 229.52348054508684 -63.839951621198452 0 0 0 0 584.71319671222591 -171.51680092049264 0 -171.51680092049264 -14.447632747813259 0 0 0 0 151.41199208215539 56.501437340150659 0 56.501437340150659 -131.37460368107531 0 0 0 0 156.70497832823821 -9.0054034270883676 0 -9.0054034270883676 19.545365613899776 0 0 0 0 232.62625092294547 -28.107128876577917 0 -28.107128876577917 -99.163225451984545 0 0 0 0 231.29264803533079 -37.151018009428753 0 -37.151018009428753 -136.94463303962334 0 0 0 0 14.0959133627548 65.177945043623367 0 65.177945043623367 -67.234974076052822 0 0 0 0 52.144892742522643 -0.10956146866374183 0 -0.10956146866374183 -139.8776086827072 0 0 0 0 -56.762466798252262 17.94589449979398 0 17.94589449979398 -63.572058695424857 0 0 0 0 44.847040379429259 18.594479108353454 0 18.594479108353454 0.91982710950929913 0 0 0 0 -68.577762931106918 171.57259701194562 0 171.57259701194562 -173.73468748844653 0 0 0 0 291.15011087375024 -55.088617850739865 0 -55.088617850739865 -292.24528198973371 0 0 0 0 -34.600424023708911 82.88217058901273 0 82.88217058901273 -139.26260030811204 0 0 0 0 82.882391036400804 74.528717542476443 0 74.528717542476443 -216.45389008351231 0 0 0 0 34.782937902078629 21.36237543563891 0 21.36237543563891 -184.43245374217622 0 0 0 0 35.491234406916192 -17.500507715964886 0 -17.500507715964886 -133.10220694587861 0 0 0 0 121.87318588532798 32.705345806596597 0 32.705345806596597 -211.67317732203674 0 0 0 0 152.21427727662058 -44.234968367572947 0 -44.234968367572947 -149.90992539866056 0 0 0 0 74.131578763295238 44.218083496446923 0 44.218083496446923 -141.25274641949363 0 0 0 0 411.35597196720664 -139.20744068866952 0 -139.20744068866952 -133.76617517433169 0 0 0 0 280.85997688347379 23.713506074316228 0 23.713506074316228 -203.25993694663157 0 0 0 0 242.45025754902053 -143.85393125492146 0 -143.85393125492146 -47.449609149571643 0 0 0 0 345.60016323264608 -76.210114583037466 0 -76.210114583037466 -177.66607357163184 0 0 0 0 137.31958384132122 5.6314149687075314 0 5.6314149687075314 330.49402824128583 0 0 0 0 418.68231519672509 -319.6704107182419 0 -319.6704107182419 81.964424579417937 0 0 0 0 520.31326158059892 -99.356202064728222 0 -99.356202064728222 -194.03917923615873 0 0 0 0 588.95274006793261 -212.99872253993726 0 -212.99872253993726 62.251548599265334 0 0 0 0 170.7765279287766 -520.09024333162142 0 -520.09024333162142 332.28000505041564 0 0 0 0 228.66419923255671 -562.45691450114441 0 -562.45691450114441 358.9773295413051 0 0 0 0 6.8463860200277651 -1.602194703219638 0 -1.602194703219638 0.035125646543488293 0 0 0 0 178.6300632169914 92.925901286384033 0 92.925901286384033 -203.9149825749696 0 0 0 0 25.373417282496121 -77.668197759368582 0 -77.668197759368582 -166.15888696881211 0 0 0 0 176.85794144211286 63.700690325108781 0 63.700690325108781 169.10029235057846 0 0 0 0 532.0306847953907 -342.60194544528144 0 -342.60194544528144 626.94864273802477 0 0 0 0 48.866847486391634 -350.0184173128132 0 -350.0184173128132 200.94735218237179 0 0 0 0 5.2116301989288871 -2.7845022105344412 0 -2.7845022105344412 1.214005826077365 0 0 0 0 600.15215134072923 -537.90708422570083 0 -537.90708422570083 258.90779635826857 0 0 0 0 417.51042009446974 4.0206448396168071 0 4.0206448396168071 143.97710277331771 0 0 0 0 -60.792139643306655 126.26011110873014 0 126.26011110873014 138.5146397984127 0 0 0 0 2.4447094410810521 -2.3315478155326677 0 -2.3315478155326677 2.3342716150242619 0 0 0 0 -38.661865938891424 -351.04546084182698 0 -351.04546084182698 448.10071603521737 0 0 0 0 84.566132576441305 -108.42051605314964 0 -108.42051605314964 114.94390801774125 0 0 0 0 7.662696708419368 -5.7461899353923247 0 -5.7461899353923247 4.2355614745398222 0 0 0 0 54.513400885850388 3.4965749073213601 0 3.4965749073213601 -92.259486369182923 0 0 0 0 25.737433769863856 -132.3435699784734 0 -132.3435699784734 -148.21110990186867 0 0 0 0 22.755136865311215 12.04843621523105 0 12.04843621523105 -68.426369448521655 0 0 0 0 36.098223096847505 13.307556291420497 0 13.307556291420497 -85.035750914171331 0 0 0 0 175.01437456446729 38.119011676514901 0 38.119011676514901 -82.863824062924323 0 0 0 0 -41.683791875788302 69.831913823203195 0 69.831913823203195 170.70947132745937 0 0 0 0 1089.9051826799814 512.3273915439911 0 512.3273915439911 23.624671597479846 0 0 0 0 429.91562663375589 660.08487967925112 0 660.08487967925112 685.80336357061594 0 0 0 0 51.527679942580107 383.41508067811094 0 383.41508067811094 493.61812413210555 0 0 0 0 344.6090086877266 1208.9226323159419 0 1208.9226323159419 -234.50506374915244 0 0 0 0 952.38810556070166 167.72533265257061 0 167.72533265257061 -402.98062982549754 0 0 0 0 62.330496840466367 -218.61729356654359 0 -218.61729356654359 163.16872602168678 0 0 0 0 30.581094627077618 13.520198511720992 0 13.520198511720992 -224.55365289529118 0 0 0 0 8.409657332398119 1.2777437469959896 0 1.2777437469959896 0.027019737385762299 0 0 0 0 15.243515346687417 -1.261783824779263 0 -1.261783824779263 -0.54040332034447758 0 0 0 0 42.367940024766085 -95.88759655370319 0 -95.88759655370319 -214.36649024847611 0 0 0 0 16.855874447344831 -78.131867264147786 0 -78.131867264147786 -155.10174219438386 0 0 0 0 -77.305272295634495 -281.64300224870976 0 -281.64300224870976 139.93580758374628 0 0 0 0 412.96626195347289 -73.459431225627668 0 -73.459431225627668 -579.59079218661873 0 0 0 0 169.68608831060919 960.72949244905431 0 960.72949244905431 1136.8327407329789 0 0 0 0 -370.70501437145231 308.51940984781004 0 308.51940984781004 1044.4609348668964 0 0 0 0 1760.5161330865303 1481.6465457494396 0 1481.6465457494396 960.50951274735462 0 0 0 0 1719.9401529137394 793.30179209350172 0 793.30179209350172 96.215959787095926 0 0 0 0 509.97113779279971 867.01376966087628 0 867.01376966087628 761.49915157835494 0 0 0 0 539.04941820922568 609.67437255154482 0 609.67437255154482 508.58284364110659 0 0 0 0 712.63853712865966 655.33431770848892 0 655.33431770848892 512.77021607775259 0 0 0 0 773.4136060713372 530.25968560567753 0 530.25968560567753 280.158788768862 0 0 0 0 446.39528122064985 427.38281087745395 0 427.38281087745395 572.81854157576072 0 0 0 0 615.51136765089177 329.94029450092421 0 329.94029450092421 510.7518844357985 0 0 0 0 992.95746096129915 37.066721310213779 0 37.066721310213779 645.08523700423075 0 0 0 0 828.54128054148896 412.89912353210912 0 412.89912353210912 460.19426442324857 0 0 0 0 847.3832282863732 354.66379896868887 0 354.66379896868887 -8.9681821458107152 0 0 0 0 5.3266370173422972 -7.5775062038319021 0 -7.5775062038319021 13.073039606635657 0 0 0 0 -78.506463107823947 -59.161671255899819 0 -59.161671255899819 84.005959844348581 0 0 0 0 31.942250456071633 -36.267957165517146 0 -36.267957165517146 605.91680316709846 0 0 0 0 31.59868342197413 -3.6035991107735406 0 -3.6035991107735406 0.98719329516778309 0 0 0 0 5.927340323666364 -2.2621702987250707 0 -2.2621702987250707 3.1341246338069944 0 0 0 0 2791.7679137218001 1266.6035454835055 0 1266.6035454835055 194.34305661743201 0 0 0 0 -98.948054711472196 34.145705554094775 0 34.145705554094775 116.078781324175 0 0 0 0 33.331300444361659 -84.205407934590312 0 -84.205407934590312 -97.304025407501285 0 0 0 0 318.62413588703384 73.01438892457827 0 73.01438892457827 16.863003230374943 0 0 0 0 143.46298241047381 121.0391679249438 0 121.0391679249438 236.25392167341852 0 0 0 0 -42.4093326901193 13.938230166364974 0 13.938230166364974 138.50423487029002 0 0 0 0 139.24222526505977 18.404594564986994 0 18.404594564986994 -0.97861732780438615 0 0 0 0 652.4614582501863 4.3208112861020709 0 4.3208112861020709 217.66211079488767 0 0 0 0 927.53743025623226 205.88736439681611 0 205.88736439681611 5.978724813208828 0 0 0 0 2.6185879627488458 -5.9142507209325821 0 -5.9142507209325821 12.027618319674282 0 0 0 0 110.29062526917255 217.65166790890987 0 217.65166790890987 262.66091294099715 0 0 0 0 1.6446861270366107 -2.0997135196003711 0 -2.0997135196003711 4.930360207826169 0 0 0 0 912.9758202870521 79.069890927089432 0 79.069890927089432 13.166167172033965 0 0 0 0 135.13905655440703 82.041024731059679 0 82.041024731059679 400.43849384849364 0 0 0 0 162.95170062281068 98.656362995444852 0 98.656362995444852 163.59156533073292 0 0 0 0 223.11024173290207 177.79909780094113 0 177.79909780094113 74.462498237821364 0 0 0 0 227.44865777031077 125.91184974186467 0 125.91184974186467 118.41691216932304 0 0 0 0 229.18659627556031 136.10880340416452 0 136.10880340416452 178.21353476959666 0 0 0 0 76.107335838925792 37.633229414386733 0 37.633229414386733 40.140267417582436 0 0 0 0 46.109165217832924 43.838650586774747 0 43.838650586774747 19.465150319520035 0 0 0 0 80.591063658346684 21.587788780527717 0 21.587788780527717 -22.190319777630066 0 0 0 0 37.169259580936341 1.5403137943962975 0 1.5403137943962975 15.618785411675617 0 0 0 0 86.770370181104227 43.549745654503113 0 43.549745654503113 7.1638944150199677 0 0 0 0 1.122842175264779 -3.298392179466143 0 -3.298392179466143 1.0066813092753533 0 0 0 0 12.892033227334892 -7.70091954583941 0 -7.70091954583941 4.7578030230532695 0 0 0 0 23.5600313841569 -23.750825118831472 0 -23.750825118831472 -78.978783021018785 0 0 0 0 66.0393839419703 -13.815135230784108 0 -13.815135230784108 -11.999654843301414 0 0 0 0 34.699466841117101 111.18233194960294 0 111.18233194960294 81.641828049638207 0 0 0 0 -3.4205190315132015 -0.41536131535428034 0 -0.41536131535428034 7.4523976375940038 0 0 0 0 50.039247919043191 2.3737050730005649 0 2.3737050730005649 -21.591080176620835 0 0 0 0 -3.5835060813186743 -65.425618699850844 0 -65.425618699850844 -65.821891145510563 0 0 0 0 644.96744148647213 227.48240269202006 0 227.48240269202006 167.62559305237573 0 0 0 0 11.902924414551116 -7.6709330584347644 0 -7.6709330584347644 2.7009971294504638 0 0 0 0 48.429597510024905 92.34061857557208 0 92.34061857557208 -116.04123878233531 0 0 0 0 1382.3526930877915 523.26912357113667 0 523.26912357113667 166.48910647290995 0 0 0 0 748.64145438927244 332.78552489061803 0 332.78552489061803 182.93592219095245 0 0 0 0 434.86955628383839 217.02239176273088 0 217.02239176273088 369.31416557430339 0 0 0 0 723.753850964511 15.591313981963367 0 15.591313981963367 276.53291077093218 0 0 0 0 367.21809921845943 189.01346089480649 0 189.01346089480649 248.90090442363271 0 0 0 0 505.75643931576633 256.33672745750482 0 256.33672745750482 172.17337858619914 0 0 0 0 15.283769577039095 -10.374085993014301 0 -10.374085993014301 3.7659002848065928 0 0 0 0 365.7109535484957 211.31218308028107 0 211.31218308028107 160.17961878684855 0 0 0 0 -2.1105946707812109 -24.245865495380258 0 -24.245865495380258 -12.587090606872152 0 0 0 0 298.29687632031255 227.74946447830962 0 227.74946447830962 197.11253080245206 0 0 0 0 17.664614827877379 -12.06344898063989 0 -12.06344898063989 4.0736682671755808 0 0 0 0 78.984381039183063 56.800566166733461 0 56.800566166733461 -5.1141211099334214 0 0 0 0 -11.737242659602998 -95.938200059542396 0 -95.938200059542396 99.650475529413598 0 0 0 0 11.693123303835819 37.977398200421248 0 37.977398200421248 1.3169266903460084 0 0 0 0 60.945025761113357 25.153486866988715 0 25.153486866988715 -20.243103389555472 0 0 0 0 375.48019527476845 172.96921590541115 0 172.96921590541115 -9.0317768771201372 0 0 0 0 324.85235753458426 182.315702443036 0 182.315702443036 63.505126508243848 0 0 0 0 251.74606517611301 150.71115373437715 0 150.71115373437715 97.290319826303858 0 0 0 0 300.1198139409812 188.97252375550156 0 188.97252375550156 122.25534598542436 0 0 0 0 387.83430083926396 232.18988254352644 0 232.18988254352644 60.908001690639139 0 0 0 0 468.56982424239959 259.68580265267428 0 259.68580265267428 -26.218132494028396 0 0 0 0 408.54234458471774 232.51884731692621 0 232.51884731692621 60.868376807977256 0 0 0 0 432.28707738130197 326.71645632879336 0 326.71645632879336 73.911994677687971 0 0 0 0 464.95391977969939 279.8429546947591 0 279.8429546947591 -62.238406658277199 0 0 0 0 407.72684180796114 290.83822538597542 0 290.83822538597542 186.99606076512373 0 0 0 0 483.78203829662607 239.98475284611982 0 239.98475284611982 103.89604737993341 0 0 0 0 500.56707209255001 234.72087391552304 0 234.72087391552304 -8.306700053764871 0 0 0 0 258.01585370483735 291.7062620434067 0 291.7062620434067 -19.31727593766982 0 0 0 0 484.22188031437554 316.24372928786374 0 316.24372928786374 -152.93641525488238 0 0 0 0 399.53815518958828 181.83169597052265 0 181.83169597052265 -5.5910032970077737 0 0 0 0 426.90818594165103 212.10296385808942 0 212.10296385808942 -119.07367221112054 0 0 0 0 542.93492377730081 326.63861630601241 0 326.63861630601241 -13.791000459965289 0 0 0 0 507.3358891442067 269.78548708337485 0 269.78548708337485 -60.027023408503737 0 0 0 0 493.32557458529391 230.98510347916817 0 230.98510347916817 -52.322707101966898 0 0 0 0 497.35667471454326 250.52520213562184 0 250.52520213562184 -95.129284586757421 0 0 0 0 621.39546425458775 232.51451236313642 0 232.51451236313642 -97.689564544481073 0 0 0 0 582.61970513749384 247.57619864128992 0 247.57619864128992 -102.74630741373403 0 0 0 0 543.79086655259493 157.51599973090651 0 157.51599973090651 -99.307693500359164 0 0 0 0 484.06922863537784 161.51764701165121 0 161.51764701165121 -74.869752013281868 0 0 0 0 692.34365761267873 171.38511227463732 0 171.38511227463732 -98.750033794116007 0 0 0 0 483.50799550652908 59.197454010916772 0 59.197454010916772 -50.655127517398796 0 0 0 0 472.5853876648132 168.1169135649809 0 168.1169135649809 -70.884156600710412 0 0 0 0 412.95587954155872 175.56337326443736 0 175.56337326443736 -8.9903672054367973 0 0 0 0 237.63884047435886 71.938882605559229 0 71.938882605559229 131.19231097743432 0 0 0 0 158.43692903747456 -50.220316643552906 0 -50.220316643552906 79.549477772130558 0 0 0 0 173.69174375976127 -81.428983676951702 0 -81.428983676951702 47.932000154452908 0 0 0 0 211.32392486073104 34.266168699810805 0 34.266168699810805 121.76709830431719 0 0 0 0 321.928632036208 -101.28562322035623 0 -101.28562322035623 274.92312054264812 0 0 0 0 610.25672724238643 63.405488423767792 0 63.405488423767792 34.619654912290571 0 0 0 0 507.34636123340806 332.93413825483458 0 332.93413825483458 143.90134037744701 0 0 0 0 245.64474306153352 177.18408566042126 0 177.18408566042126 0.188451908962179 0 0 0 0 49.629618543494871 279.88105560119766 0 279.88105560119766 -238.14688752088068 0 0 0 0 362.61000789136961 92.482876019518699 0 92.482876019518699 -147.31851335331839 0 0 0 0 384.09524835107186 9.3408509028249682 0 9.3408509028249682 -20.698362776383874 0 0 0 0 -185.67991047010764 319.42872188383626 0 319.42872188383626 -192.64291353425233 0 0 0 0 -0.11498897647385675 -0.41684453264242904 0 -0.41684453264242904 -1.1843310947863799 0 0 0 0 193.65399305086612 6.6767791742515783 0 6.6767791742515783 -186.15821109318495 0 0 0 0 -37.23160028748589 139.52730017723979 0 139.52730017723979 -211.48605970974677 0 0 0 0 -76.113107326498721 107.64583520786346 0 107.64583520786346 -202.46611627461914 0 0 0 0 115.36322709801971 0.24679324938188074 0 0.24679324938188074 -156.46579614360417 0 0 0 0 31.575248241308145 -52.152087258528354 0 -52.152087258528354 -188.59630610140448 0 0 0 0 191.13950190252763 -9.6041927830297027 0 -9.6041927830297027 -48.56289999469027 0 0 0 0 72.654071428335556 -57.628529966059659 0 -57.628529966059659 -62.694313179014898 0 0 0 0 143.02036856907739 -102.7645606714716 0 -102.7645606714716 -35.877973821338855 0 0 0 0 149.60071410102523 -88.613354885512081 0 -88.613354885512081 -125.69674555721758 0 0 0 0 175.4604106658644 -34.941520784002932 0 -34.941520784002932 -162.19887247286124 0 0 0 0 201.0131817437632 -61.482995361161102 0 -61.482995361161102 -122.01316580098091 0 0 0 0 200.06053385038194 -71.023367160496491 0 -71.023367160496491 -88.441909156964357 0 0 0 0 192.80942521247016 -72.7121203471238 0 -72.7121203471238 -88.025284755186476 0 0 0 0 190.38119228727101 -90.006664115341664 0 -90.006664115341664 -53.052763856597267 0 0 0 0 172.24846722961684 -51.491910605667272 0 -51.491910605667272 -73.690234376465924 0 0 0 0 201.51137344737072 -89.99250617665075 0 -89.99250617665075 -97.375770886108057 0 0 0 0 210.64276016490385 -17.006370322575549 0 -17.006370322575549 25.65382182075291 0 0 0 0 214.29887528748441 -89.044455642407229 0 -89.044455642407229 -53.027170577457881 0 0 0 0 171.62551745782321 -89.893029889695754 0 -89.893029889695754 6.5050671515855356 0 0 0 0 203.3014402531935 -55.880215844185841 0 -55.880215844185841 14.079156146162632 0 0 0 0 88.182018555563445 -73.048316267904283 0 -73.048316267904283 39.128216066070308 0 0 0 0 108.07721112430136 -70.867292760269265 0 -70.867292760269265 7.7777524795637873 0 0 0 0 160.4965375912243 -106.95137562459377 0 -106.95137562459377 29.825155049093155 0 0 0 0 173.1285942892182 -81.683614709100993 0 -81.683614709100993 -41.797705051576486 0 0 0 0 118.01248962111549 -82.369276796209761 0 -82.369276796209761 6.5214871877242331 0 0 0 0 101.9019411173249 -60.088691393423687 0 -60.088691393423687 -24.202730130373311 0 0 0 0 81.166386559509192 -72.969485973640076 0 -72.969485973640076 -25.730353813001784 0 0 0 0 121.42468694459149 -68.585491720131813 0 -68.585491720131813 -60.025282016931669 0 0 0 0 134.53048970870896 -58.081351282824471 0 -58.081351282824471 -58.454760198902477 0 0 0 0 168.40160056980676 -80.50021036891485 0 -80.50021036891485 -57.169142919301066 0 0 0 0 140.07813620861816 -68.036254175256545 0 -68.036254175256545 -47.421488680107359 0 0 0 0 180.88062540101782 -50.800476812815759 0 -50.800476812815759 -76.66369187995133 0 0 0 0 177.5590288508829 -62.621550416049558 0 -62.621550416049558 -83.984162108134115 0 0 0 0 192.59869683942441 -71.177043766840143 0 -71.177043766840143 -79.584349879083675 0 0 0 0 79.664126854485403 -55.061987576013053 0 -55.061987576013053 -47.865097416215576 0 0 0 0 150.87849169885885 -60.792890778081528 0 -60.792890778081528 -70.269818584875679 0 0 0 0 148.40278073413629 -58.833392172413369 0 -58.833392172413369 -70.464083112052322 0 0 0 0 117.23878246287495 -45.110798633665127 0 -45.110798633665127 -54.430166842619656 0 0 0 0 116.87852355418272 -47.13614003038947 0 -47.13614003038947 -58.275826863883594 0 0 0 0 82.266609815410447 -32.365676727556092 0 -32.365676727556092 -53.258075670381913 0 0 0 0 -16.08564882441533 -19.997056731596786 0 -19.997056731596786 -37.667987309664568 0 0 0 0 26.184036457634647 43.022232580807668 0 43.022232580807668 -46.117374260242286 0 0 0 0 -47.796993624473544 -17.263182650054659 0 -17.263182650054659 -9.3310618842024269 0 0 0 0 -0.13288227777051898 0.13807460524405357 0 0.13807460524405357 0.038304270316377398 0 0 0 0 -46.926697367070574 -154.33970837671268 0 -154.33970837671268 40.792303997088311 0 0 0 0 0.2536486828664386 0.11448254837922534 0 0.11448254837922534 -1.3145037962459405 0 0 0 0 -97.879336199620411 -98.532852906919743 0 -98.532852906919743 -2.4788013260294974 0 0 0 0 -3.6762700380841125 -126.74960975296653 0 -126.74960975296653 -43.385989010559967 0 0 0 0 81.484224274134249 -78.15455364495574 0 -78.15455364495574 -44.547807980898142 0 0 0 0 -6.4314532019052422 -76.172099138238991 0 -76.172099138238991 -37.936924409657877 0 0 0 0 10.282825335912094 -57.778398783028024 0 -57.778398783028024 -32.084859948556186 0 0 0 0 783.98912649301019 59.310123747565285 0 59.310123747565285 -71.610890056075732 0 0 0 0 472.73563419228094 -48.854499304630735 0 -48.854499304630735 -97.774933105726632 0 0 0 0 480.2462428998042 129.64864354843667 0 129.64864354843667 3.253842001302985 0 0 0 0 409.75818105171675 -27.510630243794367 0 -27.510630243794367 -12.310098609030263 0 0 0 0 574.1069096049705 83.424635492639482 0 83.424635492639482 -70.522608219285758 0 0 0 0 423.4128367812109 -152.14190835663703 0 -152.14190835663703 264.17667073686607 0 0 0 0 349.98283202424227 -57.767001965873533 0 -57.767001965873533 179.27895306150822 0 0 0 0 459.10684156947946 119.33419527498745 0 119.33419527498745 403.23184108971145 0 0 0 0 693.60657097552257 -79.319575048453657 0 -79.319575048453657 -93.971734993230712 0 0 0 0 661.14012510725968 128.76657472972187 0 128.76657472972187 -40.613967211589625 0 0 0 0 408.18907761456171 -81.842602247702871 0 -81.842602247702871 -60.175184313535283 0 0 0 0 392.55304239259931 18.946184230738254 0 18.946184230738254 -109.16846140245457 0 0 0 0 245.47712255539909 -173.06512148985485 0 -173.06512148985485 -96.368896491585474 0 0 0 0 166.8377100420339 -92.410042019737375 0 -92.410042019737375 -25.321350687204358 0 0 0 0 197.66379296879677 -48.962241373992129 0 -48.962241373992129 18.56152275018394 0 0 0 0 1.1997746949539536 0.69191543529212929 0 0.69191543529212929 -0.86333815394123903 0 0 0 0 610.33125577825831 -34.537675956458543 0 -34.537675956458543 -87.191845604344053 0 0 0 0 368.05573642201762 -18.259111960686823 0 -18.259111960686823 -15.503619709018039 0 0 0 0 191.47523051375038 -16.239526227273018 0 -16.239526227273018 -75.588928869355186 0 0 0 0 79.333902391976153 -78.680784178707654 0 -78.680784178707654 -10.380619893300718 0 0 0 0 55.913028377589853 -60.137260616006188 0 -60.137260616006188 -24.756921946065631 0 0 0 0 30.8497648240118 -93.083216246101074 0 -93.083216246101074 -44.953772849076131 0 0 0 0 37.982849359580086 -101.0558621974676 0 -101.0558621974676 -36.174545065237908 0 0 0 0 -41.42779301178507 -146.46807456179886 0 -146.46807456179886 -38.259351485541629 0 0 0 0 85.505382113813539 -116.26919241643145 0 -116.26919241643145 -30.943118913100989 0 0 0 0 84.888546364751164 -122.99900972023079 0 -122.99900972023079 -49.157264187066176 0 0 0 0 64.178636789009033 -60.061062360455253 0 -60.061062360455253 -10.183604550726159 0 0 0 0 81.513214225710726 -63.702082288738666 0 -63.702082288738666 38.963619933454538 0 0 0 0 87.278988656026741 -55.274699117971068 0 -55.274699117971068 27.890169516234437 0 0 0 0 62.045891012930952 -76.766126395978517 0 -76.766126395978517 16.007748274986625 0 0 0 0 82.190273748601612 -55.481727786373995 0 -55.481727786373995 3.278357861058339 0 0 0 0 69.264179384074396 -62.727562704752017 0 -62.727562704752017 61.493622334434804 0 0 0 0 178.37350843994864 -48.116825533168594 0 -48.116825533168594 26.569250385639862 0 0 0 0 91.68660255128259 -15.245827099627036 0 -15.245827099627036 31.44036082774619 0 0 0 0 72.796577606492065 -54.791294604173345 0 -54.791294604173345 64.260052052801257 0 0 0 0 296.72804988581311 24.964306678838966 0 24.964306678838966 -37.371825650701794 0 0 0 0 235.15843430028167 72.68755937093033 0 72.68755937093033 -12.339791253494695 0 0 0 0 1.3648199596552333 1.0611266560999191 0 1.0611266560999191 -1.0525298809914787 0 0 0 0 201.29793919440863 -95.022488793127195 0 -95.022488793127195 20.703227118539246 0 0 0 0 240.81766717736627 -16.440945986025326 0 -16.440945986025326 -41.670278261318799 0 0 0 0 0.67905318430127792 0.6232903302023356 0 0.6232903302023356 -0.4306653949081749 0 0 0 0 -6.9866006595839281 81.472792915966693 0 81.472792915966693 -6.3596996275537094 0 0 0 0 226.22161998364481 10.139785975922678 0 10.139785975922678 -93.015373162183096 0 0 0 0 25.324942180990547 47.279753502551102 0 47.279753502551102 -32.835126596713053 0 0 0 0 254.35758635085813 38.210761463736162 0 38.210761463736162 -83.296537460761101 0 0 0 0 304.4621545365444 -31.173484275823739 0 -31.173484275823739 -65.858242321635771 0 0 0 0 -23.580612983358833 -85.921264062949831 0 -85.921264062949831 -10.402795796411738 0 0 0 0 222.63789850247122 -79.551791591019537 0 -79.551791591019537 -7.762309115511016 0 0 0 0 50.7428599919931 39.467795946531623 0 39.467795946531623 -63.754885187907348 0 0 0 0 28.780393007187918 -106.55273449056838 0 -106.55273449056838 -185.10749616975045 0 0 0 0 12.32501604895527 -4.9604871754508366 0 -4.9604871754508366 1.2689085993860605 0 0 0 0 34.251853469548223 -93.459576327605191 0 -93.459576327605191 -221.40894413360911 0 0 0 0 290.44133518291346 -156.97390666925548 0 -156.97390666925548 -460.71379567253825 0 0 0 0 85.195722068436226 -253.38404375143637 0 -253.38404375143637 63.973190206155323 0 0 0 0 -32.151628829014044 -11.711166465147926 0 -11.711166465147926 15.375963598386079 0 0 0 0 707.50895067202418 436.73289123875838 0 436.73289123875838 -123.04580578956666 0 0 0 0 750.05503715321265 143.94822721690025 0 143.94822721690025 36.452021883277666 0 0 0 0 462.16187640008866 283.50212588574232 0 283.50212588574232 220.09433943463625 0 0 0 0 366.37848339947868 -1.9628518734625686 0 -1.9628518734625686 247.82984115506679 0 0 0 0 5.8978057313552448 -1.9193032448740315 0 -1.9193032448740315 0.64480990109484004 0 0 0 0 636.54967893441471 -129.70076775356358 0 -129.70076775356358 -13.000188886631804 0 0 0 0 180.18550644571678 -118.31548622335049 0 -118.31548622335049 33.907838393849488 0 0 0 0 290.07298448180154 104.1042322160165 0 104.1042322160165 125.98584989404299 0 0 0 0 326.05700389805111 -89.498764121080853 0 -89.498764121080853 -2.0735373342413368 0 0 0 0 93.627277141101331 -90.022355207751389 0 -90.022355207751389 55.278055656411652 0 0 0 0 172.4856085296442 -103.5705266889654 0 -103.5705266889654 55.702513397549865 0 0 0 0 77.460593450612578 -63.602809208570761 0 -63.602809208570761 40.501488844391474 0 0 0 0 21.522246465409808 -9.055988873683873 0 -9.055988873683873 23.777186123693355 0 0 0 0 14.687372359439706 -118.0380088290724 0 -118.0380088290724 110.90422739479254 0 0 0 0 -95.447747871194224 34.527216751256447 0 34.527216751256447 5.3450612131342154 0 0 0 0 16.572601898677163 0.42245409102778098 0 0.42245409102778098 9.2001487130310231 0 0 0 0 49.918580419481863 27.788477485707531 0 27.788477485707531 22.965208364972568 0 0 0 0 165.62861281428923 94.598762496288103 0 94.598762496288103 -233.99491470711791 0 0 0 0 3493.0162272462876 -2.811647332647579 0 -2.811647332647579 2.4968200093754027 0 0 0 0 3493.0134310651119 -2.8129885048019836 0 -2.8129885048019836 2.4995618826551933 0 0 0 0 13.423642509355872 3.5874627681318891 0 3.5874627681318891 3.4114143567839967 0 0 0 0 109.64447806018688 -193.27728187186537 0 -193.27728187186537 680.70122291374423 0 0 0 0 3493.0068647907065 -2.8052977354723874 0 -2.8052977354723874 2.496991012912074 0 0 0 0 3493.0097835560118 -2.8085843189030291 0 -2.8085843189030291 2.5001589777428617 0 0 0 0 14.225919432842346 -5.6662722636403906 0 -5.6662722636403906 5.0697175531463685 0 0 0 0 103.67723744857358 76.654469675430846 0 76.654469675430846 -85.611536632755815 0 0 0 0 17.201580254209638 0.92443618900556146 0 0.92443618900556146 -32.01307142525129 0 0 0 0 110.76898200342839 82.040371487359153 0 82.040371487359153 -101.97254610245363 0 0 0 0 286.21738025396189 477.15628725144938 0 477.15628725144938 170.92240070892376 0 0 0 0 355.08535290057262 104.78652463802297 0 104.78652463802297 -197.33975383231484 0 0 0 0 38.520574331421408 26.734875234530424 0 26.734875234530424 14.639123879837665 0 0 0 0 -417.05937379498209 -142.3068766291924 0 -142.3068766291924 307.51479594731956 0 0 0 0 287.16254529967773 130.86604479513403 0 130.86604479513403 70.45423111925038 0 0 0 0 75.319083292198229 -48.976963724000598 0 -48.976963724000598 29.444737971077075 0 0 0 0 6.0779879809455153 2.3552606385384003 0 2.3552606385384003 4.9985803807482121 0 0 0 0 -71.742782232919126 153.79854874997159 0 153.79854874997159 367.99017717219158 0 0 0 0 44.523883125559223 117.72892557257421 0 117.72892557257421 565.21814736929196 0 0 0 0 -2.8747078416907996 3.7784495648299412 0 3.7784495648299412 8.2149374055226829 0 0 0 0 929.35518351302744 585.15374231096587 0 585.15374231096587 -485.91128928352236 0 0 0 0 21.860741530987248 4.2712935993875725 0 4.2712935993875725 -4.7402610992217635 0 0 0 0 -484.66320228470431 -438.41115723103599 0 -438.41115723103599 314.96069169208647 0 0 0 0 30.793155528512216 7.1093157002177918 0 7.1093157002177918 19.192744323589935 0 0 0 0 15.018925072216007 13.006428300814548 0 13.006428300814548 25.005704058742367 0 0 0 0 19.990124724350714 -3.0113357781275276 0 -3.0113357781275276 -8.5938266364628308 0 0 0 0 39.876096598426557 31.676574927222461 0 31.676574927222461 27.006723498992415 0 0 0 0 214.78442132065175 -121.59948902179895 0 -121.59948902179895 -364.19186340460192 0 0 0 0 47.386489468537548 20.509120728285779 0 20.509120728285779 5.1390404953199891 0 0 0 0 5.7420812899763405 11.70228052847645 0 11.70228052847645 8.9717175614580356 0 0 0 0 2.4691481610464692 2.9587608728326735 0 2.9587608728326735 0.98679650425290522 0 0 0 0 12.005163435333088 15.552317868918522 0 15.552317868918522 5.7605058009958157 0 0 0 0 12.890207482640008 4.7309568944641729 0 4.7309568944641729 0.98399626468843049 0 0 0 0 22.886569880081879 0.61910263623687456 0 0.61910263623687456 8.6319327912782455 0 0 0 0 26.802921123380656 9.3323816793151764 0 9.3323816793151764 1.836344866899708 0 0 0 0 29.648843424562074 15.466292833182592 0 15.466292833182592 7.6748828860270351 0 0 0 0 32.369388289731432 11.86787579595557 0 11.86787579595557 2.9095595999692705 0 0 0 0 15.804703405783268 0.222263821992843 0 0.222263821992843 -1.12863306479479 0 0 0 0 23.984160820758916 9.5366574049014616 0 9.5366574049014616 -8.0208428900656088 0 0 0 0 -484.70806127721562 319.26336175694263 0 319.26336175694263 39.687778880848157 0 0 0 0 14.452095509845094 4.3596209257918304 0 4.3596209257918304 -0.095562046875940609 0 0 0 0 11.653819605785262 -0.50504633049803971 0 -0.50504633049803971 -1.6824136588352765 0 0 0 0 8.1439530745344211 6.9495456227976327 0 6.9495456227976327 -0.61703813929485385 0 0 0 0 30.720310150445584 12.273315216332094 0 12.273315216332094 11.020321622957454 0 0 0 0 494.82809623263529 -730.90086614704296 0 -730.90086614704296 266.15215646060182 0 0 0 0 -0.36270712484110845 26.736335725899607 0 26.736335725899607 5.8558580795433102 0 0 0 0 0.97736789124603973 2.8061948633026219 0 2.8061948633026219 -2.2049176377623509 0 0 0 0 1.8202904306022827 -3.2108408297749413 0 -3.2108408297749413 7.8036505778383631 0 0 0 0 3482.5929551960417 196.04705305556891 0 196.04705305556891 -555.7265574876858 0 0 0 0 523.51064717382906 898.90679274601302 0 898.90679274601302 328.71592401699581 0 0 0 0 1063.0198983045357 -486.29819200076957 0 -486.29819200076957 160.98480951004058 0 0 0 0 1626.7050667773947 1329.8635979674598 0 1329.8635979674598 1100.0706470449709 0 0 0 0 15.910996173631808 2.0941720206434109 0 2.0941720206434109 -0.47120060923507817 0 0 0 0 3493.1001454403013 984.88077423572793 0 984.88077423572793 -395.55693386196572 0 0 0 0 2055.5303096105308 288.91485425395388 0 288.91485425395388 -654.79077571009032 0 0 0 0 75.223031267097213 288.89328946142768 0 288.89328946142768 576.69350147242505 0 0 0 0 29.521571737203885 6.8439338053138101 0 6.8439338053138101 -11.333870214147737 0 0 0 0 6.7766068749639494 0.28009677420328138 0 0.28009677420328138 -4.7686621630554304 0 0 0 0 2050.6989947349666 384.86574078987911 0 384.86574078987911 -436.13274167468182 0 0 0 0 533.77282456792727 -258.54596955363354 0 -258.54596955363354 207.86652654526301 0 0 0 0 1491.0268216463292 584.10392337742439 0 584.10392337742439 -252.36143320734124 0 0 0 0 3500.9504260928607 269.04177629477067 0 269.04177629477067 -760.50741552050738 0 0 0 0 2388.2392104757673 -202.95846576317791 0 -202.95846576317791 -165.15693914429116 0 0 0 0 2276.0011098820214 -517.69428593650878 0 -517.69428593650878 -391.22153646367906 0 0 0 0 4687.6887701676824 -93.850115137635726 0 -93.850115137635726 -327.08230168020623 0 0 0 0 773.47808925219397 -1035.3378999513216 0 -1035.3378999513216 589.97410421715495 0 0 0 0 59.956871532966488 256.17449742295992 0 256.17449742295992 31.547473427268983 0 0 0 0 92.141681255046933 0.13400432690264097 0 0.13400432690264097 368.25475782302874 0 0 0 0 2053.3361227797368 2100.0904984529388 0 2100.0904984529388 2145.6571440554021 0 0 0 0 21.755694718749808 1.8305822670628524 0 1.8305822670628524 0.94980784303023702 0 0 0 0 2185.6622639297329 -1252.8012908161893 0 -1252.8012908161893 142.6511405620962 0 0 0 0 3500.6605344464733 499.23942571859834 0 499.23942571859834 3306.9615229685651 0 0 0 0 4195.3264835820801 1193.5824259241667 0 1193.5824259241667 574.64679047754123 0 0 0 0 61.796849360247144 7.7255416995861683 0 7.7255416995861683 -1.0420444472103561 0 0 0 0 193.14389824876162 51.302947030338373 0 51.302947030338373 -75.832339860632601 0 0 0 0 108.61951704970966 629.37141399189863 0 629.37141399189863 -247.43733723197835 0 0 0 0 94.018029100017884 50.145011378356884 0 50.145011378356884 -58.904409107330025 0 0 0 0 0.8670762817821398 7.7514917550509512 0 7.7514917550509512 2.405742467398194 0 0 0 0 -20.246865173507103 21.570544426551351 0 21.570544426551351 66.435600014963825 0 0 0 0 143.65230761028329 89.496846827245008 0 89.496846827245008 -52.20576311223283 0 0 0 0 246.56549880234161 34.81520136470192 0 34.81520136470192 -532.04025815684361 0 0 0 0 51.514284774320501 2.3873401118710125 0 2.3873401118710125 -0.47506010240288266 0 0 0 0 251.7815064035658 357.86950291320454 0 357.86950291320454 416.1549143621769 0 0 0 0 140.22654135653761 115.8667321287141 0 115.8667321287141 -77.46050783340695 0 0 0 0 -180.18879884024318 -362.68360953561591 0 -362.68360953561591 698.6813190339974 0 0 0 0 113.98349019034504 142.96977477094694 0 142.96977477094694 -74.874708331217747 0 0 0 0 69.292212030197334 196.94997742808664 0 196.94997742808664 37.975112358997137 0 0 0 0 33.642493800860393 84.278653141321286 0 84.278653141321286 98.934843036694332 0 0 0 0 -2.9078979891938643 14.910023852754389 0 14.910023852754389 6.4898131502618766 0 0 0 0 -43.380936501403085 9.8004776933543383 0 9.8004776933543383 63.664724795116513 0 0 0 0 114.76371985750876 115.29308268463637 0 115.29308268463637 -42.263101094278568 0 0 0 0 -8.8487206455738487 6.1344053287653537 0 6.1344053287653537 -15.377888511045967 0 0 0 0 13.25137120258205 82.251701773940113 0 82.251701773940113 24.169384787366539 0 0 0 0 -23.00860854113489 -71.689890941973431 0 -71.689890941973431 35.009260317964859 0 0 0 0 -25.759093658984057 5.3882636099115189 0 5.3882636099115189 -55.987570552661964 0 0 0 0 -26.332110564160757 22.640436115649152 0 22.640436115649152 67.80886981182789 0 0 0 0 -4.0081042806038134 1.0351021933525413 0 1.0351021933525413 1.5111254471972608 0 0 0 0 6.1555254907975723 23.784285726759379 0 23.784285726759379 8.2948136122849974 0 0 0 0 16.113561607090908 18.193975979380806 0 18.193975979380806 9.413986654849495 0 0 0 0 32.424724707925634 11.851169177437214 0 11.851169177437214 253.45072339349497 0 0 0 0 302.56460998461444 82.345409352360832 0 82.345409352360832 22.086166950738971 0 0 0 0 14.559155390577871 6.7499350925735797 0 6.7499350925735797 5.7725088044192354 0 0 0 0 37.916393225212232 49.054920196861076 0 49.054920196861076 78.689521077719064 0 0 0 0 76.827854203555944 27.872062303138762 0 27.872062303138762 -47.158669504008685 0 0 0 0 5.6596096026263183 -1.3421823718406749 0 -1.3421823718406749 3.5427446495914197 0 0 0 0 23.345243109866473 -32.257114286687298 0 -32.257114286687298 -26.883525843256393 0 0 0 0 8.8393163392455563 15.730065132758966 0 15.730065132758966 7.9810005510030351 0 0 0 0 16.104368816104397 8.7271867640945544 0 8.7271867640945544 8.0347796026126161 0 0 0 0 3.1014113948189035 4.3528121141823064 0 4.3528121141823064 5.9977068499360158 0 0 0 0 3.9105990866568234 2.2194381839017705 0 2.2194381839017705 2.3736535186481502 0 0 0 0 5.1083654893732273 15.582525085256066 0 15.582525085256066 11.437338009185169 0 0 0 0 18.994308592238781 13.24393148842414 0 13.24393148842414 8.9766168905819619 0 0 0 0 1.4222108482954354 62.958400543936477 0 62.958400543936477 20.644638196275537 0 0 0 0 37.400472389001152 4.2124489639677449 0 4.2124489639677449 -5.6816709027864363 0 0 0 0 3.0176638587672642 -8.3010438668925417 0 -8.3010438668925417 112.72862544209602 0 0 0 0 49.414860764998593 204.23167177023424 0 204.23167177023424 -165.51886082145211 0 0 0 0 120.31545532671407 5.158935079569801 0 5.158935079569801 6.429397982973569 0 0 0 0 45.654573296349554 27.761591675474392 0 27.761591675474392 23.0771527889965 0 0 0 0 117.32668748243765 69.837798881568943 0 69.837798881568943 25.461227762825729 0 0 0 0 43.860591026620568 9.0691648671397616 0 9.0691648671397616 -7.2365778083935766 0 0 0 0 49.454117335880255 39.321992012794908 0 39.321992012794908 38.523927686333991 0 0 0 0 72.81048278677099 15.645754708220238 0 15.645754708220238 0.19060883538440976 0 0 0 0 33.685544879329427 19.604709063024131 0 19.604709063024131 5.4360304486520477 0 0 0 0 9.0986629986800835 19.165854729134026 0 19.165854729134026 3.7201538929106732 0 0 0 0 5.1539016927250625 13.144898950094658 0 13.144898950094658 12.660364996770518 0 0 0 0 -3.6065865866266904 26.821535338449394 0 26.821535338449394 9.2068065713528995 0 0 0 0 -7.1875000741106305 10.802888614636515 0 10.802888614636515 13.939846878227399 0 0 0 0 28.302985839722169 6.2373145420465335 0 6.2373145420465335 6.9281822899508825 0 0 0 0 20.992770922059549 27.806201897183314 0 27.806201897183314 10.478648649956313 0 0 0 0 29.210364126811328 16.306738713212098 0 16.306738713212098 3.5244601709326844 0 0 0 0 8.0745776503345912 11.330026640402743 0 11.330026640402743 -4.8781221768434069 0 0 0 0 12.12986871926952 21.228202571255736 0 21.228202571255736 5.9470613689319087 0 0 0 0 -47.520827146599913 79.823126284531099 0 79.823126284531099 1.1835550229207001 0 0 0 0 32.429132242532276 24.490191943034606 0 24.490191943034606 8.2065056233103775 0 0 0 0 28.684605256297914 28.003047357111285 0 28.003047357111285 -22.49659833923215 0 0 0 0 -2.3937485846084385 8.4784264350607614 0 8.4784264350607614 9.6291391988673602 0 0 0 0 17.371515205857577 19.904269918573391 0 19.904269918573391 11.465954677596073 0 0 0 0 0.64300702910986729 71.936222364734931 0 71.936222364734931 -3.3559686561029594 0 0 0 0 -52.694814641283301 37.257143687955704 0 37.257143687955704 57.638557992710048 0 0 0 0 -382.97369712002546 137.54299922701284 0 137.54299922701284 88.177282707356426 0 0 0 0 2.4889894271791491 2.7992391103304328 0 2.7992391103304328 1.7117839187677273 0 0 0 0 23.485201801317487 14.915819294070017 0 14.915819294070017 -0.52640756405769218 0 0 0 0 18.08142608190974 19.660728826309878 0 19.660728826309878 11.533590818018297 0 0 0 0 22.999680086375974 19.868972568175764 0 19.868972568175764 9.4581973841545732 0 0 0 0 23.172196050629601 22.178095530043159 0 22.178095530043159 3.6433582929576609 0 0 0 0 19.068791137746302 21.877981581594668 0 21.877981581594668 8.4334108634493532 0 0 0 0 -67.398670866517023 269.663186719642 0 269.663186719642 6.1010584085279334 0 0 0 0 -0.71700000333112257 183.34214822955983 0 183.34214822955983 -142.6181893074945 0 0 0 0 -120.47370537199458 161.82982476913685 0 161.82982476913685 99.791575178247513 0 0 0 0 -54.429029753078794 153.01844285174457 0 153.01844285174457 -136.78619465474412 0 0 0 0 -193.91282035008044 154.11833219911614 0 154.11833219911614 -11.472920577263721 0 0 0 0 -119.95109772709839 159.89395650862753 0 159.89395650862753 -33.330828148192268 0 0 0 0 -33.293371459716582 98.103553664862375 0 98.103553664862375 -2.2258049907619579 0 0 0 0 -58.622735734166781 237.99720614637317 0 237.99720614637317 -206.43500982390879 0 0 0 0 28.393691370118731 20.2847447631321 0 20.2847447631321 8.3960742296229007 0 0 0 0 42.393883720793383 47.183574471931706 0 47.183574471931706 -25.287244480205686 0 0 0 0 -93.178583886268825 118.72439296676157 0 118.72439296676157 -163.35201069410778 0 0 0 0 25.586423002096126 21.093807277748283 0 21.093807277748283 20.222424156997022 0 0 0 0 52.619548244897899 15.252890422603985 0 15.252890422603985 -21.537851881465766 0 0 0 0 17.926081220369724 41.221638201596704 0 41.221638201596704 29.639696825158921 0 0 0 0 -13.499351992681099 4.5626316228011428 0 4.5626316228011428 10.86311163441176 0 0 0 0 19.293962858238956 38.899464814462362 0 38.899464814462362 79.460643705563598 0 0 0 0 21.739248166940342 32.267225376234762 0 32.267225376234762 13.680087648197059 0 0 0 0 58.359245691131946 34.190122169828101 0 34.190122169828101 12.171570983760148 0 0 0 0 12.681909661165264 -16.171903044714782 0 -16.171903044714782 -57.58407403536566 0 0 0 0 4.4861568062916746 2.4373983687632763 0 2.4373983687632763 -3.3726054339385811 0 0 0 0 48.209519291542165 83.927541014350936 0 83.927541014350936 93.505991060603264 0 0 0 0 29.709858756076034 13.653419798103871 0 13.653419798103871 -15.486809962343997 0 0 0 0 94.862892411641951 -6.7931289069235845 0 -6.7931289069235845 -26.755066779233175 0 0 0 0 68.743712448345832 72.447402890715239 0 72.447402890715239 26.686095023861071 0 0 0 0 100.44591544043772 97.7262637759992 0 97.7262637759992 42.371159758105478 0 0 0 0 47.758717359999537 64.35343704441766 0 64.35343704441766 77.340791798032569 0 0 0 0 60.193300485661894 58.519400052252223 0 58.519400052252223 69.428623445736434 0 0 0 0 195.21418643745983 91.437874933286764 0 91.437874933286764 51.183582928804071 0 0 0 0 73.180814357390318 41.148775571514761 0 41.148775571514761 -7.1078754528689387 0 0 0 0 37.681418118711917 81.152105162706448 0 81.152105162706448 47.942951921189433 0 0 0 0 123.25866713843152 80.667363402024762 0 80.667363402024762 52.373859611139892 0 0 0 0 59.210683500640698 38.468822487876878 0 38.468822487876878 82.38067177423909 0 0 0 0 113.14322401508207 41.528202865083358 0 41.528202865083358 101.46776288067394 0 0 0 0 147.65878357116787 93.791850303218553 0 93.791850303218553 63.621999799881451 0 0 0 0 98.811795161581358 78.714255859334116 0 78.714255859334116 44.273038665793138 0 0 0 0 111.24351380594635 125.03497044323751 0 125.03497044323751 153.46136463406862 0 0 0 0 186.506606038261 123.53948421821974 0 123.53948421821974 116.55789224195678 0 0 0 0 -6.9150575857206817 -0.29129486887207046 0 -0.29129486887207046 6.5735301691850561 0 0 0 0 134.98575533969108 154.22491793063716 0 154.22491793063716 104.69664685109569 0 0 0 0 17.194573200851551 5.0837025532731559 0 5.0837025532731559 -9.3161218908483647 0 0 0 0 6.873433590173315 2.9327293426252772 0 2.9327293426252772 -1.3669503753754015 0 0 0 0 20.080614239837814 6.5117280492420377 0 6.5117280492420377 -10.224383356721205 0 0 0 0 95.448191926949221 -7.2853032971306675 0 -7.2853032971306675 -57.996002806929425 0 0 0 0 32.256834718707807 14.024869794301543 0 14.024869794301543 -15.074737003583504 0 0 0 0 18.787803798350865 11.02041152039402 0 11.02041152039402 -6.3549680175433423 0 0 0 0 86.575619150560669 154.1651324252698 0 154.1651324252698 -105.58702189818723 0 0 0 0 46.312748379907134 81.678980658185537 0 81.678980658185537 26.704879559820711 0 0 0 0 35.585897602790666 29.263560582449504 0 29.263560582449504 13.507241302043099 0 0 0 0 2.3095146856082778 12.939245086538069 0 12.939245086538069 3.0963800833467521 0 0 0 0 31.613542396527919 45.65773646568482 0 45.65773646568482 55.192065254135741 0 0 0 0 13.974702645135039 9.1466406670464266 0 9.1466406670464266 -5.9241705743512796 0 0 0 0 19.876962821784417 18.372231457353305 0 18.372231457353305 10.95888054141346 0 0 0 0 24.64246787653795 5.0974426893031461 0 5.0974426893031461 -6.9862619768781258 0 0 0 0 70.581134732590726 15.548791355398862 0 15.548791355398862 -24.601235759292649 0 0 0 0 21.902221877718148 20.39127838747288 0 20.39127838747288 16.280023926870285 0 0 0 0 43.113242702766001 32.199957026203833 0 32.199957026203833 14.223938936431892 0 0 0 0 43.320864276607608 22.58512275349517 0 22.58512275349517 6.4500311854723691 0 0 0 0 17.477177534161079 13.598081726075055 0 13.598081726075055 2.3153881096240219 0 0 0 0 -105.71473381829219 45.503343341929408 0 45.503343341929408 143.79576659935464 0 0 0 0 117.53338000502663 67.064336889148763 0 67.064336889148763 -39.756338038440845 0 0 0 0 44.399780011119901 64.301877204436551 0 64.301877204436551 78.43054096612741 0 0 0 0 -17.024733641214908 6.1243086806313052 0 6.1243086806313052 6.1825975483860347 0 0 0 0 79.328919211806351 97.059470842410065 0 97.059470842410065 34.376276961292206 0 0 0 0 19.081161020988247 124.20233970838171 0 124.20233970838171 207.09651204892452 0 0 0 0 64.892332046644924 90.991768662934192 0 90.991768662934192 68.501875746642554 0 0 0 0 33.364500988526288 51.75704351903596 0 51.75704351903596 32.55508916164672 0 0 0 0 -15.455896134008196 4.9193029172181859 0 4.9193029172181859 8.3081740434535245 0 0 0 0 39.415792356769543 171.58359149257697 0 171.58359149257697 92.33070475424455 0 0 0 0 37.321725432142557 63.807975507366791 0 63.807975507366791 21.961043848962618 0 0 0 0 57.542959452181094 -71.762066478061854 0 -71.762066478061854 17.561920068769496 0 0 0 0 42.395958946734964 24.54018635019866 0 24.54018635019866 15.524539622923214 0 0 0 0 67.88469170514486 54.981751790436647 0 54.981751790436647 -19.42237276958258 0 0 0 0 55.372745135288824 32.984853971554003 0 32.984853971554003 -13.22558324387137 0 0 0 0 -1.1057270485585349 22.562624873353222 0 22.562624873353222 -3.5157511872777185 0 0 0 0 12.584084467223875 121.2506682869498 0 121.2506682869498 21.553024810222269 0 0 0 0 296.16432981180333 77.764551779039721 0 77.764551779039721 -45.086945010782074 0 0 0 0 130.08912128790689 216.23953893633188 0 216.23953893633188 203.39894967686269 0 0 0 0 127.90257672112784 -8.3765133945416892 0 -8.3765133945416892 166.51356468865379 0 0 0 0 8.7812502518613655 -11.480333412469349 0 -11.480333412469349 11.490949549336619 0 0 0 0 -17.018390913692084 11.848108582081545 0 11.848108582081545 -3.2862566725911044 0 0 0 0 98.727289671687231 36.832426497516053 0 36.832426497516053 16.955223399314491 0 0 0 0 59.119309898428128 58.297467883877289 0 58.297467883877289 5.3940338250233708 0 0 0 0 58.430244863317171 71.073409243846072 0 71.073409243846072 58.546264024230595 0 0 0 0 -1.5540982310061935 1.8538998819295358 0 1.8538998819295358 -3.8846609774837724 0 0 0 0 112.09276993203457 119.75341914881801 0 119.75341914881801 27.636617184113902 0 0 0 0 79.420304723233983 -191.64940924069143 0 -191.64940924069143 377.83972071077824 0 0 0 0 273.79585137487447 335.79905854964181 0 335.79905854964181 15.585148706753898 0 0 0 0 294.49286666587068 110.95923997383579 0 110.95923997383579 68.734247523155318 0 0 0 0 62.896386794942373 271.58882467339208 0 271.58882467339208 -19.232291830145186 0 0 0 0 72.251981861871172 -10.988934633146528 0 -10.988934633146528 -36.030042914213027 0 0 0 0 90.380435394175777 57.99623035472672 0 57.99623035472672 7.1325952885590596 0 0 0 0 1.5112995454499227 10.934849139451448 0 10.934849139451448 -10.934502228630278 0 0 0 0 218.99274643691388 200.10289186027057 0 200.10289186027057 -169.60874897145004 0 0 0 0 83.799857468031405 56.122297422684824 0 56.122297422684824 48.959293909208327 0 0 0 0 90.195533601483476 45.66467302463343 0 45.66467302463343 26.387251035239387 0 0 0 0 136.03393886666709 14.916570212102897 0 14.916570212102897 27.692706525369431 0 0 0 0 39.672067574363609 13.714584673214631 0 13.714584673214631 32.341458931080069 0 0 0 0 210.0383431416376 29.085754567729055 0 29.085754567729055 -52.096081689033781 0 0 0 0 338.13252029841169 8.0128845164822451 0 8.0128845164822451 -48.976254073174232 0 0 0 0 188.80765043556312 50.936315324046063 0 50.936315324046063 -46.151824663425941 0 0 0 0 104.50244729547194 43.538906571070584 0 43.538906571070584 14.369150250528946 0 0 0 0 230.80558474710779 33.783072567664931 0 33.783072567664931 -67.623243099153115 0 0 0 0 229.38147850454709 52.957768191174978 0 52.957768191174978 -44.429268784296255 0 0 0 0 166.09331949964871 16.481818291311583 0 16.481818291311583 -64.856452847926448 0 0 0 0 279.69118826789054 -54.912220366165002 0 -54.912220366165002 -71.946794023871007 0 0 0 0 114.5731312030257 182.27140507840113 0 182.27140507840113 -121.05657867267018 0 0 0 0 232.13641287458449 82.005201237586334 0 82.005201237586334 -35.545673050416326 0 0 0 0 226.09402506260449 60.680756461314104 0 60.680756461314104 -102.24264084017886 0 0 0 0 312.43188575949171 30.119974136590372 0 30.119974136590372 -151.85616446092899 0 0 0 0 539.9373756278037 -23.887897906294256 0 -23.887897906294256 -222.30850451487549 0 0 0 0 382.3187484827522 164.20157563622951 0 164.20157563622951 -311.01951835624641 0 0 0 0 360.32064217278776 -0.91820359110295158 0 -0.91820359110295158 -136.17068180703973 0 0 0 0 507.156643440263 -27.288454214154626 0 -27.288454214154626 -162.04337413981557 0 0 0 0 845.30925293412292 25.529145617875656 0 25.529145617875656 -56.108325593692484 0 0 0 0 409.04008113536838 -6.3753843872887046 0 -6.3753843872887046 -52.7907101481469 0 0 0 0 190.47835804108308 -99.065273066671921 0 -99.065273066671921 -16.211207092438599 0 0 0 0 206.85205583270726 -64.755219688246143 0 -64.755219688246143 -64.597329409085432 0 0 0 0 145.89994550035044 -103.05319057051929 0 -103.05319057051929 103.96127526736427 0 0 0 0 383.96919252815132 -186.40392076398484 0 -186.40392076398484 10.397257618091317 0 0 0 0 129.01075182664727 -17.829456576317 0 -17.829456576317 8.9937618936810395 0 0 0 0 342.97200816800614 546.54352891356348 0 546.54352891356348 130.29163839494367 0 0 0 0 3.6131426641920967 1.5374267649591467 0 1.5374267649591467 0.84482704850057111 0 0 0 0 62.344382281147318 -90.266312203266125 0 -90.266312203266125 -142.84792171180743 0 0 0 0 357.43051452015789 -254.73144555498538 0 -254.73144555498538 211.70192608183424 0 0 0 0 887.13934778085604 -341.09293763784717 0 -341.09293763784717 223.5155651508785 0 0 0 0 355.30158101392226 176.7242223206099 0 176.7242223206099 151.90427778653157 0 0 0 0 1127.5717186610491 375.31794548449398 0 375.31794548449398 198.9882639427135 0 0 0 0 -92.894021210426217 94.876266079208165 0 94.876266079208165 52.4608760300695 0 0 0 0 1.1548016312369924 -0.89130457086806203 0 -0.89130457086806203 1.8754643980191119 0 0 0 0 616.5131521097428 455.25214225820901 0 455.25214225820901 -140.10432377853795 0 0 0 0 -32.274408776298515 -139.132677177196 0 -139.132677177196 -30.992726290690371 0 0 0 0 140.87037625990342 672.46980956242805 0 672.46980956242805 -184.66873733112334 0 0 0 0 -13.775311139569791 9.4431746833667773 0 9.4431746833667773 3.6576993017260993 0 0 0 0 -161.87707269036491 97.716714637679843 0 97.716714637679843 199.15368900076101 0 0 0 0 52.678108610112758 64.659057668999139 0 64.659057668999139 27.734250263824094 0 0 0 0 -18.724618968421964 0.299662503590298 0 0.299662503590298 39.319318735514685 0 0 0 0 16.000888041349754 64.945296880810474 0 64.945296880810474 48.70766436752865 0 0 0 0 77.995981128235144 51.792194530555207 0 51.792194530555207 48.259197827267599 0 0 0 0 -11.3618676334249 4.3185867030166847 0 4.3185867030166847 10.078346600079254 0 0 0 0 8.2578169889843593 13.400450301045566 0 13.400450301045566 43.067551376952906 0 0 0 0 280.83253835333744 387.34433815317061 0 387.34433815317061 -166.32732601827638 0 0 0 0 31.562639633816616 67.519884887002718 0 67.519884887002718 93.919332921208479 0 0 0 0 44.013675689220811 18.14736812485026 0 18.14736812485026 -19.285295781509546 0 0 0 0 61.01214436032933 62.100196225572745 0 62.100196225572745 29.244097074275487 0 0 0 0 34.578194073379564 209.18910022215459 0 209.18910022215459 121.55053070108534 0 0 0 0 254.38641570066102 -88.128213255742594 0 -88.128213255742594 -241.43517576476552 0 0 0 0 239.99480896160821 231.59625028470373 0 231.59625028470373 -520.82718110676751 0 0 0 0 21.095324544259768 19.083567448199211 0 19.083567448199211 7.8676580094348978 0 0 0 0 189.50609543266182 229.82439262456865 0 229.82439262456865 -306.56185290088251 0 0 0 0 12.788859786011017 -54.648654603263822 0 -54.648654603263822 -657.86962578824205 0 0 0 0 2.5831900610202183 3.4905016598572054 0 3.4905016598572054 3.4465569789774921 0 0 0 0 50.388023957144469 90.817266673771883 0 90.817266673771883 -398.79176394923252 0 0 0 0 188.50966204637371 -29.097394998805612 0 -29.097394998805612 -296.1992884481806 0 0 0 0 260.47750463974808 -118.9046422164738 0 -118.9046422164738 103.22401269228885 0 0 0 0 140.45062742057189 234.74460138007743 0 234.74460138007743 392.74055923191918 0 0 0 0 132.03753064559714 113.12903758487801 0 113.12903758487801 -132.9175399555761 0 0 0 0 170.91918965888181 444.25918528036868 0 444.25918528036868 249.28935985391217 0 0 0 0 517.48639117439598 85.899487814768236 0 85.899487814768236 -270.49000803622994 0 0 0 0 298.63901944886697 -86.947615564499898 0 -86.947615564499898 -84.069467709523451 0 0 0 0 331.31224873411338 -11.743747628183428 0 -11.743747628183428 -486.82440270914685 0 0 0 0 -9.6003159082574712 13.481129396162487 0 13.481129396162487 9.1942743412273558 0 0 0 0 368.75406842002667 162.86162242882619 0 162.86162242882619 90.519061205839535 0 0 0 0 287.33063961567109 46.025708119269268 0 46.025708119269268 6.5525270045263824 0 0 0 0 219.05455607079512 54.098665019070609 0 54.098665019070609 -1.464470446661835 0 0 0 0 44.830885764422419 110.95629206206468 0 110.95629206206468 -16.976900581078098 0 0 0 0 96.693783329883445 -23.138857666991953 0 -23.138857666991953 -328.83953895905506 0 0 0 0 149.96887970241369 -137.08807089566744 0 -137.08807089566744 -618.72821006240156 0 0 0 0 33.203651869412823 21.004715085464731 0 21.004715085464731 -19.01498116682432 0 0 0 0 -30.739797309810456 -148.4081001250193 0 -148.4081001250193 -306.94916343478781 0 0 0 0 207.30644722701709 -72.102466285425976 0 -72.102466285425976 -351.44109112671595 0 0 0 0 932.9711667058873 431.66077969160324 0 431.66077969160324 498.46235987757609 0 0 0 0 0.961706157952392 8.6840487508323037 0 8.6840487508323037 8.9787612626393667 0 0 0 0 12.429730531007621 13.885612794482709 0 13.885612794482709 7.0018975835115782 0 0 0 0 -58.623268327995902 98.425597795735484 0 98.425597795735484 17.039539456887724 0 0 0 0 164.00339812417951 162.23901351880977 0 162.23901351880977 -457.19524749755647 0 0 0 0 -196.63187918503536 -421.30288611183005 0 -421.30288611183005 -811.68279933490885 0 0 0 0 -372.28145572460198 -552.37132082484186 0 -552.37132082484186 -875.36056120618377 0 0 0 0 196.12363566184649 -1.1258915320886445 0 -1.1258915320886445 -842.88423839796269 0 0 0 0 0.013429985260572153 3.8840341808053935 0 3.8840341808053935 4.7617312354981411 0 0 0 0 841.85366993561001 264.23160885706653 0 264.23160885706653 -166.81724110229879 0 0 0 0 9.4549911958602024 0.27764952657048525 0 0.27764952657048525 19.986461223344492 0 0 0 0 842.79169235324844 698.54858313468003 0 698.54858313468003 59.859703944061039 0 0 0 0 -3.0746684155989783 -1.8889849731830068 0 -1.8889849731830068 14.609654909680744 0 0 0 0 877.29765435814988 593.58966600479266 0 593.58966600479266 61.011768468115406 0 0 0 0 669.88364227422426 369.00192075204359 0 369.00192075204359 -47.52712446331725 0 0 0 0 614.39949355762656 578.36623238610446 0 578.36623238610446 367.04717745999642 0 0 0 0 24.30210139047449 36.80330206535973 0 36.80330206535973 87.344022794733519 0 0 0 0 -5.7007410176295181 3.3716857270552936 0 3.3716857270552936 21.891765604391008 0 0 0 0 -16.578845234413166 42.415658128290687 0 42.415658128290687 -4.4779993206891504 0 0 0 0 980.46304013233021 250.49815615821808 0 250.49815615821808 581.69711453252603 0 0 0 0 -7.4702463259709475 -52.105174138323491 0 -52.105174138323491 39.354242357827388 0 0 0 0 -0.14036045867790392 -0.84303981806514017 0 -0.84303981806514017 8.091121278359644 0 0 0 0 864.93304182212887 528.5615520932065 0 528.5615520932065 13.649962105413579 0 0 0 0 -12.231254557824286 223.63985886960768 0 223.63985886960768 162.47731857796407 0 0 0 0 373.40907701690958 386.36474020090964 0 386.36474020090964 243.05462259402793 0 0 0 0 562.06711177513716 388.92489596639894 0 388.92489596639894 93.176045350846834 0 0 0 0 569.82803817465174 346.61358301672044 0 346.61358301672044 276.3954624852779 0 0 0 0 124.41497169893773 -77.779372632866853 0 -77.779372632866853 -166.2649049333013 0 0 0 0 137.06291538244841 109.66456604332052 0 109.66456604332052 101.86372581889509 0 0 0 0 356.21653395950761 120.04852573066032 0 120.04852573066032 -59.034133606541218 0 0 0 0 -95.957679475541227 -81.815975158371259 0 -81.815975158371259 -45.601563563252057 0 0 0 0 -187.29963377789863 -343.97484135109113 0 -343.97484135109113 -149.29354967106701 0 0 0 0 385.77700574714981 114.96408939059756 0 114.96408939059756 -167.49760396922534 0 0 0 0 353.67426534600418 135.29451641294759 0 135.29451641294759 -9.0223505676958666 0 0 0 0 502.87935399212438 371.99214165939702 0 371.99214165939702 111.44634723392392 0 0 0 0 630.46348785420741 213.70253002216771 0 213.70253002216771 -166.95483547488948 0 0 0 0 646.00512926134252 163.01241709048782 0 163.01241709048782 -123.99868458648416 0 0 0 0 588.31236391959101 203.0759692897791 0 203.0759692897791 -111.40863049952327 0 0 0 0 578.74220033018355 249.32105701457112 0 249.32105701457112 -144.63208052268192 0 0 0 0 58.129466252390557 -145.8746572377238 0 -145.8746572377238 -86.039764520764493 0 0 0 0 759.17946557968844 -59.663938483760603 0 -59.663938483760603 -241.5649079623181 0 0 0 0 360.19879702688559 91.597170398063099 0 91.597170398063099 329.40497506471183 0 0 0 0 591.08777456899043 304.29742313041515 0 304.29742313041515 -15.041558976814486 0 0 0 0 -86.501386373206515 -28.821869606243354 0 -28.821869606243354 -122.94422746352211 0 0 0 0 -65.160747994950725 -126.90155976378355 0 -126.90155976378355 325.28552249744371 0 0 0 0 -379.71409054389005 -491.97663965062043 0 -491.97663965062043 -22.354310431745205 0 0 0 0 6.7850750965728892 -7.2399937304148096 0 -7.2399937304148096 4.6238956612591782 0 0 0 0 279.28129472394903 -13.871703107354506 0 -13.871703107354506 -67.634969718303637 0 0 0 0 309.74823441194667 -28.291623038780585 0 -28.291623038780585 -61.415177413802212 0 0 0 0 -5.3179622267889499 -31.582201893730144 0 -31.582201893730144 -279.29494317239278 0 0 0 0 53.331685069684681 -106.81712365578187 0 -106.81712365578187 11.866658259284122 0 0 0 0 9.2690173439078336 -9.1660713387945307 0 -9.1660713387945307 4.1885732181875248 0 0 0 0 143.55955901517882 -33.053205393940061 0 -33.053205393940061 -42.976470077532667 0 0 0 0 89.035532711899577 -108.2354542368123 0 -108.2354542368123 88.994017653395531 0 0 0 0 58.077565770905721 12.773012026099764 0 12.773012026099764 29.064770896821756 0 0 0 0 -58.953716459058342 -21.693218294532016 0 -21.693218294532016 26.168556669413647 0 0 0 0 -45.534522976107837 -15.985124348155296 0 -15.985124348155296 71.170234812778517 0 0 0 0 -46.564344801440711 -27.240588030739787 0 -27.240588030739787 13.226767695051421 0 0 0 0 -25.610034565885144 -137.04607303419743 0 -137.04607303419743 -140.67271713313539 0 0 0 0 9.9073143210613139 -7.8183841460237353 0 -7.8183841460237353 1.6738777348125744 0 0 0 0 10.256402893399681 2.1225911974502942 0 2.1225911974502942 0.04065739761088949 0 0 0 0 45.809990815796482 -1.2775353931879181 0 -1.2775353931879181 -243.95029005328752 0 0 0 0 -46.027354747326171 -99.382343050572672 0 -99.382343050572672 121.15430902562366 0 0 0 0 336.61463300803734 -120.80559917012852 0 -120.80559917012852 23.566733650644892 0 0 0 0 1.5278263236340308 -0.2174504334708196 0 -0.2174504334708196 -0.49826391315706431 0 0 0 0 0.63650911946388078 -57.244753786174442 0 -57.244753786174442 139.47615099540144 0 0 0 0 45.741614262959047 87.996903209494121 0 87.996903209494121 2.551578607924057 0 0 0 0 177.20989415074087 -38.200023991687999 0 -38.200023991687999 -5.9456130226717505 0 0 0 0 185.51828216884724 101.62926379242165 0 101.62926379242165 -54.950303634877855 0 0 0 0 -1.1259016157924719 -2.1565312847965252 0 -2.1565312847965252 -0.29356856280327648 0 0 0 0 30.751515434614703 -40.742444825261146 0 -40.742444825261146 59.177055402391488 0 0 0 0 -36.974639694548387 25.900843637421531 0 25.900843637421531 -5.9852201762032564 0 0 0 0 -12.531972541630239 25.43458600776512 0 25.43458600776512 4.9204135022000344 0 0 0 0 -19.421661229829624 -31.410751705824623 0 -31.410751705824623 62.721966906187845 0 0 0 0 -30.135097198663971 -12.810607334914266 0 -12.810607334914266 50.689922811767246 0 0 0 0 60.965903168849763 -12.258656245544898 0 -12.258656245544898 4.3801185180955144 0 0 0 0 -4.1063156296877423 29.545039756248798 0 29.545039756248798 7.7110177436134109 0 0 0 0 -0.29892669904227986 0.88114218701687719 0 0.88114218701687719 -2.096349721545387 0 0 0 0 34.266995957064864 21.465398309229272 0 21.465398309229272 -33.204863024428505 0 0 0 0 94.063415576609259 -58.137354591206986 0 -58.137354591206986 -9.1996399940662741 0 0 0 0 57.473399787304515 -13.208337776274675 0 -13.208337776274675 9.8717083965839265 0 0 0 0 37.486272379041111 -5.0752847580389471 0 -5.0752847580389471 -26.632181510953615 0 0 0 0 1.637820224190861 0.60466927109290225 0 0.60466927109290225 -6.9856309655451838 0 0 0 0 30.73709733234773 -15.043761737935029 0 -15.043761737935029 -40.006598723760362 0 0 0 0 27.097542200732278 17.45206255466519 0 17.45206255466519 -40.321001060290882 0 0 0 0 21.016091475630674 13.983887527212119 0 13.983887527212119 32.475408276342023 0 0 0 0 39.568116045005809 35.512845181779539 0 35.512845181779539 -31.499618949958858 0 0 0 0 -0.53430201339760686 -0.35550497935718894 0 -0.35550497935718894 -0.52267508626149173 0 0 0 0 21.214315657716725 113.6527901530535 0 113.6527901530535 -65.693620871436906 0 0 0 0 13.900237412977731 -38.890789021839737 0 -38.890789021839737 46.520889204830496 0 0 0 0 23.917666144916438 -40.721207564941778 0 -40.721207564941778 -21.641157437974471 0 0 0 0 22.087272338271134 -4.1804235863360315 0 -4.1804235863360315 -2.1507337530486508 0 0 0 0 46.657653883208695 -11.930775657442609 0 -11.930775657442609 -23.541965766021804 0 0 0 0 1.5452587890518945 -10.010067829169607 0 -10.010067829169607 -5.5695772322478234 0 0 0 0 35.292390299531689 -16.194764398758707 0 -16.194764398758707 -15.165432220262119 0 0 0 0 29.564936129874695 -2.4200424776081491 0 -2.4200424776081491 -10.124229292236123 0 0 0 0 34.571234234019357 3.470669665506648 0 3.470669665506648 -31.086344361385727 0 0 0 0 52.034953546870383 24.359564725857126 0 24.359564725857126 -17.338599741171492 0 0 0 0 4.2313009108669206 1.2714832008761805 0 1.2714832008761805 -3.601080473595875 0 0 0 0 29.944521471625194 2.2056840453446966 0 2.2056840453446966 -53.572792560380549 0 0 0 0 20.528746052303177 -4.572120076515148 0 -4.572120076515148 -20.579306597255822 0 0 0 0 19.256505612036563 -13.367802924585305 0 -13.367802924585305 -37.909213164696666 0 0 0 0 2.662256752148096 23.077350174380285 0 23.077350174380285 -28.158854724290336 0 0 0 0 30.860653776326217 7.6127543109598719 0 7.6127543109598719 -29.358633812230437 0 0 0 0 9.4307865761554623 -8.6962592438544988 0 -8.6962592438544988 -3.9894970325619203 0 0 0 0 -2.8824358318684062 -16.16449602644451 0 -16.16449602644451 2.0475498477562724 0 0 0 0 10.087317022909701 -23.176581715303428 0 -23.176581715303428 -22.955243952489582 0 0 0 0 3.9785741163884794 -1.2334503447830514 0 -1.2334503447830514 -0.70853715470908618 0 0 0 0 19.293154933970072 -7.845109477205142 0 -7.845109477205142 0.0879826097516343 0 0 0 0 8.270127900907454 -6.93169466631376 0 -6.93169466631376 -3.0589960005111152 0 0 0 0 -4.427235001405279 -14.448310087387654 0 -14.448310087387654 3.3861474065342918 0 0 0 0 4.9646787224691025 -8.3736507626543073 0 -8.3736507626543073 4.3914758941327818 0 0 0 0 5.5792413588387717 -15.756207423427441 0 -15.756207423427441 -2.6343890343596286 0 0 0 0 18.408533405507114 -19.897916552333754 0 -19.897916552333754 -4.1922825186288719 0 0 0 0 29.931604502658956 -9.8735540685493106 0 -9.8735540685493106 -11.846119510494646 0 0 0 0 10.187620363815768 -17.476304430506616 0 -17.476304430506616 -0.93989630868236418 0 0 0 0 -48.26675053389954 -16.629212970675326 0 -16.629212970675326 2.2298823494265889 0 0 0 0 -9.2247736329300096 -11.207935756736788 0 -11.207935756736788 1.3003184524441167 0 0 0 0 4.3382460302491381 -26.97823066656656 0 -26.97823066656656 -9.4916499167720758 0 0 0 0 -10.803238015509123 -38.134171690541734 0 -38.134171690541734 -17.800882596776319 0 0 0 0 3.2523431507433997 -19.384559484602505 0 -19.384559484602505 -9.8532162039490174 0 0 0 0 21.432997175266792 -39.425323188479524 0 -39.425323188479524 -56.439201723854239 0 0 0 0 -37.507884002239734 -55.226711023865846 0 -55.226711023865846 -41.15884638164971 0 0 0 0 -14.215388423428521 -31.473325575028866 0 -31.473325575028866 -19.176274687508794 0 0 0 0 26.051233094338386 -4.4640459857469068 0 -4.4640459857469068 -1.5777767811314334 0 0 0 0 24.307058263435657 -2.5947726172587386 0 -2.5947726172587386 -0.25458522776805381 0 0 0 0 17.083948314077134 -24.675229412860062 0 -24.675229412860062 -20.292057231083163 0 0 0 0 39.405296115146484 -3.7340403010584851 0 -3.7340403010584851 -20.330982572313872 0 0 0 0 0.9569988515996215 -0.90872178373625312 0 -0.90872178373625312 1.2405727190520794 0 0 0 0 10.872433209880001 -17.745836213618986 0 -17.745836213618986 29.615993454700401 0 0 0 0 0.11022442483391259 -7.0453124468868324 0 -7.0453124468868324 -1.4566456208720631 0 0 0 0 34.203843765648344 -13.964072267242955 0 -13.964072267242955 -10.053562120638844 0 0 0 0 42.522872540816024 -52.847645196975236 0 -52.847645196975236 48.759306746867878 0 0 0 0 54.662329654294354 -21.590341920742944 0 -21.590341920742944 -14.14802593596869 0 0 0 0 60.652728474818105 24.076499283745648 0 24.076499283745648 -21.083325540032092 0 0 0 0 34.776532355223026 -8.6202633152770431 0 -8.6202633152770431 -20.541083653329224 0 0 0 0 82.905123106502288 -7.4071571049898921 0 -7.4071571049898921 -20.810094367073816 0 0 0 0 54.783858440419408 -18.466509501860301 0 -18.466509501860301 -8.9995763648312277 0 0 0 0 65.378163126893924 22.518310797400773 0 22.518310797400773 -26.859945327227251 0 0 0 0 138.90900889412296 12.31497549341475 0 12.31497549341475 -25.498757778097001 0 0 0 0 100.31778674820453 96.839679198440535 0 96.839679198440535 118.26976608879386 0 0 0 0 119.27429080018192 -45.621154623665007 0 -45.621154623665007 0.63027887517955605 0 0 0 0 164.50195938179968 7.3090743312463928 0 7.3090743312463928 -109.38157587911064 0 0 0 0 112.89669340041837 130.86470058638201 0 130.86470058638201 -45.260957665022943 0 0 0 0 2.4273109397550012 -0.94752290505154946 0 -0.94752290505154946 2.4961032252211304 0 0 0 0 1.1539756724969266 -17.129401341496077 0 -17.129401341496077 75.379168688952632 0 0 0 0 147.55117903758219 15.645844403110004 0 15.645844403110004 -31.419060066664315 0 0 0 0 4.0542784043364009 -20.612250666325735 0 -20.612250666325735 32.250517825290444 0 0 0 0 -15.913295354355796 19.955106845024602 0 19.955106845024602 100.16329271665381 0 0 0 0 -32.853841673143506 26.465867639282237 0 26.465867639282237 196.98692712413867 0 0 0 0 -34.375812676282749 39.857033025369674 0 39.857033025369674 82.907479509653058 0 0 0 0 -35.548953577817883 242.32197026204813 0 242.32197026204813 93.083563502472316 0 0 0 0 54.237537446530041 85.238633900454261 0 85.238633900454261 -107.3804322086562 0 0 0 0 218.02023196792516 104.342413678306 0 104.342413678306 79.955709714275145 0 0 0 0 19.066606477230629 -12.46015313581195 0 -12.46015313581195 2.9501877030592389 0 0 0 0 29.946903457501321 -103.70586727295267 0 -103.70586727295267 191.62697165919963 0 0 0 0 227.03592293726888 85.827258405362045 0 85.827258405362045 38.969490359611882 0 0 0 0 280.74151579198758 83.70665888685329 0 83.70665888685329 -6.9747879896931408 0 0 0 0 198.95249120189146 114.46677908154379 0 114.46677908154379 28.270774323797923 0 0 0 0 310.12017854249484 116.59060686267367 0 116.59060686267367 13.496346901472862 0 0 0 0 280.02335270523054 109.25537954396441 0 109.25537954396441 13.047561517229042 0 0 0 0 369.99882714550586 101.6650399785774 0 101.6650399785774 -32.143904532871602 0 0 0 0 315.31289944232321 94.883286851601952 0 94.883286851601952 -28.176027307888944 0 0 0 0 308.91409321922129 47.716482438310777 0 47.716482438310777 -16.460702806771224 0 0 0 0 171.59636754544135 52.229956511620003 0 52.229956511620003 5.0630670153877873 0 0 0 0 83.223166077690109 -33.958458417068982 0 -33.958458417068982 16.114382547981222 0 0 0 0 48.469715382878348 -5.0551439184273477 0 -5.0551439184273477 -52.920569329606224 0 0 0 0 106.86234977070217 96.712054004648053 0 96.712054004648053 44.516870186862434 0 0 0 0 16.897206064027237 -11.177221194805956 0 -11.177221194805956 -0.070306110121990173 0 0 0 0 105.14193109586768 51.593060286363652 0 51.593060286363652 31.218532488000164 0 0 0 0 181.11021368386639 3.5140339145667383 0 3.5140339145667383 -21.736395496254772 0 0 0 0 374.07593787619635 5.9649382350089581 0 5.9649382350089581 -15.91810394871527 0 0 0 0 375.84427713544983 61.107784080081728 0 61.107784080081728 -27.862831934600763 0 0 0 0 182.41974429496517 22.218585123244083 0 22.218585123244083 6.861595920916443 0 0 0 0 26.999529323912874 19.301435275147949 0 19.301435275147949 6.9916533574477633 0 0 0 0 58.471949267534001 21.764078499205425 0 21.764078499205425 12.673760981208034 0 0 0 0 58.739613995823674 20.991853021937459 0 20.991853021937459 9.7404007083329134 0 0 0 0 57.360906130175863 19.196721315411196 0 19.196721315411196 14.745755245587134 0 0 0 0 57.515416720747567 18.143221776140138 0 18.143221776140138 9.3497563845048717 0 0 0 0 27.003751487295098 -11.278067644554161 0 -11.278067644554161 43.257045877609926 0 0 0 0 27.003187056731282 -7.4952977410454666 0 -7.4952977410454666 17.867835107610517 0 0 0 0 22.595859298538926 -0.047874625231997925 0 -0.047874625231997925 5.2836394395344541 0 0 0 0 21.2796200427399 -3.493134041474419 0 -3.493134041474419 -2.3259824326212772 0 0 0 0 55.361629951864415 14.898038311362143 0 14.898038311362143 13.035071474449069 0 0 0 0 43.342329598513061 -0.87146249188435831 0 -0.87146249188435831 0.29116688756585063 0 0 0 0 59.532902244282923 15.655532542627952 0 15.655532542627952 2.9458512900200731 0 0 0 0 50.956954640856566 8.9430561895314895 0 8.9430561895314895 14.778423637222204 0 0 0 0 60.301251543270155 17.794574224843473 0 17.794574224843473 8.8932458842064079 0 0 0 0 10.959691974929953 -1.2123738401482171 0 -1.2123738401482171 3.2831599753527883 0 0 0 0 0.28675681896273808 -1.459204857033594 0 -1.459204857033594 0.80012196522045897 0 0 0 0 56.298394616991118 34.278973715837765 0 34.278973715837765 23.792812292505005 0 0 0 0 98.768273842766575 18.840667879323064 0 18.840667879323064 14.973946883730605 0 0 0 0 69.981879514272805 32.379363039519376 0 32.379363039519376 10.352944975978062 0 0 0 0 46.627829314307291 10.751040343072873 0 10.751040343072873 3.8022253451363213 0 0 0 0 48.143230375313578 41.720223555658777 0 41.720223555658777 38.024567677139203 0 0 0 0 53.27874687118674 33.789329701272436 0 33.789329701272436 -19.541086055807682 0 0 0 0 66.247701375255929 10.381950326962397 0 10.381950326962397 21.779411323317618 0 0 0 0 40.986899724630348 22.031017648688248 0 22.031017648688248 24.184688204954909 0 0 0 0 82.334638999314848 -18.300439840718354 0 -18.300439840718354 57.54522826266566 0 0 0 0 31.631994931101872 12.578580868328572 0 12.578580868328572 66.628436349323238 0 0 0 0 1.1925135819947172 44.592180357385587 0 44.592180357385587 37.891593262041738 0 0 0 0 60.673439043996041 19.532384403749802 0 19.532384403749802 -86.382596405862387 0 0 0 0 2.7459839680304867 30.455498743635872 0 30.455498743635872 53.591472564959986 0 0 0 0 -15.715166394312746 20.257020975702403 0 20.257020975702403 75.131968300314838 0 0 0 0 9.8747811680532322 0.7666778702365491 0 0.7666778702365491 120.70739437809243 0 0 0 0 10.086948566484352 127.72310104198004 0 127.72310104198004 40.220479022430027 0 0 0 0 15.969724136139121 -17.96460816342551 0 -17.96460816342551 -11.058168744739305 0 0 0 0 70.108308599505108 -81.304315875529937 0 -81.304315875529937 -67.866009041066718 0 0 0 0 34.77401364459368 -5.3735649772828946 0 -5.3735649772828946 0.38017942480872779 0 0 0 0 -23.74969365105062 -57.28493120246867 0 -57.28493120246867 -63.037757290659556 0 0 0 0 52.943994205998024 -57.918753292540714 0 -57.918753292540714 -4.5808934533379215 0 0 0 0 49.255440826957056 -62.357543438749417 0 -62.357543438749417 -9.5192026365371021 0 0 0 0 38.057170712696461 4.3917263368730346 0 4.3917263368730346 -8.8007252320676344 0 0 0 0 35.94060272992283 -2.422643287444771 0 -2.422643287444771 -30.62540036410428 0 0 0 0 24.606069381949055 -10.313863203017718 0 -10.313863203017718 89.864620392474535 0 0 0 0 26.402722691083909 -117.76445467109079 0 -117.76445467109079 93.694354984798224 0 0 0 0 59.685859076369525 -146.08669293735875 0 -146.08669293735875 0.29765794906779774 0 0 0 0 36.251888951956062 -155.60189281246949 0 -155.60189281246949 46.479299357128184 0 0 0 0 -93.981146621023072 -59.672648353696786 0 -59.672648353696786 -35.355735466333499 0 0 0 0 -86.317879051654018 -1.8116275762522491 0 -1.8116275762522491 -12.34518352933992 0 0 0 0 -318.75668084101926 41.966205614357023 0 41.966205614357023 39.445463916090375 0 0 0 0 -1.7747027034783969 3.4350557112702518 0 3.4350557112702518 -7.3489287047887046 0 0 0 0 29.792885577633569 21.796469065677229 0 21.796469065677229 -53.478462609531562 0 0 0 0 48.137640384589758 -8.0359889277224283 0 -8.0359889277224283 -70.729974214389586 0 0 0 0 17.810891713146702 4.1377156229409593 0 4.1377156229409593 -1.6444271553955332 0 0 0 0 12.064504420981393 24.914603505305877 0 24.914603505305877 -35.507464304817404 0 0 0 0 271.01153245417663 17.153591817948836 0 17.153591817948836 -79.084504438682416 0 0 0 0 27.778116129148657 -11.88777335754412 0 -11.88777335754412 -11.429875902901586 0 0 0 0 39.353777455915406 -11.270253643950127 0 -11.270253643950127 -11.41618549487157 0 0 0 0 44.803793047077065 -2.5071150512628897 0 -2.5071150512628897 -0.62274658670452077 0 0 0 0 101.42602936362164 -30.692716754379035 0 -30.692716754379035 -34.500547726952846 0 0 0 0 -9.117709141776686 -29.393751789818452 0 -29.393751789818452 -8.3609093588311225 0 0 0 0 17.081820373668027 3.9660306269564067 0 3.9660306269564067 0.32886982793577246 0 0 0 0 40.001339395417745 -8.3562740106335696 0 -8.3562740106335696 -8.8683584085238181 0 0 0 0 33.830931516524288 -7.0522495050372527 0 -7.0522495050372527 13.066671908973603 0 0 0 0 16.461052226710308 15.048881313538914 0 15.048881313538914 5.2707422101866541 0 0 0 0 31.548722427211032 -5.6772161620729094 0 -5.6772161620729094 -6.9983839631778437 0 0 0 0 33.550764674604579 0.2597111483619301 0 0.2597111483619301 6.408748660598576 0 0 0 0 20.446403197618565 -9.09003156831659 0 -9.09003156831659 2.1709373106059502 0 0 0 0 52.281299123698773 15.700578734980809 0 15.700578734980809 7.8741048968413452 0 0 0 0 50.875181562683792 15.488668031367524 0 15.488668031367524 28.884015414685564 0 0 0 0 56.875580000520131 -4.5823698111316844 0 -4.5823698111316844 10.59018333032418 0 0 0 0 68.190137225697981 26.419134766991192 0 26.419134766991192 2.1126944732641277 0 0 0 0 82.954535162863976 -17.490506707735221 0 -17.490506707735221 14.101675871290354 0 0 0 0 -10.736299908615145 4.7216903180378544 0 4.7216903180378544 6.346232838610371 0 0 0 0 13.97908623321147 5.0192578870655673 0 5.0192578870655673 0.19254479827161219 0 0 0 0 29.145751675062456 30.313250909425733 0 30.313250909425733 -19.455717750445842 0 0 0 0 20.25983280367916 14.455193617919972 0 14.455193617919972 3.7097194079829912 0 0 0 0 -12.240768367226337 24.702347697378173 0 24.702347697378173 2.9923018222771134 0 0 0 0 -15.669536719165535 14.112016369967705 0 14.112016369967705 3.0205464640002901 0 0 0 0 18.892941572716154 28.57878746901406 0 28.57878746901406 0.52038734877032766 0 0 0 0 -13.261450800091552 20.262504362898653 0 20.262504362898653 4.5650734938417372 0 0 0 0 -13.97111881120145 25.251979906040447 0 25.251979906040447 -3.8283738804311724 0 0 0 0 19.602839577317354 15.086867054712457 0 15.086867054712457 -12.557911834528568 0 0 0 0 33.572269393448551 31.538880009416971 0 31.538880009416971 -7.8813315708966911 0 0 0 0 27.703024292214664 16.962868357826498 0 16.962868357826498 2.2965341268659536 0 0 0 0 23.752418217281274 26.218106000496164 0 26.218106000496164 2.3006950499438972 0 0 0 0 40.105435032243804 13.431204566975339 0 13.431204566975339 -0.65553182345502137 0 0 0 0 33.021678550485952 10.88467028997918 0 10.88467028997918 0.89009710294264188 0 0 0 0 21.832785354214138 16.970972706556495 0 16.970972706556495 -34.511152496768773 0 0 0 0 72.557753558252443 18.472693162598716 0 18.472693162598716 -38.597237855983394 0 0 0 0 155.06414445433984 26.621051298910061 0 26.621051298910061 -51.819198600961499 0 0 0 0 7.055691626125558 -1.597566680453629 0 -1.597566680453629 -1.8685363820146286 0 0 0 0 14.033711378095177 38.480136715051231 0 38.480136715051231 -11.184991644865477 0 0 0 0 10.672406213416252 -12.800080034811799 0 -12.800080034811799 22.281731856759961 0 0 0 0 2.7190275052810904 4.4118320211565916 0 4.4118320211565916 6.2518105092461269 0 0 0 0 61.486315820438904 -34.435574787732548 0 -34.435574787732548 2.634668723856521 0 0 0 0 83.240160677865788 17.940359331536456 0 17.940359331536456 -35.195586575867765 0 0 0 0 -12.909717764323432 11.74617879258858 0 11.74617879258858 -3.006168512494412 0 0 0 0 -17.028360283949951 13.056915701811249 0 13.056915701811249 9.9053464398730284 0 0 0 0 -14.580902799045361 9.7860509753822953 0 9.7860509753822953 3.1063537167901814 0 0 0 0 -15.259330279735877 3.2947797868678208 0 3.2947797868678208 68.404774088891827 0 0 0 0 210.08951220422023 -139.68205532296815 0 -139.68205532296815 20.278574294952023 0 0 0 0 0.38904223459271137 1.3075384281737739 0 1.3075384281737739 2.6702777945800662 0 0 0 0 74.850346448432902 -40.611515641826372 0 -40.611515641826372 73.339239436151729 0 0 0 0 -5.1941441131839383 99.108918595636624 0 99.108918595636624 -21.624157756267778 0 0 0 0 272.58696235007983 71.472405886127945 0 71.472405886127945 -84.873582940936103 0 0 0 0 -9.9754210413320834 112.57522573112328 0 112.57522573112328 87.713244635677938 0 0 0 0 157.03783022242351 28.375078920180385 0 28.375078920180385 -92.492616627910138 0 0 0 0 120.34494297336641 -54.636431790553274 0 -54.636431790553274 -54.298217121262496 0 0 0 0 29.119112239792567 13.70785874495836 0 13.70785874495836 4.7385008817307543 0 0 0 0 129.04860545792997 85.531968567745935 0 85.531968567745935 -93.951141790168549 0 0 0 0 -7.001895922503536 102.18684097399455 0 102.18684097399455 -31.084189589442985 0 0 0 0 15.735265766228054 52.916398593309964 0 52.916398593309964 -9.0335646945477492 0 0 0 0 45.448404352602665 52.330987875543087 0 52.330987875543087 -42.206533751488678 0 0 0 0 42.008198972276048 25.144953721428905 0 25.144953721428905 -0.54244188093075252 0 0 0 0 67.9371974151112 -50.69789359346214 0 -50.69789359346214 -11.742594268650009 0 0 0 0 28.540518968485344 92.704385758575427 0 92.704385758575427 91.809286407778018 0 0 0 0 7.0693792236677693 14.073742047510114 0 14.073742047510114 -3.6258069712836765 0 0 0 0 -96.104812650979625 -195.75026700400031 0 -195.75026700400031 -139.16118721201747 0 0 0 0 5.3833372398178199 183.1427893340894 0 183.1427893340894 90.559915331237789 0 0 0 0 46.197763120710079 42.622106416470615 0 42.622106416470615 -94.18507977243658 0 0 0 0 25.05426887818254 18.065235582676834 0 18.065235582676834 6.5038120898647058 0 0 0 0 4.2781217387178936 -0.0021916669654988841 0 -0.0021916669654988841 2.2550195790057348 0 0 0 0 125.29307961451491 -9.2080091752591215 0 -9.2080091752591215 -40.794219277568118 0 0 0 0 -35.708659969285236 16.910733480762246 0 16.910733480762246 5.2323112989599281 0 0 0 0 -38.958238755803109 26.409623216657678 0 26.409623216657678 -21.894178444437784 0 0 0 0 28.656226880114215 32.976632158333345 0 32.976632158333345 4.4170113415506744 0 0 0 0 -7.5774189699136123 15.69147419110662 0 15.69147419110662 5.9048188575437806 0 0 0 0 -43.739219950432016 7.1039211560810145 0 7.1039211560810145 79.129016350212623 0 0 0 0 -26.753459699847554 11.821856901625324 0 11.821856901625324 3.9720825642566524 0 0 0 0 -10.017098031340993 -3.1697246690710728 0 -3.1697246690710728 -0.88734793508747956 0 0 0 0 -62.09159795373489 46.808525223143761 0 46.808525223143761 24.704290626623333 0 0 0 0 33.508918698290287 49.568104476272538 0 49.568104476272538 16.607901550098596 0 0 0 0 -27.147864553830004 140.36001668147765 0 140.36001668147765 56.67422600824375 0 0 0 0 29.461610522564754 39.818145280906265 0 39.818145280906265 18.24210233720553 0 0 0 0 71.173461607759236 183.92277207056577 0 183.92277207056577 60.927841542606984 0 0 0 0 40.045561411969175 176.70585226307003 0 176.70585226307003 63.905263688582636 0 0 0 0 -22.019711835007751 26.844349652326528 0 26.844349652326528 19.585419332178859 0 0 0 0 -165.06694645886455 34.10602419760562 0 34.10602419760562 46.022235358446778 0 0 0 0 15.052558461999944 38.964049693483318 0 38.964049693483318 11.62110325848278 0 0 0 0 36.00023821634386 161.85001214071281 0 161.85001214071281 47.253387327597011 0 0 0 0 4.2207793786510592 106.98476840268722 0 106.98476840268722 -47.309810344726429 0 0 0 0 -30.614735075964305 17.666866674535811 0 17.666866674535811 22.744277235374945 0 0 0 0 23.315331579411577 136.32062281887465 0 136.32062281887465 29.020951521417601 0 0 0 0 118.41329388335726 11.615769736371476 0 11.615769736371476 7.4243911135163216 0 0 0 0 -7.19297491388933 5.124249681407484 0 5.124249681407484 6.1768349628276686 0 0 0 0 86.635715127809817 14.065778380898337 0 14.065778380898337 46.959669753523485 0 0 0 0 76.30215033748209 -5.7043034804755735 0 -5.7043034804755735 9.2849574218816997 0 0 0 0 115.77329897688469 0.72263672294411663 0 0.72263672294411663 -38.623535342025207 0 0 0 0 129.85837329704009 22.304302256447954 0 22.304302256447954 -9.3315685919978932 0 0 0 0 194.01955020710921 3.6144275426252079 0 3.6144275426252079 -39.012155877464011 0 0 0 0 -52.961377089592133 -24.449184955426972 0 -24.449184955426972 -8.8757352387719948 0 0 0 0 -0.026507346533716003 0.14225740918231367 0 0.14225740918231367 1.719349997292408 0 0 0 0 145.95813882793664 62.010994525337992 0 62.010994525337992 69.402986004870854 0 0 0 0 148.18858189283128 13.837456161068076 0 13.837456161068076 17.76504213139151 0 0 0 0 127.04438533419307 5.0702574030715368 0 5.0702574030715368 19.829285649328085 0 0 0 0 0.9376761922606871 -1.7429266431879675 0 -1.7429266431879675 4.6499351639768349 0 0 0 0 145.59238662562529 6.2346460161393225 0 6.2346460161393225 7.2950325465758397 0 0 0 0 215.3175175235956 150.89257976139697 0 150.89257976139697 85.200783343361763 0 0 0 0 318.45273340413769 -20.39812631481891 0 -20.39812631481891 -22.764640612347648 0 0 0 0 1.5408315454841528 -0.30707313922282253 0 -0.30707313922282253 -0.30926192684377618 0 0 0 0 156.42656222615096 124.95383091960673 0 124.95383091960673 51.399134439130648 0 0 0 0 161.16993068054944 -15.611655440890218 0 -15.611655440890218 156.43077407692181 0 0 0 0 144.74375274803788 49.525647003699305 0 49.525647003699305 -55.267298501801633 0 0 0 0 28.562545421380491 20.916229814044073 0 20.916229814044073 60.101839385715721 0 0 0 0 0.010092240430488175 0.51087137242060621 0 0.51087137242060621 -0.18561002381917291 0 0 0 0 91.371941024472108 65.735012218401607 0 65.735012218401607 -7.624135387248316 0 0 0 0 81.142674121889286 35.956870311824332 0 35.956870311824332 -11.030591990868288 0 0 0 0 61.374961548472129 58.203646538345083 0 58.203646538345083 20.713924080510878 0 0 0 0 36.110340843835708 34.901924158251198 0 34.901924158251198 7.3003533206251063 0 0 0 0 74.162579967112833 57.943821482729618 0 57.943821482729618 7.5462480300529933 0 0 0 0 84.409186930484793 45.540010669132698 0 45.540010669132698 16.950450264118444 0 0 0 0 68.670227864038679 52.424442653346887 0 52.424442653346887 19.945496814323633 0 0 0 0 16.856058736573686 32.419773186748671 0 32.419773186748671 8.1936773615852871 0 0 0 0 67.364962392155576 49.344064268804232 0 49.344064268804232 23.095189855132048 0 0 0 0 -26.566440097156374 127.49080379681791 0 127.49080379681791 32.089664585930223 0 0 0 0 21.036719937412492 45.34917954222837 0 45.34917954222837 17.057654991924043 0 0 0 0 8.9449109871332908 6.1651967416770184 0 6.1651967416770184 1.5002224376221651 0 0 0 0 134.96614647464776 75.111331507794603 0 75.111331507794603 14.414176166989819 0 0 0 0 48.360432508670783 -0.60619087517443404 0 -0.60619087517443404 19.025983405053921 0 0 0 0 80.886559471302462 73.82064658199215 0 73.82064658199215 22.423490461003666 0 0 0 0 148.16111369076316 88.969065484998282 0 88.969065484998282 13.707496991094558 0 0 0 0 124.65077441466201 -40.674502117704378 0 -40.674502117704378 -18.655954759648012 0 0 0 0 -224.61049648995322 -35.387970935327985 0 -35.387970935327985 20.732933605278049 0 0 0 0 -346.01104309325819 32.894675786090374 0 32.894675786090374 256.65018996830531 0 0 0 0 14.766775874441862 12.098945837413403 0 12.098945837413403 -4.4594865874984633 0 0 0 0 -70.210131944921159 168.5924740480626 0 168.5924740480626 -22.112458478549634 0 0 0 0 61.992833085423626 152.33432501223933 0 152.33432501223933 -35.067135201187739 0 0 0 0 51.191157488745603 37.34249416169223 0 37.34249416169223 0.050758840812704875 0 0 0 0 80.368120209623157 66.605168056345292 0 66.605168056345292 -10.952175162286949 0 0 0 0 67.348533483236679 88.618291220030187 0 88.618291220030187 -28.118090392488739 0 0 0 0 107.16250467376085 106.97943288836223 0 106.97943288836223 -46.393873176623401 0 0 0 0 60.022692958089621 41.231944908468918 0 41.231944908468918 11.687260777316766 0 0 0 0 195.55172646182473 36.043854330369868 0 36.043854330369868 -12.4808825798209 0 0 0 0 173.39338904002852 116.06779596626779 0 116.06779596626779 60.733980447021167 0 0 0 0 283.15847855441734 141.78787614173166 0 141.78787614173166 3.116616308412631 0 0 0 0 68.444132998832757 14.826433574048869 0 14.826433574048869 -17.308145544497599 0 0 0 0 269.5371133382705 79.355860548072997 0 79.355860548072997 3.1091330146336986 0 0 0 0 6.6638347636662232 4.9606526825164927 0 4.9606526825164927 -3.4102519443197998 0 0 0 0 125.20853306377467 96.60360919489726 0 96.60360919489726 -115.81967690622361 0 0 0 0 118.99952859885005 52.622927509888427 0 52.622927509888427 8.7763281399330388 0 0 0 0 -75.930905081841047 146.99030173835919 0 146.99030173835919 -103.65048712947127 0 0 0 0 60.679866623552513 42.458256169916154 0 42.458256169916154 23.742237533362342 0 0 0 0 224.01726816301743 158.21457760108359 0 158.21457760108359 -140.46629934562927 0 0 0 0 58.921016655989661 -18.826730294502909 0 -18.826730294502909 -21.822746005817407 0 0 0 0 85.970076015812083 11.748649117269281 0 11.748649117269281 2.6361683267144258 0 0 0 0 8.6643845700912294 6.0677474910705094 0 6.0677474910705094 4.4832749040839897 0 0 0 0 347.7434375283774 -143.30609387603454 0 -143.30609387603454 83.356341959763427 0 0 0 0 646.68294533490553 -231.03245294110116 0 -231.03245294110116 30.439705173755783 0 0 0 0 278.43394292084122 139.94685669253647 0 139.94685669253647 -53.444173846928607 0 0 0 0 301.64903422280622 146.92100595568218 0 146.92100595568218 -108.50319455020758 0 0 0 0 62.002874465681771 150.74793896569693 0 150.74793896569693 -0.34232953048740455 0 0 0 0 924.89526532492164 182.12435704475479 0 182.12435704475479 -142.13232034593148 0 0 0 0 418.85906935450475 36.498356454524128 0 36.498356454524128 10.766144503279975 0 0 0 0 430.93295598973054 304.35984465496563 0 304.35984465496563 30.220457948556941 0 0 0 0 -368.58209378559695 377.26554005652861 0 377.26554005652861 484.91365639070364 0 0 0 0 349.20201416661985 1218.2398737596727 0 1218.2398737596727 777.28162957376298 0 0 0 0 714.82336590442355 -353.13853695639341 0 -353.13853695639341 -390.96237702722374 0 0 0 0 -79.218053620927094 193.41756365382406 0 193.41756365382406 141.57045436017063 0 0 0 0 5.4046603021051851 133.85233392714588 0 133.85233392714588 37.419419141690213 0 0 0 0 54.982523076867437 201.13774367816276 0 201.13774367816276 127.78867738839335 0 0 0 0 2.5410867397998089 -2.2637286085559403 0 -2.2637286085559403 -4.740622315346684 0 0 0 0 -2.1755676260145265 -41.28826108345902 0 -41.28826108345902 30.35849401574319 0 0 0 0 7.0693464912546915 92.60378593652149 0 92.60378593652149 87.98596808775369 0 0 0 0 213.45127333937853 45.754629939605593 0 45.754629939605593 27.26856259546264 0 0 0 0 219.18855139281686 106.33695844651341 0 106.33695844651341 77.990324668070684 0 0 0 0 179.37160218113786 90.049826774219355 0 90.049826774219355 -52.446063318320739 0 0 0 0 203.78916258443496 33.99283012376327 0 33.99283012376327 44.714290249768055 0 0 0 0 234.89358935562632 157.74751356423872 0 157.74751356423872 -13.574838293246557 0 0 0 0 122.99019295201288 101.93746460764487 0 101.93746460764487 -24.996656865645491 0 0 0 0 220.33875756603811 -10.389242881502469 0 -10.389242881502469 16.868725637541047 0 0 0 0 290.0325875887138 181.27440849637082 0 181.27440849637082 222.888859520491 0 0 0 0 110.76942812997731 202.08302097313776 0 202.08302097313776 59.925966949991107 0 0 0 0 11.560664722315778 16.263049634942263 0 16.263049634942263 7.476841850020719 0 0 0 0 0.262169353974123 15.598893579927127 0 15.598893579927127 5.2409766226043821 0 0 0 0 -3.5015361074319431 -2.1586923771420246 0 -2.1586923771420246 1.6832960286147021 0 0 0 0 -28.293839444500918 30.468791075829529 0 30.468791075829529 125.55941711585892 0 0 0 0 435.98397152833422 127.32648035186503 0 127.32648035186503 -6.3030100709120234 0 0 0 0 376.12952565111482 164.58864697826857 0 164.58864697826857 64.50063660116048 0 0 0 0 327.59918598955846 106.4087415916415 0 106.4087415916415 51.015857589058896 0 0 0 0 315.51032294830657 46.325239618133537 0 46.325239618133537 69.165461775319727 0 0 0 0 -1.664187643055584 3.3750598919173722 0 3.3750598919173722 1.931720336039771 0 0 0 0 -3.4678245940885972 13.612987618292578 0 13.612987618292578 18.58612893510508 0 0 0 0 -24.880004434500563 9.3163481873373364 0 9.3163481873373364 7.9550409873449546 0 0 0 0 -17.343945047104853 17.444458501964533 0 17.444458501964533 9.8289914054003713 0 0 0 0 -15.689240558849633 -31.483848415919056 0 -31.483848415919056 -58.235072674383446 0 0 0 0 11.402799125357408 8.8125235632860424 0 8.8125235632860424 1.2699031279939721 0 0 0 0 -0.98708626281640477 9.2012150129006649 0 9.2012150129006649 7.1800467038884452 0 0 0 0 -2.588142914502896 11.308868096636616 0 11.308868096636616 7.1248410980010703 0 0 0 0 50.422668293565948 -12.953838520081945 0 -12.953838520081945 40.370260169020639 0 0 0 0 338.06609617123468 144.9888018197795 0 144.9888018197795 25.001836464806502 0 0 0 0 6.0383556463446908 0.58414996010510833 0 0.58414996010510833 -0.52226952469928589 0 0 0 0 32.836313777671876 11.475651881474285 0 11.475651881474285 6.4349417848416124 0 0 0 0 154.75354187786797 106.60890341998436 0 106.60890341998436 37.093208237684166 0 0 0 0 247.56060301581419 27.419655996670173 0 27.419655996670173 44.365101236701776 0 0 0 0 91.12035350050428 74.243456447664926 0 74.243456447664926 73.5745119439581 0 0 0 0 209.38856660367674 70.067700427832278 0 70.067700427832278 -26.663009056735973 0 0 0 0 125.98459191932488 67.291827098573663 0 67.291827098573663 -11.075727829101396 0 0 0 0 133.27939084819809 63.46044133599753 0 63.46044133599753 -23.190026100646264 0 0 0 0 136.67690419744031 68.568137049462621 0 68.568137049462621 -17.330012571612315 0 0 0 0 155.42409095709445 79.973034617912163 0 79.973034617912163 -16.779765416163173 0 0 0 0 110.02925819338998 25.190051185436232 0 25.190051185436232 -4.6445685857852368 0 0 0 0 17.61752459398167 6.3560468072045637 0 6.3560468072045637 3.3877582052045909 0 0 0 0 2.6336263376832179 5.881368094240834 0 5.881368094240834 3.5022891954758251 0 0 0 0 -148.37363765192276 -54.610690390528816 0 -54.610690390528816 213.64561332280937 0 0 0 0 -3.0179104066359868 8.2129120244181806 0 8.2129120244181806 4.368564059619608 0 0 0 0 194.38881977129495 7.2274834839538471 0 7.2274834839538471 -25.956391049152444 0 0 0 0 127.93157155469089 66.519446527929858 0 66.519446527929858 -11.717479176797497 0 0 0 0 6.7307253183653808 8.8693045182963459 0 8.8693045182963459 2.3971449105348626 0 0 0 0 11.487509305909043 6.5114444183536762 0 6.5114444183536762 3.4465227203036193 0 0 0 0 -1.3925873524614687 4.2665188539793419 0 4.2665188539793419 3.471309303531795 0 0 0 0 -48.017960163851967 88.789805873177102 0 88.789805873177102 86.016653468414006 0 0 0 0 95.754205351164273 66.325782878237987 0 66.325782878237987 -5.9189344575506766 0 0 0 0 128.63343426748906 68.99882830450224 0 68.99882830450224 -6.6186814333495931 0 0 0 0 188.366549572238 98.368609437751729 0 98.368609437751729 -31.04377468047079 0 0 0 0 148.0442809095839 89.982701578824958 0 89.982701578824958 -30.213332259368144 0 0 0 0 128.94049337870092 144.37386617892935 0 144.37386617892935 4.7431685087376536 0 0 0 0 36.229570825242263 59.555585870728464 0 59.555585870728464 18.919696984863549 0 0 0 0 38.127708064435865 144.09226149917777 0 144.09226149917777 29.807359929384802 0 0 0 0 -266.38444616107154 -45.47072860094886 0 -45.47072860094886 5.0949235216612578 0 0 0 0 -73.980715475488978 215.55879411051592 0 215.55879411051592 94.169093161188357 0 0 0 0 106.22525166793639 121.13210263234214 0 121.13210263234214 6.4688908374519087 0 0 0 0 175.08383104851964 253.88888686884798 0 253.88888686884798 172.41860435820672 0 0 0 0 57.573722113826079 -111.38489577395194 0 -111.38489577395194 442.26118241649965 0 0 0 0 54.789322534554231 -72.723488066810205 0 -72.723488066810205 -94.546527992728443 0 0 0 0 11.05790701154524 6.9097663888990155 0 6.9097663888990155 3.2643452973970852 0 0 0 0 14.222726652631536 10.148775159706929 0 10.148775159706929 -6.0471351981368571 0 0 0 0 -80.360277846644749 60.274306146226536 0 60.274306146226536 15.754448828020031 0 0 0 0 5.1103258060327867 0.063500195877807641 0 0.063500195877807641 1.4257602146783768 0 0 0 0 8.1435714872247758 8.4120526426489892 0 8.4120526426489892 4.1530364455490814 0 0 0 0 -15.335064097816939 35.071104398326497 0 35.071104398326497 325.79444048960704 0 0 0 0 366.34878408108852 120.28176123723892 0 120.28176123723892 -41.746560484010843 0 0 0 0 214.3587033062322 -40.342304518739638 0 -40.342304518739638 -18.819269839620802 0 0 0 0 4.1301243404735288 3.7081846529330598 0 3.7081846529330598 2.2411138454287514 0 0 0 0 161.62805837392443 11.484783434676501 0 11.484783434676501 -13.965921915278159 0 0 0 0 174.66011864721258 74.626417011642502 0 74.626417011642502 -51.902684882691574 0 0 0 0 144.19050794095529 67.779420909915189 0 67.779420909915189 -29.938003398696765 0 0 0 0 23.38244248614501 -19.663556517462894 0 -19.663556517462894 5.7696387451273949 0 0 0 0 38.746463353494619 23.493901500838263 0 23.493901500838263 -5.8328804374068568 0 0 0 0 42.493955315831045 19.390902056986192 0 19.390902056986192 -6.5347244719332593 0 0 0 0 128.12072142145553 62.823018463189271 0 62.823018463189271 -2.3166408782101371 0 0 0 0 99.383336277656781 45.268244117462245 0 45.268244117462245 -13.843931172947464 0 0 0 0 11.261468802029299 55.753658942978561 0 55.753658942978561 33.993996178555335 0 0 0 0 3.1982461294141729 0.93198412067791025 0 0.93198412067791025 -7.5627525362927104 0 0 0 0 6.5739808630255538 -8.2505531547537245 0 -8.2505531547537245 5.8551953559149297 0 0 0 0 42.267839924024884 50.050516039054855 0 50.050516039054855 48.775705994916223 0 0 0 0 41.638232892761152 47.10794881397851 0 47.10794881397851 40.242578205752579 0 0 0 0 -10.88006155738185 17.738027068264728 0 17.738027068264728 105.4894645639386 0 0 0 0 -15.933583273064869 -7.6805718749791367 0 -7.6805718749791367 36.935255386656536 0 0 0 0 16.078837031569492 28.523054182637566 0 28.523054182637566 31.174527018338267 0 0 0 0 19.175179485255285 26.926814525539271 0 26.926814525539271 22.899539823677515 0 0 0 0 24.098207696169993 30.002634850456161 0 30.002634850456161 21.87593017345489 0 0 0 0 0.21196379790308129 13.471937070044419 0 13.471937070044419 7.5081770087399491 0 0 0 0 -4.4035744069806242 34.99593803549908 0 34.99593803549908 -6.9853554254923438 0 0 0 0 3.5381157303070765 6.592835493782033 0 6.592835493782033 -8.9031721431562811 0 0 0 0 21.808150714099611 23.93240437486827 0 23.93240437486827 10.852144255792155 0 0 0 0 21.050072670066584 23.872228317143936 0 23.872228317143936 32.29955477506428 0 0 0 0 5.9597042387632087 3.3520075371560694 0 3.3520075371560694 0.53094234051708611 0 0 0 0 17.927481439612166 25.71616239927198 0 25.71616239927198 61.356814574834743 0 0 0 0 13.809686174751704 8.0957702471733022 0 8.0957702471733022 1.8214028564329547 0 0 0 0 16.09650170265013 34.271834600853708 0 34.271834600853708 51.783340521218179 0 0 0 0 9.1615107655718901 13.148443414930284 0 13.148443414930284 16.12492786418526 0 0 0 0 3492.4401816354439 1101.2443057164498 0 1101.2443057164498 -44.317026920386631 0 0 0 0 1514.472258308524 -626.31119692966342 0 -626.31119692966342 -97.38057589850736 0 0 0 0 25.961116061691428 14.535570040097355 0 14.535570040097355 14.536355487763558 0 0 0 0 14.575737936349469 10.066961496207114 0 10.066961496207114 12.918830045947288 0 0 0 0 24.052783245715545 21.383329749225595 0 21.383329749225595 6.4075027805283753 0 0 0 0 16.487634324909607 14.61484908238263 0 14.61484908238263 4.2156940253698068 0 0 0 0 15.588306938676396 13.814162010522182 0 13.814162010522182 2.3552365762955105 0 0 0 0 3109.5876736190257 -484.67468788654088 0 -484.67468788654088 -85.608464575611563 0 0 0 0 18.941531940246932 16.216881641521468 0 16.216881641521468 27.48542898201049 0 0 0 0 11.016216314285337 9.3867396314395108 0 9.3867396314395108 7.3017416438954514 0 0 0 0 3498.5519266317624 -1771.7407896981128 0 -1771.7407896981128 347.6721224193542 0 0 0 0 12.258629705823324 14.312926525304867 0 14.312926525304867 10.227088141858257 0 0 0 0 -10.241687501180678 7.3456114576481895 0 7.3456114576481895 28.575408676247935 0 0 0 0 12.986799357745781 8.7269353994503263 0 8.7269353994503263 7.3619286886571489 0 0 0 0 3474.3987493708846 9.8301576553652161 0 9.8301576553652161 12.722879205013985 0 0 0 0 4.9596211247600763 10.650513820001418 0 10.650513820001418 14.407180832097524 0 0 0 0 -42.769079608493485 -131.45494170093093 0 -131.45494170093093 -381.95644679891609 0 0 0 0 1.5555821461664578 -1.1916989895309769 0 -1.1916989895309769 3.5517625605612877 0 0 0 0 1.1990786402335516 2.063866321853709 0 2.063866321853709 11.284710823678299 0 0 0 0 10.203975552605698 22.789891437833148 0 22.789891437833148 33.158763316245086 0 0 0 0 3492.856837270112 1.9754552643692977 0 1.9754552643692977 4.2490803504234194 0 0 0 0 927.8328134837684 1316.5383563834368 0 1316.5383563834368 1876.7109696749294 0 0 0 0 10.19910798553974 22.528945307082267 0 22.528945307082267 25.092730381574938 0 0 0 0 1.5393443167148604 -0.91591564168722783 0 -0.91591564168722783 1.5529568698797447 0 0 0 0 3493.2491094737234 1497.4252011987298 0 1497.4252011987298 358.28806451358423 0 0 0 0 3501.7854395456352 258.53552747782231 0 258.53552747782231 -547.29524799340072 0 0 0 0 1351.0778746814249 409.0547520435498 0 409.0547520435498 -150.49493939597176 0 0 0 0 2650.5697901841741 -98.591024990909915 0 -98.591024990909915 -417.823992657384 0 0 0 0 2.262856190605218 -3.1701818964925295 0 -3.1701818964925295 -5.0349112617601248 0 0 0 0 -3.6138056322160992 -68.422565266833089 0 -68.422565266833089 56.784238509209899 0 0 0 0 156.90332808587846 -145.52722014407092 0 -145.52722014407092 68.752535441729833 0 0 0 0 1395.465367631044 682.88126605831485 0 682.88126605831485 257.51333786577391 0 0 0 0 -5.9380424490809673 116.54867771469861 0 116.54867771469861 223.93174576292051 0 0 0 0 208.74820070194255 214.19840969701249 0 214.19840969701249 104.26895802813158 0 0 0 0 317.11390150538136 -70.80929806895324 0 -70.80929806895324 -60.111620739994123 0 0 0 0 196.32615246301793 -17.074696435786791 0 -17.074696435786791 -54.785388559027979 0 0 0 0 103.23119685375787 14.76088422837995 0 14.76088422837995 -58.961392631650142 0 0 0 0 29.743091578329768 165.13877905694653 0 165.13877905694653 -125.93085257202938 0 0 0 0 -4.889681222193758 39.775876532593031 0 39.775876532593031 -36.842311580431215 0 0 0 0 -9.1213085172967112 -223.14919728620049 0 -223.14919728620049 -129.50253031048078 0 0 0 0 23.636279536793225 18.050635599430048 0 18.050635599430048 13.790068378648165 0 0 0 0 82.080554478349768 -13.691154677696304 0 -13.691154677696304 -163.57839258846923 0 0 0 0 96.203312849560461 14.88381072775519 0 14.88381072775519 -129.21328343052846 0 0 0 0 55.238011280664068 -11.422422705453755 0 -11.422422705453755 -34.229705892481434 0 0 0 0 94.581533649499761 34.844711838111152 0 34.844711838111152 10.24513876630408 0 0 0 0 2366.0122471987634 -1335.9864397063957 0 -1335.9864397063957 105.83823273621219 0 0 0 0 2445.7513756193803 -249.40896985725084 0 -249.40896985725084 -378.15724665108343 0 0 0 0 3493.693066777199 -822.97794042269913 0 -822.97794042269913 -635.01326427072138 0 0 0 0 971.82463301872122 -803.40175978524223 0 -803.40175978524223 259.11200525305713 0 0 0 0 176.95189125409888 -22.885199005021605 0 -22.885199005021605 -61.330334501178186 0 0 0 0 0.99640955925562302 -6.4568376908436846 0 -6.4568376908436846 -15.659540520144942 0 0 0 0 1775.9977633314629 450.96869709501902 0 450.96869709501902 -25.002371665093051 0 0 0 0 1.0163328922627457 -2.137652136890182 0 -2.137652136890182 12.445969839108416 0 0 0 0 2565.7177290210602 882.84028466747702 0 882.84028466747702 -154.92933982784362 0 0 0 0 2637.6365070134052 632.42062344862029 0 632.42062344862029 -329.24077388230648 0 0 0 0 3928.7487648629176 1170.4038206010139 0 1170.4038206010139 -287.30678965087083 0 0 0 0 3500.50425660982 -59.370133877800733 0 -59.370133877800733 1788.4463216613133 0 0 0 0 2197.3114877550906 1922.5110304720085 0 1922.5110304720085 1476.0880848765296 0 0 0 0 8.7117180055522567 1.9865189829514236 0 1.9865189829514236 11.737809712824228 0 0 0 0 57.385426248656586 8.9511268674734765 0 8.9511268674734765 13.110727493286504 0 0 0 0 799.15907786287426 533.19971293173683 0 533.19971293173683 643.35541644905925 0 0 0 0 43.220612986161086 14.494573344098626 0 14.494573344098626 12.975279129823321 0 0 0 0 44.43889345653588 3.6734681532225295 0 3.6734681532225295 5.0037336727054935 0 0 0 0 14.583676572095712 6.0817297819726832 0 6.0817297819726832 6.0090029640175864 0 0 0 0 7.1217439790666219 12.552054446699898 0 12.552054446699898 9.755355148899099 0 0 0 0 37.124619977083057 6.5530611387555382 0 6.5530611387555382 15.169114398545844 0 0 0 0 21.438108108122833 9.1999951648458591 0 9.1999951648458591 5.7239747545281716 0 0 0 0 -0.59859898396098288 10.18000196320645 0 10.18000196320645 -5.5866092693388509 0 0 0 0 2.7889098177911364 26.276801069690009 0 26.276801069690009 12.769801106114755 0 0 0 0 -105.91190227093466 72.406031132097269 0 72.406031132097269 58.68661905228555 0 0 0 0 13.977477614928887 14.349511454857648 0 14.349511454857648 12.047310252745948 0 0 0 0 -9.343437855548018 47.346930888233857 0 47.346930888233857 18.23591245075113 0 0 0 0 9.2265732489698848 15.569705641554663 0 15.569705641554663 11.888648591428964 0 0 0 0 1.3470265626856417 41.902248386888459 0 41.902248386888459 8.4044985636573983 0 0 0 0 6.644762853038209 1.966602267550428 0 1.966602267550428 -1.0676025970085163 0 0 0 0 71.61885129170696 14.797219684097627 0 14.797219684097627 11.433287411031188 0 0 0 0 40.201647829439025 9.280351459577787 0 9.280351459577787 19.594153847654979 0 0 0 0 46.960408500512131 13.701720816303805 0 13.701720816303805 19.414911505626606 0 0 0 0 45.988999758759746 4.7820328002098904 0 4.7820328002098904 14.46790180797143 0 0 0 0 -24.877565762893937 42.174084703845438 0 42.174084703845438 4.3203210608598965 0 0 0 0 61.013423567215796 16.534026577466761 0 16.534026577466761 15.964677251298241 0 0 0 0 53.619750096746429 -0.66070912053032771 0 -0.66070912053032771 12.020877687562916 0 0 0 0 30.338693588761089 -25.974279236971142 0 -25.974279236971142 -3.2063905315881129 0 0 0 0 -12.847464234597282 2.4437083973771223 0 2.4437083973771223 -13.915999505647051 0 0 0 0 21.586073914178996 6.0360569412096083 0 6.0360569412096083 16.345778596822129 0 0 0 0 28.504891434291494 11.261304862643556 0 11.261304862643556 16.122298892459185 0 0 0 0 -34.543950806466455 25.066335663299014 0 25.066335663299014 30.774578797433605 0 0 0 0 71.039715370250633 7.3926192934422943 0 7.3926192934422943 10.470675394941281 0 0 0 0 6.6867644029888282 15.322584597880564 0 15.322584597880564 14.187322243916423 0 0 0 0 10.557686180915567 -2.8136730291973606 0 -2.8136730291973606 9.6803279264679549 0 0 0 0 17.48315859917183 14.68858031897318 0 14.68858031897318 5.5410577650052026 0 0 0 0 9.7004477693408262 15.449354033829877 0 15.449354033829877 17.710018113324622 0 0 0 0 -11.622179487967514 34.973925232759939 0 34.973925232759939 22.708879923353379 0 0 0 0 8.958350863052388 13.205532990884649 0 13.205532990884649 15.744601830183322 0 0 0 0 -1.2872706775675482 10.319703220738731 0 10.319703220738731 11.337562936666107 0 0 0 0 -22.82576046010945 8.7927658851303931 0 8.7927658851303931 6.2876503425759438 0 0 0 0 44.841497289465366 22.703253836248834 0 22.703253836248834 16.08200304251584 0 0 0 0 1278.2135854506123 -85.614642197462189 0 -85.614642197462189 36.522917943283915 0 0 0 0 2020.4863118101057 -285.50551425401466 0 -285.50551425401466 -2.8376134533623869 0 0 0 0 2036.2514088259413 -317.81355254127755 0 -317.81355254127755 -2.0771439220468437 0 0 0 0 2241.0168255569588 461.29032823247451 0 461.29032823247451 -132.59715670302631 0 0 0 0 2576.0398279745132 52.457883946419969 0 52.457883946419969 -498.60613969854666 0 0 0 0 3498.8293099956718 535.6216633423212 0 535.6216633423212 -577.38534069596983 0 0 0 0 2488.2267511285318 -44.343146856906117 0 -44.343146856906117 -482.54322411673775 0 0 0 0 3500.2510699546037 -380.14996593812765 0 -380.14996593812765 -584.81569593477923 0 0 0 0 2437.9748190206483 -740.59371897754727 0 -740.59371897754727 -350.78053692339012 0 0 0 0 -139.68400630276301 -100.67929062327119 0 -100.67929062327119 131.07302184633571 0 0 0 0 1795.1371367615502 -308.74617905792434 0 -308.74617905792434 48.292971844321073 0 0 0 0 0.018442861047887504 0.3426232966119187 0 0.3426232966119187 0.57324110897231462 0 0 0 0 1999.7650920807209 -281.60171566094454 0 -281.60171566094454 -2.523058239466792 0 0 0 0 1987.7418735114334 -317.82103972793027 0 -317.82103972793027 -0.36306434235842744 0 0 0 0 2502.3064224908157 -493.08261482355971 0 -493.08261482355971 -131.8545150652169 0 0 0 0 1781.1847781762044 -769.26226298591655 0 -769.26226298591655 -175.05773060186579 0 0 0 0 729.42715776604746 -926.05338101118468 0 -926.05338101118468 981.92557396918551 0 0 0 0 907.98137743328698 150.41824468970003 0 150.41824468970003 -31.09809540179748 0 0 0 0 2378.4047386813763 -967.97316076598634 0 -967.97316076598634 -231.98102364216686 0 0 0 0 3494.4237686896158 -1524.1596441912316 0 -1524.1596441912316 3.4773803229564066 0 0 0 0 2638.6007678522292 -788.50786136651914 0 -788.50786136651914 -330.45864008759924 0 0 0 0 2451.7997676068044 -728.64362961355334 0 -728.64362961355334 -347.47967328058888 0 0 0 0 2506.4638922060985 -973.59430238523282 0 -973.59430238523282 -234.78404685226718 0 0 0 0 -5.6789630902349018 1.0023103505861428 0 1.0023103505861428 45.511994728902806 0 0 0 0 11.457965034648254 -0.57968105428795247 0 -0.57968105428795247 1.7875777526745362 0 0 0 0 1949.8557553730061 -1865.0508198601556 0 -1865.0508198601556 1567.4559319379857 0 0 0 0 16.744660244571818 14.678478588818166 0 14.678478588818166 3.1455535608337559 0 0 0 0 13.252315214238479 7.1338358942964533 0 7.1338358942964533 -2.9746583394889967 0 0 0 0 13.361227857320046 6.0862056339136643 0 6.0862056339136643 -13.672641232840306 0 0 0 0 4.1153351875127839 0.44401263218449571 0 0.44401263218449571 -1.5602632836234269 0 0 0 0 52.088878297552583 24.821205063583875 0 24.821205063583875 37.958369759788184 0 0 0 0 2.5953452091327165 28.015725527007259 0 28.015725527007259 16.371683134009292 0 0 0 0 44.367462534735488 7.1344233603786762 0 7.1344233603786762 -3.3484359652440192 0 0 0 0 23.984058779428537 26.938164186142682 0 26.938164186142682 14.938067001238849 0 0 0 0 -1.4166554110706784 27.813537126529809 0 27.813537126529809 -19.197293658152034 0 0 0 0 26.783154015416727 16.496326131507558 0 16.496326131507558 23.795177894168006 0 0 0 0 -47.362722604928422 78.369940230014095 0 78.369940230014095 -29.665724026653606 0 0 0 0 51.090936771586712 28.851744237723324 0 28.851744237723324 30.412452657919857 0 0 0 0 3.8220923638618984 3.4349025730294187 0 3.4349025730294187 2.495639469275365 0 0 0 0 34.38111548210145 34.613266294810273 0 34.613266294810273 31.76533705930342 0 0 0 0 9.2177699082128299 1.0169412568928351 0 1.0169412568928351 4.7388491086218902 0 0 0 0 1.8961922106682323 42.372761435392931 0 42.372761435392931 -175.78901239632387 0 0 0 0 6.3290064995042599 2.8560164435206659 0 2.8560164435206659 4.313328918102175 0 0 0 0 1031.3524709190242 613.18415210801709 0 613.18415210801709 115.57098890078431 0 0 0 0 1353.1431876137649 717.06112766907256 0 717.06112766907256 515.13605593308125 0 0 0 0 3469.2474018886569 41.307715734898203 0 41.307715734898203 19.845011985782993 0 0 0 0 -734.28709303482901 -654.43875814918954 0 -654.43875814918954 -359.39852372879693 0 0 0 0 17.397996041705937 41.175800218161214 0 41.175800218161214 54.418398743837315 0 0 0 0 34.217327785372618 37.339776195682134 0 37.339776195682134 38.650316875258341 0 0 0 0 19.162319326969737 48.849582561253555 0 48.849582561253555 30.863919486844679 0 0 0 0 43.224989196900424 41.200945802384695 0 41.200945802384695 16.377141508928617 0 0 0 0 40.632771562904225 22.017399279337397 0 22.017399279337397 5.6787075920109 0 0 0 0 49.109929419661057 -106.20116272470682 0 -106.20116272470682 48.728436580260905 0 0 0 0 63.834163066043402 -15.0768522007196 0 -15.0768522007196 -88.136248707986397 0 0 0 0 49.312470057810529 19.6022421932017 0 19.6022421932017 0.48554034242388633 0 0 0 0 121.36810429113029 60.984193112638472 0 60.984193112638472 -110.57524017521689 0 0 0 0 72.648377372486721 -30.978326358146433 0 -30.978326358146433 26.965547605485881 0 0 0 0 115.29499663377646 1.0598152846364428 0 1.0598152846364428 13.470292926391267 0 0 0 0 -5.8522727462477633 4.6240262118626561 0 4.6240262118626561 27.57140503672872 0 0 0 0 -1.4299600767169238 1.5552962877341727 0 1.5552962877341727 2.4688661384612347 0 0 0 0 7.9066910939000081 38.865864572963801 0 38.865864572963801 49.489412741057549 0 0 0 0 63.365859906611149 59.840327158421132 0 59.840327158421132 34.117445702757777 0 0 0 0 26.815147089371749 30.907233898692994 0 30.907233898692994 30.466449581772395 0 0 0 0 26.254354422751931 33.459199925421672 0 33.459199925421672 22.48894687695838 0 0 0 0 16.64155887824127 20.691568358976184 0 20.691568358976184 17.797097579181404 0 0 0 0 21.911169717248413 35.834082165263681 0 35.834082165263681 28.157248638612145 0 0 0 0 23.287037632602733 35.314164193765464 0 35.314164193765464 21.09015194742824 0 0 0 0 27.054691461729817 -28.213526274663309 0 -28.213526274663309 8.6395662635604822 0 0 0 0 22.886007161359885 32.404955714321204 0 32.404955714321204 28.517980258124226 0 0 0 0 32.50653277074889 36.991253934945462 0 36.991253934945462 25.536625341806939 0 0 0 0 25.982339122594567 36.284009364920166 0 36.284009364920166 32.15679307667051 0 0 0 0 -12.29708590512746 34.259299228431701 0 34.259299228431701 23.362627754729147 0 0 0 0 30.346824242122239 32.476451114643623 0 32.476451114643623 20.483015983849327 0 0 0 0 9.5908317694108405 4.4628901896800812 0 4.4628901896800812 1.6041897585038924 0 0 0 0 43.520045493991347 9.475312927925188 0 9.475312927925188 12.542772445138326 0 0 0 0 46.989603293739492 15.230877026044709 0 15.230877026044709 13.844230105982206 0 0 0 0 64.026732024824014 -9.3381332816961731 0 -9.3381332816961731 21.172996652632719 0 0 0 0 46.11615133084706 -26.059868859778135 0 -26.059868859778135 27.017676612951163 0 0 0 0 42.724987949048227 -23.039501996666786 0 -23.039501996666786 25.301631052798257 0 0 0 0 68.165951750987006 13.643616182690721 0 13.643616182690721 39.767703746523694 0 0 0 0 41.237938098536688 3.485338014865647 0 3.485338014865647 61.259885179134471 0 0 0 0 15.052394772181287 -14.642853036407132 0 -14.642853036407132 33.141436701847852 0 0 0 0 28.036537894055073 37.467408941948122 0 37.467408941948122 -53.666790034740472 0 0 0 0 21.135404086162453 -9.510912544918483 0 -9.510912544918483 40.118820342941802 0 0 0 0 55.107980505992202 20.005520852447468 0 20.005520852447468 0.85062652701671759 0 0 0 0 87.950682567301556 12.803052333373898 0 12.803052333373898 -137.15257341579064 0 0 0 0 224.15594675029934 87.21484809508911 0 87.21484809508911 -319.24046854780681 0 0 0 0 199.00266295432994 220.8926019921696 0 220.8926019921696 136.92426756140685 0 0 0 0 3.0777838424546644 116.99832483840328 0 116.99832483840328 -89.990592297373269 0 0 0 0 377.72291325961851 26.961876564315389 0 26.961876564315389 -86.586871673684072 0 0 0 0 -0.1965272968300269 -5.9215702597116433 0 -5.9215702597116433 -22.658105434353274 0 0 0 0 38.037209201291262 116.95539671512097 0 116.95539671512097 -64.80401363119725 0 0 0 0 16.738551938713499 0.25923022044071331 0 0.25923022044071331 -3.5855541790051575 0 0 0 0 12.680058207992154 0.64474342567921639 0 0.64474342567921639 -7.6608759655428429 0 0 0 0 8.8966967982323695 14.947781674444741 0 14.947781674444741 -28.207654662385721 0 0 0 0 -20.710595588272554 -186.02988821253348 0 -186.02988821253348 141.96717943309341 0 0 0 0 1.8396188544605678 -1.7378136497804917 0 -1.7378136497804917 0.0046704957950858272 0 0 0 0 210.40404673851299 -243.27680323657569 0 -243.27680323657569 144.05497006937912 0 0 0 0 66.655860149356158 -65.392077434833936 0 -65.392077434833936 -16.395564142479998 0 0 0 0 1.7392729179846356 23.464648033308094 0 23.464648033308094 -76.912176818922489 0 0 0 0 160.31081488268319 -139.11482889474973 0 -139.11482889474973 -167.6390065821297 0 0 0 0 -88.329096931047388 -86.708358281046458 0 -86.708358281046458 8.7310264941716014 0 0 0 0 117.47134259213635 18.279075858417173 0 18.279075858417173 -173.85496330344336 0 0 0 0 6.1555521437476273 -4.0233607162319913 0 -4.0233607162319913 -99.756756971803043 0 0 0 0 56.603636080072391 20.182362763086346 0 20.182362763086346 0.4115870697760553 0 0 0 0 13.711856864109331 8.6056409050290057 0 8.6056409050290057 -1.6518071797393343 0 0 0 0 64.97474518566105 56.742725399921198 0 56.742725399921198 -415.89469751362049 0 0 0 0 -211.87052355812921 -127.32415562726237 0 -127.32415562726237 -44.379630351540527 0 0 0 0 37.076021611690521 118.36725689268224 0 118.36725689268224 151.9502127785513 0 0 0 0 3.5990240694227396 -17.501947686037965 0 -17.501947686037965 -101.08859604728872 0 0 0 0 61.744758899643784 74.869318945724899 0 74.869318945724899 36.833814198002074 0 0 0 0 22.920814385266567 153.95103176318844 0 153.95103176318844 85.89483244524672 0 0 0 0 109.53027773641952 1.3336433420367939 0 1.3336433420367939 -74.901965555114032 0 0 0 0 71.797688909632143 -28.013714918253214 0 -28.013714918253214 35.026619138206115 0 0 0 0 75.941176994207126 47.083518434456209 0 47.083518434456209 195.23292505963946 0 0 0 0 68.915755847701803 4.2011067180624195 0 4.2011067180624195 60.675655376473514 0 0 0 0 168.53188755061274 -18.054847376307407 0 -18.054847376307407 33.065942965255203 0 0 0 0 83.280381185184524 154.15824597886763 0 154.15824597886763 114.8122133424522 0 0 0 0 -30.755041626474849 35.384497657953489 0 35.384497657953489 138.56526354710786 0 0 0 0 201.50091275104933 77.004102822983441 0 77.004102822983441 32.464382606568734 0 0 0 0 -1.4764585093754619 0.70120948697356766 0 0.70120948697356766 3.2313638817304984 0 0 0 0 25.929190106857277 15.478473983104777 0 15.478473983104777 1.1684562474410995 0 0 0 0 238.68340177832579 -7.697489806358135 0 -7.697489806358135 -9.1854322093131486 0 0 0 0 90.69338502339815 -34.216739863088151 0 -34.216739863088151 1.1114654619418616 0 0 0 0 29.932535349849786 -21.36493442668592 0 -21.36493442668592 9.4461883034182392 0 0 0 0 19.471896517365323 -5.8501238747968358 0 -5.8501238747968358 -7.2008738966878667 0 0 0 0 42.624854438627153 44.76005323088134 0 44.76005323088134 23.949782936631891 0 0 0 0 107.64060162370151 76.813821785314758 0 76.813821785314758 17.029998776752109 0 0 0 0 109.36549370742432 36.188240523546483 0 36.188240523546483 0.14949335538267405 0 0 0 0 129.79001221637441 74.610990849098812 0 74.610990849098812 26.508194221954909 0 0 0 0 130.80607707937452 57.560186154275925 0 57.560186154275925 18.358948491747469 0 0 0 0 138.61637999113736 59.957429314504907 0 59.957429314504907 8.601054768627364 0 0 0 0 217.8279292419902 126.21094516356698 0 126.21094516356698 71.700560160567875 0 0 0 0 85.280372468456335 49.042543125880911 0 49.042543125880911 93.116678156104172 0 0 0 0 86.031451764262215 11.248857511376713 0 11.248857511376713 22.717151459442903 0 0 0 0 79.354529423122585 18.160009572713534 0 18.160009572713534 30.011359376328073 0 0 0 0 36.249356164233177 -20.071736789456736 0 -20.071736789456736 34.418874429375137 0 0 0 0 78.637619567882211 -2.6696973799444095 0 -2.6696973799444095 9.5877298432678799 0 0 0 0 90.105190736820077 -14.40791102072717 0 -14.40791102072717 -4.9578846863714716 0 0 0 0 62.580697951154434 9.3884103199452511 0 9.3884103199452511 19.823412950159764 0 0 0 0 147.70125915549579 69.190481064988489 0 69.190481064988489 12.366705869223551 0 0 0 0 158.99145659210626 16.875296796371003 0 16.875296796371003 0.33667047654944326 0 0 0 0 74.310312858804537 78.964140824413334 0 78.964140824413334 81.527238490973559 0 0 0 0 204.80250918406455 108.03870416180462 0 108.03870416180462 25.111029749452427 0 0 0 0 -3.460703444405226 -98.575006190250861 0 -98.575006190250861 138.3408319955397 0 0 0 0 300.93229415480891 -29.113540515569184 0 -29.113540515569184 -12.247525748423413 0 0 0 0 285.47319016594702 182.39197686111766 0 182.39197686111766 -36.688820893269622 0 0 0 0 44.096207919777953 119.7356071153954 0 119.7356071153954 -12.960476913656748 0 0 0 0 -7.3356822481728159 32.891947525645264 0 32.891947525645264 12.370808232011768 0 0 0 0 10.631041051949595 13.850889554654174 0 13.850889554654174 10.195223245034676 0 0 0 0 29.44287862242345 20.407603381946501 0 20.407603381946501 55.078062274058539 0 0 0 0 7.151209586508557 -1.2188268839241161 0 -1.2188268839241161 3.8175837436775168 0 0 0 0 259.68054425083392 -18.860263886166649 0 -18.860263886166649 -50.07113024395403 0 0 0 0 309.21842416060827 -38.158647276771717 0 -38.158647276771717 -90.543739581311456 0 0 0 0 219.77526045869672 -183.80600486268122 0 -183.80600486268122 -112.63943726029538 0 0 0 0 22.469771634687959 -9.8108745340311003 0 -9.8108745340311003 -4.3166225294044551 0 0 0 0 35.997023582138354 -26.690731115922063 0 -26.690731115922063 6.6412259567869114 0 0 0 0 45.273017536212137 6.4170384617934815 0 6.4170384617934815 2.1696260685148445 0 0 0 0 50.837440975471509 20.016176034978116 0 20.016176034978116 10.128295984673969 0 0 0 0 80.893651529768249 23.171977955615148 0 23.171977955615148 -13.226489294335352 0 0 0 0 29.143423388573865 8.2207126921730378 0 8.2207126921730378 2.6894061812415657 0 0 0 0 30.913742417418689 18.878798764732437 0 18.878798764732437 15.552303498822766 0 0 0 0 17.59017358209212 4.2696940767669886 0 4.2696940767669886 -7.1208608241483127 0 0 0 0 66.910244704587967 43.514442442305153 0 43.514442442305153 54.014387219531272 0 0 0 0 19.063974415604349 -2.8316505051272287 0 -2.8316505051272287 -6.0225560967001961 0 0 0 0 30.517293144424912 36.828381357879152 0 36.828381357879152 63.679840880000484 0 0 0 0 65.658190261310665 90.007268878762261 0 90.007268878762261 94.641614734678114 0 0 0 0 64.372459668018564 128.79952491121367 0 128.79952491121367 120.25524624385798 0 0 0 0 65.717683389855665 138.34710841198375 0 138.34710841198375 129.592273606444 0 0 0 0 21.016362923128327 46.997073429229204 0 46.997073429229204 208.49692050907834 0 0 0 0 64.100302981414643 137.53253872198366 0 137.53253872198366 153.73413826974138 0 0 0 0 468.53847255964502 139.74726081810468 0 139.74726081810468 16.47790542824805 0 0 0 0 422.82545773538004 260.73277739538207 0 260.73277739538207 90.320417438762888 0 0 0 0 158.95793243190565 242.07101744921056 0 242.07101744921056 192.46678356315624 0 0 0 0 163.31589765608805 227.75570906755638 0 227.75570906755638 235.76912494436692 0 0 0 0 526.23964226690441 417.42574012141904 0 417.42574012141904 225.79935554744588 0 0 0 0 367.82586792660004 296.55721517540951 0 296.55721517540951 251.68717707417818 0 0 0 0 -33.038495753655951 72.276687050023639 0 72.276687050023639 145.16442443312008 0 0 0 0 207.34571889856306 260.40664088647918 0 260.40664088647918 187.95693514141476 0 0 0 0 -33.157222510076281 374.5784327411377 0 374.5784327411377 493.84158335345637 0 0 0 0 61.194271272725018 600.9291748604096 0 600.9291748604096 769.33254977169054 0 0 0 0 3.5346627341014454 -0.8241916023116147 0 -0.8241916023116147 -0.88382699439343071 0 0 0 0 -1.3384895503331791 70.146608117493088 0 70.146608117493088 0.66371970527507074 0 0 0 0 -104.29189149534795 192.5339954914225 0 192.5339954914225 300.2363834265816 0 0 0 0 -196.27481268368138 113.04047694563997 0 113.04047694563997 166.00569522056503 0 0 0 0 -160.32084293141088 -129.03979806030975 0 -129.03979806030975 -23.854202139725999 0 0 0 0 31.091552025482912 3.8294181153606957 0 3.8294181153606957 -15.978311922621664 0 0 0 0 29.63759284959815 26.826879122627361 0 26.826879122627361 26.633786401882389 0 0 0 0 34.1528764520408 17.784200286261694 0 17.784200286261694 11.180008184161125 0 0 0 0 28.322637992445379 29.44717137246198 0 29.44717137246198 -6.7629327086669946 0 0 0 0 23.019869904077495 18.847370982154871 0 18.847370982154871 9.4718730219683493 0 0 0 0 -601.85954878905613 -263.22092156130685 0 -263.22092156130685 496.75623165854824 0 0 0 0 37.106082659584231 17.989239391475106 0 17.989239391475106 -13.199971696374348 0 0 0 0 -238.24549789943558 -526.99668140264521 0 -526.99668140264521 -396.89523957997824 0 0 0 0 38.670110434100934 42.852146409029444 0 42.852146409029444 6.0683820600334002 0 0 0 0 34.120959097858773 24.811116521590804 0 24.811116521590804 10.63276425436576 0 0 0 0 40.315140616810822 27.509482877186201 0 27.509482877186201 -0.54720030636281081 0 0 0 0 -44.843594006999751 80.566072211525153 0 80.566072211525153 -9.0499899502065091 0 0 0 0 13.450153858000704 23.981037190028019 0 23.981037190028019 9.3990544384591885 0 0 0 0 9.5368070752595315 15.134946657242082 0 15.134946657242082 11.837341420530599 0 0 0 0 12.098415940676986 2.8516973164429231 0 2.8516973164429231 0.41070820009406361 0 0 0 0 -0.11821713331300998 27.534124189897739 0 27.534124189897739 9.3699623658867495 0 0 0 0 11.725454480590997 18.842918970172832 0 18.842918970172832 5.7828505191728254 0 0 0 0 25.697506344382418 17.172792531891901 0 17.172792531891901 4.5813945380236873 0 0 0 0 21.119876329787076 12.46829902870877 0 12.46829902870877 8.3577066291600204 0 0 0 0 17.572893905630835 13.51442055286703 0 13.51442055286703 9.8697237838139777 0 0 0 0 34.845203738255805 23.661055008702533 0 23.661055008702533 11.03236712132275 0 0 0 0 31.588826847307246 14.883389164649884 0 14.883389164649884 8.9073277534607769 0 0 0 0 52.213281281226955 2.0550341591188044 0 2.0550341591188044 -10.183460835692443 0 0 0 0 2.6767288251529635 1.1193784969116223 0 1.1193784969116223 3.62941805212769 0 0 0 0 13.585117570277362 8.1983452191179822 0 8.1983452191179822 -10.362492546793874 0 0 0 0 6.3240899911422304 2.6387630553921539 0 2.6387630553921539 -2.9945758281732751 0 0 0 0 -3.6082689098402625 -5.7044893376441905 0 -5.7044893376441905 26.770193243466565 0 0 0 0 -8.6313273423511419 14.979136602399194 0 14.979136602399194 30.921276904621664 0 0 0 0 100.54027642688015 1.3929275760660857 0 1.3929275760660857 -11.64927450516825 0 0 0 0 93.397939133632462 143.07328985670938 0 143.07328985670938 83.457864850813166 0 0 0 0 4.1556633565508747 3.822587552672438 0 3.822587552672438 -2.879792655414251 0 0 0 0 -2.5215307966718683 -1.6724599239469171 0 -1.6724599239469171 6.1845478863469907 0 0 0 0 -8.5931299229341676 20.329918049058506 0 20.329918049058506 5.8585801965424977 0 0 0 0 -0.13494597197289693 5.9729321814994485 0 5.9729321814994485 7.9631731277114248 0 0 0 0 -2.7692029869613179 10.498059387137346 0 10.498059387137346 37.460332104651116 0 0 0 0 1.7469663157580726 -1.5112788474892227 0 -1.5112788474892227 54.407097500872624 0 0 0 0 286.7232210409129 55.378173021147632 0 55.378173021147632 -6.6446906529867249 0 0 0 0 -12.790889468499699 -64.879727883385982 0 -64.879727883385982 157.44520753937377 0 0 0 0 -1.0341541421185099 1.8184380825798172 0 1.8184380825798172 4.436163124207849 0 0 0 0 238.57971103637101 312.72799447116086 0 312.72799447116086 155.88824254152723 0 0 0 0 -170.13487577444266 163.12129275114725 0 163.12129275114725 305.37909844619844 0 0 0 0 -146.23502305301645 -243.88300141744151 0 -243.88300141744151 -279.31119756609223 0 0 0 0 390.26464898565609 96.208098310845841 0 96.208098310845841 -284.10470001233477 0 0 0 0 47.059784129916622 10.844481525392602 0 10.844481525392602 -3.4096067584486347 0 0 0 0 39.963002127937216 15.391646050628879 0 15.391646050628879 -3.7807714201736644 0 0 0 0 -71.329638167400844 17.145478980081229 0 17.145478980081229 165.0236125775852 0 0 0 0 30.952459001456191 18.01534430351046 0 18.01534430351046 -9.6703268318005939 0 0 0 0 28.573598196619599 16.179043683215085 0 16.179043683215085 3.5728357457274038 0 0 0 0 -9.7648324510009843 82.314867885113145 0 82.314867885113145 -47.687387150273999 0 0 0 0 -88.700132507430681 84.091090224725065 0 84.091090224725065 89.768245916065723 0 0 0 0 34.110567300993353 11.562073385713575 0 11.562073385713575 -3.4098105555776783 0 0 0 0 41.549717533183866 11.640230736815283 0 11.640230736815283 -5.1597196369966696 0 0 0 0 45.59261651211591 13.80459864885745 0 13.80459864885745 -6.7441395518544596 0 0 0 0 15.31506119121709 7.1149475825676323 0 7.1149475825676323 -5.0820389306464193 0 0 0 0 45.317878224658671 18.965894468568422 0 18.965894468568422 2.6145354186046461 0 0 0 0 30.490178998208648 15.133185831180526 0 15.133185831180526 6.4901163757040194 0 0 0 0 36.344162796594901 -2.3296533255397662 0 -2.3296533255397662 5.9623185757845931 0 0 0 0 20.811884373875806 20.858632594216218 0 20.858632594216218 4.4510052234396138 0 0 0 0 35.609152374433052 10.314469336572301 0 10.314469336572301 3.0056981784582604 0 0 0 0 36.882511455525673 14.389069469810238 0 14.389069469810238 3.4733064011106762 0 0 0 0 15.381324993684885 8.4669510431672403 0 8.4669510431672403 3.8032741315830645 0 0 0 0 24.758856797562657 7.0629959291468367 0 7.0629959291468367 -5.0565450317408249 0 0 0 0 31.642745533302332 24.415774330337626 0 24.415774330337626 -13.284250964500416 0 0 0 0 21.447661231215577 8.1790382228925367 0 8.1790382228925367 -1.1843097788643995 0 0 0 0 10.236407946988049 7.1663432694296576 0 7.1663432694296576 6.309049448398337 0 0 0 0 24.57171398837454 13.839168690042698 0 13.839168690042698 -6.8499006250603998 0 0 0 0 8.9119025748804717 3.6445672434574874 0 3.6445672434574874 1.0026080379006572 0 0 0 0 -8.4671743269427679 19.922637399828091 0 19.922637399828091 69.857749205606524 0 0 0 0 18.34124739489198 9.5294216666588909 0 9.5294216666588909 8.774111555860145 0 0 0 0 23.71892953501083 14.702044234018103 0 14.702044234018103 -61.58797748950019 0 0 0 0 19.328250425697071 22.652405237573216 0 22.652405237573216 14.97452761270014 0 0 0 0 37.175652122194151 39.644349762827915 0 39.644349762827915 -15.784473411205909 0 0 0 0 -0.72932666021746684 13.327405750556366 0 13.327405750556366 3.446678983269039 0 0 0 0 -30.9960692306704 74.152878780594619 0 74.152878780594619 133.53331055521448 0 0 0 0 23.960415970403119 12.897385901393136 0 12.897385901393136 14.299311467155349 0 0 0 0 8.4759439893570665 8.7896635277721202 0 8.7896635277721202 0.57639462520003804 0 0 0 0 41.847740001132479 28.57954798652645 0 28.57954798652645 1.9166237748177082 0 0 0 0 85.320507932367036 35.086269835814164 0 35.086269835814164 17.288263605580141 0 0 0 0 50.800149751925346 24.495401767803742 0 24.495401767803742 0.18511130637489259 0 0 0 0 41.336973889774526 20.328225308313449 0 20.328225308313449 6.6989413158971729 0 0 0 0 51.428131549128921 14.889339996656645 0 14.889339996656645 3.0388193930484704 0 0 0 0 40.620345549797094 22.275246066137697 0 22.275246066137697 8.1357884327007923 0 0 0 0 17.771052420840185 8.8725192507298232 0 8.8725192507298232 -0.9977553504086476 0 0 0 0 5.5375467363628559 6.1544921730255737 0 6.1544921730255737 -7.0894727342256374 0 0 0 0 22.615089719254442 9.0007787143613918 0 9.0007787143613918 -1.6027741017380546 0 0 0 0 17.327330160214153 4.9818062064680078 0 4.9818062064680078 -2.4391548951270092 0 0 0 0 15.828821337775992 7.7619732140218174 0 7.7619732140218174 -1.0239890929828448 0 0 0 0 3.1882033888813766 -0.13066873282889802 0 -0.13066873282889802 -2.5913677793891896 0 0 0 0 37.458019244273601 -15.974125093577641 0 -15.974125093577641 -7.8681287990038982 0 0 0 0 42.706830638560859 5.5671714919499209 0 5.5671714919499209 -22.653644455556787 0 0 0 0 14.951065363984526 17.908345567374454 0 17.908345567374454 15.144207815224036 0 0 0 0 3.1680464402062398 2.156147001123923 0 2.156147001123923 2.7746718704752773 0 0 0 0 20.168400653096796 19.639646786618869 0 19.639646786618869 9.7380305955994118 0 0 0 0 3.7772247418063358 14.900217163225292 0 14.900217163225292 11.006630136145983 0 0 0 0 18.26815466885455 18.26275943641167 0 18.26275943641167 8.4437734217717662 0 0 0 0 1.2673236475834528 33.854023272399914 0 33.854023272399914 18.165395186481419 0 0 0 0 1.0091709192344425 9.7429238742823117 0 9.7429238742823117 0.22999995013216257 0 0 0 0 21.185170876738994 35.714669959227649 0 35.714669959227649 17.834287678124838 0 0 0 0 15.741822599533407 19.452270518755768 0 19.452270518755768 7.8964228101935987 0 0 0 0 -17.112148732977857 -8.1252632886710217 0 -8.1252632886710217 55.692666964063392 0 0 0 0 2.7309701326399498 13.413752825580858 0 13.413752825580858 3.5621624266042211 0 0 0 0 -10.305794688561946 12.807474660444768 0 12.807474660444768 26.92771003933467 0 0 0 0 238.8489641179749 -69.016591512460764 0 -69.016591512460764 -47.522861866571475 0 0 0 0 -2.8501299193322325 1.1688985128646641 0 1.1688985128646641 4.3811637353628825 0 0 0 0 -71.05747679635715 97.4468634279242 0 97.4468634279242 37.620374522561178 0 0 0 0 29.640440104563044 -8.7327810202746718 0 -8.7327810202746718 0.49288056470945918 0 0 0 0 -1.8112355160051266 54.479183736925734 0 54.479183736925734 -16.184453238987771 0 0 0 0 4.6674016026536123 17.450923384381674 0 17.450923384381674 3.1214014087011535 0 0 0 0 76.541768286575461 -1.2073895481971704 0 -1.2073895481971704 -146.82009954754949 0 0 0 0 -13.017481752411413 -30.759970851651815 0 -30.759970851651815 69.787710901382525 0 0 0 0 43.577283457505928 127.53988121115981 0 127.53988121115981 87.719632925131009 0 0 0 0 0.7198336549935318 0.88622492171815281 0 0.88622492171815281 1.0488678461452103 0 0 0 0 67.894786486829616 -33.659687846945417 0 -33.659687846945417 27.490423025521977 0 0 0 0 86.120463151036347 39.353821591864744 0 39.353821591864744 -6.3884903016453336 0 0 0 0 8.6501743189753348 19.641830679944206 0 19.641830679944206 7.2546740964729288 0 0 0 0 48.531970286161595 22.561987535418666 0 22.561987535418666 27.103505468407093 0 0 0 0 102.62436887487274 7.2333109041201169 0 7.2333109041201169 -1.9034585422491546 0 0 0 0 0.66887652128101394 -0.77292461933907308 0 -0.77292461933907308 -0.38532987620036963 0 0 0 0 -45.874999314661636 12.615303350953582 0 12.615303350953582 20.091280895088858 0 0 0 0 -12.733278449570435 46.089083858307276 0 46.089083858307276 23.728237135490417 0 0 0 0 -4.1371316599847887 2.6049116662208895 0 2.6049116662208895 5.7117679216579589 0 0 0 0 28.571019639694441 9.1710973866493077 0 9.1710973866493077 7.2077154370672361 0 0 0 0 -44.128701116958837 11.937556752305682 0 11.937556752305682 27.502665553977749 0 0 0 0 50.254739621836052 40.050180064259621 0 40.050180064259621 40.322661909789531 0 0 0 0 45.636540583417997 12.45066582842324 0 12.45066582842324 -0.4459798025454802 0 0 0 0 37.17421654321879 6.7591795246189577 0 6.7591795246189577 7.3232478226345847 0 0 0 0 28.165283662165166 26.777514891738974 0 26.777514891738974 -2.7248465867214691 0 0 0 0 41.246201722233891 8.7706319749214323 0 8.7706319749214323 -6.1960733552062486 0 0 0 0 94.424497617047109 34.718298281146531 0 34.718298281146531 -2.5636694039003487 0 0 0 0 20.591124612576095 9.3325021692762675 0 9.3325021692762675 2.8741019666958891 0 0 0 0 33.70750277409752 10.026873951330344 0 10.026873951330344 2.9860554362639959 0 0 0 0 16.578756280776116 1.3299921728128563 0 1.3299921728128563 -2.6458092275981002 0 0 0 0 16.295398768852628 1.8489985120957684 0 1.8489985120957684 -1.8808219555324044 0 0 0 0 1.7646015228779879 0.73335109936666676 0 0.73335109936666676 0.27724332400657659 0 0 0 0 26.560316437124037 23.101563104614939 0 23.101563104614939 10.906226752450497 0 0 0 0 6.8839824052040823 3.6202018154747355 0 3.6202018154747355 -0.73147725955773524 0 0 0 0 65.429693379106538 39.301068530306111 0 39.301068530306111 5.7702358798769637 0 0 0 0 48.824847169133136 44.230690040942136 0 44.230690040942136 0.17667214253970087 0 0 0 0 187.70836020234674 -56.286621669986744 0 -56.286621669986744 52.21914407958684 0 0 0 0 160.36354869380193 28.684777388773909 0 28.684777388773909 39.234047443510008 0 0 0 0 165.80277871645967 58.949086817541684 0 58.949086817541684 -6.4130234565595856 0 0 0 0 53.850853835696626 -13.84430795710432 0 -13.84430795710432 15.801752776860667 0 0 0 0 151.04215633425747 2.3919929498192687 0 2.3919929498192687 -4.7487440051045269 0 0 0 0 371.48639471904153 -145.40716918204544 0 -145.40716918204544 125.84917732649228 0 0 0 0 -6.6403008477150252 57.73176805451385 0 57.73176805451385 67.759196146095064 0 0 0 0 261.12977242747968 -402.94084091509535 0 -402.94084091509535 16.800998259899643 0 0 0 0 28.648925276719638 -186.42123685262686 0 -186.42123685262686 -90.287738248471214 0 0 0 0 122.11600725323092 110.07828913231788 0 110.07828913231788 -40.848551851177035 0 0 0 0 348.61404465309715 393.20722468223357 0 393.20722468223357 399.92248207825924 0 0 0 0 19.939367340494282 -6.5135111299272364 0 -6.5135111299272364 0.64416906522131256 0 0 0 0 173.63180735190417 98.521883530438572 0 98.521883530438572 -83.062711943259274 0 0 0 0 475.32596245363197 482.94644314119137 0 482.94644314119137 594.51453070208845 0 0 0 0 462.57252744723451 430.50620923747465 0 430.50620923747465 409.17535921042872 0 0 0 0 548.84963167844182 297.01944317747899 0 297.01944317747899 170.96104006398855 0 0 0 0 426.31252899941592 362.84403979087801 0 362.84403979087801 193.81478199230696 0 0 0 0 544.4441394128188 441.09179401313475 0 441.09179401313475 243.83392570387514 0 0 0 0 356.69634107570982 348.87382845996626 0 348.87382845996626 212.12536586899296 0 0 0 0 464.68098763902788 214.79562513355859 0 214.79562513355859 62.144964738663475 0 0 0 0 247.68271920059448 85.462696600743584 0 85.462696600743584 39.213203237966809 0 0 0 0 219.09593946713539 251.3797923387101 0 251.3797923387101 231.06314529941392 0 0 0 0 322.5391883766315 340.94741529145176 0 340.94741529145176 244.19116068262429 0 0 0 0 402.57638786035045 412.8170042702418 0 412.8170042702418 261.4879450588669 0 0 0 0 374.50028898215169 326.61920162128081 0 326.61920162128081 176.30676819486234 0 0 0 0 527.40215226058353 379.20625506141732 0 379.20625506141732 198.89208114054782 0 0 0 0 389.70642758104987 354.83467227886649 0 354.83467227886649 194.83331162745526 0 0 0 0 404.02267098785842 382.59538087673127 0 382.59538087673127 248.2464702467405 0 0 0 0 273.07286944929638 292.95237580738467 0 292.95237580738467 272.53880468531861 0 0 0 0 6.9033716597481423 -2.0458037098873785 0 -2.0458037098873785 1.4087246183763398 0 0 0 0 -10.619426638751065 2.6901614453736329 0 2.6901614453736329 64.234636308934569 0 0 0 0 503.09019266548239 260.56935112475185 0 260.56935112475185 147.74053619292454 0 0 0 0 578.87531582021074 299.61881346958762 0 299.61881346958762 137.05472104280125 0 0 0 0 347.92196029231309 175.81645132035601 0 175.81645132035601 130.00288406819345 0 0 0 0 260.25424809811557 227.98376175960493 0 227.98376175960493 -152.73676949590299 0 0 0 0 13.751205652435601 -16.105789520936014 0 -16.105789520936014 19.271777417689009 0 0 0 0 9.5999063280088102 8.366370853653482 0 8.366370853653482 4.5163905059564371 0 0 0 0 288.13283861363743 -97.632091627827322 0 -97.632091627827322 85.279766091283818 0 0 0 0 -46.647954071422419 51.061499061689432 0 51.061499061689432 79.156765165991601 0 0 0 0 -89.632652664680791 51.468415157058189 0 51.468415157058189 2.2793998700135489 0 0 0 0 150.59175070378842 -108.08681567345593 0 -108.08681567345593 58.812975146975077 0 0 0 0 424.57918205679744 -252.094812995344 0 -252.094812995344 -122.43531477952638 0 0 0 0 -264.27767321370993 -49.115220010651683 0 -49.115220010651683 166.88853103071415 0 0 0 0 6608.447150501539 3512.92939906623 0 3512.92939906623 -1220.2423596320805 0 0 0 0 45.677606383482903 42.445024561599382 0 42.445024561599382 32.315934167189212 0 0 0 0 -305.06055621218184 425.03616433573688 0 425.03616433573688 707.09998769701633 0 0 0 0 -244.35731457707152 138.40773515003457 0 138.40773515003457 73.632195765110737 0 0 0 0 514.37495145743742 333.79855385487826 0 333.79855385487826 143.97538209437698 0 0 0 0 164.72549881922748 113.30666626249365 0 113.30666626249365 131.9600132815176 0 0 0 0 831.97212614264572 295.52807850371028 0 295.52807850371028 7.5980160384933697 0 0 0 0 796.51360483263124 216.72045803255969 0 216.72045803255969 -73.075862661562496 0 0 0 0 750.49102450788632 458.23896433983828 0 458.23896433983828 143.65085755457221 0 0 0 0 795.88772007369062 419.58858406576996 0 419.58858406576996 168.08570889047405 0 0 0 0 531.20237859535064 632.75879891361637 0 632.75879891361637 538.90509350111824 0 0 0 0 -4091.62657239908 2634.6414458484396 0 2634.6414458484396 2910.6458294293188 0 0 0 0 0.93309221069011983 286.73918389741539 0 286.73918389741539 669.13226929382654 0 0 0 0 1041.673940900484 247.61847008100813 0 247.61847008100813 -64.495398639541236 0 0 0 0 1049.3903275185294 756.63247167046575 0 756.63247167046575 383.1207602294744 0 0 0 0 1587.8623289123425 689.97998910630122 0 689.97998910630122 252.78059022341768 0 0 0 0 1548.5295751639533 1092.0276371955733 0 1092.0276371955733 491.46009369736021 0 0 0 0 2619.8382693151943 -4795.5745081419736 0 -4795.5745081419736 1319.2820699777112 0 0 0 0 434.0399942516342 1188.387321000313 0 1188.387321000313 2081.757359930074 0 0 0 0 -6686.5000674715284 -430.7237455537761 0 -430.7237455537761 -538.38970607028364 0 0 0 0 1087.3036578659521 1010.5564296089915 0 1010.5564296089915 768.87256285785043 0 0 0 0 2283.3527836442609 281.30895457359156 0 281.30895457359156 -70.59226971775206 0 0 0 0 1107.6621567493712 558.69652104694069 0 558.69652104694069 306.4955213906747 0 0 0 0 1118.1166331885743 611.93914564962552 0 611.93914564962552 250.62770754321537 0 0 0 0 2188.7067764113162 951.23444652583748 0 951.23444652583748 270.75617089210209 0 0 0 0 1678.4107560043485 536.27537551701244 0 536.27537551701244 155.09802823692007 0 0 0 0 11.034264483914484 18.98644159768272 0 18.98644159768272 23.134682432710335 0 0 0 0 1199.1562116099485 170.91142240362751 0 170.91142240362751 46.298630788864102 0 0 0 0 8.1339610060222611 16.133844997589648 0 16.133844997589648 23.448768569793714 0 0 0 0 979.06026991068939 -558.394405647854 0 -558.394405647854 348.87687086637379 0 0 0 0 1749.9049301471241 -485.84143811445483 0 -485.84143811445483 143.79901347522537 0 0 0 0 938.40316069047549 -175.28617661035241 0 -175.28617661035241 142.17649389808503 0 0 0 0 1454.0957739704609 -201.0011572957028 0 -201.0011572957028 76.744386232159741 0 0 0 0 1765.8249263896578 3.4113681086328143 0 3.4113681086328143 81.044768363557523 0 0 0 0 1164.3096257322759 48.325564012389805 0 48.325564012389805 89.5206405280328 0 0 0 0 1343.8438612300888 222.6748196173321 0 222.6748196173321 95.26273851314545 0 0 0 0 865.60467692717793 264.64553724029611 0 264.64553724029611 107.20420429933483 0 0 0 0 1047.1128080797789 267.9329783064095 0 267.9329783064095 175.36782875384961 0 0 0 0 826.63829931849614 629.48399645104655 0 629.48399645104655 309.15507061432697 0 0 0 0 715.81223201324974 163.19357519531968 0 163.19357519531968 83.989482880911964 0 0 0 0 756.78995023587777 221.06149522439591 0 221.06149522439591 33.743129496982874 0 0 0 0 1138.1557703205399 -53.770595606860297 0 -53.770595606860297 46.949058558580873 0 0 0 0 697.64259495315127 -17.592441188329758 0 -17.592441188329758 23.43739123224077 0 0 0 0 751.93936975661927 -201.50599331080139 0 -201.50599331080139 126.32451905054768 0 0 0 0 839.11201821513532 31.781051308556926 0 31.781051308556926 22.474954285928106 0 0 0 0 676.11642408102853 -488.84240479583877 0 -488.84240479583877 381.74390389302789 0 0 0 0 972.78678210005455 -179.64904951380959 0 -179.64904951380959 121.11222948973591 0 0 0 0 729.91459114578902 -164.70498568679614 0 -164.70498568679614 66.016904761992919 0 0 0 0 459.71934425624204 -148.56063036166779 0 -148.56063036166779 66.247413646364294 0 0 0 0 426.70856966053543 -31.805579941850738 0 -31.805579941850738 -6.4144072565832175 0 0 0 0 586.1775517710339 22.203175343012845 0 22.203175343012845 9.2398659584541747 0 0 0 0 634.23084296104207 -48.430435088308514 0 -48.430435088308514 -5.1954307815758511 0 0 0 0 662.53157081577956 85.540966578626467 0 85.540966578626467 -18.927810635432252 0 0 0 0 462.3784983746591 72.786679282791738 0 72.786679282791738 -19.72841563048496 0 0 0 0 492.18371476902394 155.01961966531599 0 155.01961966531599 5.2265058106604556 0 0 0 0 510.13187445868971 173.80725165851618 0 173.80725165851618 29.542573911448926 0 0 0 0 -32.866088441418469 1161.0301609056914 0 1161.0301609056914 -1451.561581932925 0 0 0 0 1304.6953309134697 -54.03569170863193 0 -54.03569170863193 -2125.7337248641015 0 0 0 0 148.8081197132633 -173.02000157472139 0 -173.02000157472139 262.72694013056753 0 0 0 0 365.70391173062671 -377.52629448373409 0 -377.52629448373409 342.25838698188818 0 0 0 0 269.40588799513353 -83.485147295761635 0 -83.485147295761635 75.437514651644051 0 0 0 0 449.30247152446464 -119.46973966695941 0 -119.46973966695941 82.102649765525712 0 0 0 0 30.743308170797444 33.087516815060056 0 33.087516815060056 30.844491210160477 0 0 0 0 189.32980250498349 -46.338174183874344 0 -46.338174183874344 132.89728259924232 0 0 0 0 269.74654480246681 -89.556230714624689 0 -89.556230714624689 81.652221406871831 0 0 0 0 -158.98601488446911 101.97546160449019 0 101.97546160449019 -340.35366687279111 0 0 0 0 296.46994202108363 -45.011620010049228 0 -45.011620010049228 -411.69511699628856 0 0 0 0 146.01616209642839 -1.0448634359752305 0 -1.0448634359752305 -352.16821471229196 0 0 0 0 88.276113386285033 -21.792871625053522 0 -21.792871625053522 -227.52733949039612 0 0 0 0 131.23777661895292 -41.451466249909572 0 -41.451466249909572 -251.48250759321672 0 0 0 0 49.723580960439449 -35.092550632485654 0 -35.092550632485654 -224.1420678763825 0 0 0 0 87.746526913163507 -54.654219059342722 0 -54.654219059342722 -249.24830112163909 0 0 0 0 227.84960356392367 -47.028308045373706 0 -47.028308045373706 -261.0881794592824 0 0 0 0 182.9354801935732 22.579210002944819 0 22.579210002944819 11.707766980973247 0 0 0 0 300.01649902701683 120.24353067007723 0 120.24353067007723 23.866559833524661 0 0 0 0 311.34488071026135 329.73370461533341 0 329.73370461533341 282.74321065017284 0 0 0 0 167.05456220621363 60.241812605613177 0 60.241812605613177 111.72242359329539 0 0 0 0 81.243515954618488 15.116944346515083 0 15.116944346515083 216.81779141047718 0 0 0 0 111.60018847286665 -510.56670985270648 0 -510.56670985270648 466.86736871268295 0 0 0 0 221.77912988761273 219.35574528500365 0 219.35574528500365 485.52810660981777 0 0 0 0 156.48155743861571 50.538112360607556 0 50.538112360607556 78.473057916387916 0 0 0 0 59.543631138643832 -8.6785697012146557 0 -8.6785697012146557 8.3855335647822358 0 0 0 0 136.36687870684224 33.530789668270458 0 33.530789668270458 -13.014964320107742 0 0 0 0 118.99642724198929 45.509354493264709 0 45.509354493264709 -38.521103325960212 0 0 0 0 149.18656993691894 66.475215212319711 0 66.475215212319711 3.3297999082162901 0 0 0 0 166.24803287202303 16.2317722356795 0 16.2317722356795 108.36601039642301 0 0 0 0 236.58336736816617 43.050886183195715 0 43.050886183195715 -2.8329520436440108 0 0 0 0 49.069462473881998 4.7756161714905829 0 4.7756161714905829 4.196653143840301 0 0 0 0 233.8920245170284 188.37562524017358 0 188.37562524017358 -245.46980094632818 0 0 0 0 2387.3018043230695 510.05806469056006 0 510.05806469056006 -828.98561715152027 0 0 0 0 1389.991486672312 822.86039938269641 0 822.86039938269641 308.10983810198377 0 0 0 0 -26.438768596417503 -288.34555532346894 0 -288.34555532346894 50.814990503306035 0 0 0 0 -30.047379337600432 -278.31708497893487 0 -278.31708497893487 58.046716796512783 0 0 0 0 -33.934161825163756 -271.81609953064799 0 -271.81609953064799 57.799915349493574 0 0 0 0 5.2592960784893705 -2.9076763068056337 0 -2.9076763068056337 2.76770632979696 0 0 0 0 199.96664647546058 54.60104864023296 0 54.60104864023296 -13.458899838378066 0 0 0 0 375.7879000167386 -81.925417138783814 0 -81.925417138783814 267.50407881202409 0 0 0 0 -2.2873303855965332 506.89289952755371 0 506.89289952755371 -99.208712756215391 0 0 0 0 23.496156501003512 20.487395988344332 0 20.487395988344332 -0.94035267232187181 0 0 0 0 52.605175744718508 419.98804056403606 0 419.98804056403606 28.582309575489489 0 0 0 0 222.3635348522439 182.06658150904696 0 182.06658150904696 213.45952310682333 0 0 0 0 33.766455094341381 457.23438907385389 0 457.23438907385389 -164.84164904614954 0 0 0 0 103.51193077934386 57.242699360242113 0 57.242699360242113 -245.45515459685703 0 0 0 0 97.274075917845494 81.570763283802535 0 81.570763283802535 -326.78918980091839 0 0 0 0 130.2318398142379 -53.257426120517266 0 -53.257426120517266 -34.368024391835206 0 0 0 0 48.776732373613029 28.966837413175856 0 28.966837413175856 13.779209095741294 0 0 0 0 136.78068427927064 26.000247992087679 0 26.000247992087679 -116.08629445446422 0 0 0 0 135.47525148300929 -17.706189260834321 0 -17.706189260834321 47.913819197630801 0 0 0 0 416.38026335113682 -16.3074963588424 0 -16.3074963588424 -17.034473010826332 0 0 0 0 288.53830428278889 22.27969986979042 0 22.27969986979042 -13.278312989696133 0 0 0 0 131.74191386403982 -82.091716580893262 0 -82.091716580893262 -58.922969610313885 0 0 0 0 195.01337324111955 -95.756581798188563 0 -95.756581798188563 -58.946143487210065 0 0 0 0 420.24893134593731 121.84575480366243 0 121.84575480366243 -68.647952259590966 0 0 0 0 402.32168341420038 -18.657510130553419 0 -18.657510130553419 -17.204151152142003 0 0 0 0 405.84798324140866 51.696283616238361 0 51.696283616238361 -53.405974180491285 0 0 0 0 538.73134819914412 26.878777033571168 0 26.878777033571168 -49.531622453294403 0 0 0 0 450.96213153985445 131.96995536386021 0 131.96995536386021 -97.971810619455937 0 0 0 0 434.61610519081296 47.123453184529353 0 47.123453184529353 -83.635247578469716 0 0 0 0 543.26624405765324 418.62596124850324 0 418.62596124850324 -51.452426038193153 0 0 0 0 444.70804889079227 95.458943703813929 0 95.458943703813929 -232.32824652497948 0 0 0 0 347.21276133394349 136.68470693895142 0 136.68470693895142 143.06122635127758 0 0 0 0 -164.93344114315914 -235.50173282696869 0 -235.50173282696869 199.50726401205611 0 0 0 0 237.08307196233363 -211.88824869009477 0 -211.88824869009477 -285.38801060895821 0 0 0 0 245.3940435188706 -32.962888857462531 0 -32.962888857462531 -221.42400091794843 0 0 0 0 322.97229818857159 228.550665493628 0 228.550665493628 -12.395649617542631 0 0 0 0 195.82002334496343 43.559818932442781 0 43.559818932442781 -24.937050632438719 0 0 0 0 31.582384585579433 19.673546251198132 0 19.673546251198132 11.356222718838215 0 0 0 0 124.36165355458797 152.66906555860442 0 152.66906555860442 111.2808363260383 0 0 0 0 203.27328540560848 -21.20727691091588 0 -21.20727691091588 -160.70781847412582 0 0 0 0 130.77183861254889 67.239822579582778 0 67.239822579582778 115.6231866181879 0 0 0 0 295.10868501197547 322.18460975924427 0 322.18460975924427 113.7112925937445 0 0 0 0 243.91938990619383 243.83170493437456 0 243.83170493437456 -5.7529653361034434 0 0 0 0 593.05778604692023 389.52414949864033 0 389.52414949864033 41.388750458578215 0 0 0 0 292.20245937467553 401.9981029275732 0 401.9981029275732 123.00452230183419 0 0 0 0 295.78350313886767 381.86683305056522 0 381.86683305056522 218.62982422988716 0 0 0 0 48.198526441767171 243.71127241041813 0 243.71127241041813 165.48214444324549 0 0 0 0 361.41745764974621 238.3035286581669 0 238.3035286581669 141.93019010765602 0 0 0 0 50.765040223996039 247.29862490889718 0 247.29862490889718 151.25641689903375 0 0 0 0 -25.587662841440761 116.30703104746317 0 116.30703104746317 215.03409803629074 0 0 0 0 46.585684010497062 134.59020865802268 0 134.59020865802268 170.4797466059108 0 0 0 0 161.37964079386802 69.305592649615164 0 69.305592649615164 132.08731961324156 0 0 0 0 108.11219668172998 48.70980518484339 0 48.70980518484339 208.46600094480527 0 0 0 0 83.509358189839986 -22.756780449190046 0 -22.756780449190046 106.04377426262442 0 0 0 0 65.13926614950833 -95.326275357767486 0 -95.326275357767486 247.94992335366987 0 0 0 0 -36.181382920636679 87.684639967904332 0 87.684639967904332 461.62949584058515 0 0 0 0 -2.4897120960522443 103.51922832330547 0 103.51922832330547 191.73091755317546 0 0 0 0 78.967684395465767 203.22237563294038 0 203.22237563294038 164.84396966453642 0 0 0 0 -66.948833032278344 163.85313124238246 0 163.85313124238246 233.43429944460536 0 0 0 0 48.136310137662804 108.29790213121623 0 108.29790213121623 6.8235928066742417 0 0 0 0 -84.910001986892894 171.72096338310621 0 171.72096338310621 -2.5644768975767533 0 0 0 0 23.369701498289942 166.97842962130449 0 166.97842962130449 -251.98062172892378 0 0 0 0 101.87174140944262 229.13904343200306 0 229.13904343200306 -336.84049354357876 0 0 0 0 -52.336533381458139 152.3130393545016 0 152.3130393545016 167.54834091310249 0 0 0 0 4.118598546134308 196.5108724509314 0 196.5108724509314 -49.567338135132559 0 0 0 0 -23.375553879559448 170.93730571764627 0 170.93730571764627 6.3721467941877563 0 0 0 0 -68.507241588900797 173.00959784067845 0 173.00959784067845 6.7195846031989674 0 0 0 0 0.1997407784947427 86.048644348039232 0 86.048644348039232 -279.87145031640301 0 0 0 0 108.56621937244199 236.37441471755915 0 236.37441471755915 -177.42765850421461 0 0 0 0 9.2466271184493962 -9.1223283170637899 0 -9.1223283170637899 -21.456291163129208 0 0 0 0 9.3967934292567179 9.8108839000591583 0 9.8108839000591583 2.1191928358111474 0 0 0 0 29.286892660376907 191.04685910089665 0 191.04685910089665 -389.67454846260188 0 0 0 0 2.4421732645249676 3.695237678826885 0 3.695237678826885 1.181145760855804 0 0 0 0 20.342270978506349 28.502456998148261 0 28.502456998148261 -33.883968003129894 0 0 0 0 10.072945810910767 6.5645755145948694 0 6.5645755145948694 0.42822265947008531 0 0 0 0 164.57042742559861 180.97199158576382 0 180.97199158576382 -771.34076370235414 0 0 0 0 -29.018039686110569 -30.13864046680095 0 -30.13864046680095 -453.88992745501957 0 0 0 0 -148.87521986750653 134.19685386105647 0 134.19685386105647 -251.74925877302405 0 0 0 0 138.45766812713555 213.52925580933007 0 213.52925580933007 79.255603242002678 0 0 0 0 -0.54023726690371632 3.4909066749812183 0 3.4909066749812183 2.6990009037016947 0 0 0 0 -136.11697417565301 -117.40558176534098 0 -117.40558176534098 114.89150749081102 0 0 0 0 -65.395948195582605 230.5881212769259 0 230.5881212769259 424.94495228338405 0 0 0 0 42.269790179503616 -14.661095574246414 0 -14.661095574246414 -33.569348737386903 0 0 0 0 58.054830802398442 0.58323698154249826 0 0.58323698154249826 -1.3351697689670938 0 0 0 0 22.924547411967069 -31.061441833488956 0 -31.061441833488956 -0.10420815651796689 0 0 0 0 33.279924443933851 2.853915454824453 0 2.853915454824453 -4.1796748734976106 0 0 0 0 39.895686462448907 1.9682929715590802 0 1.9682929715590802 -1.1319235265702421 0 0 0 0 -45.039874592795968 28.411884783318271 0 28.411884783318271 529.75171529084537 0 0 0 0 45.106836584192934 -4.2538102095731114 0 -4.2538102095731114 0.012331587211372324 0 0 0 0 -45.929496407596162 173.08812145407956 0 173.08812145407956 37.229730100919141 0 0 0 0 174.22088989195618 -37.052742701936602 0 -37.052742701936602 87.121708093443601 0 0 0 0 13.120087252114899 -104.76830208972137 0 -104.76830208972137 76.996034950231206 0 0 0 0 162.00332762429025 81.701882738101631 0 81.701882738101631 194.77356592937304 0 0 0 0 167.11612060244806 66.523980892103509 0 66.523980892103509 133.70929486060209 0 0 0 0 559.05448635315406 223.93025652883506 0 223.93025652883506 56.698373943166985 0 0 0 0 242.66524484034744 -143.4036041038961 0 -143.4036041038961 -185.47009477199572 0 0 0 0 662.10775330953766 4.9131434257456021 0 4.9131434257456021 -257.87149002491424 0 0 0 0 -121.68410900232266 199.7185322087355 0 199.7185322087355 -123.9963639876396 0 0 0 0 -73.850109090642945 126.88582219656092 0 126.88582219656092 -228.51772672318612 0 0 0 0 13.307378496072488 170.04705737816175 0 170.04705737816175 -170.98717945178055 0 0 0 0 11.839615871381341 8.1763369688909293 0 8.1763369688909293 2.7911555834387434 0 0 0 0 -65.750175229002707 81.321406352635819 0 81.321406352635819 26.071972225262471 0 0 0 0 172.6694295086927 126.44354596516246 0 126.44354596516246 -485.74006674257544 0 0 0 0 -2.5319810223378454 4.8720832863272001 0 4.8720832863272001 1.4076993425200286 0 0 0 0 -138.92536351896706 -39.007660063224648 0 -39.007660063224648 -162.97448108442268 0 0 0 0 -66.56857827341446 105.29625758845395 0 105.29625758845395 -1.1759802221022255 0 0 0 0 10.17531751623028 45.171370303140066 0 45.171370303140066 -37.400788905567424 0 0 0 0 -75.174901761463843 233.18582304677466 0 233.18582304677466 345.43919405311681 0 0 0 0 15.67412021059863 228.39807046847591 0 228.39807046847591 101.62652372459343 0 0 0 0 -25.312155619481928 149.36381386352059 0 149.36381386352059 166.53498030915591 0 0 0 0 3.250585703565207 4.5480811789250097 0 4.5480811789250097 3.0029639197267475 0 0 0 0 105.34656527297193 431.81518337779164 0 431.81518337779164 724.4982418241234 0 0 0 0 -57.499938075729006 85.508409642370225 0 85.508409642370225 171.39068000136467 0 0 0 0 750.31434080709005 629.3325495473232 0 629.3325495473232 235.73259919242173 0 0 0 0 420.26233954419149 228.42872138307894 0 228.42872138307894 528.60364291768701 0 0 0 0 969.80405916788004 142.65972286111901 0 142.65972286111901 7.4861403911399975 0 0 0 0 271.72710740177172 127.68541534202683 0 127.68541534202683 29.682562319022509 0 0 0 0 429.59266102703987 156.69866727765657 0 156.69866727765657 -89.391201702341277 0 0 0 0 529.92836408616859 348.69033687849281 0 348.69033687849281 142.20572712300236 0 0 0 0 454.70453064624598 459.40283327783288 0 459.40283327783288 4.6400291199624917 0 0 0 0 362.88994041085243 313.69005923551026 0 313.69005923551026 110.69393300622028 0 0 0 0 972.35543081413198 560.49875119341812 0 560.49875119341812 -1.2936273567147509 0 0 0 0 530.23816432632157 295.94863466983861 0 295.94863466983861 -94.939291158892871 0 0 0 0 407.88405506650452 334.38565504132646 0 334.38565504132646 242.29788812793674 0 0 0 0 417.87910805486899 358.46234978035136 0 358.46234978035136 141.36449220535405 0 0 0 0 16.570011031730246 1.3440485893111174 0 1.3440485893111174 0.0028201529960785602 0 0 0 0 24.205834477019835 2.7443214392621904 0 2.7443214392621904 -0.73458637016700479 0 0 0 0 32.033591074496144 0.19719633748171905 0 0.19719633748171905 -0.0051302988616557122 0 0 0 0 17.548210047127213 3.6876011145628587 0 3.6876011145628587 -0.72008170450292508 0 0 0 0 288.88673095286504 315.53282813530279 0 315.53282813530279 606.37945755640578 0 0 0 0 569.90580222244171 -254.0852303570999 0 -254.0852303570999 4.1113980239767463 0 0 0 0 1032.0844804069347 -33.215884987307561 0 -33.215884987307561 -177.60752273119749 0 0 0 0 699.30176830542041 1035.0237793834026 0 1035.0237793834026 1255.6503465882258 0 0 0 0 8.4858630677002225 2.4574223479106543 0 2.4574223479106543 0.52082335399787771 0 0 0 0 361.64476209813438 409.0290642899779 0 409.0290642899779 237.88171879198421 0 0 0 0 622.68133057715022 33.437739461768672 0 33.437739461768672 -31.19216016790665 0 0 0 0 504.0654829221894 168.00392655536621 0 168.00392655536621 -636.51195787284678 0 0 0 0 -160.97186556451197 -120.02311076015721 0 -120.02311076015721 -35.079853982682152 0 0 0 0 433.30803251355974 493.28758675053319 0 493.28758675053319 -40.603409354250289 0 0 0 0 413.98606199814822 187.58501240414284 0 187.58501240414284 -369.00271585583369 0 0 0 0 194.446601073083 57.485462072044356 0 57.485462072044356 -168.00508920481025 0 0 0 0 271.37880614178721 -157.78906773202073 0 -157.78906773202073 -495.84661146077087 0 0 0 0 -236.90241431095637 -289.13528119031071 0 -289.13528119031071 -278.36406293126765 0 0 0 0 124.39264951142832 -63.669928435335805 0 -63.669928435335805 -168.19899789913779 0 0 0 0 -61.713421291031409 -245.40825277418298 0 -245.40825277418298 -269.58343468063049 0 0 0 0 220.37964388368709 -68.54816991638927 0 -68.54816991638927 -258.57744365918779 0 0 0 0 9.6871392116795505 2.4645695410087001 0 2.4645695410087001 -6.6349664637101782 0 0 0 0 -106.18474550326937 -408.42288016606108 0 -408.42288016606108 -642.55557972347106 0 0 0 0 40.202665418895776 62.433870671137811 0 62.433870671137811 -51.995422441373194 0 0 0 0 -482.50637567443482 -476.02298342516906 0 -476.02298342516906 -308.37807952390358 0 0 0 0 -399.06474134045129 -183.42791505501964 0 -183.42791505501964 -137.43233812766266 0 0 0 0 -272.58975576754892 -107.26365985757548 0 -107.26365985757548 -119.93701801453062 0 0 0 0 67.603083760041045 9.9149398422237027 0 9.9149398422237027 21.643350095301003 0 0 0 0 35.809368094749146 19.757114732652894 0 19.757114732652894 -0.55282155971267943 0 0 0 0 65.544086390407756 3.7385039818032055 0 3.7385039818032055 25.09559262218113 0 0 0 0 68.27943197535933 1.8995274382164098 0 1.8995274382164098 17.344355134516263 0 0 0 0 66.568219617423892 12.784220810405373 0 12.784220810405373 34.804799349552923 0 0 0 0 -65.565093832905404 -103.86705155643631 0 -103.86705155643631 -131.46955784443708 0 0 0 0 41.156007618297963 -1.3887882942674139 0 -1.3887882942674139 -19.153622537554313 0 0 0 0 53.944724880430272 16.883916725228843 0 16.883916725228843 -10.167270661061147 0 0 0 0 -42.99536446055572 -141.09114719646641 0 -141.09114719646641 -96.273764739631588 0 0 0 0 48.121744946198305 24.256052706793881 0 24.256052706793881 2.4775595577128797 0 0 0 0 16.128729027063684 15.054492054643212 0 15.054492054643212 -2.1634419934464004 0 0 0 0 71.564089520466581 45.465600043833405 0 45.465600043833405 21.467548058167516 0 0 0 0 87.12034099153243 43.417676091435169 0 43.417676091435169 10.107917255456414 0 0 0 0 76.790549485944211 45.546774249047303 0 45.546774249047303 12.933127835994128 0 0 0 0 114.78635040525842 68.736237963503299 0 68.736237963503299 47.964429442152323 0 0 0 0 90.218119674957165 35.845811400043026 0 35.845811400043026 -1.6636637371816541 0 0 0 0 -2.5498464419797529 -99.833594084419929 0 -99.833594084419929 -172.76579371328535 0 0 0 0 80.55377010252613 4.1685078320862914 0 4.1685078320862914 -33.678959556956769 0 0 0 0 82.73520513571566 33.836707678327912 0 33.836707678327912 13.911676635945696 0 0 0 0 69.907231325550867 31.360601065529224 0 31.360601065529224 14.249124684602396 0 0 0 0 84.891486251988681 -174.3191471766936 0 -174.3191471766936 -139.29411454064757 0 0 0 0 -56.460291105220676 -136.95457802109286 0 -136.95457802109286 -111.84420070182568 0 0 0 0 290.16467787875445 -123.90081085140446 0 -123.90081085140446 -66.34039552166837 0 0 0 0 94.070453823181197 -3.8971060987080079 0 -3.8971060987080079 -126.16153356964605 0 0 0 0 385.76954300387297 100.61383544190085 0 100.61383544190085 18.810596450440926 0 0 0 0 394.44441334035946 152.05731254610555 0 152.05731254610555 -99.50479399836513 0 0 0 0 354.14718215026369 12.719896575305938 0 12.719896575305938 -323.13916364582838 0 0 0 0 397.61189737019595 213.19853472999512 0 213.19853472999512 -54.0480023555956 0 0 0 0 363.56383460940015 15.093987460935011 0 15.093987460935011 -159.23500470057297 0 0 0 0 172.1991106440255 81.196828159319011 0 81.196828159319011 -175.32240141314924 0 0 0 0 87.434061470859348 20.374873474448052 0 20.374873474448052 -16.644980221657804 0 0 0 0 89.952198220416903 22.136168762869602 0 22.136168762869602 6.7839527136356992 0 0 0 0 186.4090668970457 -133.85184006117197 0 -133.85184006117197 -285.63656105145037 0 0 0 0 113.55330179077245 34.051163769513607 0 34.051163769513607 -8.603879724737542 0 0 0 0 61.44455334000304 92.543241700354884 0 92.543241700354884 13.185364349417796 0 0 0 0 63.451688542791089 83.45513901706272 0 83.45513901706272 -31.122927282285673 0 0 0 0 187.46863556296847 42.306800603703707 0 42.306800603703707 -28.325755453910286 0 0 0 0 22.864900446328889 20.727030545602574 0 20.727030545602574 12.096534072404033 0 0 0 0 273.36502986466803 -43.724665084442677 0 -43.724665084442677 -270.93981015151439 0 0 0 0 96.772462350592832 -1.0734774512138756 0 -1.0734774512138756 -123.38055814414111 0 0 0 0 295.13958744574484 54.543412476723461 0 54.543412476723461 -104.73085155812078 0 0 0 0 149.35278416867368 138.73688258845687 0 138.73688258845687 17.412214040883555 0 0 0 0 298.25105616273504 110.59531912734019 0 110.59531912734019 -93.32881218000648 0 0 0 0 215.77811488342923 142.22639891076415 0 142.22639891076415 16.820364689374401 0 0 0 0 383.00465146133502 85.417804599981537 0 85.417804599981537 -39.12644294945494 0 0 0 0 291.61077522108098 217.48787399580215 0 217.48787399580215 77.243927620894283 0 0 0 0 68.214283366429299 167.45939455995358 0 167.45939455995358 40.64228894243206 0 0 0 0 140.95113586295338 114.93739335542341 0 114.93739335542341 -39.173065852204218 0 0 0 0 117.27174741044291 192.72962041756546 0 192.72962041756546 132.88127049812829 0 0 0 0 94.802659816545201 144.45386212288759 0 144.45386212288759 39.055115515464422 0 0 0 0 60.874040185788544 113.71873537782426 0 113.71873537782426 55.340025083551154 0 0 0 0 211.55411393800023 130.74677659750887 0 130.74677659750887 56.511137298749986 0 0 0 0 -24.293574224931945 100.88054439648113 0 100.88054439648113 16.422880005709885 0 0 0 0 4.2926122074764663 -3.3141611198208381 0 -3.3141611198208381 -3.2621540507987277 0 0 0 0 55.471736616789713 53.881083888356443 0 53.881083888356443 62.890220443381622 0 0 0 0 115.94911706880157 62.492973591153259 0 62.492973591153259 42.67494465126947 0 0 0 0 111.22867421362935 67.344714267078871 0 67.344714267078871 51.611108765515382 0 0 0 0 103.63477122280892 63.177839886177026 0 63.177839886177026 -25.219650094105418 0 0 0 0 151.23406405402056 84.162536974252362 0 84.162536974252362 46.634056621827767 0 0 0 0 25.218508570777971 9.3652915003498265 0 9.3652915003498265 2.9819839632063321 0 0 0 0 42.164961712885983 30.407947587976011 0 30.407947587976011 31.301564060225871 0 0 0 0 34.290720644246903 62.481672106523547 0 62.481672106523547 51.284168372702879 0 0 0 0 384.93748813134152 -73.866498838633561 0 -73.866498838633561 -41.201941518855165 0 0 0 0 59.160009317133785 -5.3907091031421999 0 -5.3907091031421999 -5.532900150384183 0 0 0 0 45.57484876219678 28.305246611203984 0 28.305246611203984 73.623042658906343 0 0 0 0 160.40463611007726 20.032695805284675 0 20.032695805284675 25.704082125410423 0 0 0 0 125.72792021196801 -18.344994353268703 0 -18.344994353268703 76.975580099588115 0 0 0 0 65.983127481071278 19.934320139776901 0 19.934320139776901 63.381440286997531 0 0 0 0 65.513534974631511 27.636640302644338 0 27.636640302644338 24.255088812284157 0 0 0 0 67.317676713573746 39.230873113585403 0 39.230873113585403 39.944550814267586 0 0 0 0 62.345643849454063 42.679171139257051 0 42.679171139257051 40.922383803314005 0 0 0 0 129.55841153298388 59.86432636661084 0 59.86432636661084 35.114804950177586 0 0 0 0 56.797342363059215 22.12086212245913 0 22.12086212245913 35.372660239398101 0 0 0 0 32.519800586555732 1.3464752615705891 0 1.3464752615705891 0.92764979820679727 0 0 0 0 67.121952336037793 10.753279371429471 0 10.753279371429471 10.396325099274691 0 0 0 0 63.791783995446167 13.875415192782384 0 13.875415192782384 11.116368311882979 0 0 0 0 44.023689353503329 4.7452718554437325 0 4.7452718554437325 9.7535479978692052 0 0 0 0 375.41841626024689 -60.878924090875444 0 -60.878924090875444 -53.77359492790788 0 0 0 0 -2.4987376836484856 2.9074762612889771 0 2.9074762612889771 7.5460893996157381 0 0 0 0 334.33033460742445 -103.40200484100205 0 -103.40200484100205 47.298855967062991 0 0 0 0 0.046036761558440276 4.8184260112492119 0 4.8184260112492119 1.5847981137985154 0 0 0 0 -671.16846150462516 1348.7180518455862 0 1348.7180518455862 1433.6820899833401 0 0 0 0 15.329443853072007 -122.30893421400106 0 -122.30893421400106 346.15094391068851 0 0 0 0 5.5252885817317292 -494.01211696823884 0 -494.01211696823884 1299.5939833486918 0 0 0 0 36.798564180938712 -15.383241689208845 0 -15.383241689208845 -4.0706574658001706 0 0 0 0 33.352117619986529 247.48472784039222 0 247.48472784039222 -123.42942517272786 0 0 0 0 47.188888497534208 8.4661530919502184 0 8.4661530919502184 24.016509118310751 0 0 0 0 -12.136506133676278 15.130210548181866 0 15.130210548181866 8.8187774274542807 0 0 0 0 -10.847937442872535 16.14930902206288 0 16.14930902206288 21.041408037639485 0 0 0 0 -36.283217856442207 68.971089518734516 0 68.971089518734516 107.15871568074363 0 0 0 0 17.853578748583246 21.393913609084009 0 21.393913609084009 12.054015041372647 0 0 0 0 59.583086312872183 9.7309344790724026 0 9.7309344790724026 14.504179864575235 0 0 0 0 128.01979406274768 61.332835904075182 0 61.332835904075182 -131.23099368208955 0 0 0 0 11.222905121046004 16.318569887363438 0 16.318569887363438 17.894180642315852 0 0 0 0 59.5934164299033 10.039372388915581 0 10.039372388915581 18.719481042287953 0 0 0 0 35.653579606115258 30.335009320454816 0 30.335009320454816 22.613560624644606 0 0 0 0 53.352008673704404 6.009415318214451 0 6.009415318214451 17.27705898394106 0 0 0 0 51.018183206149843 -1.0192217093626823 0 -1.0192217093626823 17.668761327866378 0 0 0 0 6.2980116504134003 3.0890359312218862 0 3.0890359312218862 3.820341013820439 0 0 0 0 -120.46249834171613 75.297180312983073 0 75.297180312983073 32.536442551524715 0 0 0 0 34.225027602151386 -27.302736239847945 0 -27.302736239847945 -19.652022955229768 0 0 0 0 79.710605618271074 21.59172378006906 0 21.59172378006906 18.6174229794251 0 0 0 0 49.450122522195613 -7.4242568541368001 0 -7.4242568541368001 -5.1244779387873294 0 0 0 0 41.788676884740198 -9.7781001190863606 0 -9.7781001190863606 -8.7078614514037831 0 0 0 0 189.98970759812801 4.3548224857986497 0 4.3548224857986497 19.824558395273925 0 0 0 0 130.32448759042018 36.475238463543064 0 36.475238463543064 4.7568995612491562 0 0 0 0 81.113608837148547 15.290296531862271 0 15.290296531862271 -4.2299752461334821 0 0 0 0 161.51055680323771 78.683604872339401 0 78.683604872339401 30.686092829622794 0 0 0 0 65.641071761958301 47.499823657799425 0 47.499823657799425 60.440788110507128 0 0 0 0 0.99735309456656296 1.2631364073403688 0 1.2631364073403688 1.5740589369158311 0 0 0 0 47.214289656354907 8.172835570077055 0 8.172835570077055 10.138735267154161 0 0 0 0 24.857533568690997 10.139653429056125 0 10.139653429056125 30.613897053557594 0 0 0 0 30.598930771146001 4.3637717515239274 0 4.3637717515239274 5.4255872174470152 0 0 0 0 85.910360342139938 23.106758459830274 0 23.106758459830274 8.829339617950609 0 0 0 0 33.800445371307433 23.517598173959414 0 23.517598173959414 17.584080379252555 0 0 0 0 32.428926011228214 9.4237233394034945 0 9.4237233394034945 5.1241590808201956 0 0 0 0 89.84551813158032 26.204744211022899 0 26.204744211022899 9.1585323941944807 0 0 0 0 56.650741513569869 6.0153870908000471 0 6.0153870908000471 1.0925103731370527 0 0 0 0 86.179896669451409 31.011982745731018 0 31.011982745731018 16.289565685954585 0 0 0 0 72.574184666034654 24.185797821135239 0 24.185797821135239 12.767853355181682 0 0 0 0 90.144031272269785 25.831375603543165 0 25.831375603543165 8.9530679154886457 0 0 0 0 42.995756303236703 18.661542210754988 0 18.661542210754988 -0.23228589218160778 0 0 0 0 43.436591327665326 9.7004513760284112 0 9.7004513760284112 1.467371858459094 0 0 0 0 53.160041969922716 22.037757198072484 0 22.037757198072484 14.236768435759345 0 0 0 0 45.250008661059837 4.6656467122733147 0 4.6656467122733147 -3.6714757348290732 0 0 0 0 91.456531299802009 23.425844637767113 0 23.425844637767113 8.538877720666278 0 0 0 0 53.714541839764223 12.047689001902114 0 12.047689001902114 2.7108076737500042 0 0 0 0 176.894097811557 2.7611608669288898 0 2.7611608669288898 -54.508053404263137 0 0 0 0 12.114024424739824 -0.10720289084650858 0 -0.10720289084650858 -8.0619342140299644 0 0 0 0 46.253722505220367 8.3699909803149417 0 8.3699909803149417 -3.6474955694415114 0 0 0 0 91.464072208735161 -27.320885783410631 0 -27.320885783410631 14.370874551897487 0 0 0 0 91.464072208735161 -27.320885783393805 0 -27.320885783393805 14.370874551914085 0 0 0 0 91.464072208735161 -27.320885783421659 0 -27.320885783421659 14.370874551883617 0 0 0 0 156.29221318360942 1.8727598630200646 0 1.8727598630200646 -36.222710476450857 0 0 0 0 52.452723310474539 53.705915465709552 0 53.705915465709552 -10.077496941581103 0 0 0 0 17.309219701357762 0.17255115378497976 0 0.17255115378497976 -5.5786312139965428 0 0 0 0 136.484824724379 2.9926516305399673 0 2.9926516305399673 -28.392514230680717 0 0 0 0 139.05687854827556 23.780119532819754 0 23.780119532819754 -15.526999543468719 0 0 0 0 75.855747924360912 35.292274200483007 0 35.292274200483007 -22.501537866352578 0 0 0 0 148.96212369279237 31.001716507744277 0 31.001716507744277 -25.963516537685393 0 0 0 0 98.52468771878921 67.951407726290881 0 67.951407726290881 21.304335964046459 0 0 0 0 77.164466803147207 7.9595302121803968 0 7.9595302121803968 6.7890289651695639 0 0 0 0 75.270716799248476 34.146047772734164 0 34.146047772734164 28.351229097895157 0 0 0 0 86.577767757443553 26.710476581234101 0 26.710476581234101 3.273852468361885 0 0 0 0 40.170069303829223 27.14515920670965 0 27.14515920670965 29.869984728901727 0 0 0 0 126.32578308525262 61.875490703044306 0 61.875490703044306 10.975492873093117 0 0 0 0 58.713292342370792 41.845751059223602 0 41.845751059223602 30.897197158280949 0 0 0 0 156.84837854919897 92.058826893076684 0 92.058826893076684 32.841973962678367 0 0 0 0 150.65306563171907 49.073595779696461 0 49.073595779696461 10.730667550728413 0 0 0 0 122.04591834638268 49.688734512819337 0 49.688734512819337 25.315085939240362 0 0 0 0 99.541943364223698 127.32094249346665 0 127.32094249346665 14.065365458857741 0 0 0 0 142.84093711647438 170.18527547303893 0 170.18527547303893 -128.53791432868638 0 0 0 0 160.60834036488814 182.43543712346974 0 182.43543712346974 -728.84366448295214 0 0 0 0 187.38362193532521 89.733827055891652 0 89.733827055891652 -231.56170455935967 0 0 0 0 196.99581783014582 -27.350088553700516 0 -27.350088553700516 -190.01705109330567 0 0 0 0 142.05339840127272 57.878856105879322 0 57.878856105879322 -101.75934253545847 0 0 0 0 210.42828945156361 -84.559950662370511 0 -84.559950662370511 -147.43892822924715 0 0 0 0 140.11406882332813 51.843830081640931 0 51.843830081640931 -60.273174461915005 0 0 0 0 204.92951266202726 -273.12614417750564 0 -273.12614417750564 -212.31204497324265 0 0 0 0 215.70534343029431 -21.40696799100715 0 -21.40696799100715 -296.60555489504827 0 0 0 0 203.62519375586999 -291.09208587584163 0 -291.09208587584163 -437.91610644473189 0 0 0 0 4.5802117624407401 -208.6301846087274 0 -208.6301846087274 -63.426692528880324 0 0 0 0 -35.686600430308317 -294.30598535703831 0 -294.30598535703831 -1.2200766911654739 0 0 0 0 101.94084679849038 -235.36591538034489 0 -235.36591538034489 -57.251172253183938 0 0 0 0 58.934982992301229 -131.38517203802544 0 -131.38517203802544 125.85983831845597 0 0 0 0 -34.470110694615869 4.8941537427053561 0 4.8941537427053561 20.515694689806253 0 0 0 0 168.22132133351988 78.812480931333553 0 78.812480931333553 0.027486047887646942 0 0 0 0 -212.91310672969848 -189.26153366627494 0 -189.26153366627494 33.619268551363234 0 0 0 0 -0.17211629589894528 -0.63526970792599968 0 -0.63526970792599968 -1.9387105038585095 0 0 0 0 19.534883133694166 -137.56166850732137 0 -137.56166850732137 36.454676227814502 0 0 0 0 110.47410203247273 8.6896051080504151 0 8.6896051080504151 -28.233453129854382 0 0 0 0 26.900039117208507 5.6551822029193204 0 5.6551822029193204 -1.0320134483870333 0 0 0 0 -1.5653290434432137 -1.4820592955296092 0 -1.4820592955296092 -5.2983452498837611 0 0 0 0 192.33858301048167 -69.360273978165537 0 -69.360273978165537 -176.84796691448491 0 0 0 0 153.38199243949202 63.834339712712449 0 63.834339712712449 -55.399445516330502 0 0 0 0 219.11117960298361 -121.14315382504964 0 -121.14315382504964 -14.670550698846 0 0 0 0 -56.976484945102129 36.552766940991376 0 36.552766940991376 38.151412706931978 0 0 0 0 -1.8450640164356997 -1.0838691659290021 0 -1.0838691659290021 0.10863909665282723 0 0 0 0 41.599623877948034 4.9343129923653919 0 4.9343129923653919 -8.4638773157039964 0 0 0 0 59.374676266561437 0.25804402314177821 0 0.25804402314177821 -12.971887552382896 0 0 0 0 36.956376019064919 12.078331074890457 0 12.078331074890457 -8.7980101960200727 0 0 0 0 474.07838890897983 -98.209100811031874 0 -98.209100811031874 -328.90623040155674 0 0 0 0 35.256190602478455 7.975049539855263 0 7.975049539855263 10.831085995948797 0 0 0 0 0.53317488052027784 -1.6992264242629176 0 -1.6992264242629176 1.0556258328664971 0 0 0 0 114.99474174728675 253.73044911506776 0 253.73044911506776 105.70255923193469 0 0 0 0 24.094787884902502 -11.020916836949553 0 -11.020916836949553 -3.0479369297510601 0 0 0 0 223.96577259938931 139.495150435906 0 139.495150435906 225.72471800004951 0 0 0 0 60.858539868422667 -57.511474182655093 0 -57.511474182655093 18.781670321003908 0 0 0 0 6.7563369544864997 -0.89231342111224876 0 -0.89231342111224876 0.51089549549252444 0 0 0 0 11.950610502142808 -33.819761030634851 0 -33.819761030634851 22.695566949869374 0 0 0 0 64.889984237976023 -59.8920984166175 0 -59.8920984166175 15.623168822518721 0 0 0 0 112.80031724220316 5.4424987327912397 0 5.4424987327912397 1.4839840841810226 0 0 0 0 181.56630622876401 -104.86577856303128 0 -104.86577856303128 -21.380413302825257 0 0 0 0 0.093615551385994422 0.5097150487589488 0 0.5097150487589488 0.3050345604992637 0 0 0 0 366.51938142102154 -29.078130376539164 0 -29.078130376539164 -22.336388223370335 0 0 0 0 3433.3767961190501 -2557.0724182917538 0 -2557.0724182917538 45.894186334648751 0 0 0 0 30.318785681301961 -1.2335218312208838 0 -1.2335218312208838 -12.947283569265025 0 0 0 0 9.8386212226360499 -3.6143414891501493 0 -3.6143414891501493 -0.0033549076328451694 0 0 0 0 3496.6388214957333 1120.932830317952 0 1120.932830317952 -71.895897355691005 0 0 0 0 1208.8447827897708 216.49177813709494 0 216.49177813709494 -227.03573090366788 0 0 0 0 2979.5693709963962 -123.39749755021606 0 -123.39749755021606 -427.58878701351267 0 0 0 0 17.131394657747649 -8.7679097327255846 0 -8.7679097327255846 1.2472967401820643 0 0 0 0 1096.4404376462171 -417.29387897341513 0 -417.29387897341513 24.486713378773572 0 0 0 0 17.082252090987907 5.0768756447767913 0 5.0768756447767913 2.4799180942952335 0 0 0 0 38.984661482158117 -3.1230622510593093 0 -3.1230622510593093 -3.3136514800696659 0 0 0 0 470.90961020157556 245.55796797335614 0 245.55796797335614 19.350279095094997 0 0 0 0 3496.6861969308738 -1357.6515688405307 0 -1357.6515688405307 97.803370420012598 0 0 0 0 473.89099115949648 -966.7854324083354 0 -966.7854324083354 642.16422363369861 0 0 0 0 3505.9961814995477 -1274.1173580633774 0 -1274.1173580633774 482.64222991730975 0 0 0 0 9.6640026402045294 1.5441206580541404 0 1.5441206580541404 3.0252964937689684 0 0 0 0 3496.3725467147233 1493.3459387112082 0 1493.3459387112082 289.65294939149999 0 0 0 0 55.762571610852319 19.761225706553432 0 19.761225706553432 23.747642856242692 0 0 0 0 5.4101357444062614 4.7143816227010547 0 4.7143816227010547 10.398688979955164 0 0 0 0 -229.60927628294303 -198.09496992423038 0 -198.09496992423038 -146.34922658112237 0 0 0 0 67.859182310756296 26.367349978630955 0 26.367349978630955 14.50463177256097 0 0 0 0 37.652364958737678 4.4261999492059871 0 4.4261999492059871 1.033387193192743 0 0 0 0 8.2794609727977786 1.3436663586649473 0 1.3436663586649473 -6.1847042929571145 0 0 0 0 3002.8208791027682 494.77609190654351 0 494.77609190654351 -240.97627049720597 0 0 0 0 3.2329940569992459 3.7261547657195138 0 3.7261547657195138 17.706133755597996 0 0 0 0 49.754939197569911 12.462912281036324 0 12.462912281036324 22.639579923838937 0 0 0 0 55.938403079453565 18.283558140167543 0 18.283558140167543 22.452319260628428 0 0 0 0 47.737544973737386 16.715408803057926 0 16.715408803057926 26.235663136096264 0 0 0 0 31.919027487970993 5.7944661882888191 0 5.7944661882888191 0.25202378280879145 0 0 0 0 33.156052780483151 21.097262450661447 0 21.097262450661447 40.311597699621416 0 0 0 0 43.420732814840449 5.8484126274350956 0 5.8484126274350956 -10.911589544153003 0 0 0 0 36.750230522575009 -1.9120471219957196 0 -1.9120471219957196 -3.3273654249653952 0 0 0 0 51.976423935950152 3.3145414468294803 0 3.3145414468294803 17.973757694819824 0 0 0 0 170.29886804915441 -65.745508194870467 0 -65.745508194870467 6.3349834747853606 0 0 0 0 13.34212355439135 0.23125748276095237 0 0.23125748276095237 5.4210200083533762 0 0 0 0 93.135488572035683 71.763174023054376 0 71.763174023054376 29.245840148837715 0 0 0 0 54.910231952293543 8.3411145847405521 0 8.3411145847405521 -14.436176117094647 0 0 0 0 30.194866166097825 -3.8522555097569295 0 -3.8522555097569295 -5.632703753317907 0 0 0 0 40.815785425570027 -1.061413195132058 0 -1.061413195132058 -6.1837782648149746 0 0 0 0 52.01969299375196 8.3735894699120763 0 8.3735894699120763 23.540771456932362 0 0 0 0 57.63330207013496 9.8700391321192456 0 9.8700391321192456 20.606124056009321 0 0 0 0 57.327730217308272 11.427220231968477 0 11.427220231968477 16.083881023577305 0 0 0 0 34.35501691770105 0.39100382773929709 0 0.39100382773929709 3.4839844979702015 0 0 0 0 53.80765740647621 8.5091060484187437 0 8.5091060484187437 24.909021303476038 0 0 0 0 54.188915891048964 7.1556761013580399 0 7.1556761013580399 21.119125372830695 0 0 0 0 39.199249966601201 14.823894646107647 0 14.823894646107647 27.48420509096286 0 0 0 0 41.437642674878589 5.596991118264441 0 5.596991118264441 23.599426296000729 0 0 0 0 47.691584920554305 10.758213280328164 0 10.758213280328164 23.732649867198234 0 0 0 0 58.381373807816999 7.9183888745701552 0 7.9183888745701552 20.40536397074311 0 0 0 0 50.070704889440094 8.9523052204249325 0 8.9523052204249325 23.406318521168487 0 0 0 0 54.675343517767033 11.401683418661833 0 11.401683418661833 20.909351374430116 0 0 0 0 14.382713058713868 17.094069516521557 0 17.094069516521557 20.028505687132082 0 0 0 0 60.40020113789069 9.2538340895569036 0 9.2538340895569036 19.918059412169555 0 0 0 0 40.387441921087344 8.0699224208019853 0 8.0699224208019853 2.9527723677279769 0 0 0 0 51.004955562500982 15.907342664944281 0 15.907342664944281 20.608521274411942 0 0 0 0 47.197434039429936 7.9869418642456367 0 7.9869418642456367 18.219189854135038 0 0 0 0 15.730240921700556 34.720477559245836 0 34.720477559245836 20.485726741368008 0 0 0 0 41.865663220654824 7.7488754246846838 0 7.7488754246846838 23.55784983649599 0 0 0 0 48.282505089940969 4.26504753176755 0 4.26504753176755 13.610433646147158 0 0 0 0 8.0734130315791646 -1.2713810688624676 0 -1.2713810688624676 12.248681931992516 0 0 0 0 53.055605250789085 9.6162867972751656 0 9.6162867972751656 19.161766963486116 0 0 0 0 40.500431374136269 4.367839998314845 0 4.367839998314845 2.593221478142107 0 0 0 0 12.454839188970396 2.6509978161783114 0 2.6509978161783114 3.8831222032029924 0 0 0 0 2208.2925974144018 -471.59753508133815 0 -471.59753508133815 277.81774717700631 0 0 0 0 5117.0145340564195 -11.549038159550896 0 -11.549038159550896 32.524265658565604 0 0 0 0 3500.5369204329422 525.80691943649583 0 525.80691943649583 -266.24880096362563 0 0 0 0 47.336711499960074 9.9962797680414042 0 9.9962797680414042 22.226588033486678 0 0 0 0 -40.141840105441133 -57.726945766482459 0 -57.726945766482459 61.581078319513836 0 0 0 0 330.20149760190952 -29.334292224012188 0 -29.334292224012188 4.4357564034553434 0 0 0 0 7.8163857035519264 10.526002857098508 0 10.526002857098508 -2.4902182499263876 0 0 0 0 6.7538129248005134 53.817292238000846 0 53.817292238000846 36.179793034800696 0 0 0 0 329.43871625652628 -73.739214923666623 0 -73.739214923666623 -57.625435993895223 0 0 0 0 125.6222584657371 110.49061515392077 0 110.49061515392077 -32.522856307347979 0 0 0 0 7.4853755816793637 -34.819385903672128 0 -34.819385903672128 17.710028118924129 0 0 0 0 143.69913746287966 -49.584215763250995 0 -49.584215763250995 -6.096662347243182 0 0 0 0 248.30389287531216 94.591961556457136 0 94.591961556457136 -60.403494275316007 0 0 0 0 341.75798071477993 -0.23914405334767252 0 -0.23914405334767252 -43.447863727040385 0 0 0 0 159.38249866370461 -9.4095214771004976 0 -9.4095214771004976 9.1396405105465419 0 0 0 0 250.57829509077419 -31.890570440103147 0 -31.890570440103147 -8.0849402648755131 0 0 0 0 233.44011796672385 6.3743018346208373 0 6.3743018346208373 62.833867228585405 0 0 0 0 329.99475290503597 99.319913724725211 0 99.319913724725211 -111.39262962325802 0 0 0 0 109.18313774250146 -137.02050472670726 0 -137.02050472670726 39.625349329417077 0 0 0 0 10.776644995643544 1.4013531341572341 0 1.4013531341572341 -10.023492733462906 0 0 0 0 7.4932960677692106 -2.2196899112018595 0 -2.2196899112018595 2.1515116228225963 0 0 0 0 321.40534031458446 -5.4766388810558055 0 -5.4766388810558055 6.6427771114490497 0 0 0 0 3.1724603715197279 2.4983274172114935 0 2.4983274172114935 0.89124453801496983 0 0 0 0 387.25000319618357 162.354835824774 0 162.354835824774 51.863203733393675 0 0 0 0 48.65374439313382 -14.804281094256112 0 -14.804281094256112 -25.979382544921009 0 0 0 0 18.889108815326836 -24.089247741338568 0 -24.089247741338568 -28.855684286989344 0 0 0 0 3.9556457798559954 14.14435173404441 0 14.14435173404441 -5.3869245209475203 0 0 0 0 163.01223760704761 59.292691818643107 0 59.292691818643107 -29.401176175828368 0 0 0 0 41.125407255035157 -12.288134190850334 0 -12.288134190850334 -1.3974463440310689 0 0 0 0 14.316834291375926 2.2635705984266679 0 2.2635705984266679 -11.939650616466679 0 0 0 0 118.05067582598713 -33.950611291447785 0 -33.950611291447785 -33.77862059812287 0 0 0 0 82.490267312327887 22.319790640362044 0 22.319790640362044 6.3874906948485659 0 0 0 0 4.8885835561181548 -0.81567488444642411 0 -0.81567488444642411 -0.74637519602526226 0 0 0 0 253.2385465502357 -108.16737607348296 0 -108.16737607348296 -23.778282472092542 0 0 0 0 153.8896082196452 7.3499171989906245 0 7.3499171989906245 -90.821969060285028 0 0 0 0 156.5738371065122 58.673227374579255 0 58.673227374579255 -68.082810946567406 0 0 0 0 142.44281684986254 34.384769959045116 0 34.384769959045116 -8.6219477377526346 0 0 0 0 87.430636767129471 0.96927761322675465 0 0.96927761322675465 -12.497622303459817 0 0 0 0 94.478774275428052 7.4152684614173907 0 7.4152684614173907 -15.58185732834326 0 0 0 0 141.02836013093474 21.999910547545824 0 21.999910547545824 -13.241165692314496 0 0 0 0 96.1473421142191 9.1878251097652992 0 9.1878251097652992 -16.15282480998485 0 0 0 0 81.880296464314597 5.9891272562726954 0 5.9891272562726954 -15.735454940613636 0 0 0 0 47.763849905180798 -6.2132228830778544 0 -6.2132228830778544 -3.777538063464597 0 0 0 0 238.7501681280246 47.310300809431283 0 47.310300809431283 -30.407422549870716 0 0 0 0 46.728005812672563 6.1762065291522958 0 6.1762065291522958 -2.2283108440660726 0 0 0 0 61.61180659153046 15.213132888910474 0 15.213132888910474 -0.66892094770325983 0 0 0 0 89.63325488728151 0.78818192059998182 0 0.78818192059998182 -2.6992152269722283 0 0 0 0 86.496131199184248 -18.81929021853859 0 -18.81929021853859 -2.1930720085742088 0 0 0 0 58.941975296942758 1.9070951060340064 0 1.9070951060340064 -1.573175429601509 0 0 0 0 79.257790350418162 -13.929958151131601 0 -13.929958151131601 -3.8720799159036048 0 0 0 0 75.306718458825344 -43.714487668650008 0 -43.714487668650008 -30.090300009969724 0 0 0 0 42.030488045252127 -21.932876976308169 0 -21.932876976308169 2.1292926297947634 0 0 0 0 81.681275754221133 -3.3850830345036229 0 -3.3850830345036229 -4.2443457770973509 0 0 0 0 118.63245339813875 -28.261464584526038 0 -28.261464584526038 -36.793140646430402 0 0 0 0 28.645123944608976 -2.1019423449427421 0 -2.1019423449427421 -4.4889899799990332 0 0 0 0 129.04348079765259 -5.199325585464976 0 -5.199325585464976 -36.17645644319964 0 0 0 0 130.71856674425362 26.640682286696119 0 26.640682286696119 -7.1069657557236496 0 0 0 0 99.039868657699003 20.541154982245651 0 20.541154982245651 -5.621056900550208 0 0 0 0 95.041139987653878 -14.510204792069999 0 -14.510204792069999 -38.726043809570911 0 0 0 0 91.160134083321907 -5.2841388070621065 0 -5.2841388070621065 -11.602636725036053 0 0 0 0 177.54747893227614 -13.97763357416261 0 -13.97763357416261 -9.582571088382565 0 0 0 0 130.95934102606211 -6.7355800285120111 0 -6.7355800285120111 -9.0273128793701822 0 0 0 0 83.435529224774015 31.511805198641312 0 31.511805198641312 -7.7531013810838765 0 0 0 0 118.24290302801819 10.557053423471643 0 10.557053423471643 -1.8393480972208636 0 0 0 0 138.27038859578897 15.266642346119966 0 15.266642346119966 -6.3582038593833659 0 0 0 0 69.211162033511457 8.2091583006751563 0 8.2091583006751563 -8.2732396670786184 0 0 0 0 106.52608873706777 18.029470021079305 0 18.029470021079305 -11.065531116510897 0 0 0 0 120.462316872683 1.5957485120118235 0 1.5957485120118235 2.2940812570063258 0 0 0 0 185.86046375653677 5.951978483751418 0 5.951978483751418 2.422640578035498 0 0 0 0 122.43644706600499 -7.2861098244862124 0 -7.2861098244862124 -8.1292953583633665 0 0 0 0 21.696720864887311 2.7128418184355709 0 2.7128418184355709 -6.6970542120048542 0 0 0 0 62.610371740920527 126.59487781913094 0 126.59487781913094 -55.150806807718254 0 0 0 0 178.15075875698676 35.741711863999626 0 35.741711863999626 -32.306121232739315 0 0 0 0 67.659424380327351 13.740542510670643 0 13.740542510670643 -5.1948532538828971 0 0 0 0 159.73011367935032 3.8272888288865943 0 3.8272888288865943 6.5270436001255803 0 0 0 0 97.899716044103116 3.2533560219222863 0 3.2533560219222863 16.820923674877122 0 0 0 0 134.22605373247643 -9.7734059853937651 0 -9.7734059853937651 20.504138473302646 0 0 0 0 75.082729076980627 35.213406250449161 0 35.213406250449161 -0.12305596814498543 0 0 0 0 160.98130089569349 51.334187802275551 0 51.334187802275551 -32.386535271626144 0 0 0 0 159.27867777384017 1.8935833957910972 0 1.8935833957910972 -71.139891198088662 0 0 0 0 128.44949924009416 53.401948294710564 0 53.401948294710564 49.848828176094457 0 0 0 0 126.67300722969244 -20.052093404591112 0 -20.052093404591112 -4.270623039390256 0 0 0 0 44.726853809755511 12.503200464985554 0 12.503200464985554 2.33026547304239 0 0 0 0 92.131384512623455 -0.066578738919268687 0 -0.066578738919268687 -1.5931241050999809 0 0 0 0 85.365999026485952 12.144881829888163 0 12.144881829888163 37.144312358858059 0 0 0 0 100.94522089659586 -17.56288183493939 0 -17.56288183493939 -15.353011100267054 0 0 0 0 101.236391541177 3.7936206076233248 0 3.7936206076233248 -1.9298492925374831 0 0 0 0 55.440710008246242 -34.115555533288671 0 -34.115555533288671 34.287412044169741 0 0 0 0 198.11943296267418 36.369776018444782 0 36.369776018444782 28.672173646620422 0 0 0 0 112.68918619294118 -13.17096559814528 0 -13.17096559814528 0.14704751810135042 0 0 0 0 114.45451005380346 18.869029581134242 0 18.869029581134242 -17.625728702925699 0 0 0 0 82.947081116418616 -8.099152963482517 0 -8.099152963482517 1.2455959278758599 0 0 0 0 153.99676123354948 -58.173904539572163 0 -58.173904539572163 -16.848436685164558 0 0 0 0 307.25908537668874 44.763009682338065 0 44.763009682338065 -128.20096765851406 0 0 0 0 -336.57271119656798 -505.66051707510451 0 -505.66051707510451 -341.57681927126396 0 0 0 0 -160.43660443520821 -173.91999259325564 0 -173.91999259325564 -290.68021702077476 0 0 0 0 -1.6281517509195567 -4.2275763407381817 0 -4.2275763407381817 1.6527100770016756 0 0 0 0 -268.52611250651535 -765.57327814209611 0 -765.57327814209611 232.55044384009989 0 0 0 0 -252.49937739764937 -933.36940555572096 0 -933.36940555572096 72.275380737447449 0 0 0 0 79.668668044867275 -25.056544758962673 0 -25.056544758962673 -16.949777858406481 0 0 0 0 252.59635542915203 -102.53957421238101 0 -102.53957421238101 51.481447713611374 0 0 0 0 227.13012892060215 -272.76396367759116 0 -272.76396367759116 58.282526527668779 0 0 0 0 124.20512142917141 -22.890531430587089 0 -22.890531430587089 17.920252068314994 0 0 0 0 308.24298802200474 0.65089088039502485 0 0.65089088039502485 40.672311444444802 0 0 0 0 302.87088296077144 -75.913305449877456 0 -75.913305449877456 -28.94999091782886 0 0 0 0 103.56634094983747 -42.827409412606357 0 -42.827409412606357 -43.79526374839179 0 0 0 0 54.214702179577053 2.9039424608533579 0 2.9039424608533579 -6.185317031817025 0 0 0 0 162.02850008907578 -29.900507402268058 0 -29.900507402268058 -12.242236665059284 0 0 0 0 465.42302104930423 -67.716403061925064 0 -67.716403061925064 -97.711823892660163 0 0 0 0 155.41803670110741 -33.492127601121979 0 -33.492127601121979 -3.5744253020379086 0 0 0 0 308.86562782309989 -31.381216649952279 0 -31.381216649952279 -37.711432644480169 0 0 0 0 160.22828625281994 19.108592366163265 0 19.108592366163265 -26.937029567364736 0 0 0 0 320.39529049484759 -1.8670497218256514 0 -1.8670497218256514 -39.048178160953675 0 0 0 0 301.99851161848238 23.352791883074687 0 23.352791883074687 -16.878795113531623 0 0 0 0 328.22584874825202 -24.288854777403259 0 -24.288854777403259 19.794255311008328 0 0 0 0 369.47413150753493 59.036136166129779 0 59.036136166129779 -4.2390389998470255 0 0 0 0 547.14746049595851 41.044166975736971 0 41.044166975736971 -4.569657278444879 0 0 0 0 436.90526229917486 66.558818669605898 0 66.558818669605898 18.569784473201025 0 0 0 0 501.69696406110234 29.386214778981525 0 29.386214778981525 -30.759399579589854 0 0 0 0 358.20511237852088 32.55818834627928 0 32.55818834627928 20.41438044817005 0 0 0 0 390.71159726003589 45.206604888238758 0 45.206604888238758 44.566144132946192 0 0 0 0 441.25814289129448 9.9903934723014345 0 9.9903934723014345 21.198185994742744 0 0 0 0 546.57154106122471 -7.1921993836674574 0 -7.1921993836674574 20.943454327556537 0 0 0 0 395.58734671495563 13.457009130436063 0 13.457009130436063 -20.149380976724842 0 0 0 0 343.16517893389795 -35.634342605493245 0 -35.634342605493245 -33.065245174801703 0 0 0 0 225.01883701457817 -27.995499659176744 0 -27.995499659176744 23.055095817162851 0 0 0 0 124.74244431139033 -13.454373612762417 0 -13.454373612762417 -3.6175762909110385 0 0 0 0 90.918718896281462 -86.667465196694138 0 -86.667465196694138 -48.606430018859101 0 0 0 0 85.341562321305901 15.009768179850539 0 15.009768179850539 83.616675751866296 0 0 0 0 308.03699662992904 31.793032706260419 0 31.793032706260419 -11.896005665315897 0 0 0 0 111.92490878113313 31.089372332857863 0 31.089372332857863 -5.4968549788202044 0 0 0 0 -12.865923989434123 27.58295985126847 0 27.58295985126847 5.7754116516645126 0 0 0 0 20.044397290123253 16.984852440371547 0 16.984852440371547 -9.9749673625070159 0 0 0 0 1.3578744943061272 3.2092809197226444 0 3.2092809197226444 0.077730201561156953 0 0 0 0 658.18828427611697 3.5153901794378726 0 3.5153901794378726 -22.381150360674837 0 0 0 0 658.18828427611152 3.5153901794337798 0 3.5153901794337798 -22.38115036067552 0 0 0 0 658.18828427612243 3.5153901794351441 0 3.5153901794351441 -22.381150360674837 0 0 0 0 56.020475786619329 14.23436365493518 0 14.23436365493518 -17.502099534020999 0 0 0 0 56.446657214062725 8.789833882138737 0 8.789833882138737 10.458292897227238 0 0 0 0 94.937365673513341 17.100384764952423 0 17.100384764952423 -38.50528253642733 0 0 0 0 69.217730696511353 -27.427479055050298 0 -27.427479055050298 -24.329380823603969 0 0 0 0 18.679594415628475 -0.6324503781931412 0 -0.6324503781931412 -2.0959362527211383 0 0 0 0 164.36245099399093 -77.539089899525607 0 -77.539089899525607 30.49134836547546 0 0 0 0 79.825121987907096 -60.480787805859563 0 -60.480787805859563 49.010503015158974 0 0 0 0 2.2355922393602974 2.337043646635955 0 2.337043646635955 1.0266850761024777 0 0 0 0 -7.9842763770045622 27.022177628629606 0 27.022177628629606 -16.57258292365259 0 0 0 0 24.727728963145637 -32.196109966661425 0 -32.196109966661425 -90.280923502164114 0 0 0 0 34.909038157957184 0.8275993285506047 0 0.8275993285506047 -19.979127608147564 0 0 0 0 -4.7146488286905424 41.050840748019709 0 41.050840748019709 -60.586070477464091 0 0 0 0 72.154363863173785 41.20415851365351 0 41.20415851365351 -43.780841720693388 0 0 0 0 1.6238821348283941 -2.4558013552189992 0 -2.4558013552189992 -13.849735260418401 0 0 0 0 21.809661878009138 0.37868459522360354 0 0.37868459522360354 17.38769143326499 0 0 0 0 0.49937981304382817 -2.0973370063199237 0 -2.0973370063199237 -10.593872396354788 0 0 0 0 -8.2908300027183941 -41.896979539848417 0 -41.896979539848417 -1.0678105614936158 0 0 0 0 -0.038348371587296981 0.23999381917218976 0 0.23999381917218976 -0.075816277285991163 0 0 0 0 43.774930983066042 -27.88443184967673 0 -27.88443184967673 -86.1122568445262 0 0 0 0 -13.264336286581965 -58.212084704263816 0 -58.212084704263816 -17.635327921236239 0 0 0 0 102.89026386304477 61.591115472841693 0 61.591115472841693 -59.076292377586469 0 0 0 0 348.49437034937114 18.396517941192741 0 18.396517941192741 -8.548314833995164 0 0 0 0 453.64853436803742 -29.501706378801941 0 -29.501706378801941 -24.423234804902677 0 0 0 0 363.16868667773679 -24.295080546616873 0 -24.295080546616873 18.361993139706101 0 0 0 0 498.77025231881589 10.632223756074154 0 10.632223756074154 -42.882812695871507 0 0 0 0 360.33967033063664 4.3110322056467112 0 4.3110322056467112 -25.961064012560655 0 0 0 0 389.74882832875494 -39.394912439801828 0 -39.394912439801828 -35.217833012668507 0 0 0 0 424.77036900713165 85.31991088375139 0 85.31991088375139 -23.558224752867318 0 0 0 0 479.30383359869984 50.575667113993177 0 50.575667113993177 -81.339416238012745 0 0 0 0 420.72774422731891 30.802992196004652 0 30.802992196004652 -28.489990781004508 0 0 0 0 370.72622816918067 -81.516209261980066 0 -81.516209261980066 -110.04402373956873 0 0 0 0 72.911371938029333 -17.930503479193248 0 -17.930503479193248 10.653553689658565 0 0 0 0 55.719088035031859 8.3803644432827014 0 8.3803644432827014 25.125570680736928 0 0 0 0 63.734483035727862 0.27463547710522107 0 0.27463547710522107 -23.278953292890037 0 0 0 0 0.51481929186300202 -0.7124848173256968 0 -0.7124848173256968 -5.4993114589504941 0 0 0 0 44.213813158601624 -3.5377183405680626 0 -3.5377183405680626 19.944654627553064 0 0 0 0 0.10329549264836491 -0.034019487023325468 0 -0.034019487023325468 -0.25499220817761881 0 0 0 0 42.37998640958358 -12.18838064386955 0 -12.18838064386955 -8.6236579546002758 0 0 0 0 69.350008049538701 -28.782597616799194 0 -28.782597616799194 -16.620633000929956 0 0 0 0 79.245276350487984 -19.04857372555216 0 -19.04857372555216 -38.567132648283632 0 0 0 0 74.579057970504891 -16.766449392418508 0 -16.766449392418508 -17.642904756079588 0 0 0 0 74.894995201837219 -40.827457707715894 0 -40.827457707715894 -37.41113878017859 0 0 0 0 121.97192147392178 -31.598686365931968 0 -31.598686365931968 -59.119197220847127 0 0 0 0 152.00781479015313 -34.107259521942069 0 -34.107259521942069 -59.338814327298678 0 0 0 0 199.92117510569369 0.23481655637897347 0 0.23481655637897347 -49.395990010503738 0 0 0 0 120.8187146083219 -16.839708286860514 0 -16.839708286860514 -26.29157097856023 0 0 0 0 203.51805024279201 -52.615050491255715 0 -52.615050491255715 -85.315958211868747 0 0 0 0 181.78928714861831 -46.875112958981845 0 -46.875112958981845 -84.659884432544459 0 0 0 0 207.29086619827967 -89.989218371937113 0 -89.989218371937113 -36.261510846137753 0 0 0 0 264.8735746639577 -23.565886236978258 0 -23.565886236978258 -79.264904182999999 0 0 0 0 242.32975233183151 -48.95417086603095 0 -48.95417086603095 0.77324836526713625 0 0 0 0 318.08762965419737 44.156749330471939 0 44.156749330471939 78.876122971720179 0 0 0 0 292.84365697786052 -45.449013670540808 0 -45.449013670540808 -31.804741666941482 0 0 0 0 105.00193079015662 5.3579200530402886 0 5.3579200530402886 -7.3197811981390259 0 0 0 0 107.72605156517784 3.8417920714082356 0 3.8417920714082356 -43.709702277531505 0 0 0 0 89.303912321289317 122.78565879562848 0 122.78565879562848 -130.66523493215573 0 0 0 0 248.42041042705023 32.638691548433371 0 32.638691548433371 -84.477795042739672 0 0 0 0 50.16970156083471 35.107847916678566 0 35.107847916678566 -19.185902335128048 0 0 0 0 75.627157355127565 40.204032751342311 0 40.204032751342311 -41.747792093821772 0 0 0 0 -15.242355866712387 168.67587383964019 0 168.67587383964019 -83.986587515125848 0 0 0 0 2.4080573025378307 1.160456317656017 0 1.160456317656017 -0.59136276245167707 0 0 0 0 493.9499542625249 -264.02363157371838 0 -264.02363157371838 -57.21418870393245 0 0 0 0 -42.602921396743113 108.91987966360648 0 108.91987966360648 -50.235417539052037 0 0 0 0 642.07310125452022 68.300234145911418 0 68.300234145911418 -94.652441339258075 0 0 0 0 616.5188714186063 205.82119006939661 0 205.82119006939661 -48.544232255513634 0 0 0 0 395.4868718330581 -158.17317574879416 0 -158.17317574879416 117.73195023111793 0 0 0 0 422.2823228224679 -227.77325573512462 0 -227.77325573512462 -340.31995633639417 0 0 0 0 264.90958228540148 -9.9039974188081032 0 -9.9039974188081032 78.866097968191752 0 0 0 0 349.5522340636453 -292.72221309638371 0 -292.72221309638371 -130.10324977741948 0 0 0 0 372.05826203166725 -346.85679890578922 0 -346.85679890578922 -200.52052194771932 0 0 0 0 -136.1411335162702 -136.04334309816522 0 -136.04334309816522 165.70295152813196 0 0 0 0 -0.87539201162904279 -0.9050617739932747 0 -0.9050617739932747 -2.940132184261639 0 0 0 0 41.328799820266795 180.09692092649675 0 180.09692092649675 82.272108521869086 0 0 0 0 661.93155532309538 -148.7972101984717 0 -148.7972101984717 8.1997827375616907 0 0 0 0 307.3315232940804 -48.393839191104689 0 -48.393839191104689 35.134190963280957 0 0 0 0 295.91644924360753 43.671823688190671 0 43.671823688190671 51.42007632281252 0 0 0 0 55.435092821995568 -43.367719650132585 0 -43.367719650132585 -80.536591433326976 0 0 0 0 72.990002185601497 1.4944317055981173 0 1.4944317055981173 -54.209739010846533 0 0 0 0 52.188797878621699 -20.368951986377397 0 -20.368951986377397 -65.389690469959987 0 0 0 0 -7.0461634524290275 -61.918808999161229 0 -61.918808999161229 -63.337009447946002 0 0 0 0 27.698438371593511 -22.182700509914866 0 -22.182700509914866 -83.333181925514054 0 0 0 0 -6.7250858807547047 -14.803443617256562 0 -14.803443617256562 -67.595579922212892 0 0 0 0 -148.42532389985445 -195.0954052563502 0 -195.0954052563502 -51.90897906387363 0 0 0 0 0.83189423814968322 -1.1103932085613462 0 -1.1103932085613462 0.58802259798650169 0 0 0 0 140.17101520118013 -155.43268441138298 0 -155.43268441138298 -106.41661494808477 0 0 0 0 123.62293802087834 57.535878229366972 0 57.535878229366972 -40.7432964449672 0 0 0 0 160.68658487520042 -36.414996927367611 0 -36.414996927367611 -94.257895519229351 0 0 0 0 12.958249205778884 -36.867764252150209 0 -36.867764252150209 -65.372251269925982 0 0 0 0 176.29504552767685 -23.344164669138536 0 -23.344164669138536 -5.3530270355993252 0 0 0 0 64.425690431146904 -61.326413229352966 0 -61.326413229352966 3.8780906818228686 0 0 0 0 198.33778377501403 -66.337869767325174 0 -66.337869767325174 -96.345496187283061 0 0 0 0 170.18447462395943 -45.544234467850174 0 -45.544234467850174 -75.335465411765654 0 0 0 0 180.01530843172122 -15.888310940174506 0 -15.888310940174506 -106.51975388205574 0 0 0 0 172.97236314973588 -32.559037305788024 0 -32.559037305788024 -143.65542287404969 0 0 0 0 169.15474446000917 -75.462787311092143 0 -75.462787311092143 -119.63485210391264 0 0 0 0 90.714714963220104 -8.5671600765381299 0 -8.5671600765381299 -126.1604399614871 0 0 0 0 94.877653224178175 -16.135003091171711 0 -16.135003091171711 -170.40907468725709 0 0 0 0 9.6655828482389552 60.680249977025596 0 60.680249977025596 -154.85668661628551 0 0 0 0 1.3653036588892569 -0.44443060128271661 0 -0.44443060128271661 -0.94544230351698122 0 0 0 0 101.21541936240646 -28.8499729184241 0 -28.8499729184241 -85.088542010386846 0 0 0 0 15.979567163769389 -5.3557594178600993 0 -5.3557594178600993 -65.720556039811072 0 0 0 0 -18.612036853697646 -10.294740875191565 0 -10.294740875191565 -6.6500958886178978 0 0 0 0 0.4674005016871714 -2.9341010116949313 0 -2.9341010116949313 -7.129697553221213 0 0 0 0 1.7186834064332572 -1.2337969407765286 0 -1.2337969407765286 -5.3789737330958225 0 0 0 0 -16.585820332857111 26.126502872022684 0 26.126502872022684 -54.378697702418776 0 0 0 0 2.6065982746549707 -2.3977376830189314 0 -2.3977376830189314 -4.0131617578481382 0 0 0 0 -50.237801335813856 54.34835344860312 0 54.34835344860312 -57.773142173966221 0 0 0 0 -136.43450623102217 147.0401518328631 0 147.0401518328631 -146.05355305512421 0 0 0 0 45.07735390258722 76.546205803125076 0 76.546205803125076 -295.12265124648729 0 0 0 0 -0.3984334188552765 -1.036967480585453 0 -1.036967480585453 -0.74751182489074708 0 0 0 0 -40.02641081782258 -9.4334999853645058 0 -9.4334999853645058 59.175882133962659 0 0 0 0 -0.59734095131951648 -1.9105837616326333 0 -1.9105837616326333 -4.7276345127008739 0 0 0 0 -38.110138816415201 20.767881399818179 0 20.767881399818179 -2.9594795946886734 0 0 0 0 -4.3885220338443105 18.962628640583489 0 18.962628640583489 -241.25611769077113 0 0 0 0 257.82297109635874 35.970931369017762 0 35.970931369017762 -39.622269704639621 0 0 0 0 138.03115658533807 -43.433015777537548 0 -43.433015777537548 -30.547762795962626 0 0 0 0 94.718936793216926 53.673914842689555 0 53.673914842689555 46.826071311324995 0 0 0 0 -14.07755526265646 -19.473841998792523 0 -19.473841998792523 37.379746212882083 0 0 0 0 6.8548954351927023 -30.056138114831128 0 -30.056138114831128 -39.600971498841318 0 0 0 0 4.6021220711506032 0.19872620178178124 0 0.19872620178178124 -3.0251888247006082 0 0 0 0 6.0364047912016758 -5.6479150537834357 0 -5.6479150537834357 -16.629048639734719 0 0 0 0 6.3563682801310861 0.78233335747555799 0 0.78233335747555799 -0.053166629099587581 0 0 0 0 109.24315038555233 28.03853149792667 0 28.03853149792667 -51.215821997683634 0 0 0 0 16.887495554098223 -14.36389618960834 0 -14.36389618960834 -2.2046392201946219 0 0 0 0 -1.17963341236009 -27.5866038821232 0 -27.5866038821232 30.34908461641453 0 0 0 0 1.9868294544507989 7.5301234565422419 0 7.5301234565422419 10.132276656890099 0 0 0 0 4.7468207667088791 -9.5982669646691647 0 -9.5982669646691647 -0.78334660412383528 0 0 0 0 -1.3437487490455169 -24.568570957638258 0 -24.568570957638258 -14.370434551192375 0 0 0 0 52.251693499541943 -18.532931511816969 0 -18.532931511816969 -21.318454445877251 0 0 0 0 47.295410628248646 5.4699653323641542 0 5.4699653323641542 -35.248936792201675 0 0 0 0 57.207815393518104 10.662241933211135 0 10.662241933211135 -55.88533474308133 0 0 0 0 40.958060904133163 43.535066619217559 0 43.535066619217559 45.030348996519933 0 0 0 0 43.148599555053806 7.0133106532794045 0 7.0133106532794045 -27.584024985643737 0 0 0 0 1.0264836891331228 0.23857486637485081 0 0.23857486637485081 -1.5414105670807672 0 0 0 0 -1.6573179371443985 8.1228295251366944 0 8.1228295251366944 -8.8458246800983034 0 0 0 0 -1.9519303102442089 -4.5763218531924306 0 -4.5763218531924306 -17.396648689400795 0 0 0 0 2.3819455253955581 -0.15234268132451234 0 -0.15234268132451234 -9.4668288744333751 0 0 0 0 1450.7134248430348 12.825824742522855 0 12.825824742522855 -84.334718290156161 0 0 0 0 508.33208508092775 0.57148046257498208 0 0.57148046257498208 -42.458678954972129 0 0 0 0 497.12197549312395 54.451772692125132 0 54.451772692125132 -47.203971200040542 0 0 0 0 690.49351123800534 -68.505373531979785 0 -68.505373531979785 -36.960841755255387 0 0 0 0 591.29432232858289 207.81131045019356 0 207.81131045019356 -90.776758497454466 0 0 0 0 898.18956636255416 308.04811780703653 0 308.04811780703653 -60.952216093481184 0 0 0 0 880.46769233944224 486.92271352790385 0 486.92271352790385 376.10045640936187 0 0 0 0 675.1119567025371 236.75944576243455 0 236.75944576243455 130.24709234607053 0 0 0 0 135.33882142449602 243.84448181304288 0 243.84448181304288 288.65918700832935 0 0 0 0 625.24632933715714 446.48781481748483 0 446.48781481748483 162.99387239024145 0 0 0 0 319.42847575364976 253.80481718492229 0 253.80481718492229 70.448990613776914 0 0 0 0 328.89539087793491 230.67133602770673 0 230.67133602770673 51.404425688978336 0 0 0 0 229.6513045012872 148.47109508897256 0 148.47109508897256 3.1118331528632552 0 0 0 0 31.339084930723402 30.605651518017112 0 30.605651518017112 151.70568018969652 0 0 0 0 22.409082867717188 41.463391842543388 0 41.463391842543388 80.238205402944004 0 0 0 0 185.92440208202277 -237.10351392895245 0 -237.10351392895245 235.45440956855236 0 0 0 0 3.6024785748602728 1.027220349929781 0 1.027220349929781 -0.10994422781422131 0 0 0 0 675.01074003677786 354.25853857888615 0 354.25853857888615 221.71064800228851 0 0 0 0 847.33531182834759 -51.680437914226786 0 -51.680437914226786 588.8085294214161 0 0 0 0 733.41292883081542 -96.891736065247642 0 -96.891736065247642 55.399563016453612 0 0 0 0 796.97966301801989 207.49302552607151 0 207.49302552607151 138.30001093701321 0 0 0 0 800.86797169826184 105.42402333575228 0 105.42402333575228 404.28627756534297 0 0 0 0 951.39912871748811 484.55188036829259 0 484.55188036829259 241.55365474246128 0 0 0 0 1272.476699244937 842.02592904209996 0 842.02592904209996 721.74417259558868 0 0 0 0 8.4527509782843584 -1.8029805885691506 0 -1.8029805885691506 -0.067700877161797735 0 0 0 0 1429.9955961751994 128.60591851506615 0 128.60591851506615 390.8389744680735 0 0 0 0 458.0892449107385 218.53196712470071 0 218.53196712470071 83.82702416648317 0 0 0 0 515.86707197659462 35.557745792982359 0 35.557745792982359 -67.354703811539366 0 0 0 0 615.2629912205 314.24118730008013 0 314.24118730008013 116.67193464540833 0 0 0 0 687.77075072901903 143.74282280474017 0 143.74282280474017 -16.594985941206687 0 0 0 0 531.71409817916322 2.0576643654894724 0 2.0576643654894724 -54.093235840413399 0 0 0 0 510.92124780645327 11.30242461661237 0 11.30242461661237 77.35909492484916 0 0 0 0 473.70047013052204 -6.9565562322695769 0 -6.9565562322695769 -194.93479360366837 0 0 0 0 472.21784234905385 75.989358058897778 0 75.989358058897778 -100.20023910169584 0 0 0 0 285.30298675463064 -56.101689518254716 0 -56.101689518254716 -64.159602474760504 0 0 0 0 162.42525258529633 64.261732608129023 0 64.261732608129023 -152.67106511262682 0 0 0 0 198.39649118088209 -132.67476172846818 0 -132.67476172846818 86.040923050697074 0 0 0 0 193.71707829512496 -105.35184739980218 0 -105.35184739980218 16.673966255060805 0 0 0 0 13.96784642977218 -78.786508375437734 0 -78.786508375437734 132.56266086867572 0 0 0 0 59.224068909826656 -141.21605550607455 0 -141.21605550607455 -62.839997353346007 0 0 0 0 38.954700073482854 -66.704213062002964 0 -66.704213062002964 8.2401571804139166 0 0 0 0 45.990174713987585 18.65581844421115 0 18.65581844421115 -154.09952409593097 0 0 0 0 85.691353097496631 -79.408725267003319 0 -79.408725267003319 -190.31989215375506 0 0 0 0 56.423359260913202 -8.7766522840140837 0 -8.7766522840140837 -12.115747652308276 0 0 0 0 58.339732933804044 -36.612906671221936 0 -36.612906671221936 -33.308748838159545 0 0 0 0 44.154793909940054 -3.9480822173500201 0 -3.9480822173500201 18.01976707304857 0 0 0 0 77.780901543883374 -1.2560081543688284 0 -1.2560081543688284 -25.111176471484214 0 0 0 0 41.598976010808997 -24.509037349221874 0 -24.509037349221874 -21.752404260675256 0 0 0 0 10.186777712105863 -2.2024188503945314 0 -2.2024188503945314 -1.272829174235973 0 0 0 0 -43.956685841081708 -30.846001408430311 0 -30.846001408430311 -10.447750570452627 0 0 0 0 -1.8169045104477046 -5.3849955469602264 0 -5.3849955469602264 -0.69717268061161874 0 0 0 0 -32.736172554913082 -7.6565014191237424 0 -7.6565014191237424 -41.533739214693924 0 0 0 0 -34.035349112148651 -9.8965880120777001 0 -9.8965880120777001 -35.182062086059886 0 0 0 0 331.26659582918717 -115.1839847794854 0 -115.1839847794854 10.888289798393089 0 0 0 0 208.02753801765903 35.259081000607694 0 35.259081000607694 5.5365187293064082 0 0 0 0 322.80448179205177 7.8195564741854469 0 7.8195564741854469 -294.78196200759521 0 0 0 0 220.32423279068394 -117.74552817957738 0 -117.74552817957738 -239.41666570644884 0 0 0 0 457.23026932748581 3.958221292046801 0 3.958221292046801 -243.33903967036167 0 0 0 0 340.20472885763274 -36.946725223286194 0 -36.946725223286194 -180.23335681475146 0 0 0 0 357.86489381543589 41.073321762572959 0 41.073321762572959 -257.18699681261933 0 0 0 0 350.74984462295356 27.739972406296147 0 27.739972406296147 -79.564494662692596 0 0 0 0 -191.29146124261388 -176.19604446362791 0 -176.19604446362791 257.83305118338103 0 0 0 0 -23.838790962065559 263.97235257277316 0 263.97235257277316 120.69979801734917 0 0 0 0 884.73106935544706 398.51731664677936 0 398.51731664677936 -41.353716513425752 0 0 0 0 -36.738022960586036 -378.04338258828511 0 -378.04338258828511 -385.28723160812297 0 0 0 0 816.58618851219239 83.474288937406527 0 83.474288937406527 66.632860341178457 0 0 0 0 1985.2327367219204 -311.01448853591864 0 -311.01448853591864 199.79640345706503 0 0 0 0 -0.39380813114804702 -0.40290225604676522 0 -0.40290225604676522 -2.7096561079494847 0 0 0 0 457.35646763045492 -11.571698719888445 0 -11.571698719888445 -183.62745255647314 0 0 0 0 283.43402723540953 -203.48198164366431 0 -203.48198164366431 -404.85916932369219 0 0 0 0 469.19034871650717 7.2899294694980199 0 7.2899294694980199 -191.51604484749987 0 0 0 0 55.375426519620603 -4.3223694900836129 0 -4.3223694900836129 -11.178296346486322 0 0 0 0 16.125194977388674 -49.527219337207498 0 -49.527219337207498 -43.171104681225188 0 0 0 0 90.605324413827475 -12.644247090540375 0 -12.644247090540375 -64.326176173150088 0 0 0 0 35.147535869343301 23.22887785135481 0 23.22887785135481 -34.542645650366467 0 0 0 0 16.330132130424783 -0.74983080633319776 0 -0.74983080633319776 -1.3989803216084056 0 0 0 0 -118.09942947799755 -43.672401031211848 0 -43.672401031211848 9.3923060910565255 0 0 0 0 120.67624801892725 31.402863514646015 0 31.402863514646015 -25.922031875410539 0 0 0 0 65.184007540197399 -28.714688678720904 0 -28.714688678720904 -36.669933168341231 0 0 0 0 8.9980689737633135 -8.428610721885601 0 -8.428610721885601 -25.557372409008437 0 0 0 0 26.161592981051854 -26.838875297185496 0 -26.838875297185496 -23.671760699900915 0 0 0 0 10.705641444468711 -74.16675781066624 0 -74.16675781066624 21.915807759960444 0 0 0 0 -1.3014119978161034 -36.401794242020515 0 -36.401794242020515 14.910323011465152 0 0 0 0 60.063498983786758 -102.31391748919918 0 -102.31391748919918 -64.110351896579232 0 0 0 0 18.237891406612107 -44.740428600921405 0 -44.740428600921405 -55.109814549787188 0 0 0 0 67.743204608033011 -50.410478816505929 0 -50.410478816505929 -61.491879267039621 0 0 0 0 58.599998054601741 -3.6293297498631425 0 -3.6293297498631425 -7.8826224024012745 0 0 0 0 28.934737518618022 -45.646813939426465 0 -45.646813939426465 25.793745991699325 0 0 0 0 50.875134430643811 -88.006717488419781 0 -88.006717488419781 -115.19411971145109 0 0 0 0 38.811718091579678 -75.570866277775167 0 -75.570866277775167 -75.256974180544148 0 0 0 0 31.353571617324633 -34.422671447002358 0 -34.422671447002358 7.9093333904565952 0 0 0 0 82.565103299841212 19.101812483642789 0 19.101812483642789 -38.853551527322452 0 0 0 0 65.510191987371684 -4.2334964536658255 0 -4.2334964536658255 -4.3758533020180614 0 0 0 0 36.618346960861345 16.529739465789135 0 16.529739465789135 52.876009677502225 0 0 0 0 94.452740170258039 -51.837373889063201 0 -51.837373889063201 -26.355351682816945 0 0 0 0 64.733843183043064 48.246722830363979 0 48.246722830363979 11.667563952715227 0 0 0 0 51.227084983279155 -13.591340410399727 0 -13.591340410399727 1.0359117590876767 0 0 0 0 104.96532910716996 4.8838637037233639 0 4.8838637037233639 -56.405027954115212 0 0 0 0 -19.161189141475916 -43.862267706659622 0 -43.862267706659622 12.467263864365123 0 0 0 0 54.239138205783092 42.738804980916029 0 42.738804980916029 47.357098705404496 0 0 0 0 75.268439913591209 -9.3231373442653727 0 -9.3231373442653727 -4.6554479661380661 0 0 0 0 223.25288664549953 2.1314895599552983 0 2.1314895599552983 -106.82831605410684 0 0 0 0 96.873678526928416 -13.672113897390773 0 -13.672113897390773 -17.574643017241215 0 0 0 0 31.715406103761779 -15.565987236195497 0 -15.565987236195497 -13.419081602844017 0 0 0 0 56.539302102086367 -32.02806322951983 0 -32.02806322951983 -23.789332157094577 0 0 0 0 50.162674524100638 6.8424034536927465 0 6.8424034536927465 1.8249775149175633 0 0 0 0 49.403931590200173 -7.9513820870475911 0 -7.9513820870475911 2.5763063985719903 0 0 0 0 75.426042638743112 12.126793044772612 0 12.126793044772612 -2.8905875635694507 0 0 0 0 144.01392076355114 -26.936822804113717 0 -26.936822804113717 -32.011474559632461 0 0 0 0 57.316120481076723 -15.931905111880866 0 -15.931905111880866 13.444276419126254 0 0 0 0 41.390923450475384 -11.826187823481064 0 -11.826187823481064 -3.4504190076345367 0 0 0 0 49.235186614802672 -5.9187866632965305 0 -5.9187866632965305 1.1653820423346959 0 0 0 0 102.42604620620477 -21.265761561317049 0 -21.265761561317049 13.979921162327628 0 0 0 0 15.075459567604412 3.4261940338600851 0 3.4261940338600851 -0.015360727251700013 0 0 0 0 51.131296806008322 -11.61297547901313 0 -11.61297547901313 10.429296613209772 0 0 0 0 59.377600811905722 -3.8559099152897094 0 -3.8559099152897094 11.430538578387484 0 0 0 0 49.660518065473298 -10.39410179290212 0 -10.39410179290212 11.858039573617361 0 0 0 0 66.102788731836227 -3.2057422025394247 0 -3.2057422025394247 -1.2486733082222561 0 0 0 0 71.225174688152038 -18.789968508759472 0 -18.789968508759472 28.388586361947553 0 0 0 0 110.76427821632387 8.0787969620496369 0 8.0787969620496369 -58.26028286409155 0 0 0 0 -51.542843147428357 -8.3455248971295077 0 -8.3455248971295077 21.08372088888791 0 0 0 0 41.38978224535353 16.028069547063087 0 16.028069547063087 6.5388152770087142 0 0 0 0 58.220886572840612 1.6129727862930494 0 1.6129727862930494 0.13341232095518585 0 0 0 0 49.915833554812707 -11.237798362189096 0 -11.237798362189096 -56.038117255788165 0 0 0 0 11.035906162302126 27.60229479901227 0 27.60229479901227 10.073005505661058 0 0 0 0 34.099036455361841 -11.638931126869478 0 -11.638931126869478 -2.3163158858511568 0 0 0 0 77.002750633168034 -22.343077178239582 0 -22.343077178239582 -0.5029902107100952 0 0 0 0 55.997066814171603 0.97224693003447271 0 0.97224693003447271 -4.4571995500934563 0 0 0 0 64.311056458682287 13.055685544372579 0 13.055685544372579 41.129094192034451 0 0 0 0 101.88211397026862 -45.48547498843709 0 -45.48547498843709 -60.503734412716767 0 0 0 0 55.282631170593447 -8.3355729585516514 0 -8.3355729585516514 4.8365197060147711 0 0 0 0 58.970821744951536 -2.5898717625561858 0 -2.5898717625561858 13.473218501312886 0 0 0 0 69.963591308362084 -5.3197480007709146 0 -5.3197480007709146 4.7050613180595064 0 0 0 0 65.888924942584708 1.5852875337820933 0 1.5852875337820933 4.9380675879856426 0 0 0 0 82.580177320895018 8.4986952403354934 0 8.4986952403354934 8.5864951381418564 0 0 0 0 65.253867610881571 -7.1609366078250787 0 -7.1609366078250787 6.1614808127683318 0 0 0 0 66.603240276876022 -7.8895654121907484 0 -7.8895654121907484 6.5482798489325091 0 0 0 0 74.231916112665203 -0.678083420239318 0 -0.678083420239318 -17.143660838222104 0 0 0 0 31.058919930015691 13.322367448695786 0 13.322367448695786 43.041286901019703 0 0 0 0 68.169059332671736 0.26474776985403281 0 0.26474776985403281 -3.4141570329253401 0 0 0 0 69.593375587959599 -4.9518649017431358 0 -4.9518649017431358 -17.79165737565927 0 0 0 0 30.61962884309105 -24.640490515939689 0 -24.640490515939689 8.8942286415153831 0 0 0 0 57.713450504728826 -5.4112360094945871 0 -5.4112360094945871 2.6955337666679497 0 0 0 0 36.131013808353316 -10.419613606413197 0 -10.419613606413197 2.8320706713077826 0 0 0 0 61.731671074667247 -2.8774867651018212 0 -2.8774867651018212 4.2819781340889449 0 0 0 0 63.44910291058477 -2.3714530400998228 0 -2.3714530400998228 3.4205514014875007 0 0 0 0 50.579106291930657 -20.477892056490418 0 -20.477892056490418 -20.372942163021435 0 0 0 0 11.520473208709234 -2.1179959044771408 0 -2.1179959044771408 -4.5488673608411254 0 0 0 0 92.674464907761376 -91.277264161509962 0 -91.277264161509962 -77.402711495499119 0 0 0 0 33.643089142294016 -22.378628761660309 0 -22.378628761660309 -2.3356370260702506 0 0 0 0 968.28927382850088 38.837607811563828 0 38.837607811563828 -766.06355948006137 0 0 0 0 190.0013470381673 174.95643903924511 0 174.95643903924511 43.632662089970495 0 0 0 0 75.075578424351988 -64.980904970709545 0 -64.980904970709545 -91.110736802171544 0 0 0 0 85.372327437483364 55.704054971522261 0 55.704054971522261 75.958723403517524 0 0 0 0 8.132873117501731 -1.7315077542929913 0 -1.7315077542929913 -0.34466541953358393 0 0 0 0 -23.521998278740284 -42.403720050399691 0 -42.403720050399691 -24.539836229341688 0 0 0 0 24.103120907151606 13.699130172089301 0 13.699130172089301 -10.726396227169687 0 0 0 0 37.049810806071036 7.7565415705030887 0 7.7565415705030887 -39.480171119987972 0 0 0 0 -36.048471840564162 26.897501191956742 0 26.897501191956742 -5.6943216642638035 0 0 0 0 7.6895871876331512 31.005980095963778 0 31.005980095963778 10.166727114102386 0 0 0 0 7.2269909743631047 -0.44607076983223237 0 -0.44607076983223237 2.1961891106185027 0 0 0 0 -3.2564358122472186 -14.691950159245494 0 -14.691950159245494 31.640706965000845 0 0 0 0 48.730243436308228 -6.9864009426012785 0 -6.9864009426012785 -21.45538275853589 0 0 0 0 29.503767227084609 -11.193423008910486 0 -11.193423008910486 18.974420542071691 0 0 0 0 -4.1129416745970957 -17.203264465185953 0 -17.203264465185953 39.971822773849908 0 0 0 0 11.94512873223357 0.23409777642223162 0 0.23409777642223162 22.98364723066652 0 0 0 0 41.688164131681503 -2.8398945712645101 0 -2.8398945712645101 2.4776128388304932 0 0 0 0 58.148070732910128 -11.650778497523106 0 -11.650778497523106 -0.62004399861621096 0 0 0 0 8.3327722168178298 -24.61079556663617 0 -24.61079556663617 -34.333731850377262 0 0 0 0 4.8043716148822568 -39.632253902055254 0 -39.632253902055254 -42.677108854007201 0 0 0 0 9.7601623035500324 -13.680825878174517 0 -13.680825878174517 7.352482277664528 0 0 0 0 -4.6174454671339618 -18.930345570275009 0 -18.930345570275009 12.841119800724567 0 0 0 0 1.8483643216895871 -22.598292948123003 0 -22.598292948123003 -13.673936094051896 0 0 0 0 46.71503767605806 -6.2868660047456331 0 -6.2868660047456331 1.7850823480241571 0 0 0 0 21.073234892880635 -6.641840300129104 0 -6.641840300129104 3.5671469042655395 0 0 0 0 55.477035044925287 -19.205643425199014 0 -19.205643425199014 20.055928347025201 0 0 0 0 1098.7575851925139 309.8691405435593 0 309.8691405435593 -244.50446648960951 0 0 0 0 207.03724113602664 16.066384880552 0 16.066384880552 -20.797160355683783 0 0 0 0 -26.477099944131623 -287.63347559507508 0 -287.63347559507508 37.586970151798596 0 0 0 0 -33.475079008610919 -267.85581814976013 0 -267.85581814976013 49.442599189087559 0 0 0 0 -30.760416501623695 -273.54557066462212 0 -273.54557066462212 38.604640846642724 0 0 0 0 -61.929136564402143 -35.764729394340065 0 -35.764729394340065 -163.30767816563684 0 0 0 0 402.57019428996136 -208.8549137564105 0 -208.8549137564105 -103.62822545520248 0 0 0 0 285.11405471801118 -53.013151957061837 0 -53.013151957061837 -414.003096960947 0 0 0 0 40.869512352180521 25.036157594048625 0 25.036157594048625 18.673689264775906 0 0 0 0 -1442.8499824448954 27.356141008775012 0 27.356141008775012 927.47653347670894 0 0 0 0 363.52169831455103 1114.4775083598252 0 1114.4775083598252 574.4340336794412 0 0 0 0 1152.1178074531952 -508.74153165884627 0 -508.74153165884627 -853.46025259528687 0 0 0 0 12.70032859471954 3.6213762208178508 0 3.6213762208178508 1.6627666126926188 0 0 0 0 420.84430951850823 464.58205462687511 0 464.58205462687511 205.79666070608437 0 0 0 0 -200.63777298338664 -214.88703338251253 0 -214.88703338251253 592.69712258240179 0 0 0 0 198.54384056444542 -66.101546654906087 0 -66.101546654906087 -187.43672493420945 0 0 0 0 253.00615173540427 66.91573114300536 0 66.91573114300536 4.0154365058006078 0 0 0 0 20.553518594104389 41.929413247057255 0 41.929413247057255 -97.383670744378833 0 0 0 0 4.9636379270988868 5.6485923200247825 0 5.6485923200247825 4.5069065383910356 0 0 0 0 254.61571194663702 247.67435151626569 0 247.67435151626569 76.482299170294937 0 0 0 0 148.03158805812109 -267.80106515519674 0 -267.80106515519674 -305.03767107044405 0 0 0 0 40.154437822367584 -14.035449988044505 0 -14.035449988044505 -14.926939371757022 0 0 0 0 75.957903144546435 30.635133646988834 0 30.635133646988834 48.183238465859631 0 0 0 0 218.72928117378433 -55.572758128451824 0 -55.572758128451824 -277.01607181166946 0 0 0 0 109.85710330211967 12.967465650767981 0 12.967465650767981 -11.132067260749688 0 0 0 0 111.17840482049444 22.507670173657292 0 22.507670173657292 -3.2350542007461147 0 0 0 0 166.55767269589705 45.832565063315997 0 45.832565063315997 -32.31721148368365 0 0 0 0 583.2385929854172 -341.14232772248579 0 -341.14232772248579 -125.98409553063721 0 0 0 0 74.48995620822825 7.2927018917224586 0 7.2927018917224586 18.412434392686635 0 0 0 0 36.367265746871567 -3.7979564094423623 0 -3.7979564094423623 -9.246087336469186 0 0 0 0 55.325107041288589 4.0921040159675783 0 4.0921040159675783 6.4123298315163897 0 0 0 0 46.825953884354021 14.835631579047913 0 14.835631579047913 23.907690748422738 0 0 0 0 62.316383139870595 3.5654123223357601 0 3.5654123223357601 -18.410995273662138 0 0 0 0 229.37223669915923 30.444484720113337 0 30.444484720113337 -12.463059482253085 0 0 0 0 61.028350154923828 5.9612640434531841 0 5.9612640434531841 -21.359352420746291 0 0 0 0 73.345357437905477 -7.6779034810524536 0 -7.6779034810524536 -5.4546721952647204 0 0 0 0 49.788461404539945 -36.393846197200922 0 -36.393846197200922 -23.510822277810441 0 0 0 0 47.121481816851627 -6.4883270329748726 0 -6.4883270329748726 7.0355541956980696 0 0 0 0 53.860929389513331 6.216499225836456 0 6.216499225836456 22.791722316070469 0 0 0 0 34.964546208721003 -6.668116315002635 0 -6.668116315002635 14.02089413531894 0 0 0 0 14.452860050088344 4.6099582011966618 0 4.6099582011966618 18.566666117363528 0 0 0 0 51.190829886030862 30.292995309762532 0 30.292995309762532 27.678945143901565 0 0 0 0 43.893387514342976 -4.987669145478776 0 -4.987669145478776 -10.051827336497809 0 0 0 0 -182.55129925931215 45.893671673183917 0 45.893671673183917 178.67206203718342 0 0 0 0 0.72433675279435761 -18.278259379838644 0 -18.278259379838644 14.807471242996224 0 0 0 0 49.528677358699497 -11.910552054110667 0 -11.910552054110667 3.7994200045759499 0 0 0 0 112.1613808581169 -223.06332773115514 0 -223.06332773115514 263.46914044981395 0 0 0 0 165.47632008322398 -34.031540797075195 0 -34.031540797075195 86.967619401842057 0 0 0 0 -170.42947982471742 7.5267405877284546 0 7.5267405877284546 221.36615640510172 0 0 0 0 -37.54512676784725 126.16368831639477 0 126.16368831639477 -99.980568021237559 0 0 0 0 -1.0840523886199378 -2.2225855085356692 0 -2.2225855085356692 6.6184639835913561 0 0 0 0 -124.57242640934419 116.82395509068783 0 116.82395509068783 -153.31383283234936 0 0 0 0 -11.902002278628061 53.455736651851112 0 53.455736651851112 105.75287392621721 0 0 0 0 520.91758396252044 402.39985295366432 0 402.39985295366432 314.12458461690858 0 0 0 0 388.22394559030363 152.73012302551706 0 152.73012302551706 -144.97579780520073 0 0 0 0 879.74190015174099 133.3584802268374 0 133.3584802268374 -1.8254187356760667 0 0 0 0 531.77678788265621 -479.3971182952946 0 -479.3971182952946 416.02446121631078 0 0 0 0 162.32958109561241 -54.731644474585323 0 -54.731644474585323 748.41549272867633 0 0 0 0 66.148815469699912 -120.446913520024 0 -120.446913520024 641.26288770054907 0 0 0 0 967.46743341485853 -87.770898456269833 0 -87.770898456269833 -70.464456432539919 0 0 0 0 472.09238742414163 420.08382757883192 0 420.08382757883192 529.29482331409167 0 0 0 0 -3.1716446247000363 4.0505537471567266 0 4.0505537471567266 12.174586400849932 0 0 0 0 783.22365125063516 -426.02756029019156 0 -426.02756029019156 63.338545011949464 0 0 0 0 30.169403171807062 -336.97188850553675 0 -336.97188850553675 59.925102954310205 0 0 0 0 131.03712098349934 281.70586629779996 0 281.70586629779996 375.64958503851301 0 0 0 0 42.894651383685414 -51.485130272133091 0 -51.485130272133091 -1.9894420527291174 0 0 0 0 39.591517592991295 -234.65159034914325 0 -234.65159034914325 -340.35665340127207 0 0 0 0 -61.224225218305946 282.73958425776095 0 282.73958425776095 -390.99274525629608 0 0 0 0 87.560732921047929 27.367795640851739 0 27.367795640851739 -228.05021776966441 0 0 0 0 378.4079209058109 258.62562532108132 0 258.62562532108132 -50.946867882470997 0 0 0 0 68.388354503915252 56.667023132695448 0 56.667023132695448 205.19127420172845 0 0 0 0 330.05391062595118 -201.47181629520276 0 -201.47181629520276 -76.432280058295873 0 0 0 0 442.37909712265537 -88.727688158812725 0 -88.727688158812725 -288.5401142607393 0 0 0 0 454.16516130667242 -262.64425564237439 0 -262.64425564237439 -147.83209361516447 0 0 0 0 255.3854880619765 -120.41650555548222 0 -120.41650555548222 -38.886818392003988 0 0 0 0 4.4745624828105122 3.9795218766074889 0 3.9795218766074889 0.47898791249100398 0 0 0 0 471.01460769216646 -195.45292447668953 0 -195.45292447668953 -573.23501559658939 0 0 0 0 531.17884221139684 -60.004078387853042 0 -60.004078387853042 -339.35764738438002 0 0 0 0 250.16367374113179 142.78575200779369 0 142.78575200779369 27.765876707777807 0 0 0 0 -14.797661973207141 23.251475040221806 0 23.251475040221806 96.390935503303609 0 0 0 0 105.1239040097862 -48.310038073811143 0 -48.310038073811143 -16.27805723662641 0 0 0 0 18.682106320942694 -8.1173670417306312 0 -8.1173670417306312 -63.823262752362325 0 0 0 0 11.849771081935909 -21.648804750767937 0 -21.648804750767937 5.2967026994751265 0 0 0 0 -127.06408806745458 -54.25069276467957 0 -54.25069276467957 64.787545882589711 0 0 0 0 46.809780082527141 -31.312526258144544 0 -31.312526258144544 4.8551376220080087 0 0 0 0 17.233060043104587 -29.354952002772322 0 -29.354952002772322 7.0667715725425708 0 0 0 0 -120.68728864112927 -231.63135740725977 0 -231.63135740725977 74.874471313335448 0 0 0 0 147.50800443862681 -228.71515291264296 0 -228.71515291264296 -72.883540219953147 0 0 0 0 -180.32470737659605 33.616126607423524 0 33.616126607423524 34.089570509738536 0 0 0 0 52.582189609262073 -41.097585657837087 0 -41.097585657837087 4.4923858845758913 0 0 0 0 -8.6674183096401975 -86.212860731404689 0 -86.212860731404689 -18.777192109959344 0 0 0 0 -213.18872790342721 -178.48840739037709 0 -178.48840739037709 36.71989449553076 0 0 0 0 -551.60394156458642 78.02306443391339 0 78.02306443391339 -5.2435424990451338 0 0 0 0 -137.39006353434524 22.475017421944301 0 22.475017421944301 -10.39516379084364 0 0 0 0 13.181108914012633 -1.8228270957338282 0 -1.8228270957338282 0.1641616065234226 0 0 0 0 3.0834352348618381 -10.170077508185759 0 -10.170077508185759 3.9563091326124926 0 0 0 0 11.521353076925152 45.07005497316203 0 45.07005497316203 205.23277014655605 0 0 0 0 -106.46986275201198 58.4670951618481 0 58.4670951618481 -27.055019347884851 0 0 0 0 52.847455119510414 6.2588837103573667 0 6.2588837103573667 121.95810568546688 0 0 0 0 159.55002650488314 209.09592404362843 0 209.09592404362843 84.501823046138838 0 0 0 0 52.498233334801625 46.343502740837266 0 46.343502740837266 52.583758646586318 0 0 0 0 45.999600911454763 48.359078739752931 0 48.359078739752931 126.9554374572291 0 0 0 0 -10.968885844456963 41.775835821073343 0 41.775835821073343 129.06703704374627 0 0 0 0 -217.92423842076096 -84.054537136645138 0 -84.054537136645138 49.878045321500849 0 0 0 0 59.333017980185105 -129.96909545151777 0 -129.96909545151777 -180.24601409012962 0 0 0 0 -76.050920160625537 154.32380662574792 0 154.32380662574792 110.11041628478443 0 0 0 0 2.8245776069859403 0.28035686094526824 0 0.28035686094526824 -0.062519987859940535 0 0 0 0 248.94346221303567 30.279263342415202 0 30.279263342415202 -25.274680816197133 0 0 0 0 256.22917141226935 212.08314063528746 0 212.08314063528746 -4.8731021041840368 0 0 0 0 -0.93534157962994868 0.26796870151323504 0 0.26796870151323504 -0.13553390263347151 0 0 0 0 123.92764911531413 181.6474367734366 0 181.6474367734366 76.088162868847988 0 0 0 0 606.27160085496143 -238.47894900104637 0 -238.47894900104637 -262.87776962378803 0 0 0 0 95.483218839400422 -8.8968872097259641 0 -8.8968872097259641 -3.4006836252091261 0 0 0 0 186.15870548578096 79.622376531326466 0 79.622376531326466 -186.42767385348674 0 0 0 0 -0.56335566320922226 29.71781370986254 0 29.71781370986254 -32.27255553001487 0 0 0 0 19.531952397771107 1.077799387897528 0 1.077799387897528 -2.7204024089291545 0 0 0 0 -213.16052267984924 446.29990093462339 0 446.29990093462339 298.03253216381648 0 0 0 0 394.1409280528751 82.687485139303732 0 82.687485139303732 -91.915333109230062 0 0 0 0 101.25259475663188 100.13422435907896 0 100.13422435907896 -81.459063637178929 0 0 0 0 282.39870040967071 150.10383385528456 0 150.10383385528456 252.72087772900505 0 0 0 0 41.483498153844266 -107.62517407144321 0 -107.62517407144321 -25.259531947512869 0 0 0 0 274.63272666657576 -123.84268841861814 0 -123.84268841861814 -41.183941315070797 0 0 0 0 31.667449438558833 -14.374580789188137 0 -14.374580789188137 -48.656186310970838 0 0 0 0 108.58978489952278 -79.769661263827658 0 -79.769661263827658 0.19957150384106948 0 0 0 0 80.418735599145691 -0.3320414044093063 0 -0.3320414044093063 -1.630823823726659 0 0 0 0 115.54036556600477 -134.20380745281321 0 -134.20380745281321 -165.83475628786388 0 0 0 0 299.71308542208862 158.94445517137626 0 158.94445517137626 92.275163498687107 0 0 0 0 19.90603099289001 14.654208979458133 0 14.654208979458133 28.533691244058758 0 0 0 0 5.3521611191463307 35.444129772530047 0 35.444129772530047 -117.61836380389821 0 0 0 0 9.5350796832910873 -1.9601250968513995 0 -1.9601250968513995 -0.69092959290291844 0 0 0 0 4.172889336562065 -0.12002240032802547 0 -0.12002240032802547 -1.6101482541540779 0 0 0 0 -10.291846257692669 -2.5192320190757584 0 -2.5192320190757584 -143.55544469966691 0 0 0 0 -123.5378648303813 -150.97896077711135 0 -150.97896077711135 -186.05559496850623 0 0 0 0 100.39266178593971 -78.865964092677586 0 -78.865964092677586 -163.28361476916604 0 0 0 0 40.984452841934399 -13.95624879751675 0 -13.95624879751675 -45.887910472953422 0 0 0 0 45.873213969243807 7.9225489174973944 0 7.9225489174973944 -119.29631044739256 0 0 0 0 1.9677096066652666 1.5344298103376559 0 1.5344298103376559 -1.8407739102652831 0 0 0 0 11.303833691476257 -3.4105174871455688 0 -3.4105174871455688 0.31732024981952234 0 0 0 0 21.554857951181475 16.879574359629544 0 16.879574359629544 -51.850283751429401 0 0 0 0 8.1978741590719437 9.2962079825751971 0 9.2962079825751971 -28.108812863372123 0 0 0 0 -2.1944556844391627 21.473990438229507 0 21.473990438229507 21.540431082663858 0 0 0 0 37.313196837545547 25.90200538270053 0 25.90200538270053 5.7685579517573444 0 0 0 0 14.301503872004105 15.091516284626607 0 15.091516284626607 29.255758682595228 0 0 0 0 18.861292800880619 10.783183626418435 0 10.783183626418435 27.069950132720692 0 0 0 0 55.271551820071181 -10.071557338197209 0 -10.071557338197209 -27.083149493311975 0 0 0 0 5.0059138082287973 24.312875525275871 0 24.312875525275871 18.004689485557748 0 0 0 0 56.894997178911581 -8.6135442396157913 0 -8.6135442396157913 -30.07742967353397 0 0 0 0 27.458300709520699 15.177035098801866 0 15.177035098801866 42.703612316456315 0 0 0 0 185.22619651633431 60.624733951854438 0 60.624733951854438 3.200687709826525 0 0 0 0 -143.1593277190259 4.0208224220983055 0 4.0208224220983055 154.88258637609385 0 0 0 0 343.3925696874503 762.94243704591224 0 762.94243704591224 601.42408138488167 0 0 0 0 163.55722211528337 -33.559890810880802 0 -33.559890810880802 -93.310323117239022 0 0 0 0 142.66346365778008 -30.777112738967787 0 -30.777112738967787 -81.50448890244661 0 0 0 0 365.22807405458298 42.471114613787847 0 42.471114613787847 -53.561862134564421 0 0 0 0 150.65994771652186 -34.042713473039328 0 -34.042713473039328 -80.284957967169589 0 0 0 0 218.04740767672774 -160.39288551534489 0 -160.39288551534489 -25.93358850798711 0 0 0 0 347.11055166045844 181.46223027383854 0 181.46223027383854 110.94837779081558 0 0 0 0 590.06379479807219 -288.83396093792447 0 -288.83396093792447 2.7539723273192749 0 0 0 0 107.62863318473683 -160.67963336626275 0 -160.67963336626275 -4.3326284172438818 0 0 0 0 558.74075997868204 -137.89324505620814 0 -137.89324505620814 -74.048890206371453 0 0 0 0 -179.20438544667559 83.80656126195673 0 83.80656126195673 212.47588376571201 0 0 0 0 -27.444635013293009 -167.20387026441023 0 -167.20387026441023 308.12953859799381 0 0 0 0 408.98436916174251 -151.8930168748625 0 -151.8930168748625 -37.429240083206764 0 0 0 0 111.87738715413434 68.829292795770044 0 68.829292795770044 71.231339048070083 0 0 0 0 3.444716436306976 -1.1140661461317976 0 -1.1140661461317976 0.45435757752924538 0 0 0 0 26.904591979895486 11.486172693813273 0 11.486172693813273 26.409515148120761 0 0 0 0 -115.49116498298827 -72.601864493825445 0 -72.601864493825445 252.70530203848415 0 0 0 0 -105.83853367666597 -206.68648663746103 0 -206.68648663746103 207.3834350780711 0 0 0 0 144.05019648716552 -295.96571268255383 0 -295.96571268255383 218.72989613254919 0 0 0 0 677.22407513117651 -76.300772812128315 0 -76.300772812128315 96.050206120805882 0 0 0 0 200.45251485196059 -155.52661243263617 0 -155.52661243263617 94.076338365656568 0 0 0 0 88.388492438127287 -118.70879396240707 0 -118.70879396240707 93.020014115271906 0 0 0 0 -9.9042386979272123 -252.22095206105439 0 -252.22095206105439 181.36790188475146 0 0 0 0 46.964410287619103 64.951190577830971 0 64.951190577830971 293.57659510273936 0 0 0 0 150.57753493974451 220.59002060257481 0 220.59002060257481 379.12547790412879 0 0 0 0 2.9019816818081949 1.2862371867546365 0 1.2862371867546365 -0.27644016872348381 0 0 0 0 171.07660212327028 20.253479832183871 0 20.253479832183871 -9.4116647242647673 0 0 0 0 378.00697688385844 179.01069969555761 0 179.01069969555761 66.574640136814025 0 0 0 0 158.4041793049546 30.468740657206126 0 30.468740657206126 -15.043648056114705 0 0 0 0 41.299276465026196 11.96382473103057 0 11.96382473103057 177.81992129724915 0 0 0 0 167.99310131253969 115.62446408204228 0 115.62446408204228 87.371936165765987 0 0 0 0 75.596349896863103 -14.556743522453417 0 -14.556743522453417 -51.339211419292496 0 0 0 0 -0.95818575924840843 0.51294261413809927 0 0.51294261413809927 0.041798012021942214 0 0 0 0 213.86939752285252 -21.963620939635462 0 -21.963620939635462 -316.35989782601962 0 0 0 0 5.5186186287891701 -0.66833643071651849 0 -0.66833643071651849 -0.16433915805775562 0 0 0 0 -10.963881341856904 -10.691680750474525 0 -10.691680750474525 -4.467750917057308 0 0 0 0 152.950818836689 82.657932452051455 0 82.657932452051455 -116.38225133087704 0 0 0 0 162.79875542400987 158.19772900281902 0 158.19772900281902 -208.5133042174707 0 0 0 0 -11.269375203594791 -9.6588185201051147 0 -9.6588185201051147 -0.093562520023294016 0 0 0 0 -175.12630455617909 -99.509749712513951 0 -99.509749712513951 121.33895337335451 0 0 0 0 2.7032590121377211 -0.89175284042486069 0 -0.89175284042486069 0.16667381131285799 0 0 0 0 7.6135171287605772 -215.81544067856217 0 -215.81544067856217 168.12121872214374 0 0 0 0 205.62295836056001 -44.467114318017366 0 -44.467114318017366 -50.37998846918974 0 0 0 0 -23.07065479119774 -233.16938146898951 0 -233.16938146898951 161.3997044204101 0 0 0 0 102.39034852426266 -231.07396384714789 0 -231.07396384714789 110.84708869530566 0 0 0 0 -16.134279829915613 70.782847741278204 0 70.782847741278204 -113.74201600275322 0 0 0 0 -34.644494776242936 -146.44314242986593 0 -146.44314242986593 61.150824132076934 0 0 0 0 -116.30818755083601 -181.09241091978919 0 -181.09241091978919 48.189752668750984 0 0 0 0 174.89268173550954 95.49880668011474 0 95.49880668011474 -76.139450083960696 0 0 0 0 126.35453612176934 117.4170638463797 0 117.4170638463797 -12.183145531973906 0 0 0 0 109.31636385078309 -33.847642701954243 0 -33.847642701954243 -27.960511682073609 0 0 0 0 293.23448425452807 27.793225374992389 0 27.793225374992389 -7.8905626510355233 0 0 0 0 169.07636764465133 105.49620284164658 0 105.49620284164658 128.14202902738765 0 0 0 0 157.83632971937186 57.361248901696563 0 57.361248901696563 32.920963007706256 0 0 0 0 182.45418288410292 -5.1512264938724099 0 -5.1512264938724099 0.071481698023535101 0 0 0 0 223.12158167042071 -118.60344215850303 0 -118.60344215850303 175.36473650760308 0 0 0 0 151.13475355326955 10.090764771536193 0 10.090764771536193 67.961357597154489 0 0 0 0 53.336953991543851 14.847120054689254 0 14.847120054689254 0.019041941266248676 0 0 0 0 155.0965324149729 -9.4831044198075993 0 -9.4831044198075993 -24.953786645279429 0 0 0 0 26.907387801358709 -40.862706262900844 0 -40.862706262900844 8.2607120526354549 0 0 0 0 192.14217803740758 62.370270423644385 0 62.370270423644385 -18.634102787001922 0 0 0 0 157.21864918201391 63.076904925049178 0 63.076904925049178 -18.545238558848496 0 0 0 0 268.37879890340264 -238.03606110192177 0 -238.03606110192177 100.55906282940096 0 0 0 0 -12.742036196737899 11.575946844760983 0 11.575946844760983 -0.008597569847347792 0 0 0 0 1.5304083444115122 0.17260963701063758 0 0.17260963701063758 -0.089870578334085571 0 0 0 0 17.289478878446971 -9.639899310156899 0 -9.639899310156899 -4.5855424976190351 0 0 0 0 2.8081088721903598 1.0328999393124434 0 1.0328999393124434 -0.05349510159594914 0 0 0 0 74.318726541707292 -66.040555788384424 0 -66.040555788384424 97.591694048757233 0 0 0 0 157.73730217810953 4.0084908150700471 0 4.0084908150700471 -122.82494984137836 0 0 0 0 13.943789534712778 29.24984881549198 0 29.24984881549198 -6.398948040593929 0 0 0 0 -30.400776263202715 -145.14543364499781 0 -145.14543364499781 -18.831500123185464 0 0 0 0 283.49658870905114 -141.64223166239344 0 -141.64223166239344 -24.487922252071883 0 0 0 0 134.46892895968631 -149.36091511189557 0 -149.36091511189557 89.423189368851666 0 0 0 0 338.06381936234538 -111.92386984945624 0 -111.92386984945624 -117.6703020289165 0 0 0 0 -0.36104898017077858 -0.39730817188231526 0 -0.39730817188231526 1.249551578321189 0 0 0 0 345.42407066444139 -41.196505585156252 0 -41.196505585156252 -73.524181543406755 0 0 0 0 45.489256945693342 -9.9315163089952669 0 -9.9315163089952669 8.8479930136840466 0 0 0 0 276.03908248956577 -77.623425244464485 0 -77.623425244464485 -32.85179141644447 0 0 0 0 -26.401478841900826 -133.67465987558137 0 -133.67465987558137 -41.260645144933704 0 0 0 0 158.74732089778263 -56.799910380927365 0 -56.799910380927365 -47.656757626256791 0 0 0 0 216.36304249209934 -144.69545544799126 0 -144.69545544799126 -68.428162365926667 0 0 0 0 464.14969307409774 -113.55274171632476 0 -113.55274171632476 -44.066637914447561 0 0 0 0 183.12708091470267 -158.25420368992857 0 -158.25420368992857 160.73625450746752 0 0 0 0 162.8493287950696 145.33488904211742 0 145.33488904211742 -37.294443751366231 0 0 0 0 295.76738303678576 92.854282927453056 0 92.854282927453056 -47.938908002577648 0 0 0 0 -35.241241241979878 -111.04727316972115 0 -111.04727316972115 21.505150078144947 0 0 0 0 163.29044715280179 95.951376825898961 0 95.951376825898961 42.516663690247455 0 0 0 0 107.16241930793331 279.32084308136803 0 279.32084308136803 -69.899309598628477 0 0 0 0 1.4284772978899127 0.72585771847454339 0 0.72585771847454339 0.12961068506090362 0 0 0 0 256.74985532778373 -40.249772699837649 0 -40.249772699837649 3.3863493147898254 0 0 0 0 251.06034427872146 232.47685864799618 0 232.47685864799618 22.173965972335722 0 0 0 0 104.10278886489687 -133.65985260385793 0 -133.65985260385793 122.45906026085927 0 0 0 0 4.5357968598847833 -1.314715689110507 0 -1.314715689110507 0.5611741265032073 0 0 0 0 -22.243423053594597 -2.6262284938621647 0 -2.6262284938621647 55.751202097601407 0 0 0 0 3.8998813820944633 43.178841090358631 0 43.178841090358631 -25.679881184737688 0 0 0 0 138.92381633783225 -84.869019802194202 0 -84.869019802194202 60.817085974999102 0 0 0 0 221.00943992354587 -73.84163722822467 0 -73.84163722822467 -86.04555114044615 0 0 0 0 28.666367327765329 -13.082039022107551 0 -13.082039022107551 32.805315000106589 0 0 0 0 104.05289710685611 -29.482566539776826 0 -29.482566539776826 32.889390342027994 0 0 0 0 40.752096466996591 19.878406897956779 0 19.878406897956779 38.542672074708435 0 0 0 0 384.39214893410099 229.3093346467715 0 229.3093346467715 82.074124462412328 0 0 0 0 95.285986217670143 139.06063179103899 0 139.06063179103899 270.88071087385805 0 0 0 0 -30.27423101477325 -12.609242139540356 0 -12.609242139540356 62.050136994404056 0 0 0 0 3.7525346588681714 -3.8236982288477748 0 -3.8236982288477748 3.7283242758863957 0 0 0 0 8.2682720038419575 -17.892760392516671 0 -17.892760392516671 -23.482140164618613 0 0 0 0 -0.45265688234940171 -35.858230581136013 0 -35.858230581136013 -20.44638239715232 0 0 0 0 -30.568590535665862 -57.492130082944641 0 -57.492130082944641 -1.1508254386062617 0 0 0 0 50.643645716278115 63.723690842457472 0 63.723690842457472 103.64654978764156 0 0 0 0 196.04803190525854 17.036578092413947 0 17.036578092413947 -23.723860307601626 0 0 0 0 318.96515943246777 107.70644417228766 0 107.70644417228766 22.744666850200701 0 0 0 0 214.52036777278408 24.884555094306506 0 24.884555094306506 -22.703948792949063 0 0 0 0 169.45865355458227 109.05252293401736 0 109.05252293401736 118.60854988474603 0 0 0 0 -36.561941632447997 12.160286593159526 0 12.160286593159526 -92.01826836145527 0 0 0 0 -0.482355812791468 -5.5251527992719165 0 -5.5251527992719165 2.0279596531557504 0 0 0 0 4.2763166695949621 -57.169911997191321 0 -57.169911997191321 -90.050597452308466 0 0 0 0 569.5533355705702 -256.19241038409336 0 -256.19241038409336 -601.70426628098221 0 0 0 0 30.585167441357044 -91.594683289886063 0 -91.594683289886063 -71.353473988105179 0 0 0 0 710.6486129250261 137.5573974300903 0 137.5573974300903 -136.70997823978678 0 0 0 0 364.60571727182833 -90.386368188022061 0 -90.386368188022061 -224.13158797213708 0 0 0 0 396.52558452467201 -19.270387987885329 0 -19.270387987885329 -70.237692193874409 0 0 0 0 277.23355617049674 -104.11179148559708 0 -104.11179148559708 -77.566247005345076 0 0 0 0 334.53068961769168 -84.738120048467181 0 -84.738120048467181 -71.039420595451247 0 0 0 0 455.88069582798926 -132.78732361353025 0 -132.78732361353025 -61.47894686775021 0 0 0 0 342.28628701841808 -190.08159468580089 0 -190.08159468580089 43.321382912423587 0 0 0 0 274.45629496504262 -132.92143660084642 0 -132.92143660084642 -25.066200062576797 0 0 0 0 130.79630313891539 -108.93184008449961 0 -108.93184008449961 12.527326650913778 0 0 0 0 116.04693402575504 76.392158804399401 0 76.392158804399401 190.84634447548348 0 0 0 0 412.8154136294761 69.211845119729361 0 69.211845119729361 -23.989081716230089 0 0 0 0 168.88339404301951 36.69378082450271 0 36.69378082450271 -27.608919034765563 0 0 0 0 50.831803230888909 -37.043116954782207 0 -37.043116954782207 -5.0014965946988355 0 0 0 0 22.065676068274627 11.589232856554531 0 11.589232856554531 -15.751603786361068 0 0 0 0 60.579846112486848 -29.353888454681282 0 -29.353888454681282 20.502674053802821 0 0 0 0 21.858557307157753 119.89440271229755 0 119.89440271229755 -31.188694581839684 0 0 0 0 131.09845544831478 -29.135246348102555 0 -29.135246348102555 -33.466823558956094 0 0 0 0 103.28242442432384 -18.690575552845019 0 -18.690575552845019 -47.716698823981005 0 0 0 0 294.0923342017486 -88.931177371489412 0 -88.931177371489412 -71.929468729014161 0 0 0 0 160.96307464706479 12.582672031045377 0 12.582672031045377 -79.513910932092472 0 0 0 0 167.78096538790851 -18.918261870548918 0 -18.918261870548918 -42.61682618316172 0 0 0 0 182.94231263556867 0.12846676923049927 0 0.12846676923049927 -64.847272448047306 0 0 0 0 88.644351996481419 40.310742468374201 0 40.310742468374201 -44.817139370295763 0 0 0 0 163.78626480895036 10.711098895141276 0 10.711098895141276 10.706528265576708 0 0 0 0 33.238698441878029 13.941239970722549 0 13.941239970722549 -11.052914485323949 0 0 0 0 20.935694477644596 2.8806130551752176 0 2.8806130551752176 -4.1937636544035763 0 0 0 0 111.02779299863323 -57.279733241039935 0 -57.279733241039935 12.986795561880172 0 0 0 0 20.591811329934387 14.293037888384106 0 14.293037888384106 -11.117872007518944 0 0 0 0 27.15246117098178 3.8270810648963334 0 3.8270810648963334 -18.296226602475159 0 0 0 0 90.224330182478298 -4.7795756818447899 0 -4.7795756818447899 -15.500851552243603 0 0 0 0 82.750431726250099 3.7275688141357932 0 3.7275688141357932 -15.110325597550172 0 0 0 0 108.72339515695785 -12.768941175696568 0 -12.768941175696568 -22.121776042718011 0 0 0 0 91.30169720306003 -0.7286339235330388 0 -0.7286339235330388 -26.335138603752057 0 0 0 0 83.122156385114067 0.018072103385861737 0 0.018072103385861737 -7.8619703174829283 0 0 0 0 60.090687499149766 38.874242515855002 0 38.874242515855002 -6.6024018612449069 0 0 0 0 171.69293805355846 57.95834674530397 0 57.95834674530397 -4.3382505573167691 0 0 0 0 103.58176409062435 15.628853035906644 0 15.628853035906644 -5.2873908504229803 0 0 0 0 108.31071426553535 2.6104570377442542 0 2.6104570377442542 -10.303050487001428 0 0 0 0 63.409040730371771 0.87615588810437117 0 0.87615588810437117 -5.086684585282681 0 0 0 0 116.97172450771905 5.4182327441135385 0 5.4182327441135385 -9.6825621918231946 0 0 0 0 118.31078958229955 20.224337715808858 0 20.224337715808858 -3.9136841272038509 0 0 0 0 196.45783048958401 60.747326449998127 0 60.747326449998127 -107.4236152127778 0 0 0 0 311.9924203773262 40.452667712568655 0 40.452667712568655 -111.02671562166108 0 0 0 0 300.4898256858869 -48.277478323511332 0 -48.277478323511332 -94.579758111564843 0 0 0 0 252.78209949482698 -47.053052437449878 0 -47.053052437449878 -80.925387119004199 0 0 0 0 256.57341107775574 -55.850773374932487 0 -55.850773374932487 -61.462652098518447 0 0 0 0 217.73733208322665 -60.698404498993568 0 -60.698404498993568 -76.930673400780506 0 0 0 0 206.53180215109023 -3.9909381561913619 0 -3.9909381561913619 -82.66749574728783 0 0 0 0 246.44790952996118 -21.458955987975969 0 -21.458955987975969 -94.956002403936509 0 0 0 0 26.92635038588196 -15.668291469953601 0 -15.668291469953601 2.1584453198063329 0 0 0 0 143.46680534729967 -72.392939686190061 0 -72.392939686190061 -81.404239078705359 0 0 0 0 145.38820428930921 -55.926822937207362 0 -55.926822937207362 -64.301917418697485 0 0 0 0 202.62473858468002 -36.659391166695059 0 -36.659391166695059 -99.624516401157052 0 0 0 0 44.897360137584798 -29.80130989108352 0 -29.80130989108352 2.9014819554892632 0 0 0 0 65.715491459530313 14.607737295345032 0 14.607737295345032 -38.524820974169415 0 0 0 0 140.36510075908154 -11.595673578936839 0 -11.595673578936839 -151.44194803154915 0 0 0 0 161.01426438978524 -60.337473805191166 0 -60.337473805191166 -59.366542468469561 0 0 0 0 169.48294741922291 -38.882592396461405 0 -38.882592396461405 -76.678488330914661 0 0 0 0 61.239097971876618 -22.246683915192079 0 -22.246683915192079 -8.158800054963649 0 0 0 0 190.22750263250782 -78.901543159884341 0 -78.901543159884341 -31.244316319956852 0 0 0 0 23.881933821515759 -18.105951244448562 0 -18.105951244448562 9.580201687998084 0 0 0 0 105.15084363677306 -132.51284903779742 0 -132.51284903779742 160.1732720750133 0 0 0 0 28.866993595584063 -100.17967178146955 0 -100.17967178146955 150.96263063043534 0 0 0 0 -12.407722970936447 -78.601511487666585 0 -78.601511487666585 111.55612016190389 0 0 0 0 153.34344122292532 -55.457060570739486 0 -55.457060570739486 -18.120143840669698 0 0 0 0 207.89967763226014 -86.888251933510674 0 -86.888251933510674 -0.012817327145967283 0 0 0 0 31.846030535685713 -94.215280285648532 0 -94.215280285648532 113.78187040343346 0 0 0 0 72.648059527506121 -57.496161183369622 0 -57.496161183369622 43.442920290798156 0 0 0 0 142.8497612849751 -73.42332606910918 0 -73.42332606910918 23.870582831361389 0 0 0 0 127.46514885162469 -124.11980406658813 0 -124.11980406658813 106.32325851520727 0 0 0 0 62.019709259038791 -96.750365925872757 0 -96.750365925872757 106.62645680470833 0 0 0 0 -11.36591780607705 -34.07480525344522 0 -34.07480525344522 66.19204159214496 0 0 0 0 1.1286598389560822 -83.627009231716784 0 -83.627009231716784 150.71350089197767 0 0 0 0 149.46046068120631 -161.71316468688292 0 -161.71316468688292 150.95281385679755 0 0 0 0 68.355587227386422 -111.47337755381477 0 -111.47337755381477 121.12625792450126 0 0 0 0 320.70490584993968 362.57446272258449 0 362.57446272258449 617.84638679671798 0 0 0 0 146.12056384101015 13.088884773540485 0 13.088884773540485 146.03587646270444 0 0 0 0 307.10338053165469 -215.28761555144956 0 -215.28761555144956 128.53889513021022 0 0 0 0 445.12282118284929 -132.74510583144911 0 -132.74510583144911 -32.481379407034183 0 0 0 0 333.80585204885574 -60.657022217291342 0 -60.657022217291342 -62.149690792829801 0 0 0 0 225.87089158936578 -123.51535087526304 0 -123.51535087526304 46.773449426087609 0 0 0 0 226.69103184115374 -106.32982655011074 0 -106.32982655011074 44.205966307561539 0 0 0 0 85.591677479234932 -45.484182884402799 0 -45.484182884402799 -81.85641721878801 0 0 0 0 347.72978433058597 82.594077938123746 0 82.594077938123746 3.0361041332639616 0 0 0 0 624.06415197506431 29.13682090032944 0 29.13682090032944 2.6285531695251674 0 0 0 0 830.15081589325564 -49.308881633812689 0 -49.308881633812689 29.821056447340879 0 0 0 0 -90.619171905476833 -274.20581108762724 0 -274.20581108762724 -134.21464606518884 0 0 0 0 4.8824454353818965 -6.2670162212043294 0 -6.2670162212043294 8.4900626349113963 0 0 0 0 -372.83858808565128 -25.634563535896177 0 -25.634563535896177 215.29073167347906 0 0 0 0 -128.48565695947036 -1033.566275536728 0 -1033.566275536728 526.53915285267158 0 0 0 0 205.4217311515531 -132.61823483888702 0 -132.61823483888702 -145.47174127162634 0 0 0 0 -11.619897776377911 -83.411899602392737 0 -83.411899602392737 -67.123641322844378 0 0 0 0 173.8763966311526 -45.086774768129089 0 -45.086774768129089 -102.5686454400543 0 0 0 0 119.56002804951277 -17.696432686078879 0 -17.696432686078879 -41.157844164146354 0 0 0 0 113.25002719681652 20.335442888425405 0 20.335442888425405 27.121822620393289 0 0 0 0 72.710874263326787 -13.78980067684396 0 -13.78980067684396 -6.8975539612898835 0 0 0 0 106.81537457216473 14.77262187911856 0 14.77262187911856 -10.043940733417912 0 0 0 0 102.44712401466677 -3.7093860161885459 0 -3.7093860161885459 -34.698995530674438 0 0 0 0 55.260200885299128 -33.98590100138972 0 -33.98590100138972 -30.469503180564516 0 0 0 0 62.583476118248655 -19.234320194171687 0 -19.234320194171687 -24.364943516528911 0 0 0 0 120.38682381970284 -59.787692033744861 0 -59.787692033744861 -28.846473568161628 0 0 0 0 7.5959316829963797 6.1547503718834662 0 6.1547503718834662 -20.195989108446152 0 0 0 0 97.685019754688255 -50.791168657975504 0 -50.791168657975504 12.478467030428874 0 0 0 0 55.713162164618552 -61.751034606111716 0 -61.751034606111716 49.217272905462778 0 0 0 0 20.976446488667648 4.9157435757015833 0 4.9157435757015833 -20.286436222431529 0 0 0 0 16.123810051634962 -2.3215417797989915 0 -2.3215417797989915 -18.129385014763855 0 0 0 0 49.462551008633454 -91.130621618216537 0 -91.130621618216537 -14.250501794163029 0 0 0 0 42.139334422608954 -52.473210276931411 0 -52.473210276931411 42.805038062954736 0 0 0 0 23.246618133298966 -29.412358535019706 0 -29.412358535019706 33.094423100298386 0 0 0 0 40.8379870170902 50.229961283688311 0 50.229961283688311 66.441048446054438 0 0 0 0 193.35930348857983 1.3731176514451935 0 1.3731176514451935 33.282576652192972 0 0 0 0 -46.776388744343421 -125.91272098329136 0 -125.91272098329136 -67.367253239610477 0 0 0 0 14.343041823379167 -18.076794438831385 0 -18.076794438831385 23.033736808767632 0 0 0 0 120.57254946382454 -56.483153273428968 0 -56.483153273428968 44.371986783028717 0 0 0 0 303.47302737658902 -29.791599201915147 0 -29.791599201915147 73.472103763468681 0 0 0 0 152.20335920859361 63.51028828156916 0 63.51028828156916 104.96948031796535 0 0 0 0 187.37060420796479 23.598903511040358 0 23.598903511040358 104.67150928793779 0 0 0 0 345.05007083428791 26.991318371036243 0 26.991318371036243 42.493369877732547 0 0 0 0 311.73389161009982 36.340502772452766 0 36.340502772452766 37.605658987118929 0 0 0 0 210.09347510425141 46.733848938732798 0 46.733848938732798 56.201686431914702 0 0 0 0 210.07084075645253 34.740277258756961 0 34.740277258756961 5.4400441634603833 0 0 0 0 113.37976073566824 41.538321126101465 0 41.538321126101465 48.779379262757857 0 0 0 0 126.87261644603859 8.8910493727822768 0 8.8910493727822768 1.474146258179303 0 0 0 0 329.37537594255991 34.460042410764714 0 34.460042410764714 -12.495548657216354 0 0 0 0 234.56599323922728 54.618462999558147 0 54.618462999558147 -3.8234214774462099 0 0 0 0 6.2176333430463444 -1.2375749899567552 0 -1.2375749899567552 -2.5541659132007495 0 0 0 0 5.3679171911717276 -40.347492369736798 0 -40.347492369736798 -50.098260912011852 0 0 0 0 -60.00484893804969 57.418993442256308 0 57.418993442256308 20.278675772614761 0 0 0 0 -5.5459650103148306 -61.193444709268491 0 -61.193444709268491 12.638028172032795 0 0 0 0 45.586886445562925 -22.00447113176611 0 -22.00447113176611 -19.005391089396696 0 0 0 0 74.907080981218314 -21.735817260323248 0 -21.735817260323248 11.373769461927935 0 0 0 0 7.7742627492989413 -3.6064118687724402 0 -3.6064118687724402 32.995995316507532 0 0 0 0 43.281160318205366 -22.998502742880191 0 -22.998502742880191 6.2971184230682411 0 0 0 0 6.6690253432729492 -13.999938480362204 0 -13.999938480362204 12.657172793235512 0 0 0 0 11.952675009913122 -0.31881616527576284 0 -0.31881616527576284 -5.5026690607611819 0 0 0 0 5.266959739732556 65.264720969877771 0 65.264720969877771 -71.411453591861758 0 0 0 0 124.66103928475059 10.115492643021923 0 10.115492643021923 17.337220412643809 0 0 0 0 3.3467231533185497 -2.3501121260565583 0 -2.3501121260565583 0.71440369701877526 0 0 0 0 102.80882851472415 1.4116148471932704 0 1.4116148471932704 -87.610524253326361 0 0 0 0 51.190803741308628 -10.961884100807794 0 -10.961884100807794 -89.087485890805453 0 0 0 0 118.55457392711833 39.782388584296733 0 39.782388584296733 -84.160184791762987 0 0 0 0 73.062660730138305 18.868347745778259 0 18.868347745778259 -1.4380316224227983 0 0 0 0 135.50423754483563 29.176856976765666 0 29.176856976765666 0.4895665786728326 0 0 0 0 200.39468543519615 13.770356158358251 0 13.770356158358251 -13.41466363154704 0 0 0 0 317.71668100754323 -189.29299063613277 0 -189.29299063613277 14.189708109777683 0 0 0 0 328.83169007023389 39.674468878923328 0 39.674468878923328 -38.007403343467473 0 0 0 0 234.68856737573515 56.159938083627281 0 56.159938083627281 -69.238972944730861 0 0 0 0 91.784010765441053 53.752599256543213 0 53.752599256543213 1.087907615294796 0 0 0 0 203.92093779378774 28.846397494747197 0 28.846397494747197 -0.1266283278145795 0 0 0 0 157.21703126439752 56.985960258733762 0 56.985960258733762 -1.3113702024667404 0 0 0 0 250.08898209111067 61.882269526981482 0 61.882269526981482 -27.4803109477592 0 0 0 0 306.57464693303336 11.48643536605795 0 11.48643536605795 -0.017521350754257734 0 0 0 0 329.21479164453922 11.285048442871084 0 11.285048442871084 -33.335768637011753 0 0 0 0 339.59777787226176 -22.914963971772632 0 -22.914963971772632 -35.807451706263841 0 0 0 0 342.93707538493618 9.9069822718514811 0 9.9069822718514811 -34.394124524249527 0 0 0 0 308.25233402828599 -24.791916284157111 0 -24.791916284157111 -0.056813117322301321 0 0 0 0 195.02950465189133 -32.744931113842739 0 -32.744931113842739 0.014033879339299185 0 0 0 0 232.45542969002418 -78.047862291964904 0 -78.047862291964904 -13.441791710603106 0 0 0 0 338.33686736860545 -74.971626589398113 0 -74.971626589398113 -23.861040110687508 0 0 0 0 343.61616949709423 -27.353110566935513 0 -27.353110566935513 -39.82256925754325 0 0 0 0 428.6905844885041 -138.16151300579705 0 -138.16151300579705 -10.946640286782729 0 0 0 0 208.88359874389425 -93.260823242174979 0 -93.260823242174979 0.25322315859573763 0 0 0 0 207.32819325910168 -93.632319772654412 0 -93.632319772654412 14.443452550550624 0 0 0 0 48.425123110486311 -89.645497571632944 0 -89.645497571632944 160.63032224956464 0 0 0 0 267.25342197153077 -140.57993994667035 0 -140.57993994667035 14.691393996945596 0 0 0 0 277.04872937757682 -118.87289390980888 0 -118.87289390980888 34.710571779061411 0 0 0 0 741.04045660329575 -267.59469026213219 0 -267.59469026213219 38.229225351096673 0 0 0 0 635.80442415716243 140.45447022232247 0 140.45447022232247 116.27438654279152 0 0 0 0 419.96628332954424 9.1005491183013216 0 9.1005491183013216 44.162917782563753 0 0 0 0 365.53300130943535 87.910899693573938 0 87.910899693573938 42.132362754086621 0 0 0 0 318.54751611863321 11.251055005325782 0 11.251055005325782 116.80242816755754 0 0 0 0 431.99818787717231 10.267259515294985 0 10.267259515294985 -15.781669409755692 0 0 0 0 507.73044943464629 -0.23883092874702339 0 -0.23883092874702339 -37.56162675195052 0 0 0 0 390.69383315034793 44.175196550217407 0 44.175196550217407 -26.760956579280823 0 0 0 0 396.26588635718508 -40.795259030777878 0 -40.795259030777878 -52.3179999692411 0 0 0 0 -3.0934293704776792 -13.805883402919097 0 -13.805883402919097 14.875053132025869 0 0 0 0 7.9926487771299435 -6.8259618851604875 0 -6.8259618851604875 0.020546339132462191 0 0 0 0 26.862324436882773 -28.744652885871393 0 -28.744652885871393 23.555272505828604 0 0 0 0 30.518043480580673 -21.497931494295706 0 -21.497931494295706 3.0556045501284874 0 0 0 0 86.659757683577482 -41.006666980244418 0 -41.006666980244418 16.313239217643918 0 0 0 0 86.868038901811815 -21.694814723671623 0 -21.694814723671623 0.019067077318708953 0 0 0 0 115.45089110493427 -68.866974925673205 0 -68.866974925673205 18.027938320401987 0 0 0 0 80.134659069415648 -44.837951963962908 0 -44.837951963962908 28.335170120472974 0 0 0 0 41.892377266020048 -77.827507374374647 0 -77.827507374374647 39.622603723888645 0 0 0 0 -8.4164118176850025 -15.725419826753352 0 -15.725419826753352 0.49497667969805548 0 0 0 0 65.061972389579751 -63.81751429827402 0 -63.81751429827402 31.969393033833569 0 0 0 0 -0.1843776414497782 -0.090011573838950198 0 -0.090011573838950198 -0.42190287527702042 0 0 0 0 32.863086764104082 -3.9152923948825604 0 -3.9152923948825604 7.717759273744786 0 0 0 0 15.695233587990515 -26.166308305703204 0 -26.166308305703204 33.188055300259926 0 0 0 0 23.42951620238091 -4.0043731918250955 0 -4.0043731918250955 -3.1245141529389544 0 0 0 0 25.257590656285174 -16.011420366600483 0 -16.011420366600483 -9.086856530332625 0 0 0 0 -18.921864970005117 8.1047012010353292 0 8.1047012010353292 3.2745750335081349 0 0 0 0 -1.1017098050134564 -2.6166227266118369 0 -2.6166227266118369 -4.3529101970016555 0 0 0 0 64.70334120906773 -44.77312578912364 0 -44.77312578912364 26.145339508278283 0 0 0 0 58.791688549277751 -22.612181248771947 0 -22.612181248771947 -23.268061306836898 0 0 0 0 48.297039163626323 -44.290841842400795 0 -44.290841842400795 26.366324721530191 0 0 0 0 -2.518762244420941 5.8189911499445657 0 5.8189911499445657 -7.5487833403243156 0 0 0 0 -3.4224077992177513 -4.3742622235299393 0 -4.3742622235299393 -6.0707416070921694 0 0 0 0 47.283098165196861 -39.74044014182752 0 -39.74044014182752 6.0178370026324046 0 0 0 0 31.769467399863061 -26.297284045874449 0 -26.297284045874449 3.6743773393492347 0 0 0 0 16.161870122348773 -2.6941607370932559 0 -2.6941607370932559 -14.542140235754513 0 0 0 0 0.33444606509442565 -6.957420919562054 0 -6.957420919562054 -11.228851881108952 0 0 0 0 17.394519785608281 -13.914699905394642 0 -13.914699905394642 -14.034891108842544 0 0 0 0 15.623385660706845 -13.300209772418683 0 -13.300209772418683 -1.5262254525262335 0 0 0 0 16.143522194151387 -4.0208306503132514 0 -4.0208306503132514 -4.5820302026941704 0 0 0 0 14.929389813405578 -8.4946033517321666 0 -8.4946033517321666 -9.8985707910385372 0 0 0 0 33.940772827183537 -10.204427239815914 0 -10.204427239815914 -25.810958298709011 0 0 0 0 16.913852100110603 -2.5645487166084422 0 -2.5645487166084422 -11.655050968600893 0 0 0 0 10.727370958000591 0.12783831183813277 0 0.12783831183813277 -7.4950116246935625 0 0 0 0 80.346625117956137 37.004640478618398 0 37.004640478618398 -34.905525028999818 0 0 0 0 54.631710212401231 54.965071394252959 0 54.965071394252959 97.21526883830461 0 0 0 0 55.854666233264652 54.760962732872045 0 54.760962732872045 27.584492275148023 0 0 0 0 30.536548463713331 -3.9893587085855984 0 -3.9893587085855984 -16.991881303542165 0 0 0 0 26.990433570201276 -30.982807725735711 0 -30.982807725735711 -25.506901879846623 0 0 0 0 31.460072993038921 -19.989640433739623 0 -19.989640433739623 -23.216858894840243 0 0 0 0 33.26797332977003 -12.995955014336005 0 -12.995955014336005 -30.440151037955275 0 0 0 0 53.704477817329462 -6.3905275065296792 0 -6.3905275065296792 -31.682152229454005 0 0 0 0 60.207777820382034 -24.59971087746726 0 -24.59971087746726 -26.636656142437459 0 0 0 0 553.26288703733007 -114.78054849637175 0 -114.78054849637175 38.672414748273127 0 0 0 0 550.3062742417651 -69.941049691299384 0 -69.941049691299384 37.930848906721394 0 0 0 0 607.96583352448943 -55.882504137006208 0 -55.882504137006208 25.618932001594885 0 0 0 0 536.30120236671064 -108.72381553419905 0 -108.72381553419905 41.867849405804918 0 0 0 0 553.052406377843 -13.416629890741206 0 -13.416629890741206 -12.349965900728989 0 0 0 0 404.35521675272321 -70.574337421739457 0 -70.574337421739457 172.12886903806714 0 0 0 0 412.01371977181407 31.996937804756413 0 31.996937804756413 91.970277418637068 0 0 0 0 461.12409939848294 -80.420614697425165 0 -80.420614697425165 341.2240082373205 0 0 0 0 764.27557264595816 -216.90289306362871 0 -216.90289306362871 133.91514271032958 0 0 0 0 66.998657787567936 -203.262689490002 0 -203.262689490002 292.89253729094582 0 0 0 0 884.56324958270125 223.8730244842107 0 223.8730244842107 43.809750860281156 0 0 0 0 3.2943402628607714 -1.8096304808170203 0 -1.8096304808170203 1.234049897102967 0 0 0 0 74.808023540463182 22.021933091880499 0 22.021933091880499 -3.6396219236395382 0 0 0 0 4.8922786924021011 0.63949134021649456 0 0.63949134021649456 -1.9617234292372148 0 0 0 0 21.303048938541906 2.4956762801618879 0 2.4956762801618879 -8.3762385687724645 0 0 0 0 8.6288685473098212 -3.5894905813689775 0 -3.5894905813689775 5.7322529138499343 0 0 0 0 230.28080804200727 -10.634971530049143 0 -10.634971530049143 0.76613315387749026 0 0 0 0 259.34129110508366 115.85917229959148 0 115.85917229959148 55.282924124046644 0 0 0 0 473.86546443970292 110.51383956736595 0 110.51383956736595 17.910237708904333 0 0 0 0 268.51453010870318 86.717332237627261 0 86.717332237627261 63.008783193794443 0 0 0 0 395.68275535627981 73.752963407861941 0 73.752963407861941 35.56258160869811 0 0 0 0 293.73102028519497 75.224210868637556 0 75.224210868637556 67.434300521195382 0 0 0 0 405.34866454180155 -0.15080013537077264 0 -0.15080013537077264 77.198701229814105 0 0 0 0 379.27825718629174 33.850355896616747 0 33.850355896616747 53.588848544859957 0 0 0 0 185.95383856617991 65.670293517430309 0 65.670293517430309 81.684172211231953 0 0 0 0 -18.705127645007451 53.422715140249863 0 53.422715140249863 83.759570234225976 0 0 0 0 3.0065880446595621 2.8525821543715608 0 2.8525821543715608 17.547216277949801 0 0 0 0 273.73410395553219 78.761025820231225 0 78.761025820231225 9.2691019857480228 0 0 0 0 268.58439014514443 4.9791122849080693 0 4.9791122849080693 41.618918829452014 0 0 0 0 383.86599741413374 15.329836583774295 0 15.329836583774295 17.321173231748617 0 0 0 0 343.67781944408125 45.545202243739581 0 45.545202243739581 90.418001957524211 0 0 0 0 341.26174255201477 82.271934108593314 0 82.271934108593314 33.811733830883441 0 0 0 0 365.21019905936555 95.680450434561408 0 95.680450434561408 40.578904020940854 0 0 0 0 302.12875559994427 107.37403244700658 0 107.37403244700658 48.36658650854406 0 0 0 0 354.54351900456822 -49.644461121444579 0 -49.644461121444579 200.5895363520367 0 0 0 0 269.20533969035023 37.740275189348267 0 37.740275189348267 146.24031421530967 0 0 0 0 414.60080507941893 -52.374862497197455 0 -52.374862497197455 129.33157421593322 0 0 0 0 367.68289212017044 -19.241438512743827 0 -19.241438512743827 108.88718776710584 0 0 0 0 443.18680056673475 -10.638272549539352 0 -10.638272549539352 15.141814561844456 0 0 0 0 517.83616621012334 -84.284342711912814 0 -84.284342711912814 72.821358739983225 0 0 0 0 506.99710869655246 -113.72346694520087 0 -113.72346694520087 44.094740177194353 0 0 0 0 591.02708710881416 -202.66872709686936 0 -202.66872709686936 123.72131059032972 0 0 0 0 409.07346947709266 -94.939855552714079 0 -94.939855552714079 217.46870282317695 0 0 0 0 411.93907801015303 -39.160602841114496 0 -39.160602841114496 154.85306647654534 0 0 0 0 761.09584596427158 369.95427723861303 0 369.95427723861303 272.44391882247032 0 0 0 0 493.03810453937331 -233.4287159110628 0 -233.4287159110628 605.87860459685544 0 0 0 0 1264.7048773919814 -615.21155777426156 0 -615.21155777426156 -157.42112107097591 0 0 0 0 450.7884391824773 -58.559060729633075 0 -58.559060729633075 -205.48662162033634 0 0 0 0 439.53385707605048 -533.46757769854048 0 -533.46757769854048 -730.28626263018555 0 0 0 0 313.14568705734564 0.70862740523648426 0 0.70862740523648426 -230.37852757021324 0 0 0 0 174.70327524025925 -127.70496669323779 0 -127.70496669323779 -196.83718401064766 0 0 0 0 352.45440085663722 154.49556424573973 0 154.49556424573973 41.287629260520134 0 0 0 0 160.91945762185151 128.57194373013667 0 128.57194373013667 -148.81122211660795 0 0 0 0 168.45350472292921 -178.12554216636011 0 -178.12554216636011 -402.51824292350284 0 0 0 0 358.65340928501246 -186.44318509677248 0 -186.44318509677248 -473.47835234972513 0 0 0 0 197.23050373966987 -28.044907487292647 0 -28.044907487292647 -2.1419364386660416 0 0 0 0 323.69347926786577 -109.95661223801017 0 -109.95661223801017 -9.2108886324785999 0 0 0 0 215.87162456339502 -0.48579356141090102 0 -0.48579356141090102 -116.26764954866303 0 0 0 0 513.66484999209933 -16.666664324854537 0 -16.666664324854537 -115.92942160166422 0 0 0 0 537.27420555979188 -109.5083147114774 0 -109.5083147114774 -271.33803312501368 0 0 0 0 275.06469171405479 -232.01325211297171 0 -232.01325211297171 -92.85557177388273 0 0 0 0 189.4111286824118 -365.00991788041983 0 -365.00991788041983 -299.35152556195317 0 0 0 0 400.3712095450901 -177.54594929275481 0 -177.54594929275481 -252.00237639425904 0 0 0 0 385.82894373162708 -115.77219176705057 0 -115.77219176705057 -444.29989719407331 0 0 0 0 301.84921872614359 -11.46739755617773 0 -11.46739755617773 -324.75468423295001 0 0 0 0 18.14781410989869 -2.3068781158360778 0 -2.3068781158360778 0.28859570886763636 0 0 0 0 175.08759917278803 -184.88981911685903 0 -184.88981911685903 223.77712005094838 0 0 0 0 106.86934132633905 -60.791932828499284 0 -60.791932828499284 95.343331157417879 0 0 0 0 311.13499918610614 -56.261482420366974 0 -56.261482420366974 -194.34353420120942 0 0 0 0 30.707443138494174 -56.066128558049677 0 -56.066128558049677 -12.106291903923466 0 0 0 0 128.13119978785107 84.30483464865091 0 84.30483464865091 123.92228334209528 0 0 0 0 1548.3951376200203 1800.4345944392303 0 1800.4345944392303 1160.3826587930125 0 0 0 0 505.8905895517164 -284.76083233541408 0 -284.76083233541408 31.898563123531915 0 0 0 0 20.091484060598304 -164.98988589904434 0 -164.98988589904434 -221.95886541611418 0 0 0 0 -0.2800476201591664 41.035072398706461 0 41.035072398706461 -106.52813563761578 0 0 0 0 47.461850903942718 4.2227503603295817 0 4.2227503603295817 -0.87795834467370515 0 0 0 0 79.714960488410725 -156.00226125503048 0 -156.00226125503048 -321.65069189925964 0 0 0 0 -187.85566644620667 -183.55653940448201 0 -183.55653940448201 -120.56236115968795 0 0 0 0 7.6973047168759408 6.3808764170372854 0 6.3808764170372854 -1.4153146662345364 0 0 0 0 -70.677544559482158 111.06880405487902 0 111.06880405487902 175.81282406706578 0 0 0 0 103.04918690083286 -288.45500197320143 0 -288.45500197320143 -89.143409734158467 0 0 0 0 306.64818452251347 -61.282162594132842 0 -61.282162594132842 -206.53393934782514 0 0 0 0 218.24180464334859 115.92022140389622 0 115.92022140389622 -121.22344425923166 0 0 0 0 260.57460391029963 393.12581916661009 0 393.12581916661009 -70.055602466518849 0 0 0 0 16.075859471682634 -336.81502160369496 0 -336.81502160369496 182.64167982823938 0 0 0 0 168.34973040175899 -23.967829420414066 0 -23.967829420414066 3.6367853203153406 0 0 0 0 375.88424184717587 -147.61756988357729 0 -147.61756988357729 -582.50465213054429 0 0 0 0 313.21197975185351 276.64561619195024 0 276.64561619195024 -7.2240350362887966 0 0 0 0 241.67658860595839 5.7173517518829158 0 5.7173517518829158 21.137249539282038 0 0 0 0 331.3060541931336 72.667750939587222 0 72.667750939587222 -10.752923994765297 0 0 0 0 308.17606845362752 111.74298269835185 0 111.74298269835185 45.023046922031426 0 0 0 0 -53.864135674659337 -14.053270576716614 0 -14.053270576716614 8.5768931116513727 0 0 0 0 542.64378571319685 172.66031042848999 0 172.66031042848999 -51.586704461320096 0 0 0 0 623.53863285063198 59.479544315431895 0 59.479544315431895 -67.497570485324559 0 0 0 0 -0.055401048291436439 -0.19626173520592261 0 -0.19626173520592261 6.3663479037260453 0 0 0 0 8.4346719657114591 42.958088465470553 0 42.958088465470553 36.783455582069109 0 0 0 0 81.140555371908704 28.542411642263573 0 28.542411642263573 -6.1873929123057678 0 0 0 0 30.004876505860011 20.766365044024724 0 20.766365044024724 22.707557052443704 0 0 0 0 32.227875795011641 58.196713062812762 0 58.196713062812762 -23.389065805648443 0 0 0 0 99.208678334354772 18.208894658800091 0 18.208894658800091 -39.638236784059245 0 0 0 0 26.097145267849555 72.728609460713869 0 72.728609460713869 59.580844199158946 0 0 0 0 39.39883769559674 -16.013549100350701 0 -16.013549100350701 -30.750047653126785 0 0 0 0 81.13656716721016 28.302945388495687 0 28.302945388495687 2.5964171581154005 0 0 0 0 38.113625901360507 -9.3650912643704203 0 -9.3650912643704203 -11.814710504417523 0 0 0 0 76.798782438407216 -21.010343283629823 0 -21.010343283629823 0.035672019647790876 0 0 0 0 66.084134092874592 8.257118321831058 0 8.257118321831058 -7.4768579167036933 0 0 0 0 86.722405831522337 -5.9155803966619285 0 -5.9155803966619285 0.1711376552557371 0 0 0 0 68.572966385923792 -10.005576787642212 0 -10.005576787642212 14.02244280576133 0 0 0 0 111.02685311151208 -7.6367697449170571 0 -7.6367697449170571 -0.31836044256422813 0 0 0 0 106.48151262660394 -2.7983950487050606 0 -2.7983950487050606 -5.5087737852313694 0 0 0 0 83.363866401799896 19.320883535858684 0 19.320883535858684 -14.560666714799936 0 0 0 0 -93.855538414878538 -35.002150704975293 0 -35.002150704975293 -166.67253017277346 0 0 0 0 222.96478304679022 -170.67165086235192 0 -170.67165086235192 -125.77557523389714 0 0 0 0 61.548949364972941 109.20393221511335 0 109.20393221511335 163.56082191215364 0 0 0 0 126.56308806722154 219.9469166116935 0 219.9469166116935 -115.63381732112157 0 0 0 0 164.71045848573704 -18.985604948459695 0 -18.985604948459695 -745.34904378710053 0 0 0 0 -39.634547041161568 -62.837741663793167 0 -62.837741663793167 -109.72026912531406 0 0 0 0 -22.315663429020788 0.3269037568143176 0 0.3269037568143176 338.02782964171502 0 0 0 0 179.30678685921885 79.919463575466125 0 79.919463575466125 -345.76439645497931 0 0 0 0 139.46253465245113 -14.972023755517027 0 -14.972023755517027 1.0170797216253376 0 0 0 0 -82.701231703846133 88.50277861981931 0 88.50277861981931 309.40174119781454 0 0 0 0 355.56501371802733 16.675016186885159 0 16.675016186885159 -169.85198515098818 0 0 0 0 251.37457135945442 -39.555388855548813 0 -39.555388855548813 -616.46528696703353 0 0 0 0 -95.882598985976074 13.923417685403365 0 13.923417685403365 -165.55719141260258 0 0 0 0 250.645412960268 -72.512488149088256 0 -72.512488149088256 -566.08171885108447 0 0 0 0 68.38726056901271 5.5391811710290764 0 5.5391811710290764 -1.0488351495147992 0 0 0 0 131.99397371415398 -28.442821291220753 0 -28.442821291220753 5.248824067949954 0 0 0 0 4.9378273725124018 -69.341341714670136 0 -69.341341714670136 -6.2135563435834626 0 0 0 0 5.7563544058102707 22.815666433030572 0 22.815666433030572 41.903590447268471 0 0 0 0 44.329489679614198 -7.039977250584684 0 -7.039977250584684 57.87686098478116 0 0 0 0 85.009982517650784 2.9410981215441714 0 2.9410981215441714 -4.4735260702262378 0 0 0 0 59.949196557234245 32.593210229953456 0 32.593210229953456 -20.763045460728335 0 0 0 0 1.6084633313394221 -0.8270188833605232 0 -0.8270188833605232 -0.80963403530114775 0 0 0 0 148.33263610035283 36.565994276336454 0 36.565994276336454 -4.3178599012096583 0 0 0 0 110.20126437359431 39.296212710383315 0 39.296212710383315 36.252289712994113 0 0 0 0 -73.50964028909948 -263.30494831673604 0 -263.30494831673604 -189.71843231758476 0 0 0 0 88.782668370415024 -13.601690400328039 0 -13.601690400328039 -7.1866491229716374 0 0 0 0 152.13054544197803 82.680200098550358 0 82.680200098550358 -250.73780248400362 0 0 0 0 -236.7725278930302 -167.90327446074707 0 -167.90327446074707 -134.19030483076403 0 0 0 0 -2.6215469430976555 -18.65718084197804 0 -18.65718084197804 -1.7535734634198819 0 0 0 0 128.81588404465583 30.13627576693716 0 30.13627576693716 13.814582799227992 0 0 0 0 121.11522233455617 5.9929867076339178 0 5.9929867076339178 10.603110739310068 0 0 0 0 93.265180275360763 -0.58303451334325018 0 -0.58303451334325018 10.598870144942925 0 0 0 0 111.98063908775657 3.8875772443440439 0 3.8875772443440439 -14.992637362643084 0 0 0 0 113.07690891613674 25.10692398521121 0 25.10692398521121 -12.428970226476849 0 0 0 0 94.976789258871577 23.044129448545618 0 23.044129448545618 13.561818613844196 0 0 0 0 111.65844369871775 19.562635870280701 0 19.562635870280701 21.248241779297132 0 0 0 0 125.34825083520991 10.773585728065655 0 10.773585728065655 -10.638254306942031 0 0 0 0 115.76698509812559 18.039481060141043 0 18.039481060141043 -4.4786169483290905 0 0 0 0 111.69232640196424 3.9651736135811007 0 3.9651736135811007 18.28924957057643 0 0 0 0 103.83131417908589 10.566770096314485 0 10.566770096314485 35.848195852690147 0 0 0 0 139.56242853694675 7.1567267158895049 0 7.1567267158895049 -18.271551983978839 0 0 0 0 117.44111324864571 14.967615927667609 0 14.967615927667609 -12.468907329297963 0 0 0 0 69.195121942950209 20.433140235824965 0 20.433140235824965 2.159236355559301 0 0 0 0 111.79155559262654 33.752622143060876 0 33.752622143060876 -7.436722233137175 0 0 0 0 170.97649561628714 33.314556759416973 0 33.314556759416973 -8.0153765839872904 0 0 0 0 82.23202409708756 29.239858260602972 0 29.239858260602972 -4.8477791531729508 0 0 0 0 55.455142496582994 -21.941151817432115 0 -21.941151817432115 -30.931562203126383 0 0 0 0 2.2514344466890321 -1.3142770002745294 0 -1.3142770002745294 -0.79737001302013943 0 0 0 0 46.440018234552554 -18.193255203906148 0 -18.193255203906148 -13.897362427636608 0 0 0 0 -17.085376790520968 -5.4906081385137213 0 -5.4906081385137213 11.353803440422553 0 0 0 0 50.816200350127474 5.6798953322931993 0 5.6798953322931993 -19.054675701675421 0 0 0 0 126.84897879741766 -44.591089511646231 0 -44.591089511646231 -21.698173663131456 0 0 0 0 158.97268327502024 43.506724925779054 0 43.506724925779054 -20.047389486777377 0 0 0 0 100.36915149644483 20.702650018806253 0 20.702650018806253 -26.884614933169587 0 0 0 0 92.746026682831143 16.994790760430277 0 16.994790760430277 0.31562017073883908 0 0 0 0 200.43628675759101 50.994553224796192 0 50.994553224796192 3.0856504842904826 0 0 0 0 -0.048530748584219907 -1.5068461409800804 0 -1.5068461409800804 3.0416566651503452 0 0 0 0 149.85254287014686 40.211539874731329 0 40.211539874731329 31.562746696550789 0 0 0 0 186.8927904907323 -16.709318706559543 0 -16.709318706559543 -17.125965936452531 0 0 0 0 186.91530697533722 -71.585036006216114 0 -71.585036006216114 -22.045202554584648 0 0 0 0 19.60953104944921 -62.091659243269667 0 -62.091659243269667 -19.220178985961692 0 0 0 0 214.4656551367807 -0.2100567040661474 0 -0.2100567040661474 -14.40463984982631 0 0 0 0 259.69332552442756 85.249424467635265 0 85.249424467635265 3.7458905970949559 0 0 0 0 317.61190257746421 -9.2668613390660965 0 -9.2668613390660965 -45.516250135977685 0 0 0 0 254.24398751855466 -47.967100110729234 0 -47.967100110729234 0.1359430934367083 0 0 0 0 19.897220862480498 -64.115985969891014 0 -64.115985969891014 -8.0057703542276997 0 0 0 0 137.28502257752098 -150.44993549123467 0 -150.44993549123467 -88.370217713507941 0 0 0 0 2345.7799606188782 -222.7261823205354 0 -222.7261823205354 -1426.4131007826409 0 0 0 0 346.52998546881281 338.3578724828717 0 338.3578724828717 353.56457468631294 0 0 0 0 57.34262251934706 4.4350468015597357 0 4.4350468015597357 19.891232473767218 0 0 0 0 7.0413304769067651 0.071158851480937813 0 0.071158851480937813 5.6209652852994427 0 0 0 0 141.74748479632763 84.736266350813153 0 84.736266350813153 49.224742476985284 0 0 0 0 60.226500589975331 19.815166469712267 0 19.815166469712267 -6.8953254505513257 0 0 0 0 3.6385610574798193 -29.729779131148234 0 -29.729779131148234 71.065102573074455 0 0 0 0 126.77605784980915 -30.214132694748514 0 -30.214132694748514 12.090986805330999 0 0 0 0 83.429397216066718 15.481834650708265 0 15.481834650708265 1.0594023922756151 0 0 0 0 76.521210191131104 19.811456171290956 0 19.811456171290956 -181.94125410982588 0 0 0 0 52.192085912072798 67.791310798336781 0 67.791310798336781 -63.562629717139544 0 0 0 0 22.301930246594992 1.9476195361430158 0 1.9476195361430158 2.1737921822717361 0 0 0 0 110.68875380343525 -12.416513597714584 0 -12.416513597714584 -175.79867457143121 0 0 0 0 -17.905355301692907 -36.284830571648854 0 -36.284830571648854 -57.836103897230714 0 0 0 0 63.483912881640208 7.4142295762894719 0 7.4142295762894719 -4.9156481368281675 0 0 0 0 54.94292779933312 -33.484830566348592 0 -33.484830566348592 -51.918165293351194 0 0 0 0 58.372222237581411 7.145920885274613 0 7.145920885274613 0.35301268429780475 0 0 0 0 5.8535292870571034 -0.59058024682254029 0 -0.59058024682254029 -0.28116107705503168 0 0 0 0 57.844853953902202 -23.551435030621178 0 -23.551435030621178 -146.81724376522652 0 0 0 0 95.96608613691933 -57.605032889679478 0 -57.605032889679478 -121.81422196912945 0 0 0 0 64.950646461933502 -65.684198769980412 0 -65.684198769980412 -114.66181970388743 0 0 0 0 259.45511193879065 -5.4463069233547685 0 -5.4463069233547685 -158.61521267701664 0 0 0 0 56.39083487825701 -39.540145502101268 0 -39.540145502101268 -68.864281601249786 0 0 0 0 85.359692883277603 49.405147731474699 0 49.405147731474699 34.230743136193496 0 0 0 0 119.65566384714845 0.39576812584279963 0 0.39576812584279963 -3.8487769073627964 0 0 0 0 65.949765594144992 141.86182930698533 0 141.86182930698533 -221.75440395772239 0 0 0 0 98.22502684607025 108.76300295784108 0 108.76300295784108 -187.84605993331024 0 0 0 0 -461.12525632931647 -23.511845503472159 0 -23.511845503472159 79.348952319790442 0 0 0 0 4.8135591078998345 0.59313573661176378 0 0.59313573661176378 0.10103427379550212 0 0 0 0 364.54560487131675 -324.58480183490974 0 -324.58480183490974 208.04470779231042 0 0 0 0 108.73296982744068 -154.24618055936526 0 -154.24618055936526 95.653926876564128 0 0 0 0 133.10229854163481 -12.78897044108453 0 -12.78897044108453 -93.517729621293938 0 0 0 0 12.665394900621635 3.9733366188007864 0 3.9733366188007864 0.82782066139266242 0 0 0 0 155.39775876206841 -194.02303119509077 0 -194.02303119509077 104.974640096028 0 0 0 0 268.30305205267359 -123.02751246746948 0 -123.02751246746948 -22.942220241553741 0 0 0 0 160.03101329799392 -182.27303816615085 0 -182.27303816615085 62.092831143339026 0 0 0 0 34.071653575934761 43.050007394248354 0 43.050007394248354 -1.9219362909401525 0 0 0 0 -73.109002334305842 -134.93325542026781 0 -134.93325542026781 108.4199706574333 0 0 0 0 512.72095002100468 122.04619650716222 0 122.04619650716222 -48.233064363021185 0 0 0 0 1.2513337203377688 -1.3617922642322213 0 -1.3617922642322213 2.4634422710806083 0 0 0 0 186.1563743689112 -203.61623795868479 0 -203.61623795868479 283.18331328340503 0 0 0 0 -44.73616601874528 -44.965721025200594 0 -44.965721025200594 90.780157027793166 0 0 0 0 81.136927368104807 -3.6125921500706681 0 -3.6125921500706681 -22.470993158741521 0 0 0 0 62.274000152603548 96.016558217871989 0 96.016558217871989 14.79709369885768 0 0 0 0 -82.471161471832602 -32.369884908578797 0 -32.369884908578797 100.62111659076822 0 0 0 0 106.99224707716712 16.645799111652195 0 16.645799111652195 11.287841607303562 0 0 0 0 12.929480286348912 -17.038791501039981 0 -17.038791501039981 5.2346501907817391 0 0 0 0 102.79648426502899 5.9481852598166824 0 5.9481852598166824 4.1760262533280184 0 0 0 0 30.41209083536161 -14.112638330250917 0 -14.112638330250917 3.7957586153963945 0 0 0 0 79.401681932649808 25.295965521141625 0 25.295965521141625 -58.981257357721006 0 0 0 0 59.679691530461774 -23.895089523489862 0 -23.895089523489862 -4.5661416357503519 0 0 0 0 31.679699645572306 -18.509888020537915 0 -18.509888020537915 15.087390663576222 0 0 0 0 31.286853496249378 -12.076507912932556 0 -12.076507912932556 7.315311005068466 0 0 0 0 145.41054186800829 12.987720621275002 0 12.987720621275002 16.89348151384911 0 0 0 0 142.03136871862807 -3.3475881874724109 0 -3.3475881874724109 11.969108143309597 0 0 0 0 114.40210058352022 -42.064801217843524 0 -42.064801217843524 -94.340828176633863 0 0 0 0 595.10125079468708 203.38961402394852 0 203.38961402394852 2.5222798790309753 0 0 0 0 76.56843576780193 -129.38531827057068 0 -129.38531827057068 -88.744404733439865 0 0 0 0 112.99096420723254 -39.919329076014492 0 -39.919329076014492 -2.8100997035453474 0 0 0 0 36.891449589696549 -60.909430260962381 0 -60.909430260962381 -19.11841279231885 0 0 0 0 214.00912771514595 -29.767100989514347 0 -29.767100989514347 -57.575702027082571 0 0 0 0 34.794580465764739 -80.049134903665617 0 -80.049134903665617 -64.585932220579707 0 0 0 0 18.390567570851999 -50.309815199181685 0 -50.309815199181685 -58.667215058337661 0 0 0 0 68.1200632274697 -30.245897294994016 0 -30.245897294994016 3.7004433552489155 0 0 0 0 41.974585658059581 -79.96581761885102 0 -79.96581761885102 11.066206491040028 0 0 0 0 201.57729552639648 -0.16904291044829733 0 -0.16904291044829733 -75.614053847828472 0 0 0 0 79.103797204284803 3.4475637996453123 0 3.4475637996453123 -0.58718586635444847 0 0 0 0 78.127919481271462 -25.895783418246769 0 -25.895783418246769 -1.7791264183736022 0 0 0 0 -121.84437989358412 -88.548738276290351 0 -88.548738276290351 142.7044923124904 0 0 0 0 125.23571193928365 -0.77841507429457124 0 -0.77841507429457124 -4.8152805746362901 0 0 0 0 82.896031206124462 -206.90032488040333 0 -206.90032488040333 60.315857009717718 0 0 0 0 11.100761945119231 5.7348609679529119 0 5.7348609679529119 -3.0004646815051661 0 0 0 0 139.01309680371924 72.533591023810459 0 72.533591023810459 -15.172258710791084 0 0 0 0 7.0415405501289161 34.693074563293592 0 34.693074563293592 -13.976319617632294 0 0 0 0 142.20391687733354 6.6187325997998414 0 6.6187325997998414 -9.7468272517031096 0 0 0 0 380.51555931239113 -16.377278810531379 0 -16.377278810531379 -49.237254740526623 0 0 0 0 220.73225794207428 17.656438659045307 0 17.656438659045307 12.157109433108985 0 0 0 0 256.18180475960071 -51.207009778377142 0 -51.207009778377142 -63.326521537598637 0 0 0 0 47.754094989693762 27.645616710754446 0 27.645616710754446 -25.903898075785261 0 0 0 0 85.860811215202517 -25.091052572725495 0 -25.091052572725495 0.75241487247057215 0 0 0 0 344.93608961300288 -59.478198267591324 0 -59.478198267591324 -65.252504276435502 0 0 0 0 215.10015953877155 -35.974893517975943 0 -35.974893517975943 -44.873122994245932 0 0 0 0 288.0341250031106 -83.210747242430443 0 -83.210747242430443 -48.470539557581787 0 0 0 0 266.94239025798197 -86.185327651631269 0 -86.185327651631269 -6.2042931047606089 0 0 0 0 147.07930420268895 -2.3416693177509842 0 -2.3416693177509842 -15.989231997167394 0 0 0 0 135.00669791927794 2.5755293698834976 0 2.5755293698834976 -11.100061002616698 0 0 0 0 178.12329192895413 -101.44371524274345 0 -101.44371524274345 -114.86285993732054 0 0 0 0 92.534310788136963 -16.235524258796808 0 -16.235524258796808 -10.207047193651094 0 0 0 0 120.38423614335989 -7.3146369797927946 0 -7.3146369797927946 -10.28355094591825 0 0 0 0 663.50646494433749 -40.53895645614557 0 -40.53895645614557 -314.51921572402898 0 0 0 0 24.965865617403978 11.88818180035004 0 11.88818180035004 0.61287712544165629 0 0 0 0 126.07490577151839 -3.23036287707464 0 -3.23036287707464 -10.951530467063776 0 0 0 0 110.88414918014587 -1.4156624529139492 0 -1.4156624529139492 -3.7162949449066218 0 0 0 0 129.56665982854975 3.7899402549120396 0 3.7899402549120396 -6.2669802616983361 0 0 0 0 91.108994555142999 24.313303428723827 0 24.313303428723827 -209.78906467676916 0 0 0 0 37.463280252007536 1.2744241512034051 0 1.2744241512034051 -1.9182350242826045 0 0 0 0 98.534787497657817 -107.13643069059208 0 -107.13643069059208 -73.3910154037967 0 0 0 0 232.38408483796593 89.961164798862228 0 89.961164798862228 51.110892324606539 0 0 0 0 136.15395115506544 -46.208996308630958 0 -46.208996308630958 -3.9545883979994869 0 0 0 0 169.33676776970754 -52.279191920791312 0 -52.279191920791312 -12.124806198663265 0 0 0 0 108.14963573824207 -86.684319628247522 0 -86.684319628247522 -56.112762712274161 0 0 0 0 146.34776784131827 -71.381575498890697 0 -71.381575498890697 -212.84264222717047 0 0 0 0 157.66037725689239 -24.772840021091156 0 -24.772840021091156 -62.088140709001891 0 0 0 0 176.02139599446309 -37.586917014102937 0 -37.586917014102937 -90.458234503703352 0 0 0 0 155.58403575482953 -20.948659535699335 0 -20.948659535699335 -65.947198996851967 0 0 0 0 74.96468162999372 29.404980202123625 0 29.404980202123625 -134.82982878164967 0 0 0 0 118.37542253588617 -74.134646031121747 0 -74.134646031121747 -80.308161213225503 0 0 0 0 365.88402347697411 -97.595779298089838 0 -97.595779298089838 -199.85717316613318 0 0 0 0 263.70650468939857 -47.547950030844731 0 -47.547950030844731 -106.84066617918734 0 0 0 0 155.60655811033212 -11.235714585403912 0 -11.235714585403912 -118.48984652440367 0 0 0 0 394.3715172814118 13.018655237167309 0 13.018655237167309 -290.37341591120821 0 0 0 0 46.508214435154514 588.8378269680079 0 588.8378269680079 98.971543576792101 0 0 0 0 549.58001367456745 -53.8885794276257 0 -53.8885794276257 -263.36599938016752 0 0 0 0 437.89410503042745 -134.82618151876477 0 -134.82618151876477 -183.39260953150097 0 0 0 0 162.96748945934814 11.423647634682084 0 11.423647634682084 -25.566025024102373 0 0 0 0 20.146007551163564 2.7384251247415392 0 2.7384251247415392 -6.6692370530525125 0 0 0 0 143.30845060516731 -9.6419476539201696 0 -9.6419476539201696 -36.626711991383218 0 0 0 0 51.120635109837167 -46.518250105668812 0 -46.518250105668812 -93.979348638669762 0 0 0 0 105.77937285842199 -21.581964659416144 0 -21.581964659416144 -15.509065335367268 0 0 0 0 120.51481188694015 -45.98800842509354 0 -45.98800842509354 -24.313822484334878 0 0 0 0 169.49907677728788 33.328390309881613 0 33.328390309881613 -11.944717561618745 0 0 0 0 165.70795296393044 0.65823898799840208 0 0.65823898799840208 -129.59058579015573 0 0 0 0 155.16571738972561 12.967518455936784 0 12.967518455936784 -105.81496227164189 0 0 0 0 -0.69800309829841467 0.7717292896666379 0 0.7717292896666379 -1.5642347734615694 0 0 0 0 205.14914533219417 94.470117758251945 0 94.470117758251945 -93.343785998210933 0 0 0 0 -221.74392738476308 -232.35321431466832 0 -232.35321431466832 -53.7995544466512 0 0 0 0 45.790655643271748 -47.755771805613676 0 -47.755771805613676 -93.491655354352361 0 0 0 0 106.05683224488166 -256.51000948324372 0 -256.51000948324372 -150.30488642682758 0 0 0 0 126.29946220426925 -1.5321457749506671 0 -1.5321457749506671 -2.7846888558482323 0 0 0 0 -148.36951635484002 39.532961768728455 0 39.532961768728455 25.236468427443469 0 0 0 0 134.28173132784286 -63.619012670778375 0 -63.619012670778375 -140.5537689777957 0 0 0 0 261.12911376098054 -28.000136457202871 0 -28.000136457202871 -90.265754622164195 0 0 0 0 257.66109890303051 36.576641194044441 0 36.576641194044441 -193.21936809752287 0 0 0 0 107.30513711799722 -56.428061574503317 0 -56.428061574503317 -14.559049026943285 0 0 0 0 109.47087977624324 -13.477229721948788 0 -13.477229721948788 -41.130507886515716 0 0 0 0 349.82151356629765 -11.723929945441569 0 -11.723929945441569 -94.196666984908461 0 0 0 0 31.66478644147859 -0.50221586071840818 0 -0.50221586071840818 -0.64930006449900546 0 0 0 0 106.54877893897356 33.059897344019532 0 33.059897344019532 -68.904811199836331 0 0 0 0 148.21925161912804 62.835200104828346 0 62.835200104828346 -102.26364867973962 0 0 0 0 131.69787453920094 -7.7114989935252387 0 -7.7114989935252387 -4.2596614557260306 0 0 0 0 184.1576306282368 -46.647076714948071 0 -46.647076714948071 -44.885544504297286 0 0 0 0 131.61254364984052 -4.895016204982312 0 -4.895016204982312 -12.657587330316801 0 0 0 0 150.0963590243482 -69.499944168936963 0 -69.499944168936963 -85.790693296385371 0 0 0 0 172.61902276592446 -11.066653937521551 0 -11.066653937521551 -42.217628274377603 0 0 0 0 106.56159532516904 -51.352777195750605 0 -51.352777195750605 2.2602127567579373 0 0 0 0 156.14325246974477 -71.805982844286518 0 -71.805982844286518 -14.74731590090596 0 0 0 0 275.42144139687298 -29.944954134381987 0 -29.944954134381987 -0.41095643169319374 0 0 0 0 72.223790688192821 -2.7872424265497102 0 -2.7872424265497102 -4.0836694664485549 0 0 0 0 37.297463590484114 -31.465155338985824 0 -31.465155338985824 -7.1732525782798326 0 0 0 0 83.29960283805849 -89.511226258203351 0 -89.511226258203351 23.047825073812419 0 0 0 0 -7.815955591630086 -2.5837866365005198 0 -2.5837866365005198 4.3867681822347429 0 0 0 0 47.009461437599384 -16.714981399864428 0 -16.714981399864428 -6.7199631506700825 0 0 0 0 40.758722388611204 -18.567196615419235 0 -18.567196615419235 -8.813546332206684 0 0 0 0 8.6987048967646672 -2.3171093401161045 0 -2.3171093401161045 -3.3261143816587442 0 0 0 0 193.51202196409577 -54.764331046443658 0 -54.764331046443658 -9.3493132958692513 0 0 0 0 156.9335712287866 -66.792726607321129 0 -66.792726607321129 -6.6207024581503902 0 0 0 0 160.2892058130692 -45.847176904915102 0 -45.847176904915102 -2.2549079524214903 0 0 0 0 158.74251658433786 -39.434960188316381 0 -39.434960188316381 12.980301016370504 0 0 0 0 144.25336646381038 -38.527190788323651 0 -38.527190788323651 21.039518506894638 0 0 0 0 -0.47139929186005247 -0.8502711874374711 0 -0.8502711874374711 -2.2350871771282748 0 0 0 0 152.82361088141624 -45.830617253929177 0 -45.830617253929177 13.1896953319484 0 0 0 0 55.995382589535438 -7.9222011763977207 0 -7.9222011763977207 -15.97000498458965 0 0 0 0 43.129881949484115 -5.846538491242427 0 -5.846538491242427 -5.9984397201253614 0 0 0 0 118.57385487048305 -61.10622157573016 0 -61.10622157573016 2.4803457092934877 0 0 0 0 143.39090991758712 -57.671982661557195 0 -57.671982661557195 1.5697853746733017 0 0 0 0 124.0354811950674 -49.123844487489578 0 -49.123844487489578 19.828032000038547 0 0 0 0 126.10773528562277 -32.101532104257359 0 -32.101532104257359 29.889982845485065 0 0 0 0 137.46908135760168 -32.481432372824202 0 -32.481432372824202 26.742414553679737 0 0 0 0 153.63277525964077 17.428627651697752 0 17.428627651697752 74.853876106676807 0 0 0 0 178.17626943682308 63.881922991327812 0 63.881922991327812 106.39745821572842 0 0 0 0 134.37644916426143 -2.1745596745302578 0 -2.1745596745302578 -6.222586660237539 0 0 0 0 169.22256337247381 -44.10463316684536 0 -44.10463316684536 36.585836134738656 0 0 0 0 100.21715759515064 -42.950375932700808 0 -42.950375932700808 -19.854033281818602 0 0 0 0 121.86360393519476 -0.66403254708513515 0 -0.66403254708513515 -3.4184212715086932 0 0 0 0 170.13045563433116 -35.043929243472348 0 -35.043929243472348 -168.12482247590287 0 0 0 0 107.90514352468017 35.932347479250438 0 35.932347479250438 -25.922955803463083 0 0 0 0 179.58924314079923 7.1684211019746726 0 7.1684211019746726 -169.87216004158734 0 0 0 0 107.80379492408611 15.082238584100878 0 15.082238584100878 -18.0217338829043 0 0 0 0 160.99779428819602 80.050870745135853 0 80.050870745135853 -23.466741348400319 0 0 0 0 62.636138955655042 161.49521206545296 0 161.49521206545296 193.97067335514203 0 0 0 0 246.20470791048137 150.71622802529828 0 150.71622802529828 31.281711149115836 0 0 0 0 5.909017354460957 54.877775562852321 0 54.877775562852321 95.030074608848736 0 0 0 0 235.30224828700011 -34.809640364491315 0 -34.809640364491315 1.4913266903377007 0 0 0 0 301.71519016384264 142.16672094522517 0 142.16672094522517 65.380873608133697 0 0 0 0 359.96392853248108 75.850945273590696 0 75.850945273590696 71.93755848869182 0 0 0 0 -0.39264218898017589 0.15829665695287076 0 0.15829665695287076 2.6641978014573766 0 0 0 0 -103.67874726753507 52.940439557537047 0 52.940439557537047 140.71220866426575 0 0 0 0 2.2011159818212036 -5.2093111087142461 0 -5.2093111087142461 7.447766978690197 0 0 0 0 -41.47291578790464 296.41019813342973 0 296.41019813342973 99.800714831603727 0 0 0 0 -4.9524651986175741 3.1650641115518852 0 3.1650641115518852 5.6180491822562999 0 0 0 0 -0.52077484809345265 1.5869517101377681 0 1.5869517101377681 3.2790842929935069 0 0 0 0 180.5047908823035 -191.05332770296445 0 -191.05332770296445 -38.517041112765128 0 0 0 0 260.66396165704646 -55.624883643893554 0 -55.624883643893554 -69.988962019506857 0 0 0 0 231.62035080493661 -79.181763344460023 0 -79.181763344460023 174.85561158471137 0 0 0 0 420.33052481719642 23.225931088795278 0 23.225931088795278 -49.879341920216007 0 0 0 0 0.43875357519172553 0.8812706120940561 0 0.8812706120940561 1.4335702356134483 0 0 0 0 388.80993975109595 -51.98462996124772 0 -51.98462996124772 -181.14299421999908 0 0 0 0 214.15174621349433 69.884751490688359 0 69.884751490688359 127.6852871408737 0 0 0 0 368.09460077562835 119.42145678694885 0 119.42145678694885 39.605568496640444 0 0 0 0 217.32645928614602 25.592080665664653 0 25.592080665664653 42.085325433505204 0 0 0 0 193.50491217897797 37.482162061344297 0 37.482162061344297 57.575457314328105 0 0 0 0 229.7936496437469 49.54161760742636 0 49.54161760742636 12.903625725703478 0 0 0 0 263.58444270519249 57.087978569398956 0 57.087978569398956 9.8760827311880348 0 0 0 0 225.05832323939831 35.919144594980708 0 35.919144594980708 -24.451792303852017 0 0 0 0 260.49059372094052 46.442479888285106 0 46.442479888285106 -8.5834711898687601 0 0 0 0 297.25536443933379 16.039870922337968 0 16.039870922337968 15.414245262839813 0 0 0 0 233.23738522818167 56.419886332349733 0 56.419886332349733 49.861022357129514 0 0 0 0 246.35279143704247 70.935290709321976 0 70.935290709321976 -1.9385731390498222 0 0 0 0 236.66774789576448 66.870041380175167 0 66.870041380175167 -11.076200143212645 0 0 0 0 241.58511984779034 74.830156286071315 0 74.830156286071315 1.6119387522667239 0 0 0 0 244.07069336689392 85.666899631658026 0 85.666899631658026 -26.40503908554183 0 0 0 0 269.1158723217377 97.378632490018163 0 97.378632490018163 -20.935620080998888 0 0 0 0 244.02146624653506 85.815990128886114 0 85.815990128886114 7.7405328616346196 0 0 0 0 221.72882993950043 100.41516839489441 0 100.41516839489441 -1.7723726041215286 0 0 0 0 226.70374121038185 86.729770837514707 0 86.729770837514707 1.3298658091785001 0 0 0 0 200.44996030944458 74.00464747541514 0 74.00464747541514 22.007753366252551 0 0 0 0 225.80007269103953 47.295063393507235 0 47.295063393507235 -12.861063870691396 0 0 0 0 170.44520956688939 -18.679371374790094 0 -18.679371374790094 -11.352080362411925 0 0 0 0 265.91794473597838 26.671175662260794 0 26.671175662260794 10.003536716134931 0 0 0 0 -97.978116257640067 -88.746270478551196 0 -88.746270478551196 45.958618860763011 0 0 0 0 0.18520955299851494 0.80326792093109134 0 0.80326792093109134 3.8436873137175427 0 0 0 0 11.789901751151774 -78.543024959589047 0 -78.543024959589047 -15.389220656565158 0 0 0 0 236.76032298165956 61.186703877312084 0 61.186703877312084 21.620320910419004 0 0 0 0 224.23676989761589 76.738218889718837 0 76.738218889718837 123.78031977078808 0 0 0 0 77.690226108155912 -23.557599991091593 0 -23.557599991091593 -45.905159845999549 0 0 0 0 76.900620408210671 2.6180914589549502 0 2.6180914589549502 -109.96258030798685 0 0 0 0 50.066709888051264 2.8547851237672148 0 2.8547851237672148 -55.178877613283476 0 0 0 0 38.971371973086207 7.5419376480247138 0 7.5419376480247138 -10.634804626118239 0 0 0 0 129.61153653051588 -48.80555994346139 0 -48.80555994346139 -8.5877309109955604 0 0 0 0 13.78970895371458 39.953879495989668 0 39.953879495989668 -52.181995487996574 0 0 0 0 -0.10805797485683399 -0.69228034961608387 0 -0.69228034961608387 -0.64921105154481573 0 0 0 0 167.83032566212205 -3.0512517453464625 0 -3.0512517453464625 -0.26083064368322084 0 0 0 0 159.94250150844164 -32.040526566406243 0 -32.040526566406243 -100.87715669486136 0 0 0 0 135.13000054114673 -27.159225514108584 0 -27.159225514108584 11.365323821236871 0 0 0 0 141.62685386964586 -35.491426136246901 0 -35.491426136246901 -6.6481933994546125 0 0 0 0 181.24154592307968 2.3711093209728347 0 2.3711093209728347 0.025072554419239168 0 0 0 0 157.22337943867024 -8.6810389102556655 0 -8.6810389102556655 38.859336197559287 0 0 0 0 200.59170866585919 30.222133467671483 0 30.222133467671483 14.383588715478254 0 0 0 0 187.04744888776622 -0.060414470275190979 0 -0.060414470275190979 -48.081357596754515 0 0 0 0 227.18930080221617 40.165561186642663 0 40.165561186642663 -43.674623360378064 0 0 0 0 238.52561841333227 66.728954147849208 0 66.728954147849208 -16.61399523784587 0 0 0 0 196.80711460919701 50.160416441796315 0 50.160416441796315 -28.548154217648744 0 0 0 0 207.3623156202957 45.915336530781587 0 45.915336530781587 -27.89642994558244 0 0 0 0 282.05727937529446 47.988441483029192 0 47.988441483029192 -36.879169960867443 0 0 0 0 135.55132866075292 -4.746750480474816 0 -4.746750480474816 -19.005563153874846 0 0 0 0 212.59613268143221 37.5408766826734 0 37.5408766826734 -45.383230368083787 0 0 0 0 125.59799349102832 56.180735974681966 0 56.180735974681966 -74.303598468824703 0 0 0 0 169.9202956110239 13.467147117487002 0 13.467147117487002 -44.629360208982234 0 0 0 0 57.610238458553795 -30.842231150715861 0 -30.842231150715861 -33.572341408230841 0 0 0 0 137.72726914224404 -5.7149691674536029 0 -5.7149691674536029 -27.430162976501379 0 0 0 0 78.656397857732372 -43.859172103324454 0 -43.859172103324454 9.2791221736661953 0 0 0 0 80.518009793893725 -42.763343451778269 0 -42.763343451778269 -18.708649682563646 0 0 0 0 110.41575502032356 -47.995859265245258 0 -47.995859265245258 36.841005949322195 0 0 0 0 71.274789792885713 -71.763122067135797 0 -71.763122067135797 48.5616446231179 0 0 0 0 145.50766498217126 -37.729999992076841 0 -37.729999992076841 8.9956633147639202 0 0 0 0 155.94592432318314 -60.078160947643426 0 -60.078160947643426 11.320801658221399 0 0 0 0 280.90932357047859 -52.201419320960781 0 -52.201419320960781 10.428349757744627 0 0 0 0 112.45435376734531 -100.56394291326336 0 -100.56394291326336 72.202672534392775 0 0 0 0 284.65600164615898 -56.046898533903004 0 -56.046898533903004 2.611328640986585 0 0 0 0 419.40989484096644 15.276248716775513 0 15.276248716775513 -39.275538595899349 0 0 0 0 248.99615887350228 -5.6299271625603069 0 -5.6299271625603069 -21.369378443680063 0 0 0 0 230.90264453865166 33.464177294588353 0 33.464177294588353 -26.659081320527093 0 0 0 0 344.95722298530745 11.782147823071568 0 11.782147823071568 -37.985798106097263 0 0 0 0 260.96218766429956 86.270023041312697 0 86.270023041312697 -31.613920054404389 0 0 0 0 299.15152687074442 89.187937100407225 0 89.187937100407225 -22.727268723976749 0 0 0 0 381.22797525745409 76.599682394577655 0 76.599682394577655 -15.28932480869662 0 0 0 0 389.06189568893751 78.720463494574346 0 78.720463494574346 -21.724127311108987 0 0 0 0 512.43451544109848 77.490648213700752 0 77.490648213700752 -16.525685889364112 0 0 0 0 559.39907987753395 119.14028619399878 0 119.14028619399878 19.670772251276276 0 0 0 0 667.97610055824771 347.78025476219995 0 347.78025476219995 145.32936083775866 0 0 0 0 595.80504388124245 91.54947167142258 0 91.54947167142258 40.490555885435015 0 0 0 0 988.35963313990214 265.5489990254905 0 265.5489990254905 0.14638866955007557 0 0 0 0 1038.1531872235064 225.41517565676949 0 225.41517565676949 80.907236493132416 0 0 0 0 782.98975503307884 -144.42321273288437 0 -144.42321273288437 101.09798935024335 0 0 0 0 372.64805735343543 -71.672903269260388 0 -71.672903269260388 213.20495606131504 0 0 0 0 526.22565649850003 -137.25085254171441 0 -137.25085254171441 186.19535948285954 0 0 0 0 551.54921703680884 -10.638765134616193 0 -10.638765134616193 77.338100246356532 0 0 0 0 425.86629224318312 -17.26851282740202 0 -17.26851282740202 8.5387298065331194 0 0 0 0 506.19950927223908 -82.71110640013373 0 -82.71110640013373 52.756738334167835 0 0 0 0 292.80851581427851 -162.12331095172624 0 -162.12331095172624 54.079930010997373 0 0 0 0 370.817310276434 -55.870440042614831 0 -55.870440042614831 79.958128642674751 0 0 0 0 -1.1515366918320069 -3.7865129002237174 0 -3.7865129002237174 0.0036563164415195286 0 0 0 0 0.28223599222778262 -0.33248931643416313 0 -0.33248931643416313 -0.47427115011427301 0 0 0 0 2.8364071621472249 -9.0898004976579898 0 -9.0898004976579898 5.2670873833791498 0 0 0 0 -0.25732086978570123 -1.1357665110479047 0 -1.1357665110479047 -2.0003636561595468 0 0 0 0 -10.355853236669645 4.2727787135209132 0 4.2727787135209132 3.1406255433540853 0 0 0 0 133.90747685657698 66.620715903054588 0 66.620715903054588 17.213413330360481 0 0 0 0 87.209423682797933 67.0890176186644 0 67.0890176186644 51.00075859562503 0 0 0 0 83.332405452034436 28.4961389570527 0 28.4961389570527 22.881657513452637 0 0 0 0 54.65948953590123 -1.0373905011516911 0 -1.0373905011516911 11.631037219435711 0 0 0 0 17.720051131560467 16.874920865330921 0 16.874920865330921 38.59403140672697 0 0 0 0 67.063789266409003 33.614203719892885 0 33.614203719892885 33.177810056336284 0 0 0 0 85.399121494876454 -35.650287053646252 0 -35.650287053646252 10.706774563033377 0 0 0 0 23.649478238599841 15.227700758668419 0 15.227700758668419 30.62068720709658 0 0 0 0 125.05363385821693 34.271783824345221 0 34.271783824345221 10.23956299552583 0 0 0 0 132.73897897328425 30.931519971813941 0 30.931519971813941 4.0336495083847694 0 0 0 0 151.62342318890296 82.062441655148831 0 82.062441655148831 26.675153941942881 0 0 0 0 182.51652921448112 75.527410410792754 0 75.527410410792754 0.13145782618349244 0 0 0 0 236.37089439120609 101.97975171177427 0 101.97975171177427 -3.4389896401132773 0 0 0 0 200.74129889576579 107.00763124288164 0 107.00763124288164 8.1099627909726451 0 0 0 0 205.85303014784586 111.65391655319786 0 111.65391655319786 10.549471599321805 0 0 0 0 242.13330576281442 110.9587665723497 0 110.9587665723497 -13.395690669284704 0 0 0 0 267.1889844739926 118.32616847499276 0 118.32616847499276 -11.285045241072453 0 0 0 0 314.16610800728085 98.645294079814107 0 98.645294079814107 -31.490480488068563 0 0 0 0 280.19145966882934 134.74760585068816 0 134.74760585068816 -1.0650662258899501 0 0 0 0 273.37636121059768 128.44855166165655 0 128.44855166165655 1.5716600474885922 0 0 0 0 268.6212381568912 153.78961647276589 0 153.78961647276589 22.528092466920953 0 0 0 0 345.66100244005065 173.43045914046243 0 173.43045914046243 11.907402120948291 0 0 0 0 148.84896458734511 116.59076502102562 0 116.59076502102562 49.135361053238285 0 0 0 0 216.22769558249274 136.09687659486735 0 136.09687659486735 16.962196618191683 0 0 0 0 164.07915401278296 151.58569967098458 0 151.58569967098458 74.376252215450791 0 0 0 0 166.24089927098248 109.86506228287993 0 109.86506228287993 38.541475107681435 0 0 0 0 71.643350691163505 66.321794868163536 0 66.321794868163536 57.231787352178344 0 0 0 0 81.952464464033255 104.88752744499737 0 104.88752744499737 83.115253712153105 0 0 0 0 108.65728719009348 150.01900185450739 0 150.01900185450739 166.64455643981614 0 0 0 0 6.2432943102903664 12.920636495159329 0 12.920636495159329 121.04676554371912 0 0 0 0 363.63929478928912 159.77688816935824 0 159.77688816935824 15.820532724220243 0 0 0 0 447.59883804946003 221.82321079395987 0 221.82321079395987 53.492182732175252 0 0 0 0 232.46548005734803 224.2196434098004 0 224.2196434098004 115.8387337663595 0 0 0 0 197.67551370407455 149.63714586744297 0 149.63714586744297 68.195571053262768 0 0 0 0 375.32114621787332 202.69521145600413 0 202.69521145600413 76.955099701591763 0 0 0 0 377.55937387078302 277.56739686601998 0 277.56739686601998 134.06331999609384 0 0 0 0 -87.582308652461506 4.1265810396767622 0 4.1265810396767622 -0.19423132872725057 0 0 0 0 209.69807645502442 290.12560834808306 0 290.12560834808306 392.01678445518593 0 0 0 0 509.63958197116153 7.4729747430095106 0 7.4729747430095106 -137.59379256428386 0 0 0 0 506.42931888961903 456.53086847655982 0 456.53086847655982 462.48242983373791 0 0 0 0 4.775820727658413 0.7488441298710633 0 0.7488441298710633 -0.068164921653217247 0 0 0 0 36.744426087534521 164.83664965923327 0 164.83664965923327 307.05316174547158 0 0 0 0 11.773752026699356 0.36159579742224324 0 0.36159579742224324 -0.36092905597578828 0 0 0 0 -34.460193096674629 22.828608889949262 0 22.828608889949262 -7.6706892813784462 0 0 0 0 76.703361845080508 18.995420387660332 0 18.995420387660332 2.8567963772657095 0 0 0 0 19.195545563066844 -4.1622523897938279 0 -4.1622523897938279 0.020061186252147978 0 0 0 0 46.23506379040191 71.161241068641459 0 71.161241068641459 64.065537420184 0 0 0 0 70.40605516936921 41.835201702602802 0 41.835201702602802 37.331854784501388 0 0 0 0 -11.819600986709702 -3.5947521368785402 0 -3.5947521368785402 36.329803478025894 0 0 0 0 73.384603063808754 41.309068812732676 0 41.309068812732676 36.413836413212721 0 0 0 0 45.226707296053064 -6.3744918574320124 0 -6.3744918574320124 -23.491829574376979 0 0 0 0 2.2159996004338609 -3.4923633461057193 0 -3.4923633461057193 12.526846532369234 0 0 0 0 40.718102390710555 -4.584485869664249 0 -4.584485869664249 11.724742151739292 0 0 0 0 16.152210472637591 -0.81695110125054171 0 -0.81695110125054171 -0.4652857029280405 0 0 0 0 18.216930485476041 -4.8698993715759533 0 -4.8698993715759533 -0.40308345140433577 0 0 0 0 17.743523017910775 -4.7081287630868243 0 -4.7081287630868243 0.018306402527792753 0 0 0 0 48.392639593075728 10.627527198581596 0 10.627527198581596 -4.3129573937155543 0 0 0 0 5.1363327798370904 1.9377263598125865 0 1.9377263598125865 0.69559772251339957 0 0 0 0 23.626613497675862 6.4240330422235239 0 6.4240330422235239 0.0078694568338356884 0 0 0 0 50.414571592977154 -7.9986420494881916 0 -7.9986420494881916 -11.483784763370112 0 0 0 0 5.4272096953211815 -0.61412625554456213 0 -0.61412625554456213 -0.60588771813392883 0 0 0 0 -3.1379543162183836 22.748545146969946 0 22.748545146969946 11.457534531204089 0 0 0 0 7.8328475600098955 3.933957817377717 0 3.933957817377717 -3.543289055696631 0 0 0 0 9.2189308110173442 -3.2758940277691346 0 -3.2758940277691346 1.2411883731179392 0 0 0 0 19.743617582714819 7.3275984052018259 0 7.3275984052018259 1.1277042126520893 0 0 0 0 29.368187784238131 7.9217114366869907 0 7.9217114366869907 1.4975116231997587 0 0 0 0 28.242719153136534 7.6067499264287335 0 7.6067499264287335 -0.35724242019220998 0 0 0 0 9.941185682779178 5.66736717490312 0 5.66736717490312 -2.3869944666180345 0 0 0 0 27.690397914033383 2.8553836023062757 0 2.8553836023062757 -2.453376118767693 0 0 0 0 20.473176244212482 0.09531558517773675 0 0.09531558517773675 2.2167240295043324 0 0 0 0 6.7840333196218126 -5.1285125182224647 0 -5.1285125182224647 12.553655152171586 0 0 0 0 15.658418931241613 -12.502238779412721 0 -12.502238779412721 2.3688455804552575 0 0 0 0 7.4398466298735002 -7.9361589239630348 0 -7.9361589239630348 24.0896769783227 0 0 0 0 6.8243211062814453 5.6386209015093129 0 5.6386209015093129 13.312542195075928 0 0 0 0 73.178738491231343 28.876328801578666 0 28.876328801578666 -36.158013381166484 0 0 0 0 26.530363835641765 38.364812499065238 0 38.364812499065238 -31.13801918185618 0 0 0 0 19.560449833908933 8.3635098325075887 0 8.3635098325075887 -2.0709783271980484 0 0 0 0 87.821974332298851 108.40213499937924 0 108.40213499937924 132.67436849651756 0 0 0 0 -76.376888583734399 60.986939331905134 0 60.986939331905134 55.657546034264556 0 0 0 0 -75.517997654606006 74.135450233985154 0 74.135450233985154 131.49798613586415 0 0 0 0 0.60533461403346678 3.5725201441333638 0 3.5725201441333638 9.7437928813185906 0 0 0 0 80.773033811696223 27.375220689028083 0 27.375220689028083 15.038989231757114 0 0 0 0 82.226887927157804 22.605828819857834 0 22.605828819857834 2.9737583551307125 0 0 0 0 0.99045613396253884 -0.79254291118181186 0 -0.79254291118181186 -3.0931389378905187 0 0 0 0 -4.2137937483639689 -61.897871481256061 0 -61.897871481256061 -16.774234288976686 0 0 0 0 203.7393538049655 -44.646422589034898 0 -44.646422589034898 -59.866367216254844 0 0 0 0 37.945790522047901 20.297323986072115 0 20.297323986072115 6.0282767730477644 0 0 0 0 49.109495857817819 -4.6956741822065142 0 -4.6956741822065142 -17.069900444553507 0 0 0 0 55.832432113325922 13.898111891350311 0 13.898111891350311 -14.655452017523885 0 0 0 0 36.229315964636896 2.0826284433592583 0 2.0826284433592583 -1.9673958723024585 0 0 0 0 44.942248379349621 0.69188020534217909 0 0.69188020534217909 0.012252676421993746 0 0 0 0 36.454638560113381 -7.9486268440111703 0 -7.9486268440111703 -7.3653897293003485 0 0 0 0 36.946654059542198 -6.19790802788419 0 -6.19790802788419 -24.632545947276583 0 0 0 0 37.109806164808106 -20.172885947498138 0 -20.172885947498138 -0.094566116955034557 0 0 0 0 33.58022268305649 -36.275868737014477 0 -36.275868737014477 -46.09864346761281 0 0 0 0 30.34699892012577 -43.289608222505962 0 -43.289608222505962 0.25467723502563988 0 0 0 0 54.970658058256959 9.3397586310719554 0 9.3397586310719554 -61.207742703920928 0 0 0 0 29.490255154560145 -45.156527285063717 0 -45.156527285063717 -65.704354239214894 0 0 0 0 15.338761045844976 0.054135934066721347 0 0.054135934066721347 -2.4746008206369554 0 0 0 0 44.859857120885863 1.4152747528850576 0 1.4152747528850576 -18.540965902911495 0 0 0 0 42.851780118170211 1.3691134497503761 0 1.3691134497503761 -1.4739734134773224 0 0 0 0 -9.379082357394509 -6.4640035151592281 0 -6.4640035151592281 0.016033433665879369 0 0 0 0 1.0000026929443493 -0.0073183145917496972 0 -0.0073183145917496972 -0.032890664772629294 0 0 0 0 150.32901454085368 101.95741905260012 0 101.95741905260012 33.107670895151784 0 0 0 0 168.34641786893189 -8.7357244098515849 0 -8.7357244098515849 -71.155016245444813 0 0 0 0 101.83017932432995 -24.633346483962697 0 -24.633346483962697 -63.931318639199674 0 0 0 0 53.925667753730522 27.732169432145312 0 27.732169432145312 -19.564653951341427 0 0 0 0 37.924676093331072 24.145825608602166 0 24.145825608602166 -16.727149955055182 0 0 0 0 50.208759432789918 -0.540002970845606 0 -0.540002970845606 -1.980896094150804 0 0 0 0 48.437127776051057 28.298811456867185 0 28.298811456867185 -57.478281182988795 0 0 0 0 53.908145198147395 47.155034746437636 0 47.155034746437636 -17.59442801742189 0 0 0 0 60.045062047482133 -18.659990462827949 0 -18.659990462827949 -21.73391554922614 0 0 0 0 50.487082776424359 -8.1661589436965869 0 -8.1661589436965869 -5.4915184743256305 0 0 0 0 30.984276443406998 34.532975288564728 0 34.532975288564728 -23.69844839878283 0 0 0 0 10.321755775087908 -0.79143435080004565 0 -0.79143435080004565 -0.92977523701315068 0 0 0 0 -1.6281104275258258 22.08293299032502 0 22.08293299032502 -19.927227759559589 0 0 0 0 90.125367426959201 -20.638677436956371 0 -20.638677436956371 -2.3091560013833714 0 0 0 0 -1.0221175834255547 0.078647723785167045 0 0.078647723785167045 0.86978991048673293 0 0 0 0 -15.200527389461058 1.5926830318117027 0 1.5926830318117027 -37.839844921956654 0 0 0 0 -47.120551032938238 65.795714850546048 0 65.795714850546048 -11.190321361047495 0 0 0 0 86.737069141308893 -5.5948224451872193 0 -5.5948224451872193 21.175674117542485 0 0 0 0 10.540328559694899 -2.4488318938102012 0 -2.4488318938102012 51.783829255873798 0 0 0 0 42.845799097638519 58.812444551002329 0 58.812444551002329 2.407257991349411 0 0 0 0 -1.7976490521759843 29.121071720043716 0 29.121071720043716 18.263274140732165 0 0 0 0 19.952342240823782 -31.230713203492996 0 -31.230713203492996 93.277586907032855 0 0 0 0 29.955326634517405 0.93378978108671618 0 0.93378978108671618 48.378467919635568 0 0 0 0 -3.9415093816060107 -19.397829069501313 0 -19.397829069501313 38.065556924005477 0 0 0 0 -88.211988442206348 -2.4284393358564387 0 -2.4284393358564387 33.672000978675669 0 0 0 0 -18.643252794252476 35.539745004778979 0 35.539745004778979 41.801657724453776 0 0 0 0 -118.96376848952423 67.273969043728641 0 67.273969043728641 62.917540393411855 0 0 0 0 128.64318769822421 64.013294004756972 0 64.013294004756972 36.426308267553679 0 0 0 0 62.122535459886421 15.345601356669334 0 15.345601356669334 3.1137286826349566 0 0 0 0 23.601553172033164 -3.9925808390953534 0 -3.9925808390953534 140.1742013822585 0 0 0 0 25.704834331510938 -3.1575587332499708 0 -3.1575587332499708 45.289574238331511 0 0 0 0 65.739632411026832 37.183890179497467 0 37.183890179497467 233.25760278445159 0 0 0 0 87.651049061998492 -78.058674223894741 0 -78.058674223894741 120.66212914122343 0 0 0 0 30.108390626759501 -34.862750570127503 0 -34.862750570127503 108.59969220614835 0 0 0 0 8.7140896614291705 -31.209722421894639 0 -31.209722421894639 115.45295611405709 0 0 0 0 7.5540048468974419 -20.811178585190191 0 -20.811178585190191 97.046068124461272 0 0 0 0 13.781408016704518 -50.358731375402897 0 -50.358731375402897 126.59064111319367 0 0 0 0 15.645959088160453 -35.297522515384969 0 -35.297522515384969 84.544881397975587 0 0 0 0 17.059112977338373 -56.916052271685203 0 -56.916052271685203 1.718777535039635 0 0 0 0 19.757611866152729 -11.99113403107836 0 -11.99113403107836 24.4840773549804 0 0 0 0 33.151188645962975 -57.464608277176012 0 -57.464608277176012 88.802074527899777 0 0 0 0 -8.5149097998801153 -15.25267278534875 0 -15.25267278534875 40.461385636225259 0 0 0 0 106.78477920746082 27.846626247864947 0 27.846626247864947 -93.71845835290469 0 0 0 0 34.193085940426045 0.047664305374187421 0 0.047664305374187421 45.601517857850013 0 0 0 0 27.675445492583094 -2.7554103385709823 0 -2.7554103385709823 94.806934621954554 0 0 0 0 -6.4175870043894747 67.823603682060096 0 67.823603682060096 34.897648148359622 0 0 0 0 5.3654445252323058 18.024601914027926 0 18.024601914027926 97.188082151810704 0 0 0 0 -7.3230789240915328 -1.5134410950538495 0 -1.5134410950538495 67.513865527097778 0 0 0 0 16.725822212581988 -24.486172878662728 0 -24.486172878662728 90.013832415541401 0 0 0 0 42.031397382670548 -42.699301169780938 0 -42.699301169780938 86.32790862713955 0 0 0 0 83.918125426309416 -82.16541153513117 0 -82.16541153513117 123.04635366960974 0 0 0 0 12.809476941882167 -49.673604651174628 0 -49.673604651174628 202.61476666243607 0 0 0 0 76.003042114054551 1.9530130223813558 0 1.9530130223813558 86.064178071806509 0 0 0 0 29.715811986650806 3.4838120480499128 0 3.4838120480499128 113.58078793009327 0 0 0 0 2.8746127629856346 -38.593376198655278 0 -38.593376198655278 0.039181046264502584 0 0 0 0 101.61635443429259 -4.8426954098961232 0 -4.8426954098961232 -17.396564710544226 0 0 0 0 10.324879085578473 -0.70701629681460076 0 -0.70701629681460076 1.1977272524837517 0 0 0 0 48.588041121998685 -21.782504258628251 0 -21.782504258628251 78.278963290102865 0 0 0 0 11.091069726932957 0.40648191166226866 0 0.40648191166226866 -1.7451596792823221 0 0 0 0 54.683384459669469 -19.779079574178013 0 -19.779079574178013 -17.666427364057199 0 0 0 0 43.263293396681547 64.001705282120383 0 64.001705282120383 124.50525755906028 0 0 0 0 20.551431694744679 3.0303275286442499 0 3.0303275286442499 83.849439565353805 0 0 0 0 47.116726318490691 -15.413190242005157 0 -15.413190242005157 54.131568267856437 0 0 0 0 20.904729662608588 4.4070475218477441 0 4.4070475218477441 88.670553652720628 0 0 0 0 52.880260409103357 3.9881350237878905 0 3.9881350237878905 63.401371760320217 0 0 0 0 42.3493944585789 -44.859126397980162 0 -44.859126397980162 117.3743212995787 0 0 0 0 86.711932972044451 -16.306099791092322 0 -16.306099791092322 44.58275586402624 0 0 0 0 95.273323045315919 6.7825014563336481 0 6.7825014563336481 69.548838092113328 0 0 0 0 120.28298518646625 22.819895025796654 0 22.819895025796654 70.891619056301693 0 0 0 0 171.55954621073033 -3.9862291399103924 0 -3.9862291399103924 11.810904783290312 0 0 0 0 99.458291630682652 15.289820788029147 0 15.289820788029147 25.387593515705078 0 0 0 0 105.81701867705851 29.884608526139118 0 29.884608526139118 88.771830053042322 0 0 0 0 146.18637130723801 -57.193437856889886 0 -57.193437856889886 65.493585201761562 0 0 0 0 118.25126643636031 -62.93069967030624 0 -62.93069967030624 136.34208002230935 0 0 0 0 81.05742727642064 -7.0384077124936084 0 -7.0384077124936084 78.088546870989376 0 0 0 0 27.018241257741465 -26.066900672657994 0 -26.066900672657994 79.216973825639798 0 0 0 0 73.950999984997907 -25.020475307069319 0 -25.020475307069319 33.571657037115983 0 0 0 0 31.094536829026765 28.695640822397309 0 28.695640822397309 52.185846165536645 0 0 0 0 -6.7938162321515847 -4.6493997787561057 0 -4.6493997787561057 -66.971889509695302 0 0 0 0 -6.3898474371817429 -31.853394212616877 0 -31.853394212616877 20.412277643976495 0 0 0 0 30.458127268560929 20.386279249122708 0 20.386279249122708 -4.7750444309690465 0 0 0 0 -27.975889694294892 45.780137643374474 0 45.780137643374474 13.10745157804331 0 0 0 0 -18.532160699338419 64.67258852413579 0 64.67258852413579 -75.7400445490469 0 0 0 0 -90.806717860221397 96.677075628601983 0 96.677075628601983 -7.0283294471432782 0 0 0 0 0.88254238722245759 1.7548878841222688 0 1.7548878841222688 4.0641710904010449 0 0 0 0 -81.964390525419731 43.024232049494913 0 43.024232049494913 16.053480600187129 0 0 0 0 94.441724026597512 -0.72959311078011524 0 -0.72959311078011524 6.4961151114835047 0 0 0 0 13.06065891725666 9.7716722024796923 0 9.7716722024796923 -34.911715557392881 0 0 0 0 100.34725866380904 11.533549860049447 0 11.533549860049447 -29.992671566943045 0 0 0 0 21.781653715617722 37.689115753993519 0 37.689115753993519 13.590675517246837 0 0 0 0 50.483657949764165 40.020272748897128 0 40.020272748897128 -17.818047638384087 0 0 0 0 -23.630496583642525 75.174207543013608 0 75.174207543013608 -56.653094268645873 0 0 0 0 -1.2402857781999046 1.599556112297563 0 1.599556112297563 -11.504194301122425 0 0 0 0 64.135104507673532 -7.8312369837326514 0 -7.8312369837326514 -50.845566551096795 0 0 0 0 0.28318631058408528 2.6042195259767027 0 2.6042195259767027 4.3923571888120438 0 0 0 0 8.5201877144572791 10.63504678545587 0 10.63504678545587 -10.75854025070339 0 0 0 0 -0.27511522890404194 -0.14596588022115498 0 -0.14596588022115498 1.7718811634590343 0 0 0 0 -177.70847999365651 42.349935094934608 0 42.349935094934608 19.191890327092551 0 0 0 0 -61.077539061523566 2.3944457576854035 0 2.3944457576854035 40.05350779542772 0 0 0 0 -59.569268517225282 -8.7565657104653098 0 -8.7565657104653098 -8.8789148944497498 0 0 0 0 -67.555423042955226 -10.423358755660161 0 -10.423358755660161 60.259628473673388 0 0 0 0 15.944283014312532 -17.116538763200531 0 -17.116538763200531 1.8403731136872921 0 0 0 0 12.548378465105998 59.646897663464081 0 59.646897663464081 159.65863066264711 0 0 0 0 -0.16386001458639043 0.9626364585886904 0 0.9626364585886904 2.0870816326301913 0 0 0 0 188.58408816681185 27.467468705202521 0 27.467468705202521 -52.830935216214243 0 0 0 0 -1.2230317160096433 -0.98584874833807135 0 -0.98584874833807135 1.6740371769332498 0 0 0 0 185.96667550553684 131.91532023249295 0 131.91532023249295 9.241857033346605 0 0 0 0 -39.68664714996703 110.50806387499614 0 110.50806387499614 176.48326344899539 0 0 0 0 139.60596893693582 -45.966528015697918 0 -45.966528015697918 -1.3142889888733862 0 0 0 0 185.29841046944784 39.429042291936526 0 39.429042291936526 3.8531486440302274 0 0 0 0 -91.23118565589175 -39.344550943199351 0 -39.344550943199351 57.898320275472315 0 0 0 0 1.2106052525937514 -0.66465382875736623 0 -0.66465382875736623 -1.1670780874917019 0 0 0 0 189.23100780145978 52.002709813412196 0 52.002709813412196 -7.0950932680098049 0 0 0 0 214.36177394125116 -25.962259399731749 0 -25.962259399731749 2.4193723566634162 0 0 0 0 -0.096138132571539359 -0.19872491171076945 0 -0.19872491171076945 0.72157866280487237 0 0 0 0 112.60347022053611 12.213340702490882 0 12.213340702490882 -23.990811542476649 0 0 0 0 120.20684542509889 25.576635584303638 0 25.576635584303638 -18.468403021291579 0 0 0 0 120.63228318677284 49.334725866617248 0 49.334725866617248 3.6972552029263284 0 0 0 0 128.33818396308925 32.641712616631025 0 32.641712616631025 -52.363547165805699 0 0 0 0 87.033569512193935 78.145408037626154 0 78.145408037626154 -19.753240337414127 0 0 0 0 1194.9565355635714 152.44421607907404 0 152.44421607907404 1.012626570667182 0 0 0 0 3492.7019190055398 811.60779429926447 0 811.60779429926447 -347.27018464441494 0 0 0 0 2499.5056214196784 1791.6503964950141 0 1791.6503964950141 411.75741640102382 0 0 0 0 580.89328051985285 1751.8877106162147 0 1751.8877106162147 2409.490576121681 0 0 0 0 42.241731985534102 -0.42386652238756284 0 -0.42386652238756284 -0.95263169606589959 0 0 0 0 1280.5458393463705 755.71872817099734 0 755.71872817099734 361.99350344410482 0 0 0 0 2120.5781666295661 656.95870048261759 0 656.95870048261759 -95.968734767589154 0 0 0 0 669.35646330632153 393.33414427028913 0 393.33414427028913 476.21283140931519 0 0 0 0 2207.7344474944475 340.79274795409253 0 340.79274795409253 18.636778335283168 0 0 0 0 1693.3496752622668 214.02612505271813 0 214.02612505271813 120.81705180702963 0 0 0 0 2362.6673684699927 462.01048911074622 0 462.01048911074622 -301.61880548750503 0 0 0 0 -0.26899438312662483 0.48597968090729182 0 0.48597968090729182 1.5182459433637219 0 0 0 0 1075.2098897250107 526.53942340961953 0 526.53942340961953 160.22702529175595 0 0 0 0 167.65300496637064 43.004540486568516 0 43.004540486568516 -7.7079180725879723 0 0 0 0 29.290790056511469 179.58715897406952 0 179.58715897406952 389.95929782674818 0 0 0 0 90.294360006490024 211.12513304009627 0 211.12513304009627 113.07713278894813 0 0 0 0 147.43014200358448 -3.9185121321580212 0 -3.9185121321580212 73.358663169153544 0 0 0 0 136.84438750718255 37.48736514278778 0 37.48736514278778 -8.3707316296915906 0 0 0 0 152.5408404397258 -45.541850545181305 0 -45.541850545181305 -92.877659285176605 0 0 0 0 76.385685236671634 -75.036668019642107 0 -75.036668019642107 -48.353711431034128 0 0 0 0 8.3929725201087422 -65.822818663813493 0 -65.822818663813493 -12.747243669027171 0 0 0 0 5.4842575080406277 0.50810817169312372 0 0.50810817169312372 -1.5621971541089663 0 0 0 0 297.47012916882522 -116.39283735402273 0 -116.39283735402273 102.7754571183732 0 0 0 0 5.6676738054957241 113.52078851220585 0 113.52078851220585 -1.8433485776963607 0 0 0 0 -38.877417727024294 21.057204982773101 0 21.057204982773101 18.860930541150083 0 0 0 0 61.759903330064844 1.4781822990419187 0 1.4781822990419187 -7.4670524320727623 0 0 0 0 95.919028098753188 -4.0938557381207374 0 -4.0938557381207374 -25.834841748896793 0 0 0 0 61.501372488739435 6.3692761275351586 0 6.3692761275351586 -6.3700611085928358 0 0 0 0 152.04587239928514 12.367842187715894 0 12.367842187715894 59.996502303809393 0 0 0 0 112.41524129528261 75.538239576526053 0 75.538239576526053 -24.177540730182045 0 0 0 0 129.94958962871169 50.573544837192742 0 50.573544837192742 -13.370644370128957 0 0 0 0 175.43699195544468 73.114872491839833 0 73.114872491839833 -25.027981140169004 0 0 0 0 23.492818004160654 45.308225677074006 0 45.308225677074006 -7.2128724028523266 0 0 0 0 9.1084055325482041 84.061885999605238 0 84.061885999605238 2.7204557422118683 0 0 0 0 5.2960111056406163 -2.8896121233128724 0 -2.8896121233128724 -1.6920834476802828 0 0 0 0 115.85075371144922 -56.716847666702961 0 -56.716847666702961 31.51321637187084 0 0 0 0 98.614313130150549 101.03178247157052 0 101.03178247157052 -2.5325186746799773 0 0 0 0 10.243102548006533 3.7961716378633525 0 3.7961716378633525 1.404700459531246 0 0 0 0 175.76437931472901 -35.629941926585161 0 -35.629941926585161 -17.309313859672784 0 0 0 0 133.48799477360444 -11.416574885930459 0 -11.416574885930459 -27.150938148613477 0 0 0 0 -76.794014530838467 -23.701125466052872 0 -23.701125466052872 36.468058621506202 0 0 0 0 -29.165204031596659 -63.983539105336831 0 -63.983539105336831 41.132617801732977 0 0 0 0 178.98389270615553 -9.5576406161296177 0 -9.5576406161296177 -14.259952547517059 0 0 0 0 -2.4408300113692007 -7.8856216156178753 0 -7.8856216156178753 -0.085148268888982415 0 0 0 0 44.294201307532774 -1.6787120672263711 0 -1.6787120672263711 -4.3307489402550186 0 0 0 0 39.306553402119164 -3.8832526646258181 0 -3.8832526646258181 -3.7789429486355881 0 0 0 0 182.85614708476351 12.556331901108479 0 12.556331901108479 -60.485431260344285 0 0 0 0 0.54306422898662277 -4.2325784392244827 0 -4.2325784392244827 -104.41477359403808 0 0 0 0 76.118755656672874 9.7828139976662669 0 9.7828139976662669 -207.20711655091407 0 0 0 0 28.722671264581152 -9.9236363032172967 0 -9.9236363032172967 -3.0126489832573133 0 0 0 0 -27.80964958696859 31.816648899803141 0 31.816648899803141 -10.547630100000333 0 0 0 0 27.403504482412245 -14.044698436537942 0 -14.044698436537942 -21.002057377856659 0 0 0 0 23.040254800986702 0.83699780194206141 0 0.83699780194206141 -0.57674785820671093 0 0 0 0 10.123070907313377 -12.791451275926875 0 -12.791451275926875 -13.87722972938036 0 0 0 0 38.610370658825332 -15.421796884752084 0 -15.421796884752084 -4.8336117983691436 0 0 0 0 17.544149257087497 -13.240591088584914 0 -13.240591088584914 -2.4787505463587904 0 0 0 0 20.943301626481116 -15.043573040040769 0 -15.043573040040769 -14.412323477304199 0 0 0 0 12.476142670607203 -21.629655051557442 0 -21.629655051557442 -6.7767488942869019 0 0 0 0 10.014134559693048 63.191303461670486 0 63.191303461670486 -46.074192613382593 0 0 0 0 106.95110251940787 -7.5148446465772238 0 -7.5148446465772238 4.3940786648202099 0 0 0 0 210.46231934864772 -192.95223781934988 0 -192.95223781934988 -109.9520002964457 0 0 0 0 8.3393563436114277 1.5956056382940034 0 1.5956056382940034 1.4365023966621102 0 0 0 0 1.7827506357237439 -0.28102790518324383 0 -0.28102790518324383 0.89299826252524395 0 0 0 0 54.684424658289004 -3.8544483749977054 0 -3.8544483749977054 -1.2770688519383793 0 0 0 0 75.383082692358585 -13.182995248904092 0 -13.182995248904092 -194.24688134923042 0 0 0 0 95.231155865607434 -101.12248644727754 0 -101.12248644727754 50.075231501770126 0 0 0 0 -223.52657374273986 -29.025068286231885 0 -29.025068286231885 225.27695470951346 0 0 0 0 -3.9733848908290383 11.027894570034483 0 11.027894570034483 -15.99033588545484 0 0 0 0 12.431867476218031 -57.836851222504123 0 -57.836851222504123 -2.3380345693576601 0 0 0 0 206.58730703581386 -39.039744213940992 0 -39.039744213940992 -67.840842402470003 0 0 0 0 220.34341628983384 186.88694100838256 0 186.88694100838256 17.931389506875064 0 0 0 0 1.5500483769178572 -0.095014946612003826 0 -0.095014946612003826 -0.097809711789291431 0 0 0 0 28.298322908391128 195.76194936221049 0 195.76194936221049 17.6000632662832 0 0 0 0 117.00205349311 31.04285645687095 0 31.04285645687095 -0.10508283923902528 0 0 0 0 0.43917476239815301 -0.67194419884052081 0 -0.67194419884052081 0.059300606854597704 0 0 0 0 118.99867373941652 -85.713949784935394 0 -85.713949784935394 -30.402843274869984 0 0 0 0 157.14760971609576 -92.088061083833765 0 -92.088061083833765 -76.004440158834285 0 0 0 0 2.9760327804667099 -0.57456994477671941 0 -0.57456994477671941 -0.14946847614826186 0 0 0 0 100.30079125039629 -45.589714945368733 0 -45.589714945368733 -109.57797545698031 0 0 0 0 13.58504456623632 -58.432623104778678 0 -58.432623104778678 10.573864354267021 0 0 0 0 -15.12981724653946 4.20091184150278 0 4.20091184150278 -26.582863196215925 0 0 0 0 39.450752836972242 -41.248402249432161 0 -41.248402249432161 -68.536713287851398 0 0 0 0 -65.152808893457404 -15.069537780319207 0 -15.069537780319207 -13.228983922283605 0 0 0 0 2.4318187802886655 -0.47586747898585458 0 -0.47586747898585458 -0.075850148160721387 0 0 0 0 -29.530264765489846 -41.294308754588037 0 -41.294308754588037 -35.805730086771725 0 0 0 0 52.635858509413083 6.0680347173794189 0 6.0680347173794189 -43.740095669716283 0 0 0 0 112.2674823838388 7.227883601930472 0 7.227883601930472 -141.38397924881781 0 0 0 0 53.522747735750215 -1.1677963252456856 0 -1.1677963252456856 -1.2002368827295091 0 0 0 0 34.654753472103039 34.084869673905303 0 34.084869673905303 -6.616619751390715 0 0 0 0 55.854755070960209 -2.1476807014272623 0 -2.1476807014272623 -0.94789525955227782 0 0 0 0 -16.129228278106893 -12.022003526188229 0 -12.022003526188229 33.05979293740279 0 0 0 0 99.638719561102334 -5.5252422538419523 0 -5.5252422538419523 -28.713695912973748 0 0 0 0 69.063032161502633 -95.723454267435656 0 -95.723454267435656 -22.003237454621335 0 0 0 0 49.153279503902013 2.9377707799153843 0 2.9377707799153843 -10.41638280984985 0 0 0 0 98.580411081959028 26.59912459165696 0 26.59912459165696 93.822921679980823 0 0 0 0 222.44173910596874 -25.982110587976251 0 -25.982110587976251 -8.2684733284654612 0 0 0 0 82.840982025270932 -40.857035185757155 0 -40.857035185757155 24.028603011769206 0 0 0 0 86.137782261554094 -73.714472505316735 0 -73.714472505316735 124.53487452590832 0 0 0 0 -31.716114661914617 -71.918956986238882 0 -71.918956986238882 177.02620504183756 0 0 0 0 1.5443430132060598 1.2233699880933955 0 1.2233699880933955 1.2317109685077801 0 0 0 0 52.350776614861388 164.0849849796499 0 164.0849849796499 71.397339307635775 0 0 0 0 324.20915152748057 83.640594289372757 0 83.640594289372757 97.612191991592454 0 0 0 0 272.85320895171026 -163.84837294993361 0 -163.84837294993361 146.54671962208729 0 0 0 0 241.26758599229288 110.4047295127657 0 110.4047295127657 54.193038400666865 0 0 0 0 17.838174575095763 50.498170916398976 0 50.498170916398976 38.903005879511511 0 0 0 0 169.68237566677999 176.37245620470725 0 176.37245620470725 67.123499708405689 0 0 0 0 -15.338734171604301 15.821232220008376 0 15.821232220008376 152.60834163129641 0 0 0 0 53.804498203273397 -93.199931298808451 0 -93.199931298808451 -8.7236755168921434 0 0 0 0 1.5407233727016205 -1.0563052192366058 0 -1.0563052192366058 0.33233943167097735 0 0 0 0 324.06004070576091 -35.75608840627379 0 -35.75608840627379 -37.15799686635205 0 0 0 0 -80.019611342417193 20.435690690928368 0 20.435690690928368 169.31811859048116 0 0 0 0 1.9584786214319649 -1.9118914777249358 0 -1.9118914777249358 1.9195908806090172 0 0 0 0 -87.659923152474221 -79.173722260164595 0 -79.173722260164595 39.274831763003476 0 0 0 0 -4.4827535563763377 -23.751316706830949 0 -23.751316706830949 73.741279685226402 0 0 0 0 15.460849071314442 -20.6394697943837 0 -20.6394697943837 72.015233793769028 0 0 0 0 184.01377859222703 -131.65445933095725 0 -131.65445933095725 -27.703311679977986 0 0 0 0 34.854222362322616 -114.93208725226427 0 -114.93208725226427 94.220084596931542 0 0 0 0 -2.8861765948822722 53.640589395482152 0 53.640589395482152 -80.309701214134648 0 0 0 0 4.6856473846403901 2.7279591068838727 0 2.7279591068838727 1.3712517944877765 0 0 0 0 15.93192510370227 -57.032109790803894 0 -57.032109790803894 9.7722313891724184 0 0 0 0 28.645320110023022 47.447356338787245 0 47.447356338787245 -53.927750549418988 0 0 0 0 24.633610908596893 -86.597562622348534 0 -86.597562622348534 119.95014938056872 0 0 0 0 -24.578185485341237 69.65699568568462 0 69.65699568568462 151.31062690493872 0 0 0 0 31.940520206699148 8.8676274031205935 0 8.8676274031205935 -17.915692098239219 0 0 0 0 20.309648176458325 -7.029686778217652 0 -7.029686778217652 -2.853707614224759 0 0 0 0 23.173793499343446 -105.43826700533864 0 -105.43826700533864 134.94521054097623 0 0 0 0 37.463224045321112 8.4078615438876341 0 8.4078615438876341 3.5987017470689011 0 0 0 0 76.151664591074223 102.3438524086186 0 102.3438524086186 -70.877258587343988 0 0 0 0 0.7122025246064112 -1.1186507539839283 0 -1.1186507539839283 1.9584142477129238 0 0 0 0 -78.761582968749281 31.277937159337149 0 31.277937159337149 11.356621579398791 0 0 0 0 152.79013024988308 -3.6618722482337205 0 -3.6618722482337205 11.287001461865657 0 0 0 0 117.08811781005352 -66.281405051428919 0 -66.281405051428919 57.814193155466683 0 0 0 0 28.96829313501803 -2.9418193171437395 0 -2.9418193171437395 26.61574180426669 0 0 0 0 58.829948143626098 -3.0117594180311471 0 -3.0117594180311471 12.770633318180217 0 0 0 0 59.20441959617051 8.8840122243671438 0 8.8840122243671438 10.115282703839739 0 0 0 0 41.207474310038378 -3.5127408332718915 0 -3.5127408332718915 12.768571453943196 0 0 0 0 23.026086392186699 -4.0909660961158352 0 -4.0909660961158352 17.261954406150153 0 0 0 0 57.116668832262803 14.682942266312807 0 14.682942266312807 7.8242459434322882 0 0 0 0 62.253475774807157 25.121142529980261 0 25.121142529980261 6.4557837763377393 0 0 0 0 39.547947939048754 15.594213525114014 0 15.594213525114014 7.8156372633134197 0 0 0 0 20.619647394370986 26.834857615356896 0 26.834857615356896 24.059187855152231 0 0 0 0 68.83082412593285 15.421206451928981 0 15.421206451928981 0.96440500528342454 0 0 0 0 -321.44603539956734 -53.793232834718566 0 -53.793232834718566 263.62350625657734 0 0 0 0 -0.52202296927626435 -3.1416139081593144 0 -3.1416139081593144 4.2597525815340669 0 0 0 0 67.197004810732324 18.524143454296791 0 18.524143454296791 -1.2492378727451978 0 0 0 0 63.525349093753903 9.663078443401929 0 9.663078443401929 8.1373513424393877 0 0 0 0 -18.172961548349122 -117.70943578132301 0 -117.70943578132301 -6.4775210322006984 0 0 0 0 1160.4319863427663 -25.787246140486673 0 -25.787246140486673 -127.35048108288856 0 0 0 0 1679.1973010886722 378.93397315587015 0 378.93397315587015 65.725470154240043 0 0 0 0 2.2910864743653292 -1.8978741213596209 0 -1.8978741213596209 -0.039176489982562568 0 0 0 0 252.04212092235684 164.3214668933683 0 164.3214668933683 84.867788670383902 0 0 0 0 -157.09642364569299 221.76908075205222 0 221.76908075205222 321.86605337440807 0 0 0 0 3491.7673910426383 687.4299855572832 0 687.4299855572832 -414.86805893512354 0 0 0 0 2374.0662028435436 1286.5339552223218 0 1286.5339552223218 275.06577024507459 0 0 0 0 3502.5852450448729 -49.736738434291141 0 -49.736738434291141 -779.4737832474018 0 0 0 0 2298.4268347449542 406.85191958557516 0 406.85191958557516 -480.69832400470062 0 0 0 0 2278.6587164765515 260.97321395064529 0 260.97321395064529 -167.80613247149159 0 0 0 0 2146.3953690899943 -532.70474316612433 0 -532.70474316612433 -631.75076869268537 0 0 0 0 2092.9451969985639 -131.90016260051473 0 -131.90016260051473 -352.7147493733612 0 0 0 0 1160.5190838687076 -20.938807900905864 0 -20.938807900905864 11.499031671982266 0 0 0 0 4.4921655917012657 -2.9495943217553133 0 -2.9495943217553133 1.1761555781617847 0 0 0 0 57.49081889099034 94.002113248743996 0 94.002113248743996 -84.18466324878861 0 0 0 0 -1.9141197567901997 1.4231050350963699 0 1.4231050350963699 1.4360524784470656 0 0 0 0 1031.6684276229207 -476.06820183766536 0 -476.06820183766536 13.695219435393938 0 0 0 0 300.11124764379929 -88.826789549421363 0 -88.826789549421363 35.696435971668464 0 0 0 0 469.5073870242195 108.51675272042188 0 108.51675272042188 177.09309654554534 0 0 0 0 10.172646966861038 9.1900356328572457 0 9.1900356328572457 0.062690676103581033 0 0 0 0 16.560457321283366 -0.52057520740061136 0 -0.52057520740061136 2.8350480144323811 0 0 0 0 1142.474271523115 -1597.4754531362439 0 -1597.4754531362439 1287.1563565972019 0 0 0 0 3492.3657453661435 -948.97031870341368 0 -948.97031870341368 -548.29703380433511 0 0 0 0 2487.955277058034 319.13645100399174 0 319.13645100399174 -122.14954400726852 0 0 0 0 3.5985605501584175 -4.6699911424778691 0 -4.6699911424778691 3.7354274157980449 0 0 0 0 3817.6669811318352 156.89721826352641 0 156.89721826352641 -122.81333247773034 0 0 0 0 126.73978638392873 54.447739890747357 0 54.447739890747357 -23.613466757425698 0 0 0 0 118.43494055535484 68.634681400442432 0 68.634681400442432 -46.844420500417982 0 0 0 0 97.874663945960492 11.760415120449181 0 11.760415120449181 -38.042452397383386 0 0 0 0 17.858110687956135 -10.658974281577684 0 -10.658974281577684 9.9560622317553449 0 0 0 0 1851.7031021077819 -381.52860154500451 0 -381.52860154500451 274.01031347162871 0 0 0 0 3499.2785090745601 -355.19865775073623 0 -355.19865775073623 -316.99594744938742 0 0 0 0 2012.3775934209407 -637.45391449409556 0 -637.45391449409556 -46.49094542025091 0 0 0 0 3496.9103140239313 -1702.7041101459247 0 -1702.7041101459247 426.46262416191172 0 0 0 0 119.9121945072875 799.42587229008893 0 799.42587229008893 992.2100487508651 0 0 0 0 10.49325503572976 4.4928947775531469 0 4.4928947775531469 4.3284803155332501 0 0 0 0 12.825175043654468 -1.3234831779239471 0 -1.3234831779239471 1.1820754978054078 0 0 0 0 -48.66392046699184 -192.70824941702608 0 -192.70824941702608 -48.883605916332726 0 0 0 0 56.197525030489487 -1.7638025108975626 0 -1.7638025108975626 22.159432924517205 0 0 0 0 575.61986283009901 -30.872130918408288 0 -30.872130918408288 -227.26708399766039 0 0 0 0 364.38190185795247 -347.68290134238032 0 -347.68290134238032 -111.0288545725989 0 0 0 0 58.972387107816758 91.887902106071351 0 91.887902106071351 -193.57439650954461 0 0 0 0 2029.1491747561586 -263.33365764416482 0 -263.33365764416482 -44.405237130664212 0 0 0 0 27.812248692101207 12.181239692027944 0 12.181239692027944 8.8595360533335121 0 0 0 0 113.12345208978513 11.75447608473587 0 11.75447608473587 5.879906459810627 0 0 0 0 85.661172553169308 -15.54575786931855 0 -15.54575786931855 15.267211436313573 0 0 0 0 88.63422993326094 47.869948428902262 0 47.869948428902262 15.441106313808632 0 0 0 0 76.810476556536742 14.810033722294975 0 14.810033722294975 7.979762100364951 0 0 0 0 106.97128899340896 32.77534726987119 0 32.77534726987119 5.9286800468707952 0 0 0 0 75.795769038028084 34.954082532130997 0 34.954082532130997 12.104424036124328 0 0 0 0 86.766992793825921 27.79197798462792 0 27.79197798462792 4.5473565967513423 0 0 0 0 68.782625713800371 24.469142196015014 0 24.469142196015014 5.768813170170688 0 0 0 0 71.217281334786094 31.463629195506201 0 31.463629195506201 8.3439219845004118 0 0 0 0 72.582208605774213 31.313120845785761 0 31.313120845785761 7.9794906225197337 0 0 0 0 68.70263101272576 22.217263523805627 0 22.217263523805627 6.6419151121599498 0 0 0 0 75.375480529852211 22.314220835763535 0 22.314220835763535 -0.15724099909471079 0 0 0 0 0.84135546049890308 -0.15926896546487512 0 -0.15926896546487512 0.16877774536381196 0 0 0 0 -45.17126628888218 24.35410922085191 0 24.35410922085191 28.912215346133053 0 0 0 0 46.978091780038085 47.037628224697983 0 47.037628224697983 25.122231757315603 0 0 0 0 56.203562401642557 25.998941666320206 0 25.998941666320206 6.4238753888225801 0 0 0 0 34.582433934090659 36.279756628136056 0 36.279756628136056 17.898766843558406 0 0 0 0 34.867558212485164 42.527701809095561 0 42.527701809095561 23.631346809808747 0 0 0 0 63.364636084748781 42.608046738158691 0 42.608046738158691 18.8862488610539 0 0 0 0 4.7029544097022153 43.558965404213723 0 43.558965404213723 16.419569830476576 0 0 0 0 -30.925593093917996 46.921108946634149 0 46.921108946634149 19.488437033242008 0 0 0 0 -0.33729605178407951 -1.163131073704335 0 -1.163131073704335 2.8869769500337448 0 0 0 0 -0.065156857075635344 3.6169760670181859 0 3.6169760670181859 12.844929672084618 0 0 0 0 -18.69066322953131 37.42242606013356 0 37.42242606013356 21.249388711739812 0 0 0 0 -19.00449506516054 12.199626184245115 0 12.199626184245115 14.220245308026279 0 0 0 0 17.145728257099108 40.906522243412155 0 40.906522243412155 9.981565273101296 0 0 0 0 5.1034461446106434 18.81936902592588 0 18.81936902592588 5.398192012054551 0 0 0 0 43.558406517135154 28.070718040982001 0 28.070718040982001 6.4392290663622589 0 0 0 0 32.686072854427039 37.334196937183606 0 37.334196937183606 -1.3904033110534328 0 0 0 0 13.908747864148836 0.9991636277170528 0 0.9991636277170528 2.912893768302915 0 0 0 0 96.808677135377366 16.752896344342275 0 16.752896344342275 12.924491090024503 0 0 0 0 46.644196361978345 24.799628764201799 0 24.799628764201799 3.3107195749329001 0 0 0 0 56.072378934790322 -22.980706828379425 0 -22.980706828379425 0.38115702693198728 0 0 0 0 76.104039509948052 35.080374147511975 0 35.080374147511975 -2.1393547577612253 0 0 0 0 18.010254649921514 15.439013475362557 0 15.439013475362557 17.082957378450843 0 0 0 0 32.71938156608303 -28.52904154671694 0 -28.52904154671694 10.438987460571298 0 0 0 0 85.813982344479882 47.303213656564367 0 47.303213656564367 -17.768270774316079 0 0 0 0 107.31868876496446 118.63999690120158 0 118.63999690120158 -61.526576236274195 0 0 0 0 29.774075699184323 69.100654748510692 0 69.100654748510692 33.170145972075488 0 0 0 0 7.5496772627032414 8.4696973122890995 0 8.4696973122890995 1.1151927372259272 0 0 0 0 75.434649614791851 0.51183709582073789 0 0.51183709582073789 1.5518656269960047 0 0 0 0 49.044041588276741 23.572703087097352 0 23.572703087097352 0.22412578642388326 0 0 0 0 36.103992564517455 15.850486497190445 0 15.850486497190445 -2.2079246952567697 0 0 0 0 1.2866952555423268 12.644002123790283 0 12.644002123790283 -0.71824791894019113 0 0 0 0 51.578209714440163 32.148556127276606 0 32.148556127276606 -36.554918051707205 0 0 0 0 44.435380353031917 5.7116244743703479 0 5.7116244743703479 -1.3024684248028529 0 0 0 0 49.681974180901307 41.379538573320588 0 41.379538573320588 -16.341551243112008 0 0 0 0 54.365354950918118 43.471074273264549 0 43.471074273264549 -17.187760125531781 0 0 0 0 44.523153366542829 51.928009671254813 0 51.928009671254813 14.183117686313381 0 0 0 0 13.304676460014889 44.077524142770926 0 44.077524142770926 18.995778563607018 0 0 0 0 37.411611572197671 48.858708377692011 0 48.858708377692011 12.093500312467768 0 0 0 0 4.4651044043712318 45.788564421770388 0 45.788564421770388 18.234344794532262 0 0 0 0 1.815819078910863 50.55858352263067 0 50.55858352263067 11.644805808483852 0 0 0 0 24.473754273742088 41.493881961357602 0 41.493881961357602 9.6412234456156511 0 0 0 0 26.303473854004551 54.505917909992391 0 54.505917909992391 29.519085327093762 0 0 0 0 226.7453359154897 170.40555681965566 0 170.40555681965566 94.531265187053009 0 0 0 0 122.72718480538606 84.635201560884752 0 84.635201560884752 2.4117306378020658 0 0 0 0 38.721935007035881 72.522320508813038 0 72.522320508813038 32.929760772965437 0 0 0 0 163.09646278136461 -24.10668554668257 0 -24.10668554668257 -29.577409052152689 0 0 0 0 80.489504765748279 -46.189333462599279 0 -46.189333462599279 22.190231028199719 0 0 0 0 2.6681253177540043 0.87947970035222411 0 0.87947970035222411 0.29045014041882888 0 0 0 0 276.41044332907859 -150.44948103056126 0 -150.44948103056126 103.86402046313333 0 0 0 0 70.898673721254454 -23.20028334174367 0 -23.20028334174367 27.774102547215989 0 0 0 0 51.307916292444133 -49.507241905634373 0 -49.507241905634373 51.704491315100313 0 0 0 0 55.846624228184737 -39.362008055875975 0 -39.362008055875975 -18.472854221203306 0 0 0 0 54.723015776500688 -20.39908496975886 0 -20.39908496975886 -3.5556607521043588 0 0 0 0 65.348847948291223 10.608960704125138 0 10.608960704125138 -41.892069217288508 0 0 0 0 80.612071624656892 -6.8311470578510693 0 -6.8311470578510693 -84.30701277910066 0 0 0 0 47.698357740011488 2.554737470452169 0 2.554737470452169 -0.25821317427621637 0 0 0 0 57.578458529002091 -27.771683047669967 0 -27.771683047669967 -50.902377151959172 0 0 0 0 50.071442485642052 1.0288064672683817 0 1.0288064672683817 -1.565904660952012 0 0 0 0 49.163119310824186 20.988199038952587 0 20.988199038952587 2.1026146706253712 0 0 0 0 67.849478169649956 4.8711216706333289 0 4.8711216706333289 -41.256362885334369 0 0 0 0 40.420143962861403 0.68053178890005483 0 0.68053178890005483 5.919379105454027 0 0 0 0 50.55586680426174 5.3503553598535376 0 5.3503553598535376 -0.22787754838232899 0 0 0 0 49.331663877157553 15.869201715569261 0 15.869201715569261 42.103235992673945 0 0 0 0 61.061124109852244 10.484699800029375 0 10.484699800029375 6.9512197019362816 0 0 0 0 48.085528169511235 16.10181117399361 0 16.10181117399361 28.701686840936873 0 0 0 0 63.680172183478135 9.7886532699665167 0 9.7886532699665167 6.9504011075391645 0 0 0 0 49.619376034015716 -1.8934543710794802 0 -1.8934543710794802 0.25863703033488783 0 0 0 0 86.936534678854514 7.010961610487584 0 7.010961610487584 -10.102424565939941 0 0 0 0 45.731124884870951 10.6302261293946 0 10.6302261293946 18.263442627076131 0 0 0 0 15.415386883533479 3.9064595410174121 0 3.9064595410174121 0.93155861267839768 0 0 0 0 45.932005303722008 22.913455198062032 0 22.913455198062032 -6.0747375487291881 0 0 0 0 69.928382581072128 384.49260806839618 0 384.49260806839618 8.4344077834691689 0 0 0 0 73.804016359043999 13.432442994077192 0 13.432442994077192 -4.64815781723496 0 0 0 0 59.882383980191662 21.197628674802544 0 21.197628674802544 -1.7590072726450714 0 0 0 0 2.034224130114012 1.5003509168160178 0 1.5003509168160178 -0.91856105221418094 0 0 0 0 262.73439726818469 -463.19028086424538 0 -463.19028086424538 -129.50017706317158 0 0 0 0 46.210611882706189 4.4616872572843747 0 4.4616872572843747 -7.0533650747590855 0 0 0 0 175.23750830531935 54.240333223855941 0 54.240333223855941 60.677504311507619 0 0 0 0 54.467274740878764 12.021025847589449 0 12.021025847589449 -9.6658137705500096 0 0 0 0 122.01647618247807 -104.9423609042733 0 -104.9423609042733 23.37704171601581 0 0 0 0 50.147016272043402 212.75048787028436 0 212.75048787028436 -219.92159178835595 0 0 0 0 72.619842828392677 -11.227405496995805 0 -11.227405496995805 1.4157369691663839 0 0 0 0 22.145212129153336 -5.7323214966169402 0 -5.7323214966169402 1.4849559886343169 0 0 0 0 88.254309981057304 3.8173152300504398 0 3.8173152300504398 -198.66051648372175 0 0 0 0 -116.95789659114234 323.18975421384675 0 323.18975421384675 -163.08302633689482 0 0 0 0 46.780909958917618 64.819884305710389 0 64.819884305710389 133.01715228984608 0 0 0 0 322.66293738808599 44.718698127628841 0 44.718698127628841 -252.82922519037447 0 0 0 0 116.58651242583119 -41.159196080948732 0 -41.159196080948732 -288.0741418912362 0 0 0 0 73.303897582370979 -16.686771786578152 0 -16.686771786578152 2.9499647040946093 0 0 0 0 19.827578060913794 -5.2066640938520834 0 -5.2066640938520834 1.0801002807678917 0 0 0 0 81.60319674112543 -9.8689149075738669 0 -9.8689149075738669 33.338694159241641 0 0 0 0 71.991471716559317 -34.658116396017249 0 -34.658116396017249 21.563921217559795 0 0 0 0 32.982009508308593 9.8358185854844464 0 9.8358185854844464 6.9127730667604101 0 0 0 0 82.172273968371883 -9.9539148828467887 0 -9.9539148828467887 9.8769903756519852 0 0 0 0 31.381653835123871 1.413029789002394 0 1.413029789002394 8.5215360995066476 0 0 0 0 50.135265035190969 -83.515573708595298 0 -83.515573708595298 22.498378397482611 0 0 0 0 59.156189718356472 -7.2649137785688254 0 -7.2649137785688254 -27.755007758490137 0 0 0 0 21.06788381482724 5.2257111156450975 0 5.2257111156450975 -3.0915234184679052 0 0 0 0 13.659116428449096 13.415918288542599 0 13.415918288542599 6.0874169233445103 0 0 0 0 73.942711923300521 26.308533852836717 0 26.308533852836717 40.84928706992423 0 0 0 0 27.330618427920854 35.46788451283463 0 35.46788451283463 71.257176171281884 0 0 0 0 52.46680607489543 1.9395082736718905 0 1.9395082736718905 99.415533104517252 0 0 0 0 45.773213177410071 60.534958579794633 0 60.534958579794633 101.81532347825538 0 0 0 0 -60.802509187611577 -44.048187193253113 0 -44.048187193253113 178.75605040738856 0 0 0 0 1.5128340860414511 1.6111677348053917 0 1.6111677348053917 -0.3865125204611588 0 0 0 0 12.430795228770876 -4.084318819347768 0 -4.084318819347768 -17.058581240717643 0 0 0 0 171.02836668322561 88.584942285421448 0 88.584942285421448 -79.056599487498261 0 0 0 0 -5.0945335825381335 -70.48901042635768 0 -70.48901042635768 134.5986695962678 0 0 0 0 3.8510502409917535 24.387863314906479 0 24.387863314906479 180.13544386331327 0 0 0 0 35.499903563752014 -57.372270699520328 0 -57.372270699520328 20.475248802331308 0 0 0 0 -15.279021537688095 -29.634414924828 0 -29.634414924828 46.301196463843304 0 0 0 0 -5.9379337312857388 -130.94943960034479 0 -130.94943960034479 -23.157134762302569 0 0 0 0 54.600304133935424 -48.694776632200785 0 -48.694776632200785 363.85367338109654 0 0 0 0 488.14761859906139 -378.19321540638748 0 -378.19321540638748 -119.25449272981095 0 0 0 0 137.31642392621143 -200.86758237291764 0 -200.86758237291764 -218.72446872854269 0 0 0 0 59.531667516287001 -15.53459219781889 0 -15.53459219781889 3.4479699205340673 0 0 0 0 -72.998328976367702 -431.9045892776918 0 -431.9045892776918 1151.0357709569253 0 0 0 0 1206.4181241353072 -2160.2305258956376 0 -2160.2305258956376 3052.1668493866846 0 0 0 0 3492.9828900765533 -2461.2231523433165 0 -2461.2231523433165 874.9032407648474 0 0 0 0 25.226353878400857 -7.5186773974993173 0 -7.5186773974993173 4.7140646612280657 0 0 0 0 1837.0120697143357 1268.9287615496585 0 1268.9287615496585 401.28831412722661 0 0 0 0 3493.0041917480198 530.95074975500654 0 530.95074975500654 -475.50055200679947 0 0 0 0 2469.6446341612173 556.23033666386095 0 556.23033666386095 -236.69002456891678 0 0 0 0 1007.7677976821142 279.05364711197689 0 279.05364711197689 125.45846018961709 0 0 0 0 -3.3547953054403479 -77.353846347048332 0 -77.353846347048332 515.53162016930878 0 0 0 0 2021.7963419757507 -576.62700722934471 0 -576.62700722934471 -20.904593466999842 0 0 0 0 -9.8068563468114007 -131.27948285378716 0 -131.27948285378716 71.875860978756847 0 0 0 0 420.34885239207506 -349.76064909780428 0 -349.76064909780428 103.37117279937743 0 0 0 0 -0.20808606782520656 114.24268410046761 0 114.24268410046761 413.31526494717059 0 0 0 0 384.82824212335981 142.67994796691744 0 142.67994796691744 28.759439585155405 0 0 0 0 191.98515290735304 21.127160054956221 0 21.127160054956221 -31.567506926207443 0 0 0 0 3501.4235792569598 -20.669468005619837 0 -20.669468005619837 82.288363928272474 0 0 0 0 119.43756760263932 32.16666797859807 0 32.16666797859807 10.102440419032519 0 0 0 0 104.00708162361843 15.808613354269482 0 15.808613354269482 29.778579400903254 0 0 0 0 122.85653288330468 27.712932499825342 0 27.712932499825342 4.9921739147830522 0 0 0 0 68.615071314008674 16.681622963280461 0 16.681622963280461 8.3406354346193439 0 0 0 0 -4.28163309444097 13.838991598263874 0 13.838991598263874 10.249956241139881 0 0 0 0 45.434689623158192 17.270458391786178 0 17.270458391786178 11.973937841251882 0 0 0 0 76.821446212255978 15.934608549064251 0 15.934608549064251 8.7119491808563225 0 0 0 0 56.513610466616228 9.2735221186992476 0 9.2735221186992476 8.5491392937983619 0 0 0 0 108.20750336579658 30.024167541261704 0 30.024167541261704 8.5864253464683316 0 0 0 0 103.46143193407624 17.438587471042865 0 17.438587471042865 -14.248184038037834 0 0 0 0 117.70439231648925 52.981902610999441 0 52.981902610999441 -33.871117804300411 0 0 0 0 71.824085389249376 90.376375616671339 0 90.376375616671339 113.87096676168767 0 0 0 0 86.633696162418346 40.457512589831367 0 40.457512589831367 25.052740150484169 0 0 0 0 63.134142965245701 49.360767383660004 0 49.360767383660004 60.323541004219805 0 0 0 0 102.27843776902228 18.702352428386803 0 18.702352428386803 43.489395471844546 0 0 0 0 86.780629474335001 37.906109702234971 0 37.906109702234971 23.258009698021851 0 0 0 0 75.172391452710144 14.164572874158694 0 14.164572874158694 42.90430986260435 0 0 0 0 102.29865090707608 -9.8154536584279413 0 -9.8154536584279413 48.894618853439169 0 0 0 0 50.893853246117942 0.021157434872748127 0 0.021157434872748127 77.42696798974066 0 0 0 0 36.623432566877455 30.616407141918444 0 30.616407141918444 91.308159605522633 0 0 0 0 26.547348728679935 29.580709955584098 0 29.580709955584098 109.48351981121777 0 0 0 0 -63.18115818606384 -44.318772499456259 0 -44.318772499456259 42.851486146906609 0 0 0 0 -29.58985407500586 5.968982975457493 0 5.968982975457493 118.1321301665123 0 0 0 0 5.5295513464006945 -43.383924399834314 0 -43.383924399834314 68.447509122108386 0 0 0 0 27.721205932146404 -5.8207377436438037 0 -5.8207377436438037 39.696207253025932 0 0 0 0 110.65190753972274 -14.447138851470299 0 -14.447138851470299 49.338915598065512 0 0 0 0 38.765344877232565 -10.611672823333265 0 -10.611672823333265 81.764650803127552 0 0 0 0 66.530636991788924 -43.304801339121241 0 -43.304801339121241 68.715310594467155 0 0 0 0 71.640859616920352 -20.818791593556398 0 -20.818791593556398 59.673690865541175 0 0 0 0 103.14060897547461 -61.50843877734178 0 -61.50843877734178 89.413173147269845 0 0 0 0 280.05637440062128 -13.862760306037217 0 -13.862760306037217 9.865333677511444 0 0 0 0 158.60816866644018 -29.446071870837841 0 -29.446071870837841 47.794966681221922 0 0 0 0 26.742721632450412 17.403532269631228 0 17.403532269631228 63.368441655320566 0 0 0 0 6.4079894765665273 0.25060896369640773 0 0.25060896369640773 1.1944687620549015 0 0 0 0 224.84062746362179 -91.630556252649512 0 -91.630556252649512 67.604007509471558 0 0 0 0 180.95938791098888 14.31454890207533 0 14.31454890207533 22.07427283954803 0 0 0 0 -0.83914070782327599 2.9587305843064833 0 2.9587305843064833 1.4370356303113954 0 0 0 0 179.81361933783046 -6.6076601527429375 0 -6.6076601527429375 17.796034110320761 0 0 0 0 128.08359472359007 -36.127290802179004 0 -36.127290802179004 51.847727276219302 0 0 0 0 179.86946444152272 17.399935943122728 0 17.399935943122728 17.108383710650742 0 0 0 0 128.27020053959859 22.847778926627598 0 22.847778926627598 19.902332944426234 0 0 0 0 122.81026654363086 8.4491206640473138 0 8.4491206640473138 25.284958378269948 0 0 0 0 138.52445364461164 25.406298895684813 0 25.406298895684813 19.726501266820378 0 0 0 0 -0.34186774555607258 13.841493832878768 0 13.841493832878768 7.9719096497530906 0 0 0 0 142.19519697737996 -3.7010336867242586 0 -3.7010336867242586 26.01995848725528 0 0 0 0 156.8513253745914 38.206892992776375 0 38.206892992776375 -1.1615322930163074 0 0 0 0 43.524182716675568 18.311871496078311 0 18.311871496078311 -2.6370276573748015 0 0 0 0 49.373194695413986 12.467572232837711 0 12.467572232837711 3.1409669637796469 0 0 0 0 23.254208725331409 -3.7447064996159725 0 -3.7447064996159725 61.968378385781762 0 0 0 0 55.32724190648878 4.9542812045606297 0 4.9542812045606297 -24.941533731208438 0 0 0 0 32.755426192544235 7.3811018506784691 0 7.3811018506784691 0.63421187667867107 0 0 0 0 41.405329201825225 16.343332902226393 0 16.343332902226393 -6.9831237289690762 0 0 0 0 32.395610854757024 7.6834054007358432 0 7.6834054007358432 2.1045393888017925 0 0 0 0 85.69528083102341 2.0685180191318295 0 2.0685180191318295 6.716018799959329 0 0 0 0 100.10722390067531 -3.5223449069856088 0 -3.5223449069856088 -3.6907058660226539 0 0 0 0 56.35858466407791 4.9622814844977086 0 4.9622814844977086 -2.1332340096063875 0 0 0 0 81.035935308536864 7.2456004307124431 0 7.2456004307124431 4.4971621306053748 0 0 0 0 16.121325136677541 10.93732599366875 0 10.93732599366875 1.7934775093411019 0 0 0 0 34.24903837392776 4.5570446008453018 0 4.5570446008453018 6.8410527465512132 0 0 0 0 40.685967913574132 2.7647478163230517 0 2.7647478163230517 -3.2659424906473191 0 0 0 0 7.1503848644795198 2.1057304820656242 0 2.1057304820656242 0.36212686466600141 0 0 0 0 14.740427250995708 -22.505569325496026 0 -22.505569325496026 11.301627185967163 0 0 0 0 11.539970816392895 -2.2262776851508335 0 -2.2262776851508335 0.66289268367907672 0 0 0 0 34.523833673505578 -16.428186491485121 0 -16.428186491485121 -61.443560121479095 0 0 0 0 91.179912052699365 9.1556936752917863 0 9.1556936752917863 1.6865263258810046 0 0 0 0 21.672767674078599 -19.02867761810829 0 -19.02867761810829 -3.2391319557553349 0 0 0 0 18.111505506632966 -16.473624616076563 0 -16.473624616076563 19.891046937685587 0 0 0 0 48.584901418946174 -37.019647811567211 0 -37.019647811567211 -5.9243835842416956 0 0 0 0 39.100431815037155 -28.197668145304078 0 -28.197668145304078 -11.12383613718066 0 0 0 0 19.402622428927671 -19.322919113353649 0 -19.322919113353649 -2.9858127894858075 0 0 0 0 83.692638092159541 -8.5171976158426901 0 -8.5171976158426901 12.306959323800584 0 0 0 0 93.780833832937788 16.955213947354139 0 16.955213947354139 10.826718520282157 0 0 0 0 100.61387513462978 32.884996134157518 0 32.884996134157518 38.945821172262185 0 0 0 0 80.909033205054584 10.04376420522749 0 10.04376420522749 12.975858367362889 0 0 0 0 77.630922917436692 -9.2781073455303158 0 -9.2781073455303158 61.804532936424266 0 0 0 0 154.53821342341689 -18.84366977080208 0 -18.84366977080208 -11.124706889269873 0 0 0 0 -0.38187154678576007 -6.9711389533967134 0 -6.9711389533967134 1.7588258962005279 0 0 0 0 102.06945917681151 66.934642914158303 0 66.934642914158303 63.735999538746455 0 0 0 0 62.521775629720651 5.9848880502765951 0 5.9848880502765951 18.516020349710288 0 0 0 0 3.2623043497852677 11.979414934367341 0 11.979414934367341 4.9534010171259641 0 0 0 0 56.354616455268115 9.0831672382737452 0 9.0831672382737452 9.517824114666837 0 0 0 0 51.292636969450541 4.1912771249905063 0 4.1912771249905063 5.4864593939428232 0 0 0 0 82.062230704301328 8.1525511823745092 0 8.1525511823745092 4.40147787494152 0 0 0 0 81.889480420795735 2.9421545314917239 0 2.9421545314917239 0.35629400711331982 0 0 0 0 62.840989103791799 -1.3374772365904732 0 -1.3374772365904732 12.545109497610611 0 0 0 0 66.323898559654481 9.8558221523519478 0 9.8558221523519478 35.120917824458047 0 0 0 0 77.596611440807465 -4.5024608785270175 0 -4.5024608785270175 9.3986581838971688 0 0 0 0 52.559035934275016 -4.2783552212617906 0 -4.2783552212617906 17.560616534544351 0 0 0 0 61.358063728941488 -14.695265665670377 0 -14.695265665670377 -16.687234949406502 0 0 0 0 57.493098362043384 -5.5437817815063681 0 -5.5437817815063681 -1.0912218764260615 0 0 0 0 80.779756510273728 18.412185818235002 0 18.412185818235002 9.7507262940853252 0 0 0 0 21.510113466360366 12.677978393442899 0 12.677978393442899 6.3590467758185234 0 0 0 0 54.578248716206872 -15.9458041078924 0 -15.9458041078924 0.16412373660205049 0 0 0 0 55.985876888222265 -0.45624312421060154 0 -0.45624312421060154 10.745043542961866 0 0 0 0 60.898320005411108 -0.2402454792217199 0 -0.2402454792217199 -1.9085506319892407 0 0 0 0 69.840400946151931 -7.2328281306760118 0 -7.2328281306760118 -17.171944470144808 0 0 0 0 66.25732985882496 -15.170954847272412 0 -15.170954847272412 10.251642954332283 0 0 0 0 65.918502151610625 3.887344897230264 0 3.887344897230264 0.15173206108935133 0 0 0 0 85.692101034888765 18.106645140310775 0 18.106645140310775 -11.082717369457328 0 0 0 0 112.68854244087197 -4.210501509923283 0 -4.210501509923283 5.1564055607186674 0 0 0 0 56.253804627878708 8.1647479060100068 0 8.1647479060100068 -16.805294124212395 0 0 0 0 80.630003491241951 39.316839523838098 0 39.316839523838098 8.3899529067748517 0 0 0 0 8.4789549734066441 3.1274917659468713 0 3.1274917659468713 3.3858367258668789 0 0 0 0 73.110222952738695 29.450094766960319 0 29.450094766960319 19.434226855519228 0 0 0 0 83.483039645718236 -13.220577035948963 0 -13.220577035948963 -42.461164454989103 0 0 0 0 62.259575751668308 -1.5532828452055583 0 -1.5532828452055583 4.7529935342486596 0 0 0 0 146.01691219627537 11.232903659188651 0 11.232903659188651 5.3197382090647807 0 0 0 0 51.294768370105885 2.3750798233658088 0 2.3750798233658088 6.7231895319551995 0 0 0 0 58.840319803217426 -4.8012937248275875 0 -4.8012937248275875 -3.9401909765787764 0 0 0 0 81.11806387638353 22.008168977659352 0 22.008168977659352 -18.069141370775469 0 0 0 0 57.197845505829804 1.7009453557933263 0 1.7009453557933263 -1.3052512210323632 0 0 0 0 14.685971411581235 5.2084253394521198 0 5.2084253394521198 6.1604152506051388 0 0 0 0 53.156549142775475 2.7846755990396161 0 2.7846755990396161 9.3504103259547264 0 0 0 0 57.951341931970092 -3.5813224974704099 0 -3.5813224974704099 11.474136948450663 0 0 0 0 55.753734286568942 3.9321162656386264 0 3.9321162656386264 17.255026778269041 0 0 0 0 62.950620908057317 -2.0942218208817849 0 -2.0942218208817849 8.3806174915619067 0 0 0 0 63.623529224043523 5.4845633056184937 0 5.4845633056184937 13.125029657782534 0 0 0 0 63.110707657368039 11.915435067559656 0 11.915435067559656 17.033576957394118 0 0 0 0 70.623380756497681 -0.80623998835118726 0 -0.80623998835118726 7.8042482584833124 0 0 0 0 56.726352211349877 8.2851714216304373 0 8.2851714216304373 6.9239990834560636 0 0 0 0 79.140841655229451 20.407268949097727 0 20.407268949097727 49.911992580819401 0 0 0 0 76.071123063498817 2.039159565274872 0 2.039159565274872 19.903879246097688 0 0 0 0 59.454256849146986 7.0078231646212714 0 7.0078231646212714 20.970994588832809 0 0 0 0 84.846519868639007 18.869183076501756 0 18.869183076501756 15.556649907145598 0 0 0 0 64.201670079607084 12.285200771870809 0 12.285200771870809 28.964202636501795 0 0 0 0 88.333668228449824 8.7684741272447155 0 8.7684741272447155 12.710284347987539 0 0 0 0 100.19684038887499 18.503442758687129 0 18.503442758687129 18.649729956841156 0 0 0 0 143.26071680408495 27.13491296528349 0 27.13491296528349 18.688271587589611 0 0 0 0 63.121646589286684 -6.8963501093899708 0 -6.8963501093899708 14.699800140034473 0 0 0 0 145.92893808367467 -13.727587268401994 0 -13.727587268401994 4.9528866858118477 0 0 0 0 130.00059157656506 -17.573508558395204 0 -17.573508558395204 7.6446363288653174 0 0 0 0 -61.470521833645762 -2.6497229198871537 0 -2.6497229198871537 45.138711860018816 0 0 0 0 11.420085707302896 17.812205707909115 0 17.812205707909115 2.424304594564719 0 0 0 0 -2.9803617067238974 1.5316541677911601 0 1.5316541677911601 0.9259943830647186 0 0 0 0 46.226295856518846 9.0274316538925099 0 9.0274316538925099 12.381397609950341 0 0 0 0 54.134870444580883 5.1619786732348416 0 5.1619786732348416 13.893427214380779 0 0 0 0 29.236465377500281 -4.3055048287458249 0 -4.3055048287458249 22.961208701969099 0 0 0 0 50.891881087787624 -6.5633564468298573 0 -6.5633564468298573 10.407867377818548 0 0 0 0 97.787973224461894 87.001019042180999 0 87.001019042180999 -12.761777773772792 0 0 0 0 61.526855930467718 5.8835813898044762 0 5.8835813898044762 15.965727150143465 0 0 0 0 92.378605575686379 -3.2480440652269635 0 -3.2480440652269635 -13.077955191688488 0 0 0 0 20.684212341483047 19.641563812524652 0 19.641563812524652 6.326316496549131 0 0 0 0 79.422031786089065 -30.112307744183454 0 -30.112307744183454 -40.016845170528541 0 0 0 0 105.17730347628822 -0.75287978693540936 0 -0.75287978693540936 -37.701853631807808 0 0 0 0 93.848054156042053 1.4444045812715558 0 1.4444045812715558 -5.979636758306242 0 0 0 0 25.48556718416512 -18.38745064012528 0 -18.38745064012528 5.3798385588900146 0 0 0 0 33.46554469208786 -9.1621364375728263 0 -9.1621364375728263 12.065260026041869 0 0 0 0 98.893183217846683 0.90153476177996339 0 0.90153476177996339 -4.115256121066281 0 0 0 0 42.42700725603936 -53.320932555028321 0 -53.320932555028321 -79.832162812864226 0 0 0 0 112.07324553824583 17.330544917826217 0 17.330544917826217 -8.4987039604638994 0 0 0 0 70.010030069577624 17.378369978297542 0 17.378369978297542 13.806109041055606 0 0 0 0 9.5861272911113318 14.869151271323403 0 14.869151271323403 12.635464375630345 0 0 0 0 75.470766759732214 22.251372063547024 0 22.251372063547024 16.899769709500106 0 0 0 0 62.888309068090564 15.609718669715194 0 15.609718669715194 8.7661302555508058 0 0 0 0 103.63545079051983 26.653125978890785 0 26.653125978890785 9.0325444275376867 0 0 0 0 908.20670954328671 -308.50881640609487 0 -308.50881640609487 -200.39559868444394 0 0 0 0 281.24744115977956 146.65082628838263 0 146.65082628838263 -136.87962049834732 0 0 0 0 113.08632609638164 0.91079830125887895 0 0.91079830125887895 -3.7205245278190171 0 0 0 0 121.86330182582606 16.812165934384666 0 16.812165934384666 -82.468322533500213 0 0 0 0 -145.24724583519128 144.27390592243796 0 144.27390592243796 24.006704363531753 0 0 0 0 132.61371419723582 92.082701514348059 0 92.082701514348059 -7.6564490179798668 0 0 0 0 -99.021276838626363 -67.625278772971342 0 -67.625278772971342 -7.7766982205903332 0 0 0 0 0.049580134186797409 0.93594169188055787 0 0.93594169188055787 0.37958928324359675 0 0 0 0 238.92887075669569 -24.974380472841403 0 -24.974380472841403 12.938785563774445 0 0 0 0 666.62967524419946 4.10488385255303 0 4.10488385255303 -150.44463763609565 0 0 0 0 236.82859054668552 -25.472469855006068 0 -25.472469855006068 15.640590038505707 0 0 0 0 30.952555730229506 11.31650229916076 0 11.31650229916076 29.976755716396838 0 0 0 0 2.3949547769661876 1.0133822492698528 0 1.0133822492698528 26.271301953268221 0 0 0 0 42.330227353457303 16.430836028175804 0 16.430836028175804 19.018243163601937 0 0 0 0 0.13765892824416071 0.7490307995702068 0 0.7490307995702068 0.72873650485243679 0 0 0 0 46.645679548128101 6.5731860039045671 0 6.5731860039045671 0.8899388235178094 0 0 0 0 85.383448499822407 -18.278163437812395 0 -18.278163437812395 32.451842574824695 0 0 0 0 166.3221440765119 39.464288303510671 0 39.464288303510671 -2.8911032095847986 0 0 0 0 83.787522313978116 -22.631921033536457 0 -22.631921033536457 11.762531401133401 0 0 0 0 184.33723627579457 19.159421456278778 0 19.159421456278778 -42.93532496589367 0 0 0 0 -0.5948212332245042 0.36339001736327248 0 0.36339001736327248 1.4615100105689622 0 0 0 0 38.344985137998265 1.0463011625043421 0 1.0463011625043421 6.2243207528243261 0 0 0 0 45.451077181263827 4.4489282779551331 0 4.4489282779551331 3.8992269625137421 0 0 0 0 64.234053320669773 29.03638223546298 0 29.03638223546298 -13.746271928986289 0 0 0 0 66.785357125190785 18.025807689839866 0 18.025807689839866 33.084702344395737 0 0 0 0 88.684349486298743 -31.602177908878389 0 -31.602177908878389 17.740429179767062 0 0 0 0 86.343995935792918 -19.52822951756189 0 -19.52822951756189 -41.077663802916732 0 0 0 0 104.71368627949414 41.65603315673934 0 41.65603315673934 13.947999810408874 0 0 0 0 15.442691098740966 -5.0130253376856047 0 -5.0130253376856047 10.799037993561914 0 0 0 0 57.354605500240268 -43.168801626614574 0 -43.168801626614574 -8.3892196789228137 0 0 0 0 107.36892483638803 -36.571931089663053 0 -36.571931089663053 -17.84720946077482 0 0 0 0 59.539483190121246 4.0318310261843635 0 4.0318310261843635 27.448676079837696 0 0 0 0 128.64767822918657 7.5550135219256731 0 7.5550135219256731 -9.4431273421341757 0 0 0 0 19.421232227478527 13.641857943325519 0 13.641857943325519 -3.2286321118847106 0 0 0 0 7.5224830729050112 -0.42364569716148992 0 -0.42364569716148992 2.8136583307424017 0 0 0 0 50.264670143164039 -5.4249166781070528 0 -5.4249166781070528 4.4391703914782283 0 0 0 0 39.950187138369074 15.863421769607612 0 15.863421769607612 -11.697567649607748 0 0 0 0 9.5665639495246708 0.090035260183014998 0 0.090035260183014998 -0.11876529304518835 0 0 0 0 28.375908425456146 -3.5771812906793912 0 -3.5771812906793912 6.6179687291185019 0 0 0 0 76.231175594017259 -4.6282899377431477 0 -4.6282899377431477 15.264269722090376 0 0 0 0 35.648002660806497 5.6125724491242295 0 5.6125724491242295 0.096527418946824373 0 0 0 0 11.052837675286355 -7.8938958739869918 0 -7.8938958739869918 -4.8154632596679221 0 0 0 0 36.129918514619931 9.7492060163224323 0 9.7492060163224323 5.2819537791763196 0 0 0 0 44.141249346981567 -0.50626115876906397 0 -0.50626115876906397 2.1843316473737104 0 0 0 0 17.844055543836461 -1.2240166496344784 0 -1.2240166496344784 -5.1048609553409996 0 0 0 0 55.802450115937972 -17.212355407733241 0 -17.212355407733241 37.914306582496636 0 0 0 0 124.79711367659911 23.896534807834087 0 23.896534807834087 -6.9683333394787752 0 0 0 0 39.999919458045042 0.59089467222116809 0 0.59089467222116809 10.813209963244503 0 0 0 0 73.010474059243279 -10.101525802107886 0 -10.101525802107886 -3.604608063071737 0 0 0 0 134.86955823129392 -4.598256293478471 0 -4.598256293478471 25.467318651298456 0 0 0 0 143.90029358152242 -41.708811147705433 0 -41.708811147705433 -0.34678525187040776 0 0 0 0 41.433229407912393 -14.442409850035808 0 -14.442409850035808 -4.245436367643217 0 0 0 0 74.043387120302214 3.3787239167855319 0 3.3787239167855319 -6.7354893204314976 0 0 0 0 56.585486363654468 -19.127769181238193 0 -19.127769181238193 4.3474832579477827 0 0 0 0 19.110817423257899 0.9665606436345584 0 0.9665606436345584 -3.7960935104632609 0 0 0 0 107.73490591389418 -8.1278884687199024 0 -8.1278884687199024 2.1783562162526664 0 0 0 0 79.008901252091164 14.207624758195834 0 14.207624758195834 0.84072718985237316 0 0 0 0 76.170955239547766 -4.2828646334685345 0 -4.2828646334685345 3.9741739892567693 0 0 0 0 85.744395767418609 2.1675480188886525 0 2.1675480188886525 3.6359756472966183 0 0 0 0 65.923551935484284 4.535828914491276 0 4.535828914491276 5.8430006874444302 0 0 0 0 99.778361450997181 24.440665269647639 0 24.440665269647639 13.412439762203348 0 0 0 0 64.282882414117921 13.522918938022144 0 13.522918938022144 6.5401634338579697 0 0 0 0 37.634015717779221 0.6275788182718145 0 0.6275788182718145 3.2391995371153826 0 0 0 0 62.700955266976962 13.479504365228991 0 13.479504365228991 -2.9278596122755403 0 0 0 0 64.698374379660891 6.5021627317509001 0 6.5021627317509001 4.8789986493140987 0 0 0 0 13.286557079547492 30.077959598396063 0 30.077959598396063 19.886318013372176 0 0 0 0 36.708478111875593 7.9013274091371386 0 7.9013274091371386 10.909655179777019 0 0 0 0 73.332258743608691 8.9724455115899673 0 8.9724455115899673 4.1825615373231813 0 0 0 0 67.864656881080009 -0.82863002967872035 0 -0.82863002967872035 13.279716013987297 0 0 0 0 5.738598229312629 0.42563633742759066 0 0.42563633742759066 59.092882714294092 0 0 0 0 72.91522128395809 6.9291791010561496 0 6.9291791010561496 12.624124227444611 0 0 0 0 70.651529596376349 2.2758893716441548 0 2.2758893716441548 3.6881283439850918 0 0 0 0 74.177103595764493 -10.723735411961798 0 -10.723735411961798 -2.9487219938994116 0 0 0 0 44.629986312218534 -1.4541168108944902 0 -1.4541168108944902 10.312781219355987 0 0 0 0 118.6088127703224 -2.6719680457776249 0 -2.6719680457776249 -54.051229992960884 0 0 0 0 0.39501969389071689 0.29709820708568202 0 0.29709820708568202 0.19486249193770555 0 0 0 0 46.427820780500042 1.1559149193186329 0 1.1559149193186329 7.407895532315024 0 0 0 0 40.840867265767884 11.133944618595308 0 11.133944618595308 9.6396043255374479 0 0 0 0 16.69620605698637 16.569972809739255 0 16.569972809739255 -1.5305881431578401 0 0 0 0 82.885126578912605 -17.055018959839089 0 -17.055018959839089 9.8219659897746396 0 0 0 0 6.456695651080679 0.75494342838965167 0 0.75494342838965167 0.37645373275145338 0 0 0 0 53.704261051141657 -3.8395466666358278 0 -3.8395466666358278 6.406868978154634 0 0 0 0 80.084597616601968 1.9708143376257681 0 1.9708143376257681 -0.5363637918573545 0 0 0 0 107.38144285833914 11.379867810154536 0 11.379867810154536 2.5378445498774909 0 0 0 0 70.203043322857411 9.0491895059791574 0 9.0491895059791574 9.4527988661786821 0 0 0 0 75.272583216144994 14.504994935725012 0 14.504994935725012 8.4555545869936282 0 0 0 0 76.714020708684984 3.9693432958915196 0 3.9693432958915196 2.3372174064509466 0 0 0 0 83.139650280940259 5.320221078572942 0 5.320221078572942 1.4898328784777277 0 0 0 0 79.192531488828536 1.3392266396682615 0 1.3392266396682615 1.8172904541800676 0 0 0 0 76.947459008624719 0.29405183866333573 0 0.29405183866333573 1.3844812059740548 0 0 0 0 60.42118396168371 6.4073525613848687 0 6.4073525613848687 5.8074419690219798 0 0 0 0 60.054963344864518 16.904733383121624 0 16.904733383121624 6.1773138792592022 0 0 0 0 64.717980494453514 7.6867768752848349 0 7.6867768752848349 6.8166291330998092 0 0 0 0 47.751793382580331 23.493371923100106 0 23.493371923100106 -3.5716529807777206 0 0 0 0 -126.55116116954741 226.26780293985493 0 226.26780293985493 -95.928470318980033 0 0 0 0 44.595861692738254 100.84302208516071 0 100.84302208516071 30.896638624619342 0 0 0 0 -21.365205809036524 18.893037328878616 0 18.893037328878616 -70.886271243424972 0 0 0 0 46.289293429804019 23.250061191644555 0 23.250061191644555 -2.5589365350941793 0 0 0 0 -83.09859715006769 190.97431313246173 0 190.97431313246173 -50.265713036963085 0 0 0 0 69.78583682300814 10.334208061770426 0 10.334208061770426 5.9868206079387249 0 0 0 0 -33.228342893344234 26.075660880985559 0 26.075660880985559 -14.475594664925524 0 0 0 0 -8.2085003541360493 90.701022789023469 0 90.701022789023469 103.14892673345167 0 0 0 0 51.71521824404681 -55.550787679539766 0 -55.550787679539766 101.09070441198885 0 0 0 0 72.632648718295968 -2.3143811020188423 0 -2.3143811020188423 5.8046399503231214 0 0 0 0 71.565927799238125 -1.8636929252208461 0 -1.8636929252208461 14.257732167973927 0 0 0 0 71.80105635860582 -2.5783039484082408 0 -2.5783039484082408 5.7825414218769993 0 0 0 0 70.060567659595108 4.0247688670352204 0 4.0247688670352204 7.6132796904510087 0 0 0 0 -63.178392757574329 103.7606205887547 0 103.7606205887547 -8.4191918425227641 0 0 0 0 44.349896338642594 22.318941754736436 0 22.318941754736436 -3.071998697657091 0 0 0 0 66.805037098005414 -3.5853687253278395 0 -3.5853687253278395 13.646162938836255 0 0 0 0 76.763568882335676 -24.33714110296728 0 -24.33714110296728 18.351266192226831 0 0 0 0 -18.16709292865653 36.30606654686909 0 36.30606654686909 12.183807636710213 0 0 0 0 -11.238450434146216 13.923820778455919 0 13.923820778455919 22.278044873598031 0 0 0 0 -9.6700951196498863 19.097235590975806 0 19.097235590975806 27.49495741257806 0 0 0 0 17.991675614088308 -2.3661067236453164 0 -2.3661067236453164 15.775518242952415 0 0 0 0 11.970583581614008 -3.0084242987332432 0 -3.0084242987332432 1.4980196815508597 0 0 0 0 -19.523004569866316 14.161809831208341 0 14.161809831208341 41.565904798454994 0 0 0 0 134.19858164396283 -51.075757920348281 0 -51.075757920348281 102.41886043833813 0 0 0 0 7.2694207852327963 -48.402036835440924 0 -48.402036835440924 87.089698890300511 0 0 0 0 27.960283878903283 -22.78611242444213 0 -22.78611242444213 20.443318971949012 0 0 0 0 7.1845078757528569 -3.4349800537135819 0 -3.4349800537135819 0.85834017398007767 0 0 0 0 -25.122654253595101 -17.085031099902658 0 -17.085031099902658 58.696053927935054 0 0 0 0 52.44420556744808 -42.693697651781562 0 -42.693697651781562 35.718992451258998 0 0 0 0 -9.6884553310628689 38.120128990676662 0 38.120128990676662 149.95803452022676 0 0 0 0 0.85365123311423474 -0.54221714869851922 0 -0.54221714869851922 0.33824936516606052 0 0 0 0 0.26952257302036742 -63.524426495684111 0 -63.524426495684111 -140.18841296765265 0 0 0 0 5.0346070523759217 -3.4698128030724433 0 -3.4698128030724433 2.9512052711831731 0 0 0 0 10.113965280928824 -11.469280841609702 0 -11.469280841609702 7.3706575835156372 0 0 0 0 -0.78917662466928107 -1.2360587179365314 0 -1.2360587179365314 1.0900033553520487 0 0 0 0 9.112821510003414 -3.1521999626924639 0 -3.1521999626924639 5.7606537906116273 0 0 0 0 6.3939053037247504 0.4786076051116197 0 0.4786076051116197 11.007590805882472 0 0 0 0 8.2124451419913385 2.3684960661225176 0 2.3684960661225176 6.9817751250269851 0 0 0 0 11.213836130648261 -0.4533787250388599 0 -0.4533787250388599 -0.60431826592578175 0 0 0 0 9.7684169743715756 2.1643200060672143 0 2.1643200060672143 1.3796245119809782 0 0 0 0 289.60644842231341 -261.56607513297973 0 -261.56607513297973 225.56138577155457 0 0 0 0 3.7567828895837021 -1.1455368747761909 0 -1.1455368747761909 4.5624917369508911 0 0 0 0 21.352628425651346 12.263991420020403 0 12.263991420020403 44.251215765511148 0 0 0 0 5.9952215932753461 -0.76498092626309244 0 -0.76498092626309244 15.39247017721209 0 0 0 0 18.382693980507611 1.8132211202032522 0 1.8132211202032522 15.644559878062488 0 0 0 0 26.322189707938378 -4.417919531932057 0 -4.417919531932057 7.3536447954129471 0 0 0 0 10.62774318058473 -2.6677208227195024 0 -2.6677208227195024 4.8018095921564736 0 0 0 0 10.438392173204363 -0.18274310216605372 0 -0.18274310216605372 -1.3501705151923351 0 0 0 0 12.722571351860097 7.3488974986662328 0 7.3488974986662328 -4.1401889573763242 0 0 0 0 8.5576706837127858 -1.8697238482402128 0 -1.8697238482402128 7.1815831896972426 0 0 0 0 19.650948027350751 0.12714972523630852 0 0.12714972523630852 -7.2652343171860281 0 0 0 0 27.125955914772931 -1.1033398693004983 0 -1.1033398693004983 13.098413504605105 0 0 0 0 26.360180637078884 -3.2116711985955817 0 -3.2116711985955817 8.7859639821747351 0 0 0 0 21.763152516494301 -7.400489215054904 0 -7.400489215054904 16.652152465594099 0 0 0 0 103.04112890175384 -64.845830435658513 0 -64.845830435658513 22.873119214697454 0 0 0 0 293.65422661772755 70.937827133092071 0 70.937827133092071 22.588457743115441 0 0 0 0 34.437353053821425 -14.120558772232243 0 -14.120558772232243 5.2932381150053516 0 0 0 0 17.627108470996099 -3.3848336008219846 0 -3.3848336008219846 -10.014052325338398 0 0 0 0 3.7595858989179192 -5.3851468176442481 0 -5.3851468176442481 8.0029147152047866 0 0 0 0 14.715467108726443 -9.6020807572514855 0 -9.6020807572514855 13.581386737659273 0 0 0 0 5.4740204918599531 -2.7386707413981277 0 -2.7386707413981277 -17.007525754502538 0 0 0 0 49.424749871293898 -42.590853738019405 0 -42.590853738019405 31.587879504597367 0 0 0 0 55.803484740899876 -31.437299761043619 0 -31.437299761043619 40.739110432410826 0 0 0 0 257.64676681198762 -12.316662913570326 0 -12.316662913570326 187.86834083811118 0 0 0 0 205.76920537458136 -123.8186733237826 0 -123.8186733237826 53.747339065821848 0 0 0 0 8.3314079981437317 1.4797249477645664 0 1.4797249477645664 -4.6224654712754862 0 0 0 0 296.78346976892499 -12.180865911259843 0 -12.180865911259843 154.46236852005404 0 0 0 0 4.8502067345651128 -4.3969754205866565 0 -4.3969754205866565 -14.671833121490989 0 0 0 0 -0.78912233430492051 -13.631962225945244 0 -13.631962225945244 -16.466473233131182 0 0 0 0 -3.3364385909608245 -10.513437297697237 0 -10.513437297697237 -19.165452456864841 0 0 0 0 2.3969461500345375 -4.8288145767589459 0 -4.8288145767589459 -3.2999819824377679 0 0 0 0 19.803758862835821 -1.8936075573474227 0 -1.8936075573474227 -26.041737904106412 0 0 0 0 -342.14299055376614 -401.55859314510053 0 -401.55859314510053 500.83200465495702 0 0 0 0 -0.68095314074145818 -11.966664751469299 0 -11.966664751469299 -11.048387693861731 0 0 0 0 0.27321542962454259 -6.3233956878138997 0 -6.3233956878138997 -26.851056304833037 0 0 0 0 0.10333858202724855 -0.93402833863213175 0 -0.93402833863213175 -0.55125741692935293 0 0 0 0 43.042313795249356 6.3758174777535714 0 6.3758174777535714 -26.17889092752921 0 0 0 0 24.049157267350893 23.743608156503001 0 23.743608156503001 -15.361505121914888 0 0 0 0 34.483993858462782 -2.6532897022397037 0 -2.6532897022397037 -41.187909032084463 0 0 0 0 10.042583355807437 -10.009532833511656 0 -10.009532833511656 -18.073420064595211 0 0 0 0 -2.9289778675468909 -3.3622387437728101 0 -3.3622387437728101 -1.9877865390148601 0 0 0 0 34.57223398988026 -6.5168116615147937 0 -6.5168116615147937 -12.749578062756427 0 0 0 0 48.09921718174337 48.137618436848925 0 48.137618436848925 5.0441694144792564 0 0 0 0 -16.505215150602453 5.5435526959344088 0 5.5435526959344088 -8.7505335833418485 0 0 0 0 -198.10075719875749 -447.46269712792991 0 -447.46269712792991 85.593506143339255 0 0 0 0 2.7881473179439809 0.16907579276384155 0 0.16907579276384155 -1.4839295542577724 0 0 0 0 1.0103530804481125 -2.8747852494011568 0 -2.8747852494011568 4.9704633233551476 0 0 0 0 -15.039528375855298 11.186308226263577 0 11.186308226263577 1.6155209369685508 0 0 0 0 15.042773496592417 8.7450465626135667 0 8.7450465626135667 -17.773215188844347 0 0 0 0 -21.630752126169682 22.562048819724509 0 22.562048819724509 -21.52791976222818 0 0 0 0 -21.968300658365479 3.5507948536034064 0 3.5507948536034064 -8.7918314828499717 0 0 0 0 41.861560662221109 18.897144569238364 0 18.897144569238364 -7.5643490225199912 0 0 0 0 44.5580112381964 -12.004100450559154 0 -12.004100450559154 -3.335024479593935 0 0 0 0 40.313676103209218 21.455754523825078 0 21.455754523825078 -86.034905138571844 0 0 0 0 9.6029271646675198 1.6872799331589547 0 1.6872799331589547 -14.076069770047278 0 0 0 0 75.771151685119548 -16.600938036533876 0 -16.600938036533876 -41.565537350959346 0 0 0 0 38.351785869585001 -28.424467872272743 0 -28.424467872272743 8.3882230257883066 0 0 0 0 61.102797545503563 -34.565798970542943 0 -34.565798970542943 36.134607475529492 0 0 0 0 109.9587469588223 0.9595793345924335 0 0.9595793345924335 -4.3858802375568757 0 0 0 0 66.475026369638726 -41.922672938903929 0 -41.922672938903929 9.2999034970166576 0 0 0 0 54.017657884407527 16.117202341723953 0 16.117202341723953 25.470444054723885 0 0 0 0 32.313631675215134 -9.8799137141656246 0 -9.8799137141656246 2.0949496507553076 0 0 0 0 49.056499457728933 -4.1403355446673231 0 -4.1403355446673231 17.927917900008367 0 0 0 0 48.262123100481404 -22.2493132912291 0 -22.2493132912291 -8.4092545802825498 0 0 0 0 60.851434956308367 1.8083346158047107 0 1.8083346158047107 51.49265467834357 0 0 0 0 31.515608067347785 -3.9295505967058943 0 -3.9295505967058943 3.8683539007314778 0 0 0 0 30.900126968573545 -10.759157749979146 0 -10.759157749979146 0.40750812156561445 0 0 0 0 41.253768226248212 11.974518914820692 0 11.974518914820692 -3.0999317915220672 0 0 0 0 33.066514630687379 4.1061683338343187 0 4.1061683338343187 17.169520399019348 0 0 0 0 54.735897890597698 -15.972516897549895 0 -15.972516897549895 13.456762224748957 0 0 0 0 56.333784997361363 5.2484880721201534 0 5.2484880721201534 9.4892200340386808 0 0 0 0 44.812374452997261 18.666387236938597 0 18.666387236938597 -2.5949131293723395 0 0 0 0 107.18383176704083 11.430375918951086 0 11.430375918951086 35.786248139497388 0 0 0 0 54.336343993752962 9.1918179296007452 0 9.1918179296007452 44.119809361809985 0 0 0 0 15.395934139520307 -2.9109761755306636 0 -2.9109761755306636 -0.058033124602708597 0 0 0 0 50.574102462429437 -13.491793046352313 0 -13.491793046352313 34.690033433674898 0 0 0 0 37.419154254210298 10.626143377721448 0 10.626143377721448 0.48817998478462243 0 0 0 0 81.682309467156301 -46.517438376947666 0 -46.517438376947666 9.7834917733071052 0 0 0 0 54.48940297299734 -7.9028551513459817 0 -7.9028551513459817 -5.185086266841318 0 0 0 0 47.530663246001041 -9.6967981988781986 0 -9.6967981988781986 -4.5792113343064935 0 0 0 0 50.826381293343729 -15.121048427351525 0 -15.121048427351525 -1.6160869425175406 0 0 0 0 13.77332992811364 10.3357587302628 0 10.3357587302628 -0.54844053432474871 0 0 0 0 20.175436811899999 2.1620644786344201 0 2.1620644786344201 25.108944444459667 0 0 0 0 4.0822205240347245 1.710152473263328 0 1.710152473263328 -2.4324120928629274 0 0 0 0 21.90045904050514 0.58962419833470836 0 0.58962419833470836 -1.8441537116805029 0 0 0 0 23.372961912940809 -0.83067423227942072 0 -0.83067423227942072 14.751310919186835 0 0 0 0 27.024785406072624 0.99849579216834172 0 0.99849579216834172 -15.383972225395155 0 0 0 0 31.16967131705637 -9.5164941684959317 0 -9.5164941684959317 -0.41537482669849912 0 0 0 0 199.02947196468813 -66.462145383933262 0 -66.462145383933262 -120.42741866158508 0 0 0 0 53.721788531707716 1.7164445005748803 0 1.7164445005748803 -27.279268510869542 0 0 0 0 37.834504206805562 -5.4341437770361853 0 -5.4341437770361853 -0.51939082968569739 0 0 0 0 33.245848710921564 -7.8465592941676618 0 -7.8465592941676618 1.7672262068133477 0 0 0 0 3498.9693270112766 -880.48333861545359 0 -880.48333861545359 -527.80390832771002 0 0 0 0 2552.2762900108901 -445.98656046909866 0 -445.98656046909866 -560.17814500057318 0 0 0 0 2479.7042598086919 -642.93639431375777 0 -642.93639431375777 -170.63227337384149 0 0 0 0 2452.5116945962654 -936.75546606559999 0 -936.75546606559999 -415.34422416632754 0 0 0 0 3500.8276525743122 -1564.8217406237522 0 -1564.8217406237522 -145.5427855103022 0 0 0 0 2043.4532613388728 -1494.0347244816444 0 -1494.0347244816444 245.16098137067445 0 0 0 0 2003.3479897383836 -1615.9984067886792 0 -1615.9984067886792 792.44652627277526 0 0 0 0 2418.4102824080251 -1151.3435340877666 0 -1151.3435340877666 82.340626850414424 0 0 0 0 1027.3059741388197 -518.86996853716755 0 -518.86996853716755 201.18080277172703 0 0 0 0 1020.2089137329604 -986.16369273205362 0 -986.16369273205362 468.52930417223388 0 0 0 0 652.20192804380349 -590.56969488823995 0 -590.56969488823995 403.83205079527494 0 0 0 0 741.05548543581608 -512.63148711978056 0 -512.63148711978056 351.95165544240308 0 0 0 0 788.03740976557856 -430.74377875723678 0 -430.74377875723678 217.09302808120663 0 0 0 0 953.22451161584831 -352.52048764153653 0 -352.52048764153653 128.0553054641191 0 0 0 0 1530.1344110905011 -674.09521423305569 0 -674.09521423305569 153.77686359676312 0 0 0 0 1530.1864419230224 -681.29834669516822 0 -681.29834669516822 -21.351910173905935 0 0 0 0 1236.8109308237617 -456.56933605603808 0 -456.56933605603808 126.11535224392966 0 0 0 0 503.81858443872261 -249.66031015079949 0 -249.66031015079949 235.79850796937436 0 0 0 0 744.51488301629433 -352.90971225752173 0 -352.90971225752173 176.58245853884534 0 0 0 0 527.88416197273636 -178.55740394500367 0 -178.55740394500367 119.36586985513151 0 0 0 0 303.59049616244738 -213.12640434859441 0 -213.12640434859441 194.35426450295742 0 0 0 0 890.62379267541473 -429.5427700332184 0 -429.5427700332184 200.5564144815387 0 0 0 0 431.71866494452115 -238.06401266909205 0 -238.06401266909205 276.09657233668213 0 0 0 0 352.48767181834592 -138.66420299517682 0 -138.66420299517682 37.848670355412651 0 0 0 0 240.06461032765947 -201.11735508966984 0 -201.11735508966984 276.45947474063939 0 0 0 0 185.72025966636465 70.35557666801607 0 70.35557666801607 -40.289945882050233 0 0 0 0 146.00246436138332 -109.13411584916446 0 -109.13411584916446 223.49745296548815 0 0 0 0 463.32656522276739 -238.76823605331808 0 -238.76823605331808 104.71701772272127 0 0 0 0 320.95428951247777 -46.457867964751436 0 -46.457867964751436 100.87094065269372 0 0 0 0 207.7957456298318 -9.2070572138356681 0 -9.2070572138356681 -83.743290862371495 0 0 0 0 173.94681635939924 -54.249768351085976 0 -54.249768351085976 148.97753810196716 0 0 0 0 169.96181364859513 49.205726477064218 0 49.205726477064218 -63.977605845780261 0 0 0 0 97.232693446032499 117.30306851888787 0 117.30306851888787 -40.088290585277036 0 0 0 0 98.497980877444206 89.177272343459663 0 89.177272343459663 -222.52082627252094 0 0 0 0 -78.533636899673184 4.1118572806889944 0 4.1118572806889944 -47.773797046768323 0 0 0 0 76.656784901533683 95.908904505436624 0 95.908904505436624 -15.466481692863994 0 0 0 0 145.43047608160487 -90.918257021550005 0 -90.918257021550005 56.575531839139096 0 0 0 0 216.61381286246706 -9.1486319193867232 0 -9.1486319193867232 135.31898490703256 0 0 0 0 421.67787337366099 -153.08651040935823 0 -153.08651040935823 76.201046186593288 0 0 0 0 399.6060328366184 -243.41527531008788 0 -243.41527531008788 221.17377025220455 0 0 0 0 218.83099215007678 -57.667488074087302 0 -57.667488074087302 125.40331272746033 0 0 0 0 244.43791404765943 3.4416919080791786 0 3.4416919080791786 84.490397743885183 0 0 0 0 449.64381536105793 -155.07440573624075 0 -155.07440573624075 133.89211719323401 0 0 0 0 571.34445875611527 -354.59336765891726 0 -354.59336765891726 233.33685443087745 0 0 0 0 667.52254694535986 -149.98819032877577 0 -149.98819032877577 -10.626602023439432 0 0 0 0 536.45075680403534 -64.662858536930969 0 -64.662858536930969 -31.140867712877025 0 0 0 0 577.50694724279492 11.85276995618193 0 11.85276995618193 36.228456891422297 0 0 0 0 241.41911121447629 68.676731783666014 0 68.676731783666014 64.160931244740482 0 0 0 0 108.80321288965206 204.2694209910822 0 204.2694209910822 54.415725481901518 0 0 0 0 7.1195027868956231 0.20712883799794923 0 0.20712883799794923 0.90006341587075078 0 0 0 0 916.5926292813092 -521.67870257303514 0 -521.67870257303514 333.11005259898729 0 0 0 0 33.594686623700909 35.059210299317584 0 35.059210299317584 78.153572429441738 0 0 0 0 1211.9049460264214 -323.44292701724225 0 -323.44292701724225 56.781785947138246 0 0 0 0 729.89584812445537 134.71205220099966 0 134.71205220099966 -113.41959446804883 0 0 0 0 1132.6117811051445 -304.665419277799 0 -304.665419277799 -8.9811189533288385 0 0 0 0 1106.5016870103027 -403.32377582201201 0 -403.32377582201201 -79.693300026966313 0 0 0 0 1051.4741338057866 -408.06859045674389 0 -408.06859045674389 13.988807801141718 0 0 0 0 826.97302334016786 -636.34075710105742 0 -636.34075710105742 -8.4341539494618019 0 0 0 0 698.164470579929 -389.70071794610044 0 -389.70071794610044 237.21077197662936 0 0 0 0 727.93081659456584 -511.53556904290815 0 -511.53556904290815 651.6339554810794 0 0 0 0 411.21635635227358 -296.01152777946828 0 -296.01152777946828 297.6813505254666 0 0 0 0 518.90231778002999 -488.04826590107996 0 -488.04826590107996 303.88737356857592 0 0 0 0 429.42792646465568 -430.85304433854014 0 -430.85304433854014 5.8476804542513037 0 0 0 0 510.92071535334253 -279.24936099157378 0 -279.24936099157378 267.12573982965858 0 0 0 0 60.753878580748278 -404.10219248105085 0 -404.10219248105085 -298.23821256303916 0 0 0 0 84.397724013244442 -68.683452678187678 0 -68.683452678187678 159.12812159544637 0 0 0 0 593.45048784053142 -240.0710319671706 0 -240.0710319671706 207.76300791413149 0 0 0 0 584.60830838445509 -104.15927550149334 0 -104.15927550149334 238.34699226614111 0 0 0 0 651.12894818018322 -286.85902733681303 0 -286.85902733681303 286.2914614158754 0 0 0 0 572.99807503436023 -355.54300080697703 0 -355.54300080697703 230.84523626554483 0 0 0 0 567.48905714450666 -198.08326975835297 0 -198.08326975835297 180.0912829250907 0 0 0 0 855.35168280876132 -202.6199404506159 0 -202.6199404506159 200.26578647360066 0 0 0 0 1190.0156038436544 -161.75030638456985 0 -161.75030638456985 13.179959799812991 0 0 0 0 1192.0847561610935 -219.87652720548397 0 -219.87652720548397 159.69051327914724 0 0 0 0 1686.6645886112374 -339.51257240436701 0 -339.51257240436701 -214.60404021867259 0 0 0 0 1670.798624519939 -255.82588463787465 0 -255.82588463787465 -19.399187425743662 0 0 0 0 1606.8891064500449 146.65391161973332 0 146.65391161973332 -229.75936522977338 0 0 0 0 1493.0855301087322 -85.047924326313364 0 -85.047924326313364 -5.8036011158603742 0 0 0 0 350.43328413544168 122.39869565044305 0 122.39869565044305 262.15186860616507 0 0 0 0 1237.2294143529325 63.706155034761537 0 63.706155034761537 220.82129194269334 0 0 0 0 -348.43913975414034 354.28684482644991 0 354.28684482644991 169.95066016760362 0 0 0 0 1138.3740755228937 214.81300510114477 0 214.81300510114477 91.74520294624898 0 0 0 0 2112.3081180799418 289.8348152437764 0 289.8348152437764 -253.59468545179186 0 0 0 0 1355.7516201321969 937.98413907225427 0 937.98413907225427 -191.66028607776121 0 0 0 0 2595.6298183463514 449.40212867967233 0 449.40212867967233 -318.08676533068137 0 0 0 0 2633.9416541846749 776.1920539779436 0 776.1920539779436 -34.377245345494885 0 0 0 0 2816.5182111663853 496.12925500321217 0 496.12925500321217 -516.57363461768875 0 0 0 0 3498.895921427651 486.43770696006544 0 486.43770696006544 -614.33504789701112 0 0 0 0 2650.8306308280371 16.348968425606245 0 16.348968425606245 -706.26267179013439 0 0 0 0 3499.7000077608209 -7.2818057841271555 0 -7.2818057841271555 -721.44882274233487 0 0 0 0 2554.5689176284868 0.48806938692052881 0 0.48806938692052881 -269.27915028522261 0 0 0 0 2706.1392631093659 -381.11599306803595 0 -381.11599306803595 -548.80658550519013 0 0 0 0 3483.4339783601881 941.8609867687145 0 941.8609867687145 -652.64101168909838 0 0 0 0 1488.5149331624325 -511.43934766114074 0 -511.43934766114074 -801.28343314217398 0 0 0 0 -267.03103966114395 564.26943200959204 0 564.26943200959204 565.44168710729991 0 0 0 0 -309.33546747237961 161.48379374528412 0 161.48379374528412 257.92761724858531 0 0 0 0 12.547831426752396 5.1789962870507402 0 5.1789962870507402 1.0461821229909474 0 0 0 0 1723.8208218997624 1972.9600237843831 0 1972.9600237843831 596.16485945557247 0 0 0 0 3492.3629039213411 1865.0651597270612 0 1865.0651597270612 -52.462304991691134 0 0 0 0 2587.8267088314678 1517.9873433048706 0 1517.9873433048706 376.18067861373419 0 0 0 0 2686.7265982501158 1086.9187174813223 0 1086.9187174813223 240.43916987442861 0 0 0 0 3501.23833629605 922.62945944765545 0 922.62945944765545 -296.4008063175923 0 0 0 0 2474.3122433151584 666.85548697862646 0 666.85548697862646 -37.366748897963397 0 0 0 0 2854.5630919459545 1071.9392047560223 0 1071.9392047560223 399.24373599051847 0 0 0 0 770.40451833199404 -428.57441080666894 0 -428.57441080666894 330.55768667412184 0 0 0 0 1943.3659058593748 1099.8887819872136 0 1099.8887819872136 -253.39719716055183 0 0 0 0 9.4103679784640661 1.134812074650279 0 1.134812074650279 -0.25365487572600615 0 0 0 0 7.7777882382463162 1.3787906313280605 0 1.3787906313280605 0.19875929571940992 0 0 0 0 -48.796576474349422 -253.99983015988641 0 -253.99983015988641 347.16857699612086 0 0 0 0 830.43990411350751 853.52844310729074 0 853.52844310729074 -31.85553108100892 0 0 0 0 139.4297237050414 -172.19724172053481 0 -172.19724172053481 -370.42982562800023 0 0 0 0 18.356688313917957 1.4023821820882407 0 1.4023821820882407 -1.364303308515072 0 0 0 0 272.89880778201041 -117.24471049508809 0 -117.24471049508809 -604.75958318714993 0 0 0 0 -110.50215416774881 -180.88733702225693 0 -180.88733702225693 -116.54791166004156 0 0 0 0 -119.88706784200622 -242.1063320212736 0 -242.1063320212736 322.12935875511295 0 0 0 0 418.07117421397015 -729.70029577316097 0 -729.70029577316097 -377.88570796640084 0 0 0 0 233.04821545980303 -127.34364455514191 0 -127.34364455514191 -839.81270545855614 0 0 0 0 -131.72521164168938 531.18911153854833 0 531.18911153854833 -393.31816833010157 0 0 0 0 19.408297392101019 6.4940246574136671 0 6.4940246574136671 1.0069817055249497 0 0 0 0 96.581933798086538 -168.47049955879007 0 -168.47049955879007 -120.07127457878146 0 0 0 0 36.185741410437913 -362.63286108950916 0 -362.63286108950916 215.24720101955899 0 0 0 0 6.2492353201146216 2.3398511908479236 0 2.3398511908479236 1.1722361263703462 0 0 0 0 698.00726076959472 146.66774766966466 0 146.66774766966466 132.18838122703238 0 0 0 0 1342.9697680200934 331.03106358927153 0 331.03106358927153 -155.00293195121736 0 0 0 0 98.405514361056703 246.98267942503588 0 246.98267942503588 734.30282286396709 0 0 0 0 787.63913147367202 -271.55393838867678 0 -271.55393838867678 156.04401750491692 0 0 0 0 571.51535196942314 763.19594503868166 0 763.19594503868166 -341.27872973004372 0 0 0 0 8.2010542369489769 1.4547373920132642 0 1.4547373920132642 -0.17775013678713675 0 0 0 0 -346.51970341571359 -332.38435331419612 0 -332.38435331419612 -32.802533108593778 0 0 0 0 51.932973246974143 -216.31900206730009 0 -216.31900206730009 -276.7942820870129 0 0 0 0 17.985175118076057 0.13684524305001844 0 0.13684524305001844 -1.4783897368127721 0 0 0 0 315.21267491885374 74.456623710630765 0 74.456623710630765 -780.38483573659562 0 0 0 0 -170.00946181125983 18.420480681823449 0 18.420480681823449 68.871278277160286 0 0 0 0 -325.81940369513541 29.387388285033538 0 29.387388285033538 85.344841176801083 0 0 0 0 9.8864764870833142 -0.54606499973140643 0 -0.54606499973140643 -0.75159450518243742 0 0 0 0 1059.7363961002229 444.44611461585976 0 444.44611461585976 -568.21205574528926 0 0 0 0 1322.3491369540461 -619.98909365639872 0 -619.98909365639872 -8.4982825183187511 0 0 0 0 584.88131969727692 -733.2566049512028 0 -733.2566049512028 376.47629626458536 0 0 0 0 1212.9240375869813 -41.784682322022306 0 -41.784682322022306 -186.53872584133001 0 0 0 0 1539.2079285888794 -317.11356030127251 0 -317.11356030127251 -141.5772565251234 0 0 0 0 916.54784371351707 -341.95661220805937 0 -341.95661220805937 594.5366624081006 0 0 0 0 1222.9495548551713 31.001331432536446 0 31.001331432536446 697.93063453783009 0 0 0 0 1253.7709568669488 157.58520522632051 0 157.58520522632051 -356.27190958531207 0 0 0 0 228.45823682448099 458.52284933690242 0 458.52284933690242 452.87008202113196 0 0 0 0 554.82768696736093 -175.89200889656632 0 -175.89200889656632 322.17701585223131 0 0 0 0 1296.9117843902532 611.45046985828981 0 611.45046985828981 41.757126532558004 0 0 0 0 1257.9745311863771 353.67544614909053 0 353.67544614909053 -18.581078615013354 0 0 0 0 -56.32737224343964 -256.11760727765591 0 -256.11760727765591 366.15306589958107 0 0 0 0 287.96783584851073 814.89614509176147 0 814.89614509176147 -237.22680803050969 0 0 0 0 395.67770380723596 -635.35722266333426 0 -635.35722266333426 276.01267258155099 0 0 0 0 262.39603721482354 223.8138174119787 0 223.8138174119787 -372.11379294509152 0 0 0 0 668.34871763250703 -601.65576139689642 0 -601.65576139689642 -18.994453898041257 0 0 0 0 1023.0817844929297 -383.69672949922983 0 -383.69672949922983 26.736534915899711 0 0 0 0 9.925275433243911 1.3916865528158997 0 1.3916865528158997 -0.15340369882550475 0 0 0 0 587.64010482573576 -60.699486541376245 0 -60.699486541376245 -21.281328996048217 0 0 0 0 294.60868020556518 -121.93186453874375 0 -121.93186453874375 -13.447438066212271 0 0 0 0 -51.789396626212692 119.75001853573519 0 119.75001853573519 401.11830087300962 0 0 0 0 323.09725302545667 -746.28114531053484 0 -746.28114531053484 259.72354523147033 0 0 0 0 332.2944950765102 -475.12493215203204 0 -475.12493215203204 671.03999585066845 0 0 0 0 990.67628788443108 -567.07931232004535 0 -567.07931232004535 -892.18765941328434 0 0 0 0 384.90997865753161 219.11956340933079 0 219.11956340933079 -1096.9857454917712 0 0 0 0 -38.267832350466051 401.81435445994703 0 401.81435445994703 -782.02211214037925 0 0 0 0 -587.92768293727204 272.04075444127784 0 272.04075444127784 -339.83621649110501 0 0 0 0 676.92015749093343 -671.8001731611547 0 -671.8001731611547 93.219060373568936 0 0 0 0 128.08787551453588 -56.714381763377332 0 -56.714381763377332 -570.01539702525042 0 0 0 0 0.28157617410959546 0.1359753139583475 0 0.1359753139583475 -13.042223943938893 0 0 0 0 94.770673465165601 -502.47647726920331 0 -502.47647726920331 720.3303846476947 0 0 0 0 378.03433123276773 -337.12806647055311 0 -337.12806647055311 280.08363557217217 0 0 0 0 300.54363116182503 -116.98677483564234 0 -116.98677483564234 -182.19973909909049 0 0 0 0 106.9363898793963 119.58658294456927 0 119.58658294456927 79.262808444213533 0 0 0 0 -221.49109616907663 -18.538459861071487 0 -18.538459861071487 863.58385101501153 0 0 0 0 -166.45107822244245 -671.40389618880522 0 -671.40389618880522 84.674386009044611 0 0 0 0 705.30739169769231 -467.45619246156616 0 -467.45619246156616 -136.20323521983164 0 0 0 0 313.72741907808813 -37.796078182592964 0 -37.796078182592964 -110.92477064516368 0 0 0 0 315.14280137044989 -70.795405313636138 0 -70.795405313636138 -86.777476770551218 0 0 0 0 327.2019932378571 -144.71300830344319 0 -144.71300830344319 26.341958409842618 0 0 0 0 322.50059526225596 -172.53912147198807 0 -172.53912147198807 -29.188868999320675 0 0 0 0 337.22182466467348 -74.484300643932329 0 -74.484300643932329 -120.5723666540639 0 0 0 0 355.62851890881211 -64.515553773486545 0 -64.515553773486545 -167.70855942131152 0 0 0 0 591.21928288586241 -188.97738242107511 0 -188.97738242107511 -194.13042306742364 0 0 0 0 622.53713563623205 -244.66565762745284 0 -244.66565762745284 -711.26443569158289 0 0 0 0 360.98184182598925 386.06566118789362 0 386.06566118789362 -823.50717239545816 0 0 0 0 521.80187780690176 -54.096145464117285 0 -54.096145464117285 -449.3995733186531 0 0 0 0 548.07109940568625 9.6429657183365407 0 9.6429657183365407 -297.81946617480753 0 0 0 0 377.41389954621991 44.70194239775401 0 44.70194239775401 -241.07495181946695 0 0 0 0 383.5274450600773 30.859965654476468 0 30.859965654476468 -231.7103953185283 0 0 0 0 329.3107639230293 28.424210586686286 0 28.424210586686286 -131.53945563296338 0 0 0 0 372.17663244632058 -42.748569025699226 0 -42.748569025699226 -141.8844900167569 0 0 0 0 390.42321347311554 2.2134124565935736 0 2.2134124565935736 -148.63285425151889 0 0 0 0 -7.7530047303125684 251.4139398670153 0 251.4139398670153 -158.53718714394063 0 0 0 0 278.67589782900359 103.72443234342018 0 103.72443234342018 -215.2827187700882 0 0 0 0 104.23505280111567 -6.6319261423859643 0 -6.6319261423859643 -43.068830517059382 0 0 0 0 384.78125895114499 80.956919289048301 0 80.956919289048301 -245.50533654517631 0 0 0 0 240.29900222560718 188.75119585853321 0 188.75119585853321 -274.05759703277045 0 0 0 0 220.13509434157095 131.93508546442513 0 131.93508546442513 -222.16871877573635 0 0 0 0 417.33221454578597 170.20275861197098 0 170.20275861197098 -315.27043372547223 0 0 0 0 644.43591387393099 333.18074442985068 0 333.18074442985068 -171.69527049950909 0 0 0 0 199.67111633488457 64.086486674208913 0 64.086486674208913 -286.18725999239973 0 0 0 0 599.25462054982927 -29.53436589661294 0 -29.53436589661294 -104.29490462931119 0 0 0 0 650.03281792236976 76.880818119390995 0 76.880818119390995 -403.60426635020349 0 0 0 0 628.48103651803103 259.99684981735118 0 259.99684981735118 730.46657727399895 0 0 0 0 1096.6160421894499 244.97118133910763 0 244.97118133910763 46.556184445426879 0 0 0 0 379.82532163971973 409.71169545925704 0 409.71169545925704 67.16780233985935 0 0 0 0 575.98171429694867 14.671207957380375 0 14.671207957380375 113.54545200527241 0 0 0 0 -250.14212375730494 166.65166604394398 0 166.65166604394398 518.54265810194102 0 0 0 0 -150.81699957714773 272.88359120551348 0 272.88359120551348 16.516815402343667 0 0 0 0 -0.18294091544831304 0.74716378535151406 0 0.74716378535151406 0.90756010877869953 0 0 0 0 -765.43426550933145 483.92371243390289 0 483.92371243390289 140.25090927452015 0 0 0 0 -191.4739357294402 74.712225211151576 0 74.712225211151576 -119.06786918347268 0 0 0 0 249.73485385548963 420.05563152526173 0 420.05563152526173 -296.9608881153672 0 0 0 0 -444.75643172574564 361.65399693113159 0 361.65399693113159 -194.0135131863035 0 0 0 0 2.5646464998332696 2.6665194106813708 0 2.6665194106813708 -1.1016079213808325 0 0 0 0 -218.27795155331424 353.27417544822396 0 353.27417544822396 -244.52218073783115 0 0 0 0 -219.54969309643639 300.08536774175604 0 300.08536774175604 -395.57124917188332 0 0 0 0 3.2015544404010612 2.7124399842988183 0 2.7124399842988183 -2.7678424649951312 0 0 0 0 66.427868077324504 30.092164242100779 0 30.092164242100779 -0.27067764963245011 0 0 0 0 1968.5435713781508 -1316.9576887447729 0 -1316.9576887447729 974.07436729937035 0 0 0 0 -155.53765781933953 380.68750765157631 0 380.68750765157631 -254.03327037717713 0 0 0 0 78.76768238259865 19.460595149930214 0 19.460595149930214 -243.58863420825628 0 0 0 0 46.66814592238655 19.985245814079569 0 19.985245814079569 1.0004170211563714 0 0 0 0 2499.5485298769981 -1856.25439230245 0 -1856.25439230245 1366.2248593144229 0 0 0 0 2250.565959442491 -1796.075377608046 0 -1796.075377608046 1351.7061551512243 0 0 0 0 3500.0821514958188 -2017.0098583570395 0 -2017.0098583570395 1001.2888331617769 0 0 0 0 2522.8695814427656 -1998.6230720517119 0 -1998.6230720517119 1616.2108332492257 0 0 0 0 3497.8408417642659 -2658.6287061112212 0 -2658.6287061112212 2044.9867933277994 0 0 0 0 19.239149782192928 5.7806263065810093 0 5.7806263065810093 1.9919455394103984 0 0 0 0 249.82869558946823 -95.152724405841923 0 -95.152724405841923 -188.13135287168166 0 0 0 0 -140.54375220887232 76.006794015605891 0 76.006794015605891 302.83082863796454 0 0 0 0 64.374352523844891 865.89556738118927 0 865.89556738118927 340.80024276004281 0 0 0 0 13.571743004045857 -38.507450884059608 0 -38.507450884059608 -32.407924596049611 0 0 0 0 31.114922928187298 -89.843649471439619 0 -89.843649471439619 -63.8976665507505 0 0 0 0 42.127845986571629 -49.403071764760284 0 -49.403071764760284 -117.13036212944826 0 0 0 0 -2.3378344876764459 -75.691244372320881 0 -75.691244372320881 10.926623478793829 0 0 0 0 20.019347378588094 -10.689018207525137 0 -10.689018207525137 3.5653374750020017 0 0 0 0 305.59132718573892 -98.758399279237437 0 -98.758399279237437 36.422814145546482 0 0 0 0 -249.70606633235366 580.65973327637494 0 580.65973327637494 613.65251196335976 0 0 0 0 4.8376537111384863 -4.694240724099771 0 -4.694240724099771 6.1989471549058948 0 0 0 0 331.6033995753387 -44.626922745446109 0 -44.626922745446109 168.64329662392265 0 0 0 0 61.087711563773155 -132.48753590549268 0 -132.48753590549268 588.97033326954443 0 0 0 0 1.9916132641717681 -12.522284976969651 0 -12.522284976969651 7.329378411944667 0 0 0 0 161.01230406952345 -58.730745485272564 0 -58.730745485272564 59.10370004471315 0 0 0 0 -0.17451970688398433 99.963775334574336 0 99.963775334574336 -24.848652240603684 0 0 0 0 96.314351504452134 27.512472400116167 0 27.512472400116167 2.8057098186636722 0 0 0 0 -151.37465949242142 -20.77918290121886 0 -20.77918290121886 240.75956480859159 0 0 0 0 -63.709373799638342 -92.617974749780387 0 -92.617974749780387 228.12619056308358 0 0 0 0 -56.248018474427226 -29.956569608388236 0 -29.956569608388236 308.42698534395026 0 0 0 0 -60.719313120041988 -121.57310247697478 0 -121.57310247697478 295.70206029409383 0 0 0 0 2.5757202142235656 -118.34650527659642 0 -118.34650527659642 210.82400738633078 0 0 0 0 46.11356102235186 -183.21941235090162 0 -183.21941235090162 304.9179680187699 0 0 0 0 -110.87668262047919 -78.136145839410915 0 -78.136145839410915 300.97919195366512 0 0 0 0 -21.662018363906782 -144.76811662224281 0 -144.76811662224281 269.59286356192888 0 0 0 0 -30.122542355243013 -102.11489257381982 0 -102.11489257381982 236.06362332872789 0 0 0 0 -72.436735832491649 -102.18114832213814 0 -102.18114832213814 236.0760234373156 0 0 0 0 72.53707862027386 -159.47241537931131 0 -159.47241537931131 206.92240200545712 0 0 0 0 15.51294076187628 -86.050475424824072 0 -86.050475424824072 112.63962898146929 0 0 0 0 78.338898679569866 -111.39967090199207 0 -111.39967090199207 110.90549361697708 0 0 0 0 40.033938157394459 -31.971943997178641 0 -31.971943997178641 -20.926218025422713 0 0 0 0 36.683504976606564 -32.126511579062552 0 -32.126511579062552 29.456341324009493 0 0 0 0 7.3542215653078529 -79.32676140652984 0 -79.32676140652984 73.038853564896272 0 0 0 0 50.994633507667459 -42.0572163148301 0 -42.0572163148301 -28.330043391792486 0 0 0 0 39.402137931409925 -92.842863546995815 0 -92.842863546995815 -37.309841618364203 0 0 0 0 -40.518541151304817 -19.83458577041165 0 -19.83458577041165 164.67001575089034 0 0 0 0 -49.645722161735648 -68.327899588721266 0 -68.327899588721266 178.5850312393377 0 0 0 0 68.134651456486608 -63.314425642359765 0 -63.314425642359765 -13.395161486499376 0 0 0 0 10.150830765793216 -50.718081516007821 0 -50.718081516007821 -7.0744565477301222 0 0 0 0 -6.9516235880164459 -81.063663929640455 0 -81.063663929640455 22.119285888596664 0 0 0 0 21.769146742335579 -104.71360976550798 0 -104.71360976550798 41.593171605686507 0 0 0 0 49.94816385715967 -69.392733960796818 0 -69.392733960796818 -1.8808290537007508 0 0 0 0 83.23920829785493 -121.63598878441235 0 -121.63598878441235 75.324940388193227 0 0 0 0 2.9862913955948898 -15.814424639901745 0 -15.814424639901745 37.953178199118611 0 0 0 0 2.091851516927612 -0.68957925469565851 0 -0.68957925469565851 0.27157065054740404 0 0 0 0 -26.6271092655752 -46.432190703940506 0 -46.432190703940506 49.482345288649526 0 0 0 0 1.3879067405205774 -1.9512466420370504 0 -1.9512466420370504 -0.31766052630103125 0 0 0 0 -34.58777797226503 -24.019217506599716 0 -24.019217506599716 0.29304207731274801 0 0 0 0 28.090211174326214 -81.361778601898123 0 -81.361778601898123 -9.0189566878785854 0 0 0 0 95.672399094276443 -122.07883342652349 0 -122.07883342652349 -22.654792411970476 0 0 0 0 60.819861233198601 -53.255884456200917 0 -53.255884456200917 29.285291117376541 0 0 0 0 8.1158312078914605 -100.64331053933135 0 -100.64331053933135 0.43656127006670431 0 0 0 0 17.407613975316053 -61.804435952477775 0 -61.804435952477775 22.061209365974946 0 0 0 0 14.51008126770251 -20.215235217384151 0 -20.215235217384151 -18.320009266404384 0 0 0 0 138.48748896862162 -46.335090229862544 0 -46.335090229862544 4.025147532923711 0 0 0 0 39.445310257740971 -64.336314889430341 0 -64.336314889430341 -0.98301554598594976 0 0 0 0 40.820513263320663 -44.42915367696942 0 -44.42915367696942 21.338164146331565 0 0 0 0 48.122625592681288 -42.765728200325157 0 -42.765728200325157 27.393482396429135 0 0 0 0 48.188898015105224 -41.414659366716364 0 -41.414659366716364 18.278011653022531 0 0 0 0 -4.6880517777481288 -3.2240142212706502 0 -3.2240142212706502 4.716923905067782 0 0 0 0 33.574983533064369 -55.513980312045305 0 -55.513980312045305 10.168943984499947 0 0 0 0 38.878752265794901 -45.408628645149861 0 -45.408628645149861 31.642616848273519 0 0 0 0 11.723050806324821 -1.321548689824386 0 -1.321548689824386 -2.1066148413756287 0 0 0 0 23.40948857345029 -11.194572934293291 0 -11.194572934293291 -1.0258592860274121 0 0 0 0 68.280352814424987 -68.313930756145822 0 -68.313930756145822 11.248834216358418 0 0 0 0 26.144205910495657 -90.810257115175887 0 -90.810257115175887 104.9223042579282 0 0 0 0 -2.184037578990683 -38.844799989234403 0 -38.844799989234403 134.12049981469312 0 0 0 0 10.563412241515479 -0.90210497989845884 0 -0.90210497989845884 -1.6768513750014742 0 0 0 0 -6.2988874957882217 -113.89187330657896 0 -113.89187330657896 193.31130480687847 0 0 0 0 12.690091356555058 -19.788868567866729 0 -19.788868567866729 127.36528253294284 0 0 0 0 -47.737087550212891 -15.702561353149846 0 -15.702561353149846 178.92589895959154 0 0 0 0 -0.61646928314075922 -116.84195173933938 0 -116.84195173933938 -9.5282643598721108 0 0 0 0 -75.593229741967662 -41.808272944329445 0 -41.808272944329445 131.81472414837208 0 0 0 0 126.89143737797713 199.40907437414751 0 199.40907437414751 276.55130894155366 0 0 0 0 965.0337273201003 -362.00305261180324 0 -362.00305261180324 99.769629571029043 0 0 0 0 0.59005410999617958 -0.38959890260960606 0 -0.38959890260960606 2.4940290673935341 0 0 0 0 64.384481978926487 22.056978251686772 0 22.056978251686772 29.783360713735796 0 0 0 0 -27.097295329157532 45.478919417660066 0 45.478919417660066 227.99040811340035 0 0 0 0 -26.552985006946983 -92.870191945340082 0 -92.870191945340082 123.78430485613877 0 0 0 0 827.50287864212441 -135.79800507000533 0 -135.79800507000533 157.68779325598683 0 0 0 0 -25.407986810572766 -118.10178907402246 0 -118.10178907402246 639.16009602755685 0 0 0 0 232.53532727284255 -347.11361105845759 0 -347.11361105845759 250.06758013177802 0 0 0 0 341.67113485077789 -220.33949782829916 0 -220.33949782829916 -709.02912808126837 0 0 0 0 -96.816410820811143 -33.341696091791022 0 -33.341696091791022 75.89209239751591 0 0 0 0 -31.402385310968384 -113.98429276598785 0 -113.98429276598785 1223.3091759980375 0 0 0 0 4.1116130657273402 -3.1778312689756252 0 -3.1778312689756252 0.17481273302721834 0 0 0 0 -144.06312827791044 -670.49970172594237 0 -670.49970172594237 515.0997526697696 0 0 0 0 536.3506236065241 -86.170632569483544 0 -86.170632569483544 -671.72455829598164 0 0 0 0 -7.2088216439879034 -40.439879663381078 0 -40.439879663381078 -46.163538497947229 0 0 0 0 28.573873124696547 -79.139269482502925 0 -79.139269482502925 -290.12439193750419 0 0 0 0 -94.347008824781369 -146.85033541883172 0 -146.85033541883172 -33.244163691303697 0 0 0 0 -100.32380888026091 -278.03623528403602 0 -278.03623528403602 662.29006652860653 0 0 0 0 71.499298439275663 -288.57707685414402 0 -288.57707685414402 182.8541282727474 0 0 0 0 24.862309984644526 -425.48536583259039 0 -425.48536583259039 364.00751538711438 0 0 0 0 -225.87997120900764 -106.50024773513002 0 -106.50024773513002 469.02527834126852 0 0 0 0 12.305450028528995 -6.5088876936817419 0 -6.5088876936817419 -0.70980078450920825 0 0 0 0 -700.09457348561045 -491.82464046140046 0 -491.82464046140046 389.29738889941473 0 0 0 0 -1166.7936364398265 28.612589364570994 0 28.612589364570994 716.31674904731949 0 0 0 0 -972.37081350178414 711.61731335884224 0 711.61731335884224 432.76722201388816 0 0 0 0 -337.56506656303827 -118.67250724871272 0 -118.67250724871272 474.56645645488004 0 0 0 0 249.15910375408566 -83.650544325703152 0 -83.650544325703152 179.50292838415132 0 0 0 0 8.199839076979174 -0.025520983376224216 0 -0.025520983376224216 -0.94267125237610194 0 0 0 0 665.86681183772635 326.35815384486398 0 326.35815384486398 -1093.7750965144319 0 0 0 0 452.45520093590676 -167.93503078083734 0 -167.93503078083734 -121.80258040306575 0 0 0 0 310.51406248513376 318.47103733003354 0 318.47103733003354 256.49326127747531 0 0 0 0 43.107376233192419 -11.766501368504777 0 -11.766501368504777 1.6063527907639987 0 0 0 0 -19.388090443000692 -171.53132646833274 0 -171.53132646833274 -224.47853565853256 0 0 0 0 -125.08939089133492 -164.32828395015167 0 -164.32828395015167 -146.76638112160072 0 0 0 0 -73.099384416569592 -140.05498455709835 0 -140.05498455709835 -110.18693917747055 0 0 0 0 -61.406762000726303 -202.47755487004406 0 -202.47755487004406 -135.26107172830007 0 0 0 0 -73.686765875154379 -136.3129737573185 0 -136.3129737573185 -65.010276122002722 0 0 0 0 -40.755060159450295 -106.83622682254736 0 -106.83622682254736 -180.44107757525762 0 0 0 0 80.552942980877106 -263.94911328742535 0 -263.94911328742535 15.597889352809261 0 0 0 0 390.1869242318071 -189.90616633683499 0 -189.90616633683499 -331.13089850102051 0 0 0 0 109.79057177557479 23.369735331074935 0 23.369735331074935 -435.23253335606296 0 0 0 0 -155.7461065960124 -68.116635577459874 0 -68.116635577459874 -181.69674214752376 0 0 0 0 215.37846757149237 100.08047304230948 0 100.08047304230948 -545.19953814013252 0 0 0 0 18.108175512079512 1.4198299606823266 0 1.4198299606823266 -1.1044775581883313 0 0 0 0 -50.67780386584127 25.824923294063183 0 25.824923294063183 -786.55225891347516 0 0 0 0 -83.630425324881799 -70.871757077314783 0 -70.871757077314783 -294.1788153956112 0 0 0 0 26.197621855541001 -101.40644505391697 0 -101.40644505391697 -188.59489094485525 0 0 0 0 72.580408415095008 -38.993675339223913 0 -38.993675339223913 -105.51708664561681 0 0 0 0 58.254128671709623 -33.380988119455537 0 -33.380988119455537 176.89612547904176 0 0 0 0 -30.170086976613675 -285.35134609265526 0 -285.35134609265526 624.8189895418775 0 0 0 0 13.801679261315861 -4.7170534988137227 0 -4.7170534988137227 1.3870700824814461 0 0 0 0 42.19022033039073 147.58171569650005 0 147.58171569650005 -130.82204666630787 0 0 0 0 385.30928133658017 -19.221507146954082 0 -19.221507146954082 -705.32984877344097 0 0 0 0 527.84177299748899 -273.70791238388313 0 -273.70791238388313 -597.29676873222661 0 0 0 0 365.03673070792138 -268.32361362008555 0 -268.32361362008555 -307.12838187810496 0 0 0 0 277.0761934534894 -301.99648932057767 0 -301.99648932057767 -312.48445399019988 0 0 0 0 178.4960389726657 -177.01081154702646 0 -177.01081154702646 -178.44051178399846 0 0 0 0 255.39511824101692 -364.70883398796792 0 -364.70883398796792 -54.60860975376761 0 0 0 0 323.66536425301092 -182.06579392104163 0 -182.06579392104163 -470.25272356235064 0 0 0 0 370.68346501148335 -97.400158837679101 0 -97.400158837679101 -446.92729744226244 0 0 0 0 29.022041761767468 -47.641504876890394 0 -47.641504876890394 -283.55303384546232 0 0 0 0 165.09822452337085 -148.1888046301637 0 -148.1888046301637 -236.32126319450208 0 0 0 0 -21.106389799166209 -139.9348847565816 0 -139.9348847565816 -56.018940598481549 0 0 0 0 -20.269540978008081 -133.37765594606458 0 -133.37765594606458 -118.62668125228856 0 0 0 0 52.639715451575285 -100.55912767218911 0 -100.55912767218911 -240.46415264391726 0 0 0 0 -136.10507214506833 -35.303918325074392 0 -35.303918325074392 -256.32928792540679 0 0 0 0 28.738961919232679 59.536895317246035 0 59.536895317246035 -418.17695110499244 0 0 0 0 252.36943713005894 -61.631887824704791 0 -61.631887824704791 -353.48436427983142 0 0 0 0 233.05453324925111 42.798049411132524 0 42.798049411132524 -467.68392630111475 0 0 0 0 10.702722930590724 -6.6711169687680396 0 -6.6711169687680396 0.070685246654057121 0 0 0 0 10.500784589930845 -153.22043131651935 0 -153.22043131651935 393.31270070291885 0 0 0 0 260.81093030187549 -17.415691504005224 0 -17.415691504005224 -505.13564100056556 0 0 0 0 368.379028067131 32.005000717448638 0 32.005000717448638 -486.70379739275768 0 0 0 0 449.37914873127011 -24.123461329199017 0 -24.123461329199017 -569.21037174090179 0 0 0 0 26.409544376423582 -70.643758373180845 0 -70.643758373180845 -179.98273459506618 0 0 0 0 155.69056052504038 87.171674820285574 0 87.171674820285574 -45.761052282463822 0 0 0 0 -51.710444862850821 -84.004317798976999 0 -84.004317798976999 141.49495391936296 0 0 0 0 -53.702343196502511 -112.19670157572361 0 -112.19670157572361 -101.52232560868697 0 0 0 0 -77.686929819694342 -89.940548314604257 0 -89.940548314604257 -141.75239750178343 0 0 0 0 -14.472370631041485 -18.631699539407236 0 -18.631699539407236 -201.66752874464646 0 0 0 0 -58.67820901068626 -122.18245723676591 0 -122.18245723676591 -109.1511181717301 0 0 0 0 76.97507548573094 -49.467792732913495 0 -49.467792732913495 -428.34139724407032 0 0 0 0 25.441647078101596 -48.530605071656737 0 -48.530605071656737 113.38722238326091 0 0 0 0 30.994128273174297 -10.071203588132967 0 -10.071203588132967 0.15427083272681161 0 0 0 0 -56.853008422162929 -138.78924481297804 0 -138.78924481297804 -301.49792210471878 0 0 0 0 48.087573988046643 92.441291545517743 0 92.441291545517743 -286.19074617859678 0 0 0 0 64.070502211153325 -112.66795150451935 0 -112.66795150451935 -208.40444012205307 0 0 0 0 48.448219663794852 -10.614080155255497 0 -10.614080155255497 -1.0068274964555588 0 0 0 0 69.455417546113409 -134.79809244823394 0 -134.79809244823394 -179.10802224814324 0 0 0 0 62.193743323368835 -22.740033584128923 0 -22.740033584128923 41.75514855548272 0 0 0 0 -107.29775750063709 -101.39481207566774 0 -101.39481207566774 -43.71275047303584 0 0 0 0 12.460914657457831 3.6823057319048438 0 3.6823057319048438 1.7637854676785665 0 0 0 0 210.26650083506559 -96.984608416985907 0 -96.984608416985907 46.918052402475041 0 0 0 0 67.339145920861881 4.3111363968699337 0 4.3111363968699337 -1.4183240061475004 0 0 0 0 -70.639723633245012 -80.107466271143949 0 -80.107466271143949 -108.90348478923534 0 0 0 0 122.72876431775512 -46.697608970449267 0 -46.697608970449267 -247.52608803932208 0 0 0 0 -49.363778831396303 -135.70265310026321 0 -135.70265310026321 -80.740256520226012 0 0 0 0 -95.69068737498128 -143.86982783457415 0 -143.86982783457415 32.680798782202146 0 0 0 0 -147.46036607899987 -163.34903779531146 0 -163.34903779531146 33.904709811158639 0 0 0 0 -90.158127105932181 -255.02333130417264 0 -255.02333130417264 -17.987168801015855 0 0 0 0 315.90035534656226 -139.17546000053713 0 -139.17546000053713 -183.83112185398863 0 0 0 0 70.933525501409122 -263.08996747217793 0 -263.08996747217793 -35.980651897157657 0 0 0 0 36.363883507130367 72.507848642098452 0 72.507848642098452 63.384424729576267 0 0 0 0 379.97099307101359 -18.182507644958228 0 -18.182507644958228 -333.65276101947529 0 0 0 0 1.1411451705332945 -3.9078910204717108 0 -3.9078910204717108 3.1478750121728112 0 0 0 0 -17.884289069134127 -240.07599071741015 0 -240.07599071741015 -314.00571701239392 0 0 0 0 5.6655033299106208 -27.552552617750649 0 -27.552552617750649 -5.541300683364625 0 0 0 0 8.0448187001541349 -6.7388851204740643 0 -6.7388851204740643 2.3771897570204921 0 0 0 0 39.612200255873631 -103.40204631212305 0 -103.40204631212305 -250.89207700463157 0 0 0 0 172.70243707723375 -245.66890954893066 0 -245.66890954893066 -290.08221244232038 0 0 0 0 41.157257273533325 -15.879166681259644 0 -15.879166681259644 3.0687088689483089 0 0 0 0 -221.56946690466407 72.55150943228773 0 72.55150943228773 -366.96159808744778 0 0 0 0 80.057803636495009 -72.710268430195811 0 -72.710268430195811 -658.44332592219621 0 0 0 0 3.0119674076301326 -5.490915945932576 0 -5.490915945932576 -2.0655456355308055 0 0 0 0 -519.87371269618234 -299.78897420283693 0 -299.78897420283693 188.98230771944452 0 0 0 0 275.66083868055983 -163.34241759938095 0 -163.34241759938095 -586.81759176562969 0 0 0 0 56.116653417508161 -17.287181209389743 0 -17.287181209389743 2.7184046414957188 0 0 0 0 -789.46900141592596 397.94765137271759 0 397.94765137271759 685.84221116893605 0 0 0 0 986.00877253207727 -370.7685987823802 0 -370.7685987823802 -786.00312892126863 0 0 0 0 12.129770478040363 -5.2617239936570357 0 -5.2617239936570357 0.86079093696299092 0 0 0 0 13.214666859189098 -8.9274943258904216 0 -8.9274943258904216 2.0263389524391133 0 0 0 0 -9.2814525825087912 -132.7460219137588 0 -132.7460219137588 329.74933953775053 0 0 0 0 -112.63896189216575 -337.9212549646295 0 -337.9212549646295 -829.14501462355247 0 0 0 0 -12.648704407076366 -64.099325451455343 0 -64.099325451455343 -631.85160177796774 0 0 0 0 8.9216407786907439 -86.778780028713754 0 -86.778780028713754 -636.22669279165484 0 0 0 0 9.3458532322092651 -220.97456282711579 0 -220.97456282711579 -350.19926044447652 0 0 0 0 -62.21311371439333 -32.617365625362254 0 -32.617365625362254 -168.79822071895103 0 0 0 0 164.62797736108769 39.742531007663899 0 39.742531007663899 -529.71228457328732 0 0 0 0 6.0083230671179066 -6.3500123914954649 0 -6.3500123914954649 -3.2209148405350065 0 0 0 0 -12.176354774672291 -11.741618146432572 0 -11.741618146432572 -2.7748867788452429 0 0 0 0 74.541747907944227 -158.17301077079924 0 -158.17301077079924 -273.24955926701648 0 0 0 0 107.27840867139184 -224.04413611704501 0 -224.04413611704501 173.59527122468626 0 0 0 0 123.72127762186756 59.018858948871525 0 59.018858948871525 -99.710231326577741 0 0 0 0 317.96964636345729 -95.787395848544293 0 -95.787395848544293 -257.59750192322235 0 0 0 0 -40.239736460012864 -139.85958879611167 0 -139.85958879611167 15.272916090146509 0 0 0 0 106.64610817080393 -46.822546086296825 0 -46.822546086296825 -195.9176547284419 0 0 0 0 24.442088662328388 -127.07600076661902 0 -127.07600076661902 156.49351299259433 0 0 0 0 92.162091638165293 -161.83437484246951 0 -161.83437484246951 -65.526216009616292 0 0 0 0 122.27713294140085 -172.11168132139119 0 -172.11168132139119 -2.1460150528357644 0 0 0 0 486.58295735667343 -14.537363076678048 0 -14.537363076678048 -157.75620941110174 0 0 0 0 91.768520784464272 -68.37626098014016 0 -68.37626098014016 109.37649249742844 0 0 0 0 -4.8330467427850863 -21.015549238589983 0 -21.015549238589983 -57.324384604030456 0 0 0 0 17.105345642954809 -0.17750007756956876 0 -0.17750007756956876 1.0330970460186657 0 0 0 0 34.193605898115493 -78.60305665026317 0 -78.60305665026317 141.99738625256691 0 0 0 0 58.516900151973459 -257.33746654435254 0 -257.33746654435254 589.05246766257551 0 0 0 0 -1083.8385887877557 79.243281938782275 0 79.243281938782275 252.124568719526 0 0 0 0 5.0192070960893815 -3.7257211650535975 0 -3.7257211650535975 0.53939879894505938 0 0 0 0 35.151108055948953 -58.489574225713923 0 -58.489574225713923 218.92234660926533 0 0 0 0 123.33273493865676 -17.584849790879105 0 -17.584849790879105 3.1252990661405051 0 0 0 0 267.80248986671722 451.90183601592116 0 451.90183601592116 96.385645064488813 0 0 0 0 -31.404277674351761 -90.431691145874765 0 -90.431691145874765 -25.237333566091024 0 0 0 0 1139.4108412581118 -215.16286661237609 0 -215.16286661237609 209.15106729943727 0 0 0 0 743.76360823857976 -234.63948048088469 0 -234.63948048088469 34.256219005083494 0 0 0 0 -31.668043225296969 20.583818051127082 0 20.583818051127082 -128.2970176155809 0 0 0 0 -6.7561008190459688 291.10829615751044 0 291.10829615751044 45.439665807331494 0 0 0 0 54.832531256821312 234.54954694715798 0 234.54954694715798 -425.06832829464076 0 0 0 0 -98.222889058998589 146.60551614828262 0 146.60551614828262 -97.97060194010146 0 0 0 0 -101.62084447059533 -31.013795698382637 0 -31.013795698382637 -133.3971694133777 0 0 0 0 23.385869092093344 371.47682768124912 0 371.47682768124912 -136.90123670487469 0 0 0 0 81.585670134604328 -11.510777885031626 0 -11.510777885031626 -1.5055938805683478 0 0 0 0 235.54755657536225 42.450326607542365 0 42.450326607542365 -127.34485999382605 0 0 0 0 26.062872442475054 -6.9645091111744932 0 -6.9645091111744932 -297.65700193134239 0 0 0 0 34.547333591486677 -114.29261111768278 0 -114.29261111768278 -45.339785948736221 0 0 0 0 106.96355585349731 -14.30913182402548 0 -14.30913182402548 1.6345514409752628 0 0 0 0 4.4995041500825153 -0.085808408981790318 0 -0.085808408981790318 0.17766729414700499 0 0 0 0 -414.72003539802972 -50.968846902260793 0 -50.968846902260793 115.78981094263133 0 0 0 0 173.92590472041047 -222.60340777182637 0 -222.60340777182637 38.767871187650599 0 0 0 0 804.15542604975053 -116.28409325779967 0 -116.28409325779967 -94.435455714968498 0 0 0 0 268.32570186361772 -0.56035895190268548 0 -0.56035895190268548 -192.47245743827398 0 0 0 0 83.695015841776694 -82.041329563959437 0 -82.041329563959437 -5.2061239368956649 0 0 0 0 105.27420581879778 -86.236104717021817 0 -86.236104717021817 -90.351146996942134 0 0 0 0 86.298525700936807 -80.890297847656257 0 -80.890297847656257 -1.6573083072078134 0 0 0 0 -7.6675432475767593 -53.278290860013662 0 -53.278290860013662 14.206646621392736 0 0 0 0 170.44332047266289 -14.263372113392847 0 -14.263372113392847 6.5130821351203281 0 0 0 0 344.014745513241 -92.358421653070309 0 -92.358421653070309 -89.380924894476721 0 0 0 0 429.55931614935616 -192.55617107653416 0 -192.55617107653416 -69.483439875281874 0 0 0 0 393.11738216390222 -84.739956616429481 0 -84.739956616429481 -118.7176014263141 0 0 0 0 328.99692459727885 -80.42731095554177 0 -80.42731095554177 -77.589293404222644 0 0 0 0 571.10889833578403 -46.253635562055024 0 -46.253635562055024 -114.88295320055386 0 0 0 0 197.9761869927861 -207.69787218643501 0 -207.69787218643501 -58.238491705053093 0 0 0 0 477.54578790083542 65.935008707238012 0 65.935008707238012 134.83947750963489 0 0 0 0 20.725340233072558 -8.1705108413027929 0 -8.1705108413027929 -25.079616165100965 0 0 0 0 58.851119019295766 -45.157668514363337 0 -45.157668514363337 6.2388270211254166 0 0 0 0 80.472908354113713 -12.247282642500991 0 -12.247282642500991 -24.552550203130178 0 0 0 0 -10.214680882647372 -19.736041776760885 0 -19.736041776760885 61.951495786236592 0 0 0 0 342.52243388536954 -91.362376901316338 0 -91.362376901316338 -36.822295435312299 0 0 0 0 3.7776455532121531 -2.6346904460308131 0 -2.6346904460308131 -2.091717701168081 0 0 0 0 163.84286959589735 -114.19959736441933 0 -114.19959736441933 110.65777418947414 0 0 0 0 190.97250865454771 57.909346398380649 0 57.909346398380649 -14.748181108343488 0 0 0 0 420.83901472169418 15.363471700376977 0 15.363471700376977 -85.67566232117224 0 0 0 0 255.72039404719544 -28.377993817105107 0 -28.377993817105107 -52.478971497031125 0 0 0 0 331.51693973710644 20.660943716966358 0 20.660943716966358 -79.791724358749889 0 0 0 0 117.07358291222044 105.04018289276519 0 105.04018289276519 13.993313566534198 0 0 0 0 125.82598835572571 40.453667219810086 0 40.453667219810086 -9.2828470875147104 0 0 0 0 290.32550605313008 110.31184573676364 0 110.31184573676364 -24.509680482546173 0 0 0 0 -27.037511307429668 -97.655440206799994 0 -97.655440206799994 -38.905569504986033 0 0 0 0 -96.738100358481461 -49.980250439692099 0 -49.980250439692099 60.972934001694739 0 0 0 0 13.95312968324756 -8.5077993387276187 0 -8.5077993387276187 3.7009270496200859 0 0 0 0 793.05745536572067 -163.06547576814592 0 -163.06547576814592 -1354.1839847664496 0 0 0 0 -8.9875085399107775 100.57864848399731 0 100.57864848399731 45.327903023593535 0 0 0 0 92.618163866070972 -45.943379311204808 0 -45.943379311204808 15.604033697595696 0 0 0 0 -9.1677032385978237 -13.829134137110714 0 -13.829134137110714 -15.471280221730922 0 0 0 0 206.825157050087 -204.67720603419639 0 -204.67720603419639 312.49277825335321 0 0 0 0 65.352349211607361 -198.91665934570847 0 -198.91665934570847 316.26818429671221 0 0 0 0 227.82813348266245 -225.48496611465336 0 -225.48496611465336 265.87461115422411 0 0 0 0 223.95997686138526 -100.45596754650296 0 -100.45596754650296 227.19180413234426 0 0 0 0 86.376181469151561 -138.70830545049648 0 -138.70830545049648 217.181470757032 0 0 0 0 -475.48083423702337 143.64520267372427 0 143.64520267372427 503.76670161550283 0 0 0 0 -1172.6864796718874 197.35856097858095 0 197.35856097858095 1094.4332829883133 0 0 0 0 -950.49732192907686 1125.233161094706 0 1125.233161094706 1221.0841901445383 0 0 0 0 820.50397652709216 -1.8943486778125589 0 -1.8943486778125589 247.00699485567588 0 0 0 0 630.78356207856268 841.74138968942316 0 841.74138968942316 653.2180694008166 0 0 0 0 108.73570364344778 -80.851077816187171 0 -80.851077816187171 238.25317136194963 0 0 0 0 190.69089807483397 115.55679228558347 0 115.55679228558347 456.94365798160288 0 0 0 0 -112.09793785920556 -64.36588726059199 0 -64.36588726059199 381.92444477682875 0 0 0 0 19.032079012446047 -126.23889483465246 0 -126.23889483465246 181.69872265361482 0 0 0 0 15.161351266880501 -179.44509345912968 0 -179.44509345912968 212.26972079586994 0 0 0 0 110.02343737985211 -129.79262173267125 0 -129.79262173267125 220.2280836839227 0 0 0 0 144.65066949905304 -82.145550297449518 0 -82.145550297449518 196.50563294003587 0 0 0 0 127.72819193249052 -115.02677094741557 0 -115.02677094741557 92.018978815409355 0 0 0 0 107.79938454157309 -147.43999743908353 0 -147.43999743908353 152.14040506809874 0 0 0 0 185.71609222951429 -155.58516883242464 0 -155.58516883242464 152.54135630175006 0 0 0 0 97.70969024796068 -112.78544564780896 0 -112.78544564780896 84.914292694742471 0 0 0 0 103.85547018325815 -124.16249120253269 0 -124.16249120253269 82.784209785329494 0 0 0 0 110.54148709835135 -97.06017500694179 0 -97.06017500694179 39.384031273915753 0 0 0 0 110.87724505192818 -133.96930323015295 0 -133.96930323015295 77.148738525243971 0 0 0 0 129.93983120979465 -103.25669611677586 0 -103.25669611677586 8.4290946394939965 0 0 0 0 94.947460824620521 -93.969020246091986 0 -93.969020246091986 10.707279864025622 0 0 0 0 -107.39558779558956 72.85535839440945 0 72.85535839440945 -7.7156673737117671 0 0 0 0 163.70918394038381 -49.154326568497481 0 -49.154326568497481 -185.8456373044246 0 0 0 0 147.17942335644329 -120.27264134528468 0 -120.27264134528468 20.385183545982727 0 0 0 0 111.42795675016009 -148.32725983813711 0 -148.32725983813711 -0.9826626576941635 0 0 0 0 55.424659862391323 -3.9976485526176555 0 -3.9976485526176555 -54.535030485701768 0 0 0 0 56.033618303733419 -85.367436110133895 0 -85.367436110133895 -73.56067220132627 0 0 0 0 115.26444812286354 -23.743885704683635 0 -23.743885704683635 -43.10690425454959 0 0 0 0 787.35635129905859 -1115.5824060610175 0 -1115.5824060610175 -548.66830222651879 0 0 0 0 460.1706047586049 -343.90516629113517 0 -343.90516629113517 -233.90751496380972 0 0 0 0 5.3698426581773546 -6.8688872597589938 0 -6.8688872597589938 4.9180664495907118 0 0 0 0 -458.74263596424498 -458.5652759331474 0 -458.5652759331474 519.62274992459425 0 0 0 0 330.23366102608634 128.65105424982994 0 128.65105424982994 16.476685543527083 0 0 0 0 -45.557839608158247 -636.19970276936601 0 -636.19970276936601 559.37497987665483 0 0 0 0 -8.0653557848359654 8.9266962645064485 0 8.9266962645064485 -6.5214491081728401 0 0 0 0 241.30195104947052 160.30729488622819 0 160.30729488622819 -1172.267698417294 0 0 0 0 -99.970496099776938 -364.33041312886962 0 -364.33041312886962 182.04124496310305 0 0 0 0 32.572262236244569 -246.73387997774444 0 -246.73387997774444 95.353009159667636 0 0 0 0 103.55223386193029 -386.38005124065421 0 -386.38005124065421 184.39870915846768 0 0 0 0 -229.3880468898933 -230.35433901122542 0 -230.35433901122542 280.55529732065133 0 0 0 0 530.20210574643352 68.575870731695431 0 68.575870731695431 -73.181349536508606 0 0 0 0 43.228787562852617 0.95804684177096799 0 0.95804684177096799 -34.38225340236491 0 0 0 0 25.068444864083176 -10.761575037824514 0 -10.761575037824514 -0.17716471954736335 0 0 0 0 -136.12963236255018 310.46718491496358 0 310.46718491496358 757.17256681942854 0 0 0 0 65.366837140813004 -19.375204821285251 0 -19.375204821285251 22.515732098219814 0 0 0 0 24.858491631114433 -0.31304046684223863 0 -0.31304046684223863 -12.742820372844612 0 0 0 0 404.67266145828262 -335.71228232735302 0 -335.71228232735302 -154.35288336817484 0 0 0 0 -1.972379317269819 -24.419131536768987 0 -24.419131536768987 10.729699624143636 0 0 0 0 433.43281621205489 117.21163723500626 0 117.21163723500626 80.572817192343791 0 0 0 0 -41.565129800653153 -112.15764148984454 0 -112.15764148984454 1.3199098635159316 0 0 0 0 185.54247072088594 -85.594556304397884 0 -85.594556304397884 -17.053103814116184 0 0 0 0 230.69798786756223 -34.200627076291312 0 -34.200627076291312 1.914257751463083 0 0 0 0 199.35320145368951 -92.000311055232487 0 -92.000311055232487 -33.515376262308564 0 0 0 0 188.83249347180572 -118.39347019496654 0 -118.39347019496654 -125.79450902190365 0 0 0 0 125.63403884686068 7.4358069835166134 0 7.4358069835166134 -255.88540091064715 0 0 0 0 81.490435415586944 2.2948760598610534 0 2.2948760598610534 -84.357155024295935 0 0 0 0 38.849810040607736 0.8543592836786047 0 0.8543592836786047 -2.9692498877641356 0 0 0 0 -24.285639696717226 161.55093945979661 0 161.55093945979661 -189.58497154590668 0 0 0 0 -0.20634748947827397 -0.62457562375389131 0 -0.62457562375389131 -1.4975711197336636 0 0 0 0 223.38249571337565 -40.669311232356449 0 -40.669311232356449 85.191778291393348 0 0 0 0 28.794197338626873 -309.53540930174358 0 -309.53540930174358 652.04649636643535 0 0 0 0 7.9292406278959682 2.1355921871998778 0 2.1355921871998778 0.96847047038806622 0 0 0 0 142.4985187066186 -173.2238189421937 0 -173.2238189421937 38.873263452400352 0 0 0 0 163.4820030308606 -138.83976732450446 0 -138.83976732450446 55.600218267161836 0 0 0 0 24.600854073590064 4.2260393999674175 0 4.2260393999674175 -3.5865732879944376 0 0 0 0 169.14982163693435 -93.80486508643753 0 -93.80486508643753 61.348104508233519 0 0 0 0 255.96802168666181 172.31100163233168 0 172.31100163233168 -548.66844401902927 0 0 0 0 129.00947699629262 -162.23805788459413 0 -162.23805788459413 125.87800625897034 0 0 0 0 10.315112207177069 1.7557882364684438 0 1.7557882364684438 -4.9970725284431268 0 0 0 0 -34.150517226268221 -213.44762730408797 0 -213.44762730408797 -1036.3651533775374 0 0 0 0 8.5770932861505393 2.3715533548551626 0 2.3715533548551626 0.68842654695282235 0 0 0 0 275.57821238760516 -62.821886583677042 0 -62.821886583677042 -30.490233337516202 0 0 0 0 -116.05203194028763 395.71637090252898 0 395.71637090252898 584.49658392674064 0 0 0 0 348.80478561006794 1037.9229586217027 0 1037.9229586217027 -429.78832305626202 0 0 0 0 463.65811446676344 168.65886559314686 0 168.65886559314686 119.23233211526076 0 0 0 0 -76.690532644415725 252.685677031468 0 252.685677031468 -150.93918757447682 0 0 0 0 16.198794486354927 309.62230890834508 0 309.62230890834508 -381.98539277587861 0 0 0 0 30.784991233616893 39.694805565247407 0 39.694805565247407 -23.472462578506565 0 0 0 0 26.854929206436445 3.9815697330408444 0 3.9815697330408444 -1.980285515684816 0 0 0 0 -36.08736244542888 -34.792858438227086 0 -34.792858438227086 -224.44310874560506 0 0 0 0 -39.38930230992446 203.81142174246361 0 203.81142174246361 -276.77741466152111 0 0 0 0 19.249453959630046 -0.14301991566617289 0 -0.14301991566617289 -13.005900685515371 0 0 0 0 14.048293896850652 -6.8915964747720997 0 -6.8915964747720997 -3.2326467845331281 0 0 0 0 -20.299215481360989 363.63754098976096 0 363.63754098976096 -251.35198043781202 0 0 0 0 365.26342214960857 -714.07690180170721 0 -714.07690180170721 -186.53922450914797 0 0 0 0 23.892041683971158 -6.0699186662054494 0 -6.0699186662054494 -4.0848451276234421 0 0 0 0 14.781437895075214 -15.485477736519897 0 -15.485477736519897 -6.8540531960006774 0 0 0 0 85.814792567653058 -89.400580315166735 0 -89.400580315166735 40.646939504840702 0 0 0 0 2.394668188540507 -9.2647971674284122 0 -9.2647971674284122 -5.0725494610159743 0 0 0 0 34.635402942298349 -21.580338866611662 0 -21.580338866611662 -22.017160543731109 0 0 0 0 -1.9147803180967458 0.18695271987508022 0 0.18695271987508022 -38.755101641289002 0 0 0 0 86.872980507559987 -122.67561195976123 0 -122.67561195976123 17.956386413808559 0 0 0 0 93.1374785147691 -91.613315064067137 0 -91.613315064067137 8.666029304279192 0 0 0 0 51.718101162400401 -20.331679085500703 0 -20.331679085500703 -63.437027832300579 0 0 0 0 65.076471784941532 -34.223956608396975 0 -34.223956608396975 -75.364381294766645 0 0 0 0 98.267755963501713 7.1106037249141991 0 7.1106037249141991 -131.0417482456196 0 0 0 0 97.171496866641064 -605.91541746992698 0 -605.91541746992698 -35.149735802595387 0 0 0 0 464.82341199983148 567.13192420772066 0 567.13192420772066 -54.087901226916642 0 0 0 0 4.568040320392992 -8.1632844527482327 0 -8.1632844527482327 -5.6419550987012634 0 0 0 0 38.367231889662435 43.29755997479424 0 43.29755997479424 -108.34014460298204 0 0 0 0 426.24957132192094 -131.25534054685613 0 -131.25534054685613 -84.471270400803405 0 0 0 0 593.19347994497275 105.90316744150141 0 105.90316744150141 2.0203489484265447 0 0 0 0 334.09470499707095 -70.900568615437351 0 -70.900568615437351 8.7868152840346738 0 0 0 0 308.02093219165954 -39.284294530647912 0 -39.284294530647912 -29.386224558784306 0 0 0 0 325.81406866652037 -94.493256895171498 0 -94.493256895171498 -54.607191720793708 0 0 0 0 33.419360814510583 -143.71674014948167 0 -143.71674014948167 25.701853554525769 0 0 0 0 -18.966544703769614 -189.94487283605122 0 -189.94487283605122 -26.767269252759434 0 0 0 0 45.928341707845902 -45.365331232182143 0 -45.365331232182143 131.2554377566039 0 0 0 0 17.878974084514994 87.034886917980657 0 87.034886917980657 740.33237126384665 0 0 0 0 86.303290867690521 -134.75477803939248 0 -134.75477803939248 -26.144624497228961 0 0 0 0 268.35512466627188 -314.21435812340496 0 -314.21435812340496 -922.68529390649019 0 0 0 0 -60.945760123011041 -945.61599236507072 0 -945.61599236507072 -9.6056444193563948 0 0 0 0 110.85818928403569 46.904661486540135 0 46.904661486540135 -321.31770605293605 0 0 0 0 26.642661942448687 7.9588108414331185 0 7.9588108414331185 -0.81390437399661764 0 0 0 0 -195.46623990422381 405.72806841043553 0 405.72806841043553 -604.88281813526737 0 0 0 0 -5.8192261061694808 -90.187894550548663 0 -90.187894550548663 -9.546045565561144 0 0 0 0 91.228019486186895 62.005546482522732 0 62.005546482522732 -284.63401967752088 0 0 0 0 38.202186039615754 51.924750649110138 0 51.924750649110138 7.7722933679378912 0 0 0 0 62.88372493275665 26.26722226829861 0 26.26722226829861 -15.555613443197217 0 0 0 0 56.180133209974656 24.597293757131411 0 24.597293757131411 -12.291042597968953 0 0 0 0 8.577666262184346 -0.54624790962684444 0 -0.54624790962684444 -15.602209773718393 0 0 0 0 24.3934058007708 -6.5819996372668275 0 -6.5819996372668275 -4.9117312971837919 0 0 0 0 109.6645734345318 -4.3327360667630046 0 -4.3327360667630046 -53.068236091798099 0 0 0 0 260.08655656361975 -31.356194309328203 0 -31.356194309328203 -46.694558497387334 0 0 0 0 155.698239426524 -24.799902674279725 0 -24.799902674279725 0.01711406929828696 0 0 0 0 168.14590942055565 143.05497602849118 0 143.05497602849118 -36.393786875494698 0 0 0 0 126.46810707527334 43.854277526538681 0 43.854277526538681 -143.85543568692447 0 0 0 0 254.14284887929136 22.016145230980555 0 22.016145230980555 -500.81890370865221 0 0 0 0 9.7386367799878037 2.1649172816894016 0 2.1649172816894016 1.0550647853421573 0 0 0 0 5.9198550076030187 162.60077922938126 0 162.60077922938126 397.18220914264748 0 0 0 0 471.85573590253671 530.6269710177985 0 530.6269710177985 -122.78521359627484 0 0 0 0 -8.3983873401798519 -228.25739532595981 0 -228.25739532595981 527.62742136025736 0 0 0 0 221.76929918658925 170.40743806224327 0 170.40743806224327 422.33634248465296 0 0 0 0 434.00095832946681 -505.72131865347546 0 -505.72131865347546 -161.83642910323397 0 0 0 0 317.60130812262651 -13.268558760838005 0 -13.268558760838005 -435.08394534149289 0 0 0 0 109.02983890429414 197.78900472611895 0 197.78900472611895 -1044.5751746979349 0 0 0 0 192.41980814947783 -121.20462106057857 0 -121.20462106057857 -394.72396386121181 0 0 0 0 167.30028870357657 -10.416946342154644 0 -10.416946342154644 -3.6107801279345284 0 0 0 0 22.158893521414118 -22.430749559255979 0 -22.430749559255979 -8.6611149701331875 0 0 0 0 133.11420266628193 -15.197807816774571 0 -15.197807816774571 -228.68410013530229 0 0 0 0 266.03787071855913 -81.30901906913823 0 -81.30901906913823 -211.74004425799194 0 0 0 0 396.36685969816608 -211.22629584839069 0 -211.22629584839069 -51.481064492749283 0 0 0 0 167.64796888508135 86.973595372325235 0 86.973595372325235 -177.24094315520415 0 0 0 0 308.42147240588656 -482.40191126718025 0 -482.40191126718025 328.67867286708315 0 0 0 0 317.19367819699983 -156.18062014397628 0 -156.18062014397628 -39.766563544343626 0 0 0 0 260.10148375033168 -260.47852147850699 0 -260.47852147850699 -90.774507784678462 0 0 0 0 553.10301176713983 -219.41064798740717 0 -219.41064798740717 -37.39004406987209 0 0 0 0 418.3432519876078 -131.74056014240705 0 -131.74056014240705 -45.82682379650214 0 0 0 0 375.67596607583437 -20.760843986518466 0 -20.760843986518466 -179.04739047157636 0 0 0 0 189.15142890527204 -83.956644957915159 0 -83.956644957915159 -156.01950608623326 0 0 0 0 74.262395668556564 -51.909370717736238 0 -51.909370717736238 5.3205075570772351 0 0 0 0 22.451990601001697 -18.596412536742129 0 -18.596412536742129 -0.12536809665970772 0 0 0 0 -19.426728644448758 -98.595258111612566 0 -98.595258111612566 150.11343212911947 0 0 0 0 32.305972296980926 -73.454675838330289 0 -73.454675838330289 22.708901773035407 0 0 0 0 99.427202662888703 -184.19724514926503 0 -184.19724514926503 152.01389275569454 0 0 0 0 223.16947148162581 -228.11481104947052 0 -228.11481104947052 -49.66244235972772 0 0 0 0 -1.4377824124751442 0.84172813680705616 0 0.84172813680705616 1.4398983203874565 0 0 0 0 24.898004687960565 -100.7607959802699 0 -100.7607959802699 63.463599548399543 0 0 0 0 124.48586377333413 27.241094913018969 0 27.241094913018969 -338.81467284126938 0 0 0 0 3.2190301201711193 -37.939504100287039 0 -37.939504100287039 4.7267294715647381 0 0 0 0 143.39437300107966 -56.695414351250292 0 -56.695414351250292 -57.252884933297082 0 0 0 0 6.9454329762711069 -19.362446292918762 0 -19.362446292918762 -10.724251953775504 0 0 0 0 30.97446776230845 -18.502116774500337 0 -18.502116774500337 -1.4709807641611405 0 0 0 0 29.560702383721946 -47.165348852797706 0 -47.165348852797706 -21.400011531994778 0 0 0 0 1.0037098211942777 -13.617199657582866 0 -13.617199657582866 -6.4818883134838767 0 0 0 0 92.558087445970159 -175.27322337074384 0 -175.27322337074384 8.0471817057114094 0 0 0 0 17.54259678612857 -12.326573836068439 0 -12.326573836068439 -2.6548825686790414 0 0 0 0 104.91313258844457 -98.777422439320617 0 -98.777422439320617 58.553555035663521 0 0 0 0 86.425196250187582 -107.08229829754691 0 -107.08229829754691 262.34545233571771 0 0 0 0 80.845139814307913 -36.034767464626384 0 -36.034767464626384 20.287433153357824 0 0 0 0 0.13173092772541395 0.22833719837529287 0 0.22833719837529287 0.31251049951692433 0 0 0 0 14.410082169080852 -7.2352874599341703 0 -7.2352874599341703 -4.4657033236171628 0 0 0 0 20.141776837111564 -2.8338332012998086 0 -2.8338332012998086 -2.6347760147901367 0 0 0 0 -19.65553157008253 -271.68372817610361 0 -271.68372817610361 -460.73863052321803 0 0 0 0 -112.62473781888548 -268.17562749873377 0 -268.17562749873377 -457.24937396299538 0 0 0 0 8.7691526718943322 -2.2005584485661274 0 -2.2005584485661274 -0.51323631986798013 0 0 0 0 123.81291323903133 -249.07559060451604 0 -249.07559060451604 -542.11787779886436 0 0 0 0 -13.294196088885656 -188.87006425619256 0 -188.87006425619256 -301.43229409826381 0 0 0 0 25.788901870881091 -10.905149886501022 0 -10.905149886501022 -6.7241724788295869 0 0 0 0 -9.2427716291203978 39.95528363219114 0 39.95528363219114 -222.14304956832461 0 0 0 0 9.6750654449569993 -3.5052071159307161 0 -3.5052071159307161 -22.696886427398567 0 0 0 0 14.495778334968833 0.79712981870624455 0 0.79712981870624455 -2.5889253183163028 0 0 0 0 38.567844611424277 -2.021869517824527 0 -2.021869517824527 -9.1085264325911659 0 0 0 0 -344.51405652168614 -398.81240211622753 0 -398.81240211622753 -502.59666232755853 0 0 0 0 -20.010463841448654 190.41369819250713 0 190.41369819250713 -446.28910366191712 0 0 0 0 7.7559324876172653 -1.9010427884917931 0 -1.9010427884917931 -3.0507176856337246 0 0 0 0 424.99958075226459 -90.507847999277601 0 -90.507847999277601 5.4878993015699962 0 0 0 0 1211.7154653698744 -291.1255314002392 0 -291.1255314002392 56.046664158721342 0 0 0 0 331.70575598392315 -385.33025784567803 0 -385.33025784567803 124.01878266715994 0 0 0 0 88.603277847618301 -220.63275127501629 0 -220.63275127501629 353.77486769815914 0 0 0 0 130.23775365432812 -163.62456608381217 0 -163.62456608381217 216.55209546295009 0 0 0 0 43.194376657134853 -107.68377198085545 0 -107.68377198085545 305.63117608857328 0 0 0 0 29.541797492332989 -30.948659926014443 0 -30.948659926014443 209.24116353706472 0 0 0 0 9.6417011311214083 -1.0860447315705253 0 -1.0860447315705253 0.18274539359127884 0 0 0 0 609.54096350699547 377.39071477803054 0 377.39071477803054 -259.04106515892545 0 0 0 0 237.72704279510435 -357.11354753687328 0 -357.11354753687328 622.58512496293952 0 0 0 0 -71.874169023728086 115.06465937852285 0 115.06465937852285 -226.607371915562 0 0 0 0 -66.654223559366073 -267.70281902649185 0 -267.70281902649185 -411.80340159172647 0 0 0 0 1108.9036850567718 146.30014237727437 0 146.30014237727437 -237.63713816315322 0 0 0 0 1026.9449973916562 311.58911210691076 0 311.58911210691076 -399.66150738703027 0 0 0 0 510.0624966516516 -234.1716643228915 0 -234.1716643228915 481.24997570239611 0 0 0 0 298.38628803481333 68.082844805848481 0 68.082844805848481 84.751126871079578 0 0 0 0 488.52785415118706 367.1644421840092 0 367.1644421840092 428.43228649455358 0 0 0 0 267.83417575108979 89.792790728614591 0 89.792790728614591 87.379556186202535 0 0 0 0 65.235952583872859 192.56476749547278 0 192.56476749547278 215.81135431712482 0 0 0 0 7.0032955784881779 -82.419447841356941 0 -82.419447841356941 237.07749571519662 0 0 0 0 -61.541580672492273 22.810380135128526 0 22.810380135128526 87.917098448558363 0 0 0 0 -163.96104175622531 -53.247115945504447 0 -53.247115945504447 85.980880117936977 0 0 0 0 52.62091907580907 11.93653810548949 0 11.93653810548949 -3.9936131132258197 0 0 0 0 -0.19567051702518512 -0.35807626103897405 0 -0.35807626103897405 -2.6089819604838134 0 0 0 0 57.820426971476991 17.339193727187421 0 17.339193727187421 -7.6258272061731986 0 0 0 0 -29.767801635818614 43.30947163890869 0 43.30947163890869 0.88018696888502745 0 0 0 0 -72.495184692859766 35.057559050196915 0 35.057559050196915 -35.891179896551876 0 0 0 0 0.29557269347058934 -0.57600375174054363 0 -0.57600375174054363 -0.96932583644342429 0 0 0 0 62.97058743154048 21.620274119689384 0 21.620274119689384 -4.7348810530083938 0 0 0 0 -24.912823690316145 68.204995839791081 0 68.204995839791081 44.499371453685853 0 0 0 0 -38.280715250846697 83.727524011207151 0 83.727524011207151 32.69269788900624 0 0 0 0 35.386367028235327 119.91414241071789 0 119.91414241071789 -142.91080217223862 0 0 0 0 38.541753479745239 211.72636326344764 0 211.72636326344764 14.093590799281515 0 0 0 0 70.802987612849392 265.38423450488062 0 265.38423450488062 -216.04717623127362 0 0 0 0 -43.744435761575005 38.392238507987713 0 38.392238507987713 -102.85294790012631 0 0 0 0 179.23420283436008 -37.326054341050622 0 -37.326054341050622 -18.596663501877629 0 0 0 0 118.05126252046524 14.042206091777736 0 14.042206091777736 -20.806805221521493 0 0 0 0 63.066433878804673 67.022821053357802 0 67.022821053357802 -121.53068585844267 0 0 0 0 122.09950243679054 -30.76372625226486 0 -30.76372625226486 21.463661785042859 0 0 0 0 221.3425938356549 -8.9030814083444056 0 -8.9030814083444056 -248.37943205017655 0 0 0 0 142.66031516137764 18.456438640147098 0 18.456438640147098 -42.699720418579091 0 0 0 0 131.54025081349749 18.683104527927025 0 18.683104527927025 -16.344991970565616 0 0 0 0 147.91857828850547 14.42415748572531 0 14.42415748572531 -12.018762306978232 0 0 0 0 213.13377676242089 211.55662908108388 0 211.55662908108388 -391.06998581484913 0 0 0 0 200.09618817216688 59.133459289879738 0 59.133459289879738 -350.30412775874606 0 0 0 0 93.820912979233981 135.17027405269334 0 135.17027405269334 -270.11473590492824 0 0 0 0 348.11665448255371 92.322456908547792 0 92.322456908547792 -297.67887553770402 0 0 0 0 207.95538593345555 131.43108067114963 0 131.43108067114963 -166.86282747333098 0 0 0 0 512.81656324394862 137.78511735081065 0 137.78511735081065 -174.23152476619634 0 0 0 0 153.3412219343445 210.59387527628451 0 210.59387527628451 98.736605450745003 0 0 0 0 -25.36828937444443 192.82188419068393 0 192.82188419068393 -81.900654685496193 0 0 0 0 141.80434288440301 145.14090315260523 0 145.14090315260523 -99.801200682584749 0 0 0 0 395.1154858747941 -318.49913119387384 0 -318.49913119387384 309.64171577815068 0 0 0 0 404.82492397822352 160.11745908410285 0 160.11745908410285 36.600660972315382 0 0 0 0 262.34481402457459 -90.735697010222793 0 -90.735697010222793 119.93463652411992 0 0 0 0 802.05069602563162 -6.9769811168171145 0 -6.9769811168171145 116.86514618910223 0 0 0 0 812.24688822187454 447.65744368314336 0 447.65744368314336 -197.91630681822971 0 0 0 0 418.58625997667696 402.42146985709678 0 402.42146985709678 -100.79818802322188 0 0 0 0 62.020024168217788 12.712702037359122 0 12.712702037359122 473.00702595721123 0 0 0 0 -42.316828485461883 233.89622379502725 0 233.89622379502725 159.16013547099794 0 0 0 0 -0.77515538797572958 5.7946306685869047 0 5.7946306685869047 3.9923348303235251 0 0 0 0 676.28779998026221 516.08375264970891 0 516.08375264970891 185.62055467434038 0 0 0 0 -139.85771939678853 -225.65975342369643 0 -225.65975342369643 -51.524216991390858 0 0 0 0 32.665894641490013 -87.452862824220574 0 -87.452862824220574 210.21612716983736 0 0 0 0 32.845767767568759 -203.49298368064228 0 -203.49298368064228 -0.72185358883143635 0 0 0 0 133.52552037218993 -49.96273102066607 0 -49.96273102066607 -197.48536512853298 0 0 0 0 32.845767767576035 -203.49298368064046 0 -203.49298368064046 -0.72185358883507433 0 0 0 0 25.44707710963209 -10.717905587988596 0 -10.717905587988596 1.1436398002443546 0 0 0 0 113.85808664251817 1.3498782258939173 0 1.3498782258939173 -3.8074471750878729 0 0 0 0 22.72283819605218 -89.671423169353147 0 -89.671423169353147 47.601317582830234 0 0 0 0 37.493454960378585 -56.000278023395367 0 -56.000278023395367 98.113770356110763 0 0 0 0 147.96873825175135 -111.058071826782 0 -111.058071826782 -127.06851121134605 0 0 0 0 12.493583235033732 -14.06737762065012 0 -14.06737762065012 -21.778275014135922 0 0 0 0 91.383935186797316 21.847789747186653 0 21.847789747186653 -22.020601983349479 0 0 0 0 17.379006584390396 -3.0396033243946192 0 -3.0396033243946192 -7.7216810809353547 0 0 0 0 135.47459951152996 11.756107472935582 0 11.756107472935582 -22.325267380520017 0 0 0 0 72.609945021620661 5.1234618164553467 0 5.1234618164553467 -9.7518822270958481 0 0 0 0 62.948611795320176 39.055126711441972 0 39.055126711441972 -30.98342861193305 0 0 0 0 66.309885413923595 2.9624241789218075 0 2.9624241789218075 -23.659410578694608 0 0 0 0 56.010504022254636 -39.773035605145601 0 -39.773035605145601 -8.6060051947533154 0 0 0 0 127.23585344332423 -29.575063574208343 0 -29.575063574208343 -7.2657120989970281 0 0 0 0 104.51656649948453 -1.0546291281766607 0 -1.0546291281766607 -19.033713289564837 0 0 0 0 184.0344955863402 26.131552550942615 0 26.131552550942615 -48.360604005252753 0 0 0 0 52.444177516095806 107.107293628967 0 107.107293628967 -66.597255050739477 0 0 0 0 22.951523297427421 -1.500864539222702 0 -1.500864539222702 7.6859722421965202 0 0 0 0 185.46154875909792 -6.3038147785305227 0 -6.3038147785305227 -6.1860557959516882 0 0 0 0 176.4022135933991 -4.364059324898335 0 -4.364059324898335 -3.3766413443445344 0 0 0 0 30.188634930151288 3.2551301110679187 0 3.2551301110679187 -0.86978554633265759 0 0 0 0 179.56065398679857 -20.939927220025311 0 -20.939927220025311 11.751984098285902 0 0 0 0 181.22385822541992 -2.4766153683995071 0 -2.4766153683995071 -8.2887357174004137 0 0 0 0 124.59130157959589 -20.623458747904806 0 -20.623458747904806 15.749784866397022 0 0 0 0 125.62993259533209 -26.445391471330097 0 -26.445391471330097 -0.554749699533712 0 0 0 0 261.15829032103557 18.760195010247344 0 18.760195010247344 -65.438217607428669 0 0 0 0 32.845767767576035 -203.49298368064046 0 -203.49298368064046 -0.72185358883734807 0 0 0 0 112.21090677801116 -23.22864557403885 0 -23.22864557403885 -4.0718583162635156 0 0 0 0 167.20572292352722 -102.10496752109043 0 -102.10496752109043 -121.42232183711167 0 0 0 0 133.9821305844689 -7.8776034155234811 0 -7.8776034155234811 -48.023594448835865 0 0 0 0 164.46778906114923 -210.89380505500503 0 -210.89380505500503 -243.28606968985878 0 0 0 0 318.95443634430558 -29.554352479951376 0 -29.554352479951376 -139.60950690085519 0 0 0 0 25.790376877822155 224.39971707504014 0 224.39971707504014 -215.42175853825938 0 0 0 0 29.08028434645621 -28.212355497623321 0 -28.212355497623321 -133.01458310266389 0 0 0 0 6.2642519475252456 3.939815730264062 0 3.939815730264062 0.96266954731039789 0 0 0 0 165.50138757050354 -99.464456680543663 0 -99.464456680543663 70.855568323606349 0 0 0 0 54.74388984851339 -56.34095260908316 0 -56.34095260908316 54.496254061872605 0 0 0 0 176.59550093510052 -15.071172123131646 0 -15.071172123131646 65.151098705042386 0 0 0 0 167.83370828357965 -66.317838689566088 0 -66.317838689566088 35.593903544731802 0 0 0 0 263.53901776723433 -65.833346988905305 0 -65.833346988905305 62.554631628903735 0 0 0 0 4.1187149615031551 1.1769133348197194 0 1.1769133348197194 -0.71432687623000035 0 0 0 0 709.47108854076941 -129.58538638364826 0 -129.58538638364826 53.002380556555408 0 0 0 0 160.37817993290082 56.931800712371114 0 56.931800712371114 36.38340999875345 0 0 0 0 412.40360408802417 24.844005641810327 0 24.844005641810327 -12.430326638141196 0 0 0 0 249.39353949707402 58.257316480445297 0 58.257316480445297 29.295062504452062 0 0 0 0 120.59749863532625 26.661396138166765 0 26.661396138166765 60.37196068386038 0 0 0 0 -5.0041478810025666 0.80004357496251988 0 0.80004357496251988 -0.091412746878432927 0 0 0 0 107.41099490614215 -4.418101878230118 0 -4.418101878230118 -8.3394466510038114 0 0 0 0 106.63363668405646 -26.33641766083656 0 -26.33641766083656 89.177427811917369 0 0 0 0 -33.145568442709646 101.75972649663072 0 101.75972649663072 117.64470172224537 0 0 0 0 59.792025032814593 6.5524706251358111 0 6.5524706251358111 154.08055265691473 0 0 0 0 50.668424026071079 64.047722466027153 0 64.047722466027153 43.626269032787604 0 0 0 0 106.89032186162149 68.806698357285313 0 68.806698357285313 -241.54018371160964 0 0 0 0 35.348069996653862 -190.03722709784734 0 -190.03722709784734 -193.12579167722288 0 0 0 0 37.440855475753324 28.344301802148038 0 28.344301802148038 127.63275156924647 0 0 0 0 62.37501319929379 -7.8942051311460091 0 -7.8942051311460091 -93.548323859835364 0 0 0 0 -1.1730326130036453 2.7097199605600206 0 2.7097199605600206 -1.2342716766888771 0 0 0 0 -224.29676959578433 -220.92082790110248 0 -220.92082790110248 -78.358693130218853 0 0 0 0 51.127013244059526 -9.0956374336228691 0 -9.0956374336228691 -147.02687008264547 0 0 0 0 193.1136521414719 3.7635987814555847 0 3.7635987814555847 -108.94158948506265 0 0 0 0 96.724718095794742 -61.012213347528814 0 -61.012213347528814 -132.92620027128214 0 0 0 0 58.542517359374415 -30.587237909817304 0 -30.587237909817304 -89.444206176749503 0 0 0 0 286.1203622770945 -110.49549918819594 0 -110.49549918819594 5.1078311260444025 0 0 0 0 129.25837664323808 -8.5183503381158516 0 -8.5183503381158516 -11.929735945377615 0 0 0 0 -27.860459865665689 -82.001659559899963 0 -82.001659559899963 36.210269331775635 0 0 0 0 224.61126814549652 178.20519469319697 0 178.20519469319697 191.57453628366056 0 0 0 0 124.31173808424296 -2.6216572940636524 0 -2.6216572940636524 250.15550034891203 0 0 0 0 252.57480246849445 212.57228563408262 0 212.57228563408262 22.685149833318064 0 0 0 0 -119.43416844961394 339.46662321191161 0 339.46662321191161 -9.7860333203861956 0 0 0 0 218.41386600469468 94.855210032549621 0 94.855210032549621 0.83274779686325928 0 0 0 0 392.06390770563394 115.77718836928057 0 115.77718836928057 -82.992850261849526 0 0 0 0 206.83443582287691 34.397305442795187 0 34.397305442795187 -116.08061507627372 0 0 0 0 105.14570997981718 128.13100229624888 0 128.13100229624888 -2.6166778634651564 0 0 0 0 129.51119986117737 -73.716005744574431 0 -73.716005744574431 185.40632323293357 0 0 0 0 378.96448269703387 -109.05441747673513 0 -109.05441747673513 -19.088232008434716 0 0 0 0 211.84448018739647 185.3687620816861 0 185.3687620816861 92.189689670596636 0 0 0 0 180.17530384969189 -122.63555650858962 0 -122.63555650858962 3.476137473808194 0 0 0 0 170.84312801370743 -90.330691878201833 0 -90.330691878201833 -39.056693280971558 0 0 0 0 164.68804324878192 -145.55111325990947 0 -145.55111325990947 -30.252752205808065 0 0 0 0 101.19354746415502 -145.94869866122099 0 -145.94869866122099 185.36389397629409 0 0 0 0 176.81421846136072 -165.94949074047508 0 -165.94949074047508 -133.12645830460315 0 0 0 0 120.55350524176743 -286.63769197776674 0 -286.63769197776674 -31.780719510716153 0 0 0 0 164.81966236391418 -216.56462297951293 0 -216.56462297951293 -61.284036141316392 0 0 0 0 283.29819558666873 -207.75275308670189 0 -207.75275308670189 -409.03693147226113 0 0 0 0 4.5543429242875 13.268725867644926 0 13.268725867644926 -3.1306086640069597 0 0 0 0 168.36025715926334 293.21650960424085 0 293.21650960424085 -13.397535416279425 0 0 0 0 126.02352471561487 -288.29872333445962 0 -288.29872333445962 -197.81584873988322 0 0 0 0 253.15632331754097 -60.858145410413272 0 -60.858145410413272 -226.96853628751887 0 0 0 0 273.74910754680155 25.134952873934026 0 25.134952873934026 53.110472140371712 0 0 0 0 188.06053761665837 -176.47139238526142 0 -176.47139238526142 -31.152001356234905 0 0 0 0 132.59379757435954 -42.289287186593356 0 -42.289287186593356 214.30806240993843 0 0 0 0 129.93149894924818 -84.987068153457585 0 -84.987068153457585 -12.431517948583405 0 0 0 0 132.91945326824703 -40.490167657838242 0 -40.490167657838242 87.026313640846638 0 0 0 0 135.21447358498477 -63.797274369821366 0 -63.797274369821366 40.32534749414117 0 0 0 0 196.48184757294439 -67.14802759675149 0 -67.14802759675149 2.9536321679743196 0 0 0 0 -1.9912415877807845 2.7179988362387828 0 2.7179988362387828 1.4935276890469922 0 0 0 0 212.82517317507836 -49.607769836226908 0 -49.607769836226908 21.734365882874044 0 0 0 0 194.24871285740255 -12.678185185210168 0 -12.678185185210168 84.552935732195692 0 0 0 0 102.85006748335172 -60.381803910913732 0 -60.381803910913732 218.27880565485066 0 0 0 0 113.69486687285507 -124.15126779862658 0 -124.15126779862658 7.9352702426713222 0 0 0 0 171.15302381881679 -54.645292401931329 0 -54.645292401931329 90.649553002023367 0 0 0 0 167.06381535136143 -74.700638652960151 0 -74.700638652960151 -20.504597107179507 0 0 0 0 177.98295172715598 -81.390773365479617 0 -81.390773365479617 -42.860185867938526 0 0 0 0 167.07434599529051 -63.97046528320152 0 -63.97046528320152 -289.48608349382994 0 0 0 0 6.0240795628133128 165.44411422714529 0 165.44411422714529 -46.845782640561083 0 0 0 0 25.61360093127405 -226.44500501308175 0 -226.44500501308175 -11.153607384032512 0 0 0 0 121.2143950811716 -31.113408966677667 0 -31.113408966677667 -3.8115465319078794 0 0 0 0 72.508566743486881 11.4960229023186 0 11.4960229023186 -40.11158874119883 0 0 0 0 72.251902191439058 12.185473141702914 0 12.185473141702914 6.9881635825367994 0 0 0 0 119.09144724075759 -3.4497166821879546 0 -3.4497166821879546 -11.042172861626568 0 0 0 0 194.0460251777842 -49.562459703851346 0 -49.562459703851346 -89.989600754242929 0 0 0 0 200.59665300338816 -29.514908936368101 0 -29.514908936368101 9.5424744197334803 0 0 0 0 201.06136590687387 -25.112326003510816 0 -25.112326003510816 -6.2709030736823479 0 0 0 0 195.38019429154451 -68.385061102948384 0 -68.385061102948384 18.549993558492815 0 0 0 0 179.87893787462858 -89.324139535094446 0 -89.324139535094446 -9.6812582073980593 0 0 0 0 163.45639828136336 -54.770314631003203 0 -54.770314631003203 65.665902818866016 0 0 0 0 254.20625349592842 19.040707304159696 0 19.040707304159696 48.323578395079494 0 0 0 0 181.59822605677527 -17.576912015860216 0 -17.576912015860216 112.35654314435487 0 0 0 0 320.37799467595858 -16.738560045007944 0 -16.738560045007944 0.63496175680666056 0 0 0 0 246.32562117541329 -11.600412988503194 0 -11.600412988503194 4.2896661299805601 0 0 0 0 247.48409575231005 -6.3263699714525501 0 -6.3263699714525501 26.872295102351927 0 0 0 0 229.76639814031199 -11.685771219083719 0 -11.685771219083719 32.428981302255124 0 0 0 0 230.30432936053592 -45.86801981951956 0 -45.86801981951956 9.9595361826523003 0 0 0 0 181.23184733078824 -39.209149944304727 0 -39.209149944304727 21.16823479521554 0 0 0 0 182.01003137109592 -5.8884816304755532 0 -5.8884816304755532 76.228796300705767 0 0 0 0 212.98434725457173 31.994747949616794 0 31.994747949616794 47.786410307313417 0 0 0 0 228.44377380300045 22.170691756088218 0 22.170691756088218 -7.9091401381101605 0 0 0 0 238.88362055163134 -19.846382567523051 0 -19.846382567523051 -37.949729127738919 0 0 0 0 103.72666039704666 -84.593772437429834 0 -84.593772437429834 7.551997612868945 0 0 0 0 16.428189963433852 -19.407239042865058 0 -19.407239042865058 25.833913384841253 0 0 0 0 23.294391659329335 19.641436079756318 0 19.641436079756318 -14.982010305831864 0 0 0 0 140.85965017523483 102.5650514852282 0 102.5650514852282 60.446347976557831 0 0 0 0 0.34272813392665569 -2.3823481088544494 0 -2.3823481088544494 0.89544158320803469 0 0 0 0 211.38419334247465 -29.411237243305095 0 -29.411237243305095 -8.3799227609761147 0 0 0 0 13.146892849110827 27.328631174856014 0 27.328631174856014 9.6860813037308162 0 0 0 0 44.505137137567999 9.9524877882981855 0 9.9524877882981855 -1.6322443028984708 0 0 0 0 32.749812686743532 15.765003512722664 0 15.765003512722664 -14.483517780210972 0 0 0 0 42.306959523196838 40.203229724927866 0 40.203229724927866 -34.683127028752381 0 0 0 0 119.05253397862225 31.875024439147637 0 31.875024439147637 -40.06374522128101 0 0 0 0 109.26129350186336 -11.972335312412341 0 -11.972335312412341 -37.278594064659956 0 0 0 0 108.69432058395637 -3.9133741521751517 0 -3.9133741521751517 -39.155320756216923 0 0 0 0 177.59762628510725 -27.125453403751635 0 -27.125453403751635 -66.913279631737851 0 0 0 0 155.43159831127059 -51.305210662841347 0 -51.305210662841347 -64.151530928459124 0 0 0 0 58.682022923955174 1.4273627555410258 0 1.4273627555410258 -56.860199277447691 0 0 0 0 225.97996807883919 -45.546506035209177 0 -45.546506035209177 -3.656469568813236 0 0 0 0 125.58605106776167 -61.709194555392401 0 -61.709194555392401 0.65307600652204201 0 0 0 0 156.26392633050318 14.200202423379551 0 14.200202423379551 -27.649363388281017 0 0 0 0 493.71445114078983 96.040818060133915 0 96.040818060133915 -56.393376548392553 0 0 0 0 420.46621725591103 -98.043412260893092 0 -98.043412260893092 -28.070378531740971 0 0 0 0 320.05921897894336 36.115071176072433 0 36.115071176072433 -129.55869944968254 0 0 0 0 334.88489498382114 -49.308473103538745 0 -49.308473103538745 -92.615543108395286 0 0 0 0 274.79725569139737 8.6127811490123349 0 8.6127811490123349 -84.098408973453843 0 0 0 0 248.51030858684226 153.60099759393415 0 153.60099759393415 113.11635526367718 0 0 0 0 -2.3569552807457512 -16.508091695592157 0 -16.508091695592157 116.73057792516101 0 0 0 0 -46.394102051512164 -30.044721973345077 0 -30.044721973345077 1.7239574616542086 0 0 0 0 227.64486315003705 95.847069202975945 0 95.847069202975945 14.359459664501628 0 0 0 0 2.0584208067444294 -2.8480173625670204 0 -2.8480173625670204 -0.17023158776219915 0 0 0 0 -3.0130769994798356 -7.8577813965821406 0 -7.8577813965821406 -1.7430040470553649 0 0 0 0 14.120266937940624 -2.6182783807422219 0 -2.6182783807422219 -2.4213298767808595 0 0 0 0 4.1301222171472673 0.29693542768733572 0 0.29693542768733572 -0.19237152205693775 0 0 0 0 110.75846081503914 -55.683401975669767 0 -55.683401975669767 11.695015467637859 0 0 0 0 60.056254456303577 -7.3422453721514103 0 -7.3422453721514103 -4.1146478660934918 0 0 0 0 14.461810595633324 -4.1529541397594585 0 -4.1529541397594585 -13.418298199389938 0 0 0 0 19.000420156296176 -2.3923340341309327 0 -2.3923340341309327 -4.9336138209991169 0 0 0 0 31.223586407975848 -7.7147772591020072 0 -7.7147772591020072 -9.4490845120408462 0 0 0 0 47.955026445724798 0.45199443639467063 0 0.45199443639467063 -8.8079008343074747 0 0 0 0 8.8991935561935414 -13.269711566149663 0 -13.269711566149663 -1.8005880545566804 0 0 0 0 15.807768504407967 -13.138199947837027 0 -13.138199947837027 -1.9492888626703255 0 0 0 0 15.839099777286794 7.6572711297421154 0 7.6572711297421154 -7.738120730267589 0 0 0 0 21.966227545355196 6.5376111824316467 0 6.5376111824316467 -7.697538664448075 0 0 0 0 24.617285264813518 4.6194740250612085 0 4.6194740250612085 -8.2505532287964343 0 0 0 0 23.356287822621489 8.2295289647780585 0 8.2295289647780585 -6.1512086596858992 0 0 0 0 24.692076561193389 -3.9884503672177694 0 -3.9884503672177694 -8.967522133303973 0 0 0 0 30.500821703664769 -17.317732789182628 0 -17.317732789182628 10.283025156881195 0 0 0 0 4.4016956454148133 -0.8260562331431629 0 -0.8260562331431629 -1.94865509921976 0 0 0 0 6.7855811880971864 -0.88210725343503515 0 -0.88210725343503515 -7.3325487550563011 0 0 0 0 17.034049845356094 -75.810029736043361 0 -75.810029736043361 -139.13463081402733 0 0 0 0 -2.9267648132681643 34.407268066929646 0 34.407268066929646 -123.15584358979322 0 0 0 0 184.47490925093825 54.10225478691973 0 54.10225478691973 -130.60493200952078 0 0 0 0 81.007201483545941 -37.611101942211462 0 -37.611101942211462 -162.19187748336572 0 0 0 0 10.586851769965506 12.236409456266529 0 12.236409456266529 -11.075322238947592 0 0 0 0 19.129175781086815 10.858461538913161 0 10.858461538913161 -5.7343213018884853 0 0 0 0 0.77284815621400749 7.5608211007903225 0 7.5608211007903225 -3.6753793880666983 0 0 0 0 12.258507613152688 18.662431122083945 0 18.662431122083945 7.659415699793044 0 0 0 0 20.828552878941082 11.442338697906052 0 11.442338697906052 -27.353789205832072 0 0 0 0 3.1236960643017504 0.29497948686255349 0 0.29497948686255349 -0.92635456244109804 0 0 0 0 22.985634267991145 34.58547297964185 0 34.58547297964185 11.854536012494464 0 0 0 0 18.627250328607197 11.282146274329222 0 11.282146274329222 -9.7475363877603325 0 0 0 0 10.668874136535749 51.644100206235024 0 51.644100206235024 -13.972865915306102 0 0 0 0 9.3040661596342886 0.69045525594381729 0 0.69045525594381729 0.043486471336930066 0 0 0 0 31.46225399214109 17.735631590490566 0 17.735631590490566 -15.376603894582182 0 0 0 0 5.1912203766887615 12.751097538278827 0 12.751097538278827 -12.569361714080515 0 0 0 0 53.654205727809313 4.3805993072787714 0 4.3805993072787714 -1.8565547008561225 0 0 0 0 54.153640897933656 -8.6654730925392869 0 -8.6654730925392869 3.4932280420543975 0 0 0 0 81.514842003537524 6.2895773136390289 0 6.2895773136390289 14.17153559099188 0 0 0 0 84.739675876824549 -3.5129773533653861 0 -3.5129773533653861 -17.347150086015517 0 0 0 0 88.120485730678638 -0.30065453702638933 0 -0.30065453702638933 -9.0826767965154431 0 0 0 0 68.992427203336774 5.084025697733523 0 5.084025697733523 -1.5378591317148675 0 0 0 0 55.599756012659782 1.7990363348017127 0 1.7990363348017127 -1.9882164367481892 0 0 0 0 54.283926070807865 -13.072857061644754 0 -13.072857061644754 -8.1256976032600505 0 0 0 0 71.725381056856349 -6.6648654718504758 0 -6.6648654718504758 -5.9318560061183234 0 0 0 0 65.118716268517346 -10.535526586012793 0 -10.535526586012793 2.108647058619681 0 0 0 0 11.14032313724778 -17.032823457976203 0 -17.032823457976203 -6.9144354230543073 0 0 0 0 100.16963179149252 -54.640143620807066 0 -54.640143620807066 10.021187215663304 0 0 0 0 154.48396353496446 -153.14826726639876 0 -153.14826726639876 86.113248733225873 0 0 0 0 -6.4135411493174326 -1.182956064096051 0 -1.182956064096051 1.0678797159840343 0 0 0 0 269.39506050753516 -70.303180557863925 0 -70.303180557863925 -78.288353506655767 0 0 0 0 273.33771375064043 10.077162793261778 0 10.077162793261778 -42.336000942690589 0 0 0 0 130.72799187479222 5.9355555872728019 0 5.9355555872728019 -28.504700401339505 0 0 0 0 398.54938481477348 33.774208232433011 0 33.774208232433011 -87.602799439331648 0 0 0 0 271.24859382940963 20.073402428620966 0 20.073402428620966 -65.442904440547863 0 0 0 0 351.60321214714986 69.019922226588278 0 69.019922226588278 -46.761911472847714 0 0 0 0 456.99369870159808 123.78145457750179 0 123.78145457750179 -32.766495838770425 0 0 0 0 269.30186512253044 63.998634191638075 0 63.998634191638075 125.77800273570028 0 0 0 0 504.83252408260159 -47.233648901926244 0 -47.233648901926244 -87.339747636091488 0 0 0 0 350.61342648163293 37.827555927822686 0 37.827555927822686 -56.530841206969853 0 0 0 0 372.26179365247845 107.14062739213659 0 107.14062739213659 -42.225401880661366 0 0 0 0 366.14861454936909 52.328432984834762 0 52.328432984834762 -70.672156242738311 0 0 0 0 238.33458843944436 84.097379992046626 0 84.097379992046626 -15.916258671350079 0 0 0 0 84.153884047866995 -0.44900622064915297 0 -0.44900622064915297 -18.616108479892318 0 0 0 0 71.15723495849852 -5.9941193347031003 0 -5.9941193347031003 0.36505136403502547 0 0 0 0 164.8659362774506 16.462961456577432 0 16.462961456577432 -6.0385719889618485 0 0 0 0 4.5162519574061708 -17.026406630006186 0 -17.026406630006186 -12.116211515510948 0 0 0 0 18.944443218180687 -15.028159361120824 0 -15.028159361120824 -18.391734467030663 0 0 0 0 48.64479620747943 28.718282828592237 0 28.718282828592237 91.593799061262871 0 0 0 0 60.470281362957394 -13.076183519749861 0 -13.076183519749861 -23.71722863593709 0 0 0 0 77.403307727390711 -11.560289999543897 0 -11.560289999543897 -28.068519252630267 0 0 0 0 128.92984921525749 6.764508491473407 0 6.764508491473407 -21.140838909019294 0 0 0 0 88.296784098247372 -19.197962667743923 0 -19.197962667743923 -22.713857377836121 0 0 0 0 -0.98390003798524539 1.8684260583357393 0 1.8684260583357393 0.44334654679302687 0 0 0 0 28.558567746826839 -14.158781610535812 0 -14.158781610535812 -12.961339170225074 0 0 0 0 76.069668945959393 -1.7593923536226512 0 -1.7593923536226512 -31.600740353903575 0 0 0 0 61.208380851338916 -5.1012802954847984 0 -5.1012802954847984 -29.70031986229651 0 0 0 0 239.0370713861339 -92.163027706993489 0 -92.163027706993489 -221.31194244017433 0 0 0 0 78.675150644434638 4.6823446461642799 0 4.6823446461642799 -2.5515838365057952 0 0 0 0 0.90551098182350387 -0.9728935869922779 0 -0.9728935869922779 0.69820526412931905 0 0 0 0 197.93438886901095 60.340101954030956 0 60.340101954030956 7.6468792167124775 0 0 0 0 59.365295749345023 10.134287588820541 0 10.134287588820541 141.240678760229 0 0 0 0 33.424112003624032 56.448222385422469 0 56.448222385422469 59.6584347602261 0 0 0 0 109.38626859220585 -70.232721904564471 0 -70.232721904564471 -78.366872140772102 0 0 0 0 74.725315007575773 -15.482058900235359 0 -15.482058900235359 -33.407779849995904 0 0 0 0 89.087647132603962 -8.7903252265773979 0 -8.7903252265773979 -11.352938476684196 0 0 0 0 145.30226818034862 -15.926348465688989 0 -15.926348465688989 -7.3275656902906121 0 0 0 0 30.824002583295851 -56.659366973429442 0 -56.659366973429442 -31.840014075902886 0 0 0 0 407.94672400492027 -13.0337588245402 0 -13.0337588245402 -105.33458087830428 0 0 0 0 -38.526424116554836 -94.663835665828628 0 -94.663835665828628 112.50249485603945 0 0 0 0 2.7551277307238582 -12.281248171022991 0 -12.281248171022991 -4.4241894912058672 0 0 0 0 337.77222987572395 211.46811711988448 0 211.46811711988448 157.28103562354227 0 0 0 0 299.5682567683175 -246.14965341635479 0 -246.14965341635479 86.85099181149144 0 0 0 0 23.575144776908889 9.1605208508997542 0 9.1605208508997542 -2.5496362590885178 0 0 0 0 65.687994926192914 99.543477524296151 0 99.543477524296151 38.805249347691728 0 0 0 0 83.537941141614198 -6.7687007039841092 0 -6.7687007039841092 11.566635316891734 0 0 0 0 920.79649923479974 -258.89533139776597 0 -258.89533139776597 -748.0342372593168 0 0 0 0 77.451230657216001 -124.1620372709985 0 -124.1620372709985 186.82781320985526 0 0 0 0 5.6159767386617343 -3.231746896566059 0 -3.231746896566059 1.1838257283968914 0 0 0 0 -195.90790022554029 194.36858632772896 0 194.36858632772896 427.54202492816017 0 0 0 0 81.608342495541891 -8.949200246390399 0 -8.949200246390399 -5.241119448419453 0 0 0 0 210.93098360949807 -168.59246343008112 0 -168.59246343008112 -79.871862685775596 0 0 0 0 148.16806691213253 -22.224004340393474 0 -22.224004340393474 -153.9883637796429 0 0 0 0 131.60869441519338 -46.086366384234424 0 -46.086366384234424 -17.105287914256678 0 0 0 0 45.758828414301576 -41.73564207877719 0 -41.73564207877719 -17.300525757736636 0 0 0 0 81.109659688283969 2.8841541946039797 0 2.8841541946039797 -26.290686837995629 0 0 0 0 96.298444831305233 -7.6723614167793812 0 -7.6723614167793812 -26.727575534556138 0 0 0 0 60.02932190468664 -9.0556375976344725 0 -9.0556375976344725 -18.74252569438795 0 0 0 0 65.285163886392183 3.0987161822821463 0 3.0987161822821463 -17.631958650096564 0 0 0 0 55.628351226341692 15.953945063694789 0 15.953945063694789 -28.741436109282404 0 0 0 0 141.29503957048291 45.473183499492279 0 45.473183499492279 -144.58890226153108 0 0 0 0 42.699526951901206 12.570237387484825 0 12.570237387484825 -17.444751969216043 0 0 0 0 64.509205720862028 14.150965622438278 0 14.150965622438278 -3.8565559228314488 0 0 0 0 37.812969684659038 61.042510508745863 0 61.042510508745863 24.52563335215882 0 0 0 0 75.785475944572681 89.148758014700235 0 89.148758014700235 32.176455619335684 0 0 0 0 12.346566838747322 8.4432025958371568 0 8.4432025958371568 0.18172637483836507 0 0 0 0 61.389673912083708 41.220612168926948 0 41.220612168926948 98.538861373994223 0 0 0 0 148.10787771828473 157.7404549192629 0 157.7404549192629 -52.23118205731771 0 0 0 0 -26.844064250228257 32.102510729336245 0 32.102510729336245 47.879663180927309 0 0 0 0 273.99960108616506 59.626734211737812 0 59.626734211737812 39.925913944225726 0 0 0 0 87.816506794581073 211.8773992547417 0 211.8773992547417 228.99990163135931 0 0 0 0 1.2250013076310609 -0.45571923708286377 0 -0.45571923708286377 0.32282091139022162 0 0 0 0 24.568080185505096 -33.978797599693621 0 -33.978797599693621 17.248736053769107 0 0 0 0 15.883508110311595 8.0586152105118742 0 8.0586152105118742 -11.206470742416059 0 0 0 0 44.859439323085098 -37.807868847904047 0 -37.807868847904047 -19.089921801530636 0 0 0 0 10.160682360939973 -3.2588845294765179 0 -3.2588845294765179 -24.547418298086086 0 0 0 0 -21.104152074055037 -39.914605311654043 0 -39.914605311654043 -11.879766850848227 0 0 0 0 1.6441703640991676 -0.80400555957890418 0 -0.80400555957890418 -0.90712515655199866 0 0 0 0 44.875389134685975 -1.0135250994007947 0 -1.0135250994007947 -28.265813864150914 0 0 0 0 64.240505907491752 -31.016375763947735 0 -31.016375763947735 -49.381478795637577 0 0 0 0 152.37631949149045 46.94583619314119 0 46.94583619314119 -196.23367546874692 0 0 0 0 81.912526376972892 -8.198677823054231 0 -8.198677823054231 -3.9715823456253165 0 0 0 0 12.381769832939156 -0.39696370099675704 0 -0.39696370099675704 -6.8971017314538141 0 0 0 0 60.681441943366707 29.630201422060502 0 29.630201422060502 6.8030054994680986 0 0 0 0 126.04236635894631 -39.177679848233993 0 -39.177679848233993 -62.668295824963934 0 0 0 0 97.455001895985333 17.513371977955444 0 17.513371977955444 5.11886191972917 0 0 0 0 125.05742850181559 22.202304246279255 0 22.202304246279255 -27.876405335362961 0 0 0 0 123.55224862383329 -0.92722887405420806 0 -0.92722887405420806 17.413315835348385 0 0 0 0 147.61285830886482 -3.491119026585352 0 -3.491119026585352 4.7526840571658795 0 0 0 0 142.6161521705144 11.665788399150074 0 11.665788399150074 1.2861112309924465 0 0 0 0 122.92260073818557 19.411806277280018 0 19.411806277280018 -1.5365799958735806 0 0 0 0 248.10292564685915 -20.652918476865125 0 -20.652918476865125 0.52230540758773714 0 0 0 0 349.56662441844855 7.4094202926951311 0 7.4094202926951311 -19.888294358721282 0 0 0 0 241.62844241395578 -38.987936398955526 0 -38.987936398955526 23.185951052166729 0 0 0 0 316.44476128877704 32.283878159975302 0 32.283878159975302 3.6270786519467038 0 0 0 0 19.847435238282287 36.31516825760378 0 36.31516825760378 -0.66352490425038013 0 0 0 0 127.81454169712379 14.859251521483202 0 14.859251521483202 -9.1261785654298819 0 0 0 0 -146.16515738529097 451.0553989920428 0 451.0553989920428 483.9695171062927 0 0 0 0 356.07376932370062 -185.99067069671793 0 -185.99067069671793 90.039057050639428 0 0 0 0 9.0067969758013771 9.1892392406733627 0 9.1892392406733627 -0.49812322465008529 0 0 0 0 541.07560652671054 90.924920662681416 0 90.924920662681416 -4.0489493778609358 0 0 0 0 384.51139346064065 -106.03548301499541 0 -106.03548301499541 89.355497368200759 0 0 0 0 253.26845294607938 6.5609575183353854 0 6.5609575183353854 87.499282049210706 0 0 0 0 344.03107496458142 -48.776243914223642 0 -48.776243914223642 21.516717972901461 0 0 0 0 436.17986932757958 59.091753403564269 0 59.091753403564269 83.392310941250912 0 0 0 0 290.49666897896623 -54.774158180087625 0 -54.774158180087625 167.66146528952868 0 0 0 0 272.46243903232175 -36.161762633623638 0 -36.161762633623638 28.919292954457887 0 0 0 0 337.33579443185681 -25.428304553562953 0 -25.428304553562953 -17.030999721396824 0 0 0 0 293.27101138002445 29.28481919908441 0 29.28481919908441 43.268036741721744 0 0 0 0 336.38320410669348 -70.043981257997757 0 -70.043981257997757 12.368440223020912 0 0 0 0 12.460313806791106 0.5698924515704249 0 0.5698924515704249 -1.4401188195275894 0 0 0 0 266.60276673778185 -74.853873130365201 0 -74.853873130365201 40.179556103812047 0 0 0 0 31.58153610442514 64.118182832477601 0 64.118182832477601 64.435167149553592 0 0 0 0 112.02396779764399 36.630506952154789 0 36.630506952154789 43.043458843132839 0 0 0 0 156.40493915689513 22.43000117049985 0 22.43000117049985 37.473062548610756 0 0 0 0 154.6935556258104 -39.709113839774943 0 -39.709113839774943 29.020983575274613 0 0 0 0 110.84255726345327 23.691371065667227 0 23.691371065667227 89.409450723039299 0 0 0 0 202.66161816072781 -44.286969069246425 0 -44.286969069246425 75.807980686077372 0 0 0 0 166.0000427900186 7.3424064296889355 0 7.3424064296889355 24.93929845285038 0 0 0 0 125.90080033086815 40.683583325846087 0 40.683583325846087 25.570757823082261 0 0 0 0 146.49785144690577 -28.487293270400187 0 -28.487293270400187 -49.364751506254606 0 0 0 0 52.48485782462194 -48.445451741065426 0 -48.445451741065426 4.0766266279119918 0 0 0 0 139.5027623482747 -25.645369879421651 0 -25.645369879421651 56.640366813757055 0 0 0 0 239.85144637200165 -30.297694464120696 0 -30.297694464120696 -16.854462614384829 0 0 0 0 136.20416608511005 -40.909480274638099 0 -40.909480274638099 9.9766015384097955 0 0 0 0 248.35251942709147 -22.290616428756181 0 -22.290616428756181 -39.129289781004445 0 0 0 0 22.3847651420283 -68.447008714614867 0 -68.447008714614867 -0.80300895760365165 0 0 0 0 139.78064661647738 -65.699233059950814 0 -65.699233059950814 -41.340590761596104 0 0 0 0 29.996070591215812 -85.315001442247649 0 -85.315001442247649 -61.521752203098004 0 0 0 0 -19.769903824981157 -73.618253406014901 0 -73.618253406014901 8.484144348692098 0 0 0 0 104.528377015351 12.785264428548999 0 12.785264428548999 12.878615880142206 0 0 0 0 27.908650377868071 -15.323374595321646 0 -15.323374595321646 0.22496781594982096 0 0 0 0 27.977823181320758 -22.034445955757633 0 -22.034445955757633 4.2028498354626898 0 0 0 0 100.96588346790806 -45.398964026381478 0 -45.398964026381478 7.4420807848551407 0 0 0 0 152.31367786525516 -200.31258657990577 0 -200.31258657990577 -43.905682211728504 0 0 0 0 230.62077886994302 -46.775369859006332 0 -46.775369859006332 -83.670111575378996 0 0 0 0 32.510849342030269 -49.260149108824407 0 -49.260149108824407 63.377615501937726 0 0 0 0 208.10404888511039 53.038007230112271 0 53.038007230112271 2.2737355597391797 0 0 0 0 478.59224139573053 -28.701841798914757 0 -28.701841798914757 23.122905457264096 0 0 0 0 0.63721324723211126 1.2116865325303401 0 1.2116865325303401 0.86418006895341293 0 0 0 0 -53.455350343705504 -22.585367298151823 0 -22.585367298151823 -66.247865775119863 0 0 0 0 -27.023913632379845 -97.471724084529342 0 -97.471724084529342 -33.98286785820801 0 0 0 0 58.020572274094775 -72.662818218443931 0 -72.662818218443931 -70.623098129083701 0 0 0 0 26.051600063427504 15.818515204311197 0 15.818515204311197 -0.68107967088402077 0 0 0 0 -22.726777724070416 -103.7481054725763 0 -103.7481054725763 -10.26018225546477 0 0 0 0 88.082402381885913 -13.642154317390606 0 -13.642154317390606 -73.266717849928568 0 0 0 0 154.71736200116914 34.46463111965538 0 34.46463111965538 -52.469332784729886 0 0 0 0 168.08313283596362 -24.59563317907191 0 -24.59563317907191 76.877076556336306 0 0 0 0 82.901389095932245 -75.856280039364719 0 -75.856280039364719 -45.543241257233603 0 0 0 0 95.542786996614907 -41.097730786764245 0 -41.097730786764245 4.6845189454548972 0 0 0 0 75.633362667656911 -184.29840309185943 0 -184.29840309185943 -73.074910059172453 0 0 0 0 155.69969393227075 -89.158664605261492 0 -89.158664605261492 -59.422920551114402 0 0 0 0 2.1592997464130121 -4.9939768346213924 0 -4.9939768346213924 6.5085659033964296 0 0 0 0 239.77016365834788 77.853043539632438 0 77.853043539632438 -38.865902490174904 0 0 0 0 -39.462118195224321 -66.890708288218207 0 -66.890708288218207 -10.218753839177367 0 0 0 0 115.90557183235069 44.355162024777314 0 44.355162024777314 3.1282410908897873 0 0 0 0 85.257877681287937 45.098470469579524 0 45.098470469579524 64.386226086057832 0 0 0 0 18.012249977211468 -50.042666455900871 0 -50.042666455900871 -2.3181095720777876 0 0 0 0 33.276669441856939 -10.309379109687427 0 -10.309379109687427 15.655318078545065 0 0 0 0 27.935727192748267 -24.20206937668668 0 -24.20206937668668 5.3729359006796447 0 0 0 0 94.182669798959978 -45.548630370365117 0 -45.548630370365117 35.609334547187814 0 0 0 0 99.573030667423154 -37.288124268982983 0 -37.288124268982983 -8.8150191931417794 0 0 0 0 36.063599001895369 -20.854075835907778 0 -20.854075835907778 -1.1747437705242261 0 0 0 0 15.551748331634904 -2.6806890939359533 0 -2.6806890939359533 -2.8987268401255433 0 0 0 0 -55.125879876324689 -90.21180034188032 0 -90.21180034188032 59.885345997948434 0 0 0 0 120.77868341862631 -37.152658073457928 0 -37.152658073457928 50.906025443280669 0 0 0 0 129.4982211516508 -36.772019148026743 0 -36.772019148026743 -61.739113609425686 0 0 0 0 174.54027932498866 -91.011756763250219 0 -91.011756763250219 -43.341611965167544 0 0 0 0 150.36269067624926 -1.5655017409380889 0 -1.5655017409380889 88.110705358416851 0 0 0 0 140.10343472740533 -40.462092896293598 0 -40.462092896293598 -100.33266176752562 0 0 0 0 -24.630811188295411 -192.51172597362461 0 -192.51172597362461 -101.03258124260742 0 0 0 0 -253.67306464086869 -115.7322945739092 0 -115.7322945739092 31.176748819276099 0 0 0 0 4.0168171409063955 -0.68194324754580649 0 -0.68194324754580649 -0.29242447271504091 0 0 0 0 479.54526123322103 26.696630073762037 0 26.696630073762037 -56.717422718988814 0 0 0 0 472.66226737873876 55.158093405975023 0 55.158093405975023 8.4551377529896854 0 0 0 0 318.04133602876936 -107.39400475998224 0 -107.39400475998224 30.746965940842301 0 0 0 0 246.76780225029506 79.170782086055624 0 79.170782086055624 48.814540325508574 0 0 0 0 303.50803876757709 -38.603654836981605 0 -38.603654836981605 -22.890577527055029 0 0 0 0 -0.60991632270595009 0.81154815563174765 0 0.81154815563174765 0.75661244469855493 0 0 0 0 129.0513480859554 126.10155082592382 0 126.10155082592382 -74.014892721504651 0 0 0 0 167.6930100628455 15.107598116891342 0 15.107598116891342 213.00109565709636 0 0 0 0 303.74824759258263 -110.65769732021727 0 -110.65769732021727 67.159508235355588 0 0 0 0 190.71138108517334 -125.19506895471204 0 -125.19506895471204 1.3684860876364837 0 0 0 0 316.71710089626504 -39.143492585670558 0 -39.143492585670558 4.5634284511638725 0 0 0 0 652.96908712301956 -139.43317086270548 0 -139.43317086270548 -19.00048122889234 0 0 0 0 -497.59779987692673 -303.56704402683545 0 -303.56704402683545 283.3850034171237 0 0 0 0 1.8372615915970698 -3.0460075796418344 0 -3.0460075796418344 2.3531873382261619 0 0 0 0 0.50460231039597403 -2.6879012174480401 0 -2.6879012174480401 0.29913588249935552 0 0 0 0 134.126510797847 45.478557891181936 0 45.478557891181936 -8.5039531895788514 0 0 0 0 -22.327982598645235 -2.170135537356856 0 -2.170135537356856 18.653314506192146 0 0 0 0 311.42573533832024 -33.201453826025926 0 -33.201453826025926 -48.700471864709471 0 0 0 0 298.26336482515512 -139.17613809352164 0 -139.17613809352164 8.3246482104823372 0 0 0 0 233.71132935638343 -74.398500722940298 0 -74.398500722940298 69.10735902353008 0 0 0 0 16.939397451944771 -23.130729776741177 0 -23.130729776741177 -4.9738052804140436 0 0 0 0 -92.8313100234991 2.5913095314405155 0 2.5913095314405155 64.760125018199005 0 0 0 0 -81.188126967099379 -165.90826251167664 0 -165.90826251167664 197.02610114064646 0 0 0 0 7.2517759865731932 37.254787863004594 0 37.254787863004594 -58.70780640687326 0 0 0 0 7.8903683766864035 -3.085459777232046 0 -3.085459777232046 -0.84645129966641885 0 0 0 0 -19.683293597041484 -40.172481575621987 0 -40.172481575621987 -31.429526478354546 0 0 0 0 19.458575025558275 -17.618437159178484 0 -17.618437159178484 -21.948581595657743 0 0 0 0 -2.2872029786012718 -16.08974049961671 0 -16.08974049961671 -12.814246436404687 0 0 0 0 -0.91082959741495984 -10.884248294222884 0 -10.884248294222884 -0.064913302961235209 0 0 0 0 -6.1418142382808583 -13.226656581322231 0 -13.226656581322231 -14.004429473496202 0 0 0 0 -0.33621816320010112 -17.615797411905532 0 -17.615797411905532 -26.867440284211625 0 0 0 0 9.2528587487948926 -6.2584084244310176 0 -6.2584084244310176 -3.4953640333251217 0 0 0 0 1.0134173968654068 -5.6934330241624593 0 -5.6934330241624593 -12.191302509419984 0 0 0 0 -8.017946070218386 -2.0357993252673623 0 -2.0357993252673623 -3.666359714599821 0 0 0 0 19.52543985317925 -7.1291398499464833 0 -7.1291398499464833 -13.868834794939175 0 0 0 0 4.3977783518257638 -1.9493791783770575 0 -1.9493791783770575 -15.262218652936099 0 0 0 0 17.631170115399073 10.375656997288843 0 10.375656997288843 -6.3023660045328143 0 0 0 0 19.648020782919616 -6.1855952600598982 0 -6.1855952600598982 -34.269772427795033 0 0 0 0 1.5695603896529065 -14.285125352836985 0 -14.285125352836985 -17.236981763714994 0 0 0 0 9.6373547790772136 -6.3358524664240576 0 -6.3358524664240576 -17.412048866332043 0 0 0 0 6.8561044551124155 -8.4357459903959615 0 -8.4357459903959615 -5.1468221710701858 0 0 0 0 233.70251573187852 -61.832472712767071 0 -61.832472712767071 -15.992464145646409 0 0 0 0 203.6098782385443 0.89404155409283703 0 0.89404155409283703 -51.744043206913375 0 0 0 0 130.74630984160467 -43.617182261968537 0 -43.617182261968537 -20.924441246086644 0 0 0 0 33.716476762499951 28.552044360824766 0 28.552044360824766 9.2200544269851434 0 0 0 0 -3.3068186614218575 -43.69040505756584 0 -43.69040505756584 -16.588671262912612 0 0 0 0 -12.157697501607799 -4.4555594849011868 0 -4.4555594849011868 39.791550738349542 0 0 0 0 -2.0228706246810688 -0.762107522195695 0 -0.762107522195695 2.4027727410506454 0 0 0 0 35.273940562532516 10.034323933014093 0 10.034323933014093 -30.882643054395885 0 0 0 0 4.1848982121829224 2.6016329333726453 0 2.6016329333726453 0.38902218616650686 0 0 0 0 228.09365561199229 -18.918070826898656 0 -18.918070826898656 23.751158429729912 0 0 0 0 229.85601192429931 -17.935648742413377 0 -17.935648742413377 9.6490452397010813 0 0 0 0 182.64785956283049 -16.651803691841451 0 -16.651803691841451 26.958628395604137 0 0 0 0 179.88196179509964 5.0990740015689084 0 5.0990740015689084 86.820889544876991 0 0 0 0 176.44424508707561 -49.941638475991567 0 -49.941638475991567 -2.3685334558756495 0 0 0 0 176.46230913986406 -50.789419453404044 0 -50.789419453404044 32.522225362225072 0 0 0 0 119.89339665528678 -85.291454354111465 0 -85.291454354111465 55.596078296436644 0 0 0 0 92.94803611835232 -49.865451941531319 0 -49.865451941531319 52.518450099386428 0 0 0 0 305.16673563224845 -79.476291359464994 0 -79.476291359464994 1.9225944593927125 0 0 0 0 2.2780237938203562 1.4226458001214799 0 1.4226458001214799 -1.0287813682980129 0 0 0 0 276.38177781625063 -30.314883945010479 0 -30.314883945010479 11.584762854392011 0 0 0 0 268.86754970358425 -44.995025954343873 0 -44.995025954343873 12.002825523880631 0 0 0 0 231.16930273787784 -37.053777827240992 0 -37.053777827240992 5.3185780499178463 0 0 0 0 227.69834313148021 -71.501152900265311 0 -71.501152900265311 6.5335083211933807 0 0 0 0 250.00825260411716 -56.076101526573382 0 -56.076101526573382 -13.287295898382126 0 0 0 0 -0.49172024555029292 1.0804289306513484 0 1.0804289306513484 -0.13285629763680262 0 0 0 0 378.22028031307104 -72.821417751815829 0 -72.821417751815829 -30.37834806922865 0 0 0 0 320.30971810720985 -87.575841685977593 0 -87.575841685977593 -14.706722139768338 0 0 0 0 246.94242243472766 -60.116003020685518 0 -60.116003020685518 16.952835881315423 0 0 0 0 249.97450799339947 2.4910509373937479 0 2.4910509373937479 -1.2820569935564663 0 0 0 0 153.1492688884282 -67.486300696818489 0 -67.486300696818489 -26.340665339929728 0 0 0 0 40.281555036781356 -17.244097480520509 0 -17.244097480520509 63.292667647432836 0 0 0 0 167.78640263118788 37.325076324380717 0 37.325076324380717 79.944978329916921 0 0 0 0 2.2227661837400419 1.8058895047598416 0 1.8058895047598416 -0.66292484498161119 0 0 0 0 227.30406398021296 -115.27638547902325 0 -115.27638547902325 -23.705608414586777 0 0 0 0 152.56851383482899 -143.49925816025689 0 -143.49925816025689 34.613055578966851 0 0 0 0 217.11396121919097 -76.730199821592123 0 -76.730199821592123 -21.281190063343729 0 0 0 0 159.08702931910648 -2.7296907582451126 0 -2.7296907582451126 -2.1398716124133443 0 0 0 0 86.902365025991458 -55.813487499505754 0 -55.813487499505754 36.63686760917642 0 0 0 0 2.8222650214724609 2.2779740528208343 0 2.2779740528208343 -0.21140871169320796 0 0 0 0 
</DataArray>
<DataArray type="Float64" Name="cross_section_updated" format="ascii">
1 1 1 0.011069290287625613 1 1 1 1 1 1 1 1 1 1 0.01165554704698965 1 1 0.010590850326194418 1 1 1 1 1 1 1 1 1 1 1 1 1 1 1 1 1 1 1 1 1 1 1 1 1 1 1 1 1 0.019536001720999938 1 1 1 0.019360482239296203 1 1 1 1 1 1 0.017736187755145134 1 1 1 1 1 1 0.01323166564888139 1 1 1 1 1 1 1 1 1 1 1 1 1 1 1 1 1 1 1 1 1 1 1 1 1 1 1 1 1 1 1 1 1 1 1 1 1 1 1 1 1 1 1 1 1 1 1 1 1 1 1 1 0.0098457085047287674 1 1 1 1 1 0.009735791593341446 0.009548100048773496 1 1 1 1 1 1 1 0.0085954007581107283 0.009889996659384049 1 1 1 1 1 1 0.018640091876075706 1 1 1 1 0.012403656670302226 0.0096326508583576779 0.00731139555605235 1 1 1 1 1 1 1 1 1 1 1 1 1 1 1 1 1 1 1 1 1 1 1 1 1 1 1 1 1 1 1 1 1 1 1 1 1 1 1 1 1 1 1 1 1 1 1 1 1 1 1 1 1 1 1 1 1 1 1 1 1 1 1 1 1 0.01317945467021971 1 1 1 1 0.011559749276393298 1 1 1 1 1 0.010874806027250262 1 1 1 0.012046701054342857 1 0.010748271861518296 1 0.013295073379463479 1 0.010586785272757512 1 1 1 1 1 1 1 1 1 1 1 1 1 1 1 1 1 1 0.011637052696423598 1 1 1 1 1 1 1 1 1 1 1 1 1 1 1 1 0.011210088843572896 1 1 0.012555468237614109 1 1 1 0.011057987778083929 1 1 1 0.012453000311614794 1 1 1 1 1 1 1 1 1 1 1 1 1 1 1 1 1 1 1 1 1 1 1 1 1 0.0096274762531322819 1 1 1 0.009810456745197791 1 1 1 1 1 1 1 1 1 1 1 1 1 1 1 1 1 1 1 1 1 1 1 1 1 1 1 1 1 1 1 1 1 1 1 1 1 1 1 1 1 0.011971755715774749 1 0.014315680606075061 1 1 1 1 1 1 1 1 1 1 0.012343924890300319 1 1 1 1 1 1 1 1 1 1 1 1 1 1 1 1 1 1 1 1 1 1 1 1 1 1 1 1 1 1 1 0.0091287171630353731 1 1 0.010608282034733378 1 1 1 1 0.010193818688427819 0.011292020714291723 1 1 1 1 1 1 1 1 1 1 1 0.0092748296936936078 1 1 1 1 1 1 0.0087015113276219178 1 1 1 1 0.010698707251824294 1 1 1 1 1 1 1 0.015893514887402621 1 1 1 1 0.009425500960343107 1 1 1 0.012217501818964022 1 1 0.015489700360923706 1 1 1 1 1 0.010794134240893824 1 1 1 1 1 1 1 0.011731295921226277 1 1 1 1 1 1 0.011400209209044155 1 1 1 1 0.015411588308690497 1 1 1 1 1 1 1 1 0.012845680806178693 1 1 1 1 1 1 1 1 1 1 1 1 1 1 1 1 1 0.012618585839349047 1 1 1 1 1 1 1 1 1 1 1 1 1 1 0.011545890459466687 1 1 1 1 1 1 1 1 1 1 1 0.013534526307537148 1 1 1 1 1 1 1 1 1 1 1 1 1 0.011242911468041912 1 1 1 1 1 1 1 1 1 1 1 1 1 1 0.009680656958888199 1 1 0.0098657376735865263 1 1 1 0.01100287592749952 1 1 1 1 0.0091057036394287284 1 1 1 1 1 1 1 0.0078878736315711982 1 0.015668976308653278 1 1 1 1 1 1 0.0093036684072222778 1 1 1 1 0.015419904671541716 1 1 1 1 1 1 1 0.015695671972471792 1 1 1 1 1 1 1 1 1 1 1 1 1 1 1 1 1 0.01405722270424286 1 1 1 1 0.010130224841257187 1 1 1 0.013636256962318155 1 1 1 1 1 1 1 1 1 1 1 0.010078889621963813 1 1 1 1 1 1 1 1 1 1 1 1 1 1 1 1 1 1 1 1 1 1 1 1 1 1 1 1 1 1 1 0.017124996407597251 1 1 1 1 1 1 1 1 1 1 1 1 1 1 1 1 1 1 1 1 1 1 1 1 1 1 0.009820188959474398 1 1 1 1 1 1 0.012834415599938196 1 0.017533595418707477 1 1 1 0.018217669194615444 0.0089573369274499291 1 0.020157360120437562 1 1 0.0090427743853455853 1 1 0.0083754882504978624 1 1 0.010178717070648966 1 1 1 1 0.010097268256087985 1 0.011696363916960934 1 1 1 1 1 0.012449681579094419 1 1 0.0054983624091087535 1 1 1 0.0078390399166155499 1 0.010059276316497371 1 1 1 1 1 1 1 1 1 1 1 1 0.010849034367214931 0.018043409340382718 1 1 1 1 0.0045287125147537221 1 1 0.01021362176395103 1 1 1 1 1 1 1 1 1 0.01040199693992324 1 1 1 1 1 0.012384760079979429 1 1 1 1 1 1 1 1 1 1 1 1 1 0.016246143343760143 1 0.0081384783294515123 1 1 1 1 0.023402855854645202 1 1 1 1 1 1 1 0.0071282740365561344 1 1 1 0.021368152640329367 0.014253885127452242 1 1 1 0.0085923328271686576 1 1 1 1 1 1 1 1 1 1 1 1 1 1 1 0.017827264356664024 1 1 1 0.019258554633503379 1 1 0.0078953058612531886 1 1 0.010007980750417023 1 1 1 1 1 1 0.0067870661603283648 0.0092771319579652827 1 1 1 1 1 1 1 1 1 1 1 1 1 1 1 1 1 1 1 1 1 0.0077909098353832855 1 1 0.020038816512123248 1 1 1 1 0.009964853196102498 1 1 1 1 0.014296803940537369 1 0.019326250924327361 0.010817411156211532 1 0.013350261102533404 0.01973614493316566 1 1 1 1 1 1 1 1 1 1 1 1 0.019209305015300653 1 1 1 1 1 1 1 1 1 1 1 1 1 0.010025922581518864 0.017954752848175142 1 1 1 1 1 1 1 1 1 1 1 1 1 1 1 1 1 1 1 1 1 1 1 1 1 1 1 1 1 1 1 0.010939048319014252 1 1 1 1 1 1 1 1 1 1 1 1 1 1 1 1 1 0.012565907502511795 0.015021115296134636 1 1 1 1 1 1 1 1 1 1 1 1 1 1 0.010819942523528879 1 1 1 1 1 1 0.012245519875943824 1 0.010007269156211631 1 1 1 1 1 1 1 1 1 1 1 1 1 1 1 1 1 0.01155546468313293 1 1 1 1 1 1 0.0099981491057658627 1 0.0087591461342398716 1 1 1 1 1 0.010530670959225172 1 1 1 1 1 0.010205888952232896 1 1 1 1 1 1 1 1 1 1 1 1 1 0.0093015633239114763 1 1 1 1 1 1 1 0.011922495405977906 1 1 0.0079822251787471689 1 1 0.010557941141743851 1 1 0.010763507626121013 1 1 1 1 1 1 1 1 1 1 1 1 1 1 1 0.013072757825277994 1 1 1 1 0.0089438942939109485 1 1 1 1 1 1 1 1 1 1 0.0095618934020465438 1 1 1 1 1 1 1 1 1 0.0079194953256250134 1 1 1 1 1 1 1 1 1 1 1 1 1 1 1 1 1 1 1 1 1 1 1 0.0126043879165999 1 1 1 1 1 0.0099059386385727949 1 1 0.010948024447983854 1 1 1 1 1 1 1 1 1 1 1 1 1 1 1 1 1 1 1 1 1 1 1 0.010417943241538647 1 1 1 1 1 1 1 1 1 1 1 1 1 1 1 1 1 1 1 1 1 1 1 1 1 1 1 1 1 1 1 1 1 1 1 1 1 1 1 1 1 1 1 1 1 1 1 0.0097442885071544038 1 1 1 1 1 0.0087044246616772413 1 1 1 1 1 1 0.0095092005302138648 1 1 1 1 0.013753153246232844 1 1 1 1 0.010132748063581694 1 1 1 1 1 0.010215840208778358 1 1 1 0.0099159647592656774 1 1 1 1 1 1 1 0.0083499021110493878 1 1 1 1 0.012162497677703138 1 1 1 1 0.011791908122220415 0.010597678794225471 0.01140870633171568 1 1 1 1 1 1 1 1 1 1 1 1 1 1 1 1 1 1 1 1 1 1 1 1 1 1 1 1 1 1 1 1 1 1 1 1 1 1 1 0.010771599139267098 1 1 1 1 1 1 1 1 1 1 1 1 1 1 1 1 1 1 1 1 1 1 1 1 1 1 1 1 1 1 1 0.0097939936809763491 1 1 1 1 1 1 0.0093616590964617913 1 1 1 1 1 0.008760504983237518 1 1 1 1 1 1 1 1 1 1 1 1 1 1 1 1 1 1 1 0.0086214797709544579 1 1 1 0.010000227137695014 1 0.01061999986079209 1 1 1 1 0.016383585384334421 1 1 1 1 0.015993234681613337 1 1 1 1 1 1 1 1 1 0.010283745845707118 1 1 1 1 1 1 0.010489634797940017 1 1 0.011845218328406276 1 1 1 1 0.01065284504148257 1 1 1 1 1 1 1 1 1 1 1 0.017588078976982197 1 1 1 1 1 1 1 1 1 0.014655130665049886 1 1 1 0.011575379506786427 1 0.012262679053929613 1 1 1 1 1 1 1 1 1 1 1 1 1 1 1 1 1 1 1 1 1 1 0.0072379682509729881 1 1 1 0.0056428692918962572 1 1 1 1 1 0.0097621791511404259 1 1 0.010097932063427439 0.0073006857854523224 1 1 1 0.010005082060739941 1 1 0.014831751773894139 1 0.0071473102323814288 1 0.0059197204266584723 1 0.015943406313224211 1 1 1 0.001462195878634491 0.010009198499800125 1 1 1 1 0.015498210604487089 1 1 1 0.010001723554481739 1 1 1 1 1 1 1 1 1 0.013195526429651567 1 1 1 1 1 1 1 1 1 1 1 0.0050016585627441837 1 1 1 1 1 1 1 1 1 1 1 1 1 1 0.0083981629976933175 1 1 1 0.0089378206414974983 1 1 1 1 0.0088752529970413524 1 0.012076057253558007 1 1 1 1 1 1 1 1 1 1 1 1 1 1 1 1 1 1 0.011221654159368679 1 1 1 1 1 1 1 1 1 1 0.010804666062226074 1 1 1 1 1 1 1 1 1 1 1 1 1 1 1 1 1 1 1 1 1 1 1 1 1 1 1 1 0.012274623883993457 1 1 1 1 1 1 1 1 0.011070305767005913 1 1 0.01106569892531125 1 1 1 1 1 1 1 1 1 1 1 1 1 1 1 1 1 1 0.011293882835108487 1 1 1 1 1 1 1 1 1 1 1 1 1 1 1 1 1 1 1 1 1 1 1 1 1 1 1 0.0099624940192537433 1 1 1 1 1 1 1 1 1 1 1 1 1 1 1 1 1 1 1 1 1 1 1 1 1 1 1 1 1 1 1 1 1 1 1 1 1 1 1 1 1 1 1 1 1 1 0.011853309443777901 0.010199982687635596 1 1 0.011067826932164888 1 1 1 1 0.012107986070484083 1 1 1 1 1 1 0.010629135053539135 1 1 1 1 1 1 1 1 1 1 1 1 1 1 0.010153934533256238 1 1 1 1 1 1 1 1 1 1 1 1 1 1 0.010058921322837809 1 1 1 1 1 1 1 1 1 1 1 1 1 1 1 1 1 1 1 1 1 1 1 1 1 1 1 1 1 1 1 1 1 1 1 1 1 1 1 1 1 1 0.010462855117450676 1 1 1 1 1 1 1 1 1 0.0099654262607244137 1 1 1 1 1 1 1 1 1 1 1 1 1 1 1 0.010137702739552343 0.0097540704223177191 1 1 1 1 1 0.014975661764770958 0.0065604623240427973 1 0.012223093147020341 1 0.011298281806982894 1 1 1 0.012002186840769129 0.01307936473218751 0.014726342152249168 1 0.01081492635572744 1 1 1 1 1 0.014426460554050887 1 1 0.012863419322280932 1 1 0.008909773613162298 1 1 1 0.0092486443773146416 1 0.0097459376048521316 0.011324134862857157 1 0.012622291066022017 0.0120283271143269 0.010349158673705245 0.014562720787856814 1 1 0.012117782245761249 1 0.0099852919767798691 1 1 0.010265920092498122 1 1 0.008261584211069371 1 1 1 1 1 1 0.0094541273757891685 1 1 1 1 1 1 1 1 1 1 0.015195033452964879 1 1 0.0092026728988785483 1 1 0.0097557046750814946 1 1 1 1 1 1 1 1 1 1 1 1 1 1 1 1 1 1 1 1 1 1 1 1 1 1 1 0.010093811171912995 1 1 1 1 1 1 1 1 0.010029014911961323 1 1 1 1 0.010350548102385374 1 1 1 0.009952239690262427 1 1 1 1 1 1 1 1 1 1 1 1 0.010169137927822099 1 1 0.012424564093103628 1 1 1 1 1 1 1 1 1 1 1 1 1 1 1 1 1 1 1 1 0.010943642707748013 1 1 1 1 0.0097432246033443276 1 1 1 1 1 1 1 1 1 1 1 1 1 1 1 1 1 1 1 0.010617825091311654 1 1 1 1 1 1 1 0.01013957913605576 1 1 1 0.010494101000548652 1 1 1 1 1 1 1 1 1 0.011080680208762329 1 1 1 1 1 1 1 1 1 1 1 0.00983051460949394 1 1 1 0.010849690774445524 1 1 1 0.010695716434555663 1 1 1 1 1 0.016138428334812962 1 1 1 1 1 1 1 1 1 1 1 1 1 0.010199400443599418 1 1 1 1 1 1 1 1 1 1 1 1 1 1 1 1 1 1 1 1 1 1 1 1 0.011839928411490362 1 1 1 1 1 1 1 0.014697135335792137 1 1 1 1 1 1 1 1 1 1 1 1 1 1 1 1 1 1 0.011283992660265467 1 0.01161970539382641 1 1 1 1 1 1 0.012764914045621086 1 1 1 1 1 1 1 1 1 1 1 1 1 1 1 1 1 1 1 1 1 1 1 1 1 1 1 1 1 0.0091199854741587632 1 1 1 1 0.0097720631935435467 1 1 1 1 1 1 1 1 1 0.010689386018173437 1 1 0.01084651334294035 1 1 0.010365843981663025 1 1 1 1 1 1 1 1 0.0099465270187257121 1 1 1 1 0.013080455426061561 1 1 1 1 0.012203762335206529 1 1 1 1 1 1 0.0098235096841938242 1 1 1 0.0093461864547899152 1 1 0.0083429011986844888 1 1 0.012120259584216277 1 1 0.010590598133087903 1 0.010902869734482618 1 0.010679396288968118 1 1 0.010000391864497811 1 1 1 1 1 1 0.012089269067055375 1 1 1 0.010315503837297653 1 1 0.010155630601305391 1 1 1 1 1 1 1 1 1 0.010617560697130726 1 1 1 1 1 1 1 0.021438080551620362 1 1 1 1 1 1 1 1 0.021280530061652005 1 1 1 1 1 1 1 1 1 1 1 1 1 1 1 1 1 1 1 1 1 1 1 1 1 1 0.020919581165885447 1 0.010192532988521059 1 1 1 0.015197681732908485 1 1 1 1 1 1 1 1 1 1 1 1 1 1 1 1 1 1 1 1 1 1 1 1 1 1 1 0.010514822801275307 1 0.0084040041189525246 1 1 1 1 1 1 1 1 1 1 1 1 1 1 1 1 1 1 1 0.010011501342445009 1 1 1 0.010284455991841506 1 1 1 1 1 1 1 1 1 1 1 1 1 1 1 1 1 1 1 1 0.0099764400906717302 1 1 1 1 1 1 1 1 1 1 1 1 1 1 1 1 1 1 1 1 1 1 1 1 1 1 1 1 1 1 1 1 1 1 1 1 1 1 1 1 1 1 1 1 1 1 1 1 1 1 1 1 1 0.010114471693073817 1 1 1 1 0.010299887664580194 1 1 1 1 1 1 1 1 1 1 1 1 1 1 0.010630620018151099 1 1 1 1 1 0.010446693953526143 1 1 1 1 1 1 1 1 1 1 1 1 1 1 1 1 1 1 1 1 1 1 1 1 1 0.0095532011840412968 0.0098021586653408155 1 1 1 0.020636590531619099 1 1 1 1 1 1 1 0.018148864433554866 1 1 1 1 1 1 1 1 1 1 0.010012635370370157 1 1 1 1 1 1 0.006472357850862618 0.014427357954649101 1 1 1 1 1 1 1 1 1 0.0098790501604813889 1 1 1 0.010008296664107994 1 1 1 1 1 0.010703877962339309 1 0.011518054732037021 1 1 1 1 1 1 1 0.010333167657537253 1 1 1 1 1 1 1 1 1 1 1 1 0.010112949562287678 1 1 1 1 1 1 1 1 1 1 1 1 0.019350972662848777 1 1 1 1 0.016852147981831336 1 1 1 1 0.012545232754581647 1 1 1 0.011585694554120195 1 0.014290368604998445 1 1 1 1 1 1 1 1 1 1 1 1 1 0.015263389991034618 1 1 1 1 1 1 1 1 1 1 1 1 1 1 1 1 1 0.0109629843265247 0.014717885124181283 1 1 1 1 1 1 0.0099922807138363105 1 1 1 1 1 1 1 1 1 1 1 1 1 1 1 1 1 1 1 1 1 1 1 1 1 1 1 1 1 1 1 1 1 1 1 1 1 1 1 1 1 1 1 1 1 1 1 1 1 1 1 1 1 1 1 1 1 1 0.010731720243677844 1 1 1 1 1 0.010478378358509529 1 1 1 1 1 1 1 1 1 1 1 0.010100166923051556 1 1 1 0.010070537431820219 1 1 1 1 1 1 1 1 1 1 1 1 1 0.01008936155992448 1 1 1 1 1 1 1 1 1 1 1 1 1 1 1 1 1 1 1 1 1 1 1 0.010156975423687624 1 1 1 1 1 1 1 1 1 1 1 1 1 1 1 1 0.010029714426124391 1 1 1 1 1 1 0.011259185626067649 1 1 1 1 1 1 1 1 1 1 0.010045494639820338 1 1 1 0.02393968205655677 1 1 1 1 1 1 1 1 1 1 1 1 1 1 0.0099952573813550452 1 0.0087828137037133467 1 1 1 1 1 1 1 0.025217567262627603 1 0.023786862131414819 1 1 1 1 1 1 1 1 1 1 1 1 0.010150252905049605 1 1 1 1 0.01017927679529766 1 1 1 1 0.022192386104341318 1 1 1 1 0.012545007513712986 1 1 1 1 0.010290453807897792 1 1 1 1 1 1 1 0.011697282978074128 1 1 1 1 1 1 1 1 1 1 1 0.0098686893865459323 1 1 1 0.0095640102391357281 1 1 0.010667721660724216 1 1 1 1 1 1 1 1 1 1 1 1 1 1 1 1 1 1 1 1 1 1 1 1 1 1 1 1 1 1 1 1 1 1 1 1 1 1 1 1 1 1 1 1 1 1 1 1 1 1 1 1 1 1 1 1 1 1 1 1 1 1 1 1 1 1 1 1 1 1 1 1 1 1 1 1 1 1 0.0096969393977190191 1 1 1 1 1 1 0.0097789592410120214 1 1 1 1 1 1 0.0099102698544660875 1 1 1 0.01075793914514043 1 1 1 1 1 0.010352581509261037 1 1 1 1 1 1 1 1 1 1 1 1 1 1 1 1 1 1 0.019442949338608469 1 1 1 1 1 1 1 1 1 1 1 1 0.010037050141771222 1 1 1 1 1 1 1 1 1 1 1 1 1 1 1 1 1 1 1 1 1 1 1 1 0.0099748565653658156 1 1 1 1 1 1 1 1 1 1 0.010081938122384039 0.010281045076519691 1 0.010037943835410939 1 1 0.010850174988765787 1 1 1 1 1 1 1 1 1 1 1 1 1 1 1 1 1 1 0.011110303295060707 1 1 1 1 1 1 1 1 0.010541173382814621 1 1 1 1 1 1 1 1 1 1 1 1 1 1 0.010814176769697714 1 1 1 0.010220218095249587 1 1 1 1 1 1 1 0.017790416242789715 1 1 1 1 1 0.011846859621412825 1 0.015143624855596354 1 1 1 1 1 1 1 0.010297397876731663 0.017872220240380772 1 0.0089392849785438402 1 1 0.014425855084446892 1 1 1 1 1 1 1 1 1 1 1 1 0.013900199645705231 1 1 1 1 0.011591668063190624 1 1 1 1 1 1 1 1 1 1 1 1 1 1 1 1 1 1 1 0.010369147146919007 1 1 1 1 1 1 1 0.010190498923336226 1 1 1 1 1 1 1 1 1 1 1 1 1 1 1 1 1 1 1 1 1 1 1 0.012148107908237019 1 1 1 0.014945794026489382 1 0.011637966450628853 1 1 1 1 1 1 0.015406124213017586 1 1 1 1 1 1 1 0.0091012658929722316 1 1 1 1 1 0.0073004579925292131 1 1 0.016565557951355739 1 0.0075513895162152827 1 0.013934842605637536 1 1 1 1 1 1 0.010178648223582762 1 0.016583418916447476 1 1 1 1 1 0.010058425838925283 1 1 1 1 1 1 0.010058639505929848 1 0.010116959086509517 1 1 1 1 1 1 1 1 1 1 1 1 1 1 0.0092144212490388819 1 1 1 1 1 0.0096041854475482375 1 1 0.0094576905080794218 1 1 1 1 1 1 1 1 1 1 1 1 1 1 1 1 1 1 1 1 1 1 1 1 1 1 0.0098533299682215386 1 1 1 1 1 1 1 1 1 1 0.01087791894458858 0.0098740808063515796 1 1 0.013602832746875742 1 1 1 1 1 1 1 1 1 1 0.011227072382872478 1 1 1 1 1 1 1 1 0.011316749101488242 1 0.013587969252416461 1 1 1 1 1 1 1 1 1 1 0.013511320252698019 1 1 1 1 1 1 1 0.01006281224903573 1 1 0.021897586798820479 1 1 1 1 1 1 1 1 1 1 1 1 1 1 1 1 1 1 1 1 1 1 0.01410069415893178 1 1 0.010700700055177401 1 1 1 1 1 0.014204163773793773 1 1 1 1 1 0.014242642940034314 1 1 1 1 0.0099414258872872439 1 1 1 1 1 1 1 1 1 1 1 1 1 1 1 1 1 1 1 1 1 1 1 1 1 1 1 1 1 1 1 1 1 1 1 1 1 1 1 1 1 1 1 1 1 1 1 1 1 1 1 1 1 1 1 1 1 1 1 1 1 1 1 1 1 1 1 1 1 1 1 1 1 1 1 1 1 1 1 1 1 1 1 1 1 0.011151869835584499 1 1 1 1 1 1 1 1 1 1 1 1 1 0.017486571797157825 0.01897353440923678 1 1 0.0097706910922506288 1 1 1 1 1 1 1 1 1 1 1 1 1 1 1 1 1 1 0.011820560269870302 1 1 1 1 1 1 1 1 1 0.010441980892584702 1 1 1 1 1 1 1 1 1 1 1 0.0097197321776898403 1 1 1 1 1 1 1 1 1 1 1 1 0.01506328826990818 1 1 1 1 1 1 1 1 1 1 1 0.010411484504533818 1 0.0096594165723311275 1 1 1 0.011803975521217484 1 1 1 1 0.014425072030658482 1 0.0076320527202580306 1 0.015258479631860836 1 1 1 0.01261127451351155 0.0082349394093464545 1 1 1 1 1 0.011783395885497608 1 1 1 1 1 1 1 0.014102343151006254 0.013018677060017697 1 1 1 0.016044295036092733 0.0099924571338108215 1 1 1 1 1 1 1 1 1 1 1 1 1 1 1 1 1 1 0.012415091040349021 1 1 1 1 1 1 1 1 0.010735644461403312 1 1 1 0.011361290931884462 1 0.010629694109193498 1 1 1 1 1 1 1 1 1 1 0.015307705985308718 1 1 1 1 1 1 1 1 0.012164131517209898 1 1 1 1 0.0082721511194171222 1 1 1 1 0.013190231338999452 1 1 1 1 0.01141043643746088 1 1 1 1 1 1 1 1 1 1 0.010633725189466219 1 1 1 1 1 1 1 1 1 1 1 1 1 1 1 1 1 1 1 1 1 0.009724941373588699 1 1 1 0.010368777835329109 1 0.010286844997695077 1 1 1 1 1 1 1 1 1 1 1 0.010644093718599675 1 1 0.011064989353424478 1 1 1 1 1 1 1 1 1 1 1 0.012057204958158988 1 0.011601546640669876 1 1 1 1 0.0096980547091575133 1 1 1 1 1 1 0.010047167511650582 1 1 0.010997709087718872 0.015213988816101857 1 1 1 1 1 1 0.014822294528640114 1 1 1 1 1 0.014138129968086553 1 1 1 1 1 1 1 1 1 1 1 1 1 1 0.010101942792028348 1 1 1 1 1 1 1 0.010021366358377498 1 1 1 1 1 1 0.010175860172988313 1 1 1 1 0.011908564459004307 1 1 1 1 1 1 0.010324344532418374 0.011234068343806273 1 1 1 1 1 1 0.012604332324715629 1 0.014962563744299702 1 1 0.013940103405801972 0.011871634323570097 0.011869402098720734 1 0.010284314399587045 1 0.010002258989440741 1 1 1 1 1 1 1 1 0.0099941435626827446 1 1 0.010015829575866633 1 0.010030654025792616 1 1 1 1 1 0.014079268653344221 0.0137044172486407 1 1 1 1 1 1 1 0.010353676062708419 1 1 1 1 1 1 1 1 0.010270119627232652 1 1 1 1 0.0099310366327352538 1 1 0.0095770937776151893 0.0099878173892498194 1 1 0.01333007496260138 1 0.010607028718407034 1 1 0.01010024287127201 1 1 0.014924654719132903 1 1 1 1 0.0129486703013866 1 1 1 1 1 1 0.013855979376115391 1 1 1 1 1 1 1 1 1 1 1 1 1 1 1 1 1 1 0.011178584579537784 1 1 1 1 1 1 1 1 1 1 0.012085221915686572 1 1 1 1 0.01096601619634706 1 1 0.012710723026779377 1 0.012678457873053228 1 1 1 1 1 1 1 1 1 1 1 1 1 1 1 1 1 1 1 1 1 1 1 1 1 1 1 1 1 1 1 1 1 1 1 1 1 1 1 1 1 1 1 1 1 1 1 1 1 1 1 0.011892353297888073 0.012174708736070797 1 1 1 1 1 1 1 0.010767633742539612 1 1 1 0.010733870482093719 1 1 1 1 1 1 1 1 0.010664348183256964 1 1 1 1 1 1 1 0.011920276485243927 1 1 1 1 1 1 1 1 0.013067254456583792 1 0.01286060608220365 1 1 1 1 1 1 1 1 0.012585860406057314 1 1 0.0099500849353560822 1 1 1 1 1 1 1 1 1 1 1 1 1 1 1 1 1 1 1 1 0.012216431272985214 1 0.012483356679654863 1 1 1 0.011641319333391451 1 1 0.01152917710032272 1 1 1 1 1 1 1 0.0098402735844368774 1 1 1 1 1 1 1 0.010579172198407878 1 1 1 1 1 0.01060167603757772 1 1 1 1 1 1 1 1 1 1 1 1 1 1 1 1 1 1 1 1 1 1 1 1 0.010450202231330159 1 1 1 1 1 1 1 1 0.010141199495071312 1 1 1 1 1 1 1 1 1 1 1 1 1 1 1 1 1 1 1 1 0.0096045668514612992 1 1 1 1 1 1 1 1 1 1 1 1 1 1 1 1 1 1 1 0.011105374947503212 1 0.011108010252048625 1 1 1 1 1 1 1 1 1 1 1 0.008462941112823457 1 1 1 1 1 0.00944041108469903 1 1 1 0.0071738697102575162 0.012110665303289636 1 1 0.010245826245633621 1 1 0.0085059330587299448 1 1 0.0099562086372426764 1 1 1 1 0.010044437095061379 1 1 0.009274863037495645 0.0092937524035986586 1 1 1 1 1 0.0098834942723525186 1 1 1 1 1 1 1 1 1 1 1 1 1 1 1 1 1 1 1 1 1 1 1 1 1 1 1 1 1 1 1 1 1 1 1 1 0.010135207746717589 1 1 1 1 1 0.011231751217145281 1 1 0.010476483772002668 1 1 1 1 1 1 0.010410553175075977 1 1 1 1 1 1 0.010803087049037659 1 1 1 1 1 1 1 1 1 1 1 1 1 1 1 1 1 1 0.011491740675720069 1 1 1 1 1 1 1 1 1 1 1 1 1 1 1 1 1 1 1 1 0.010879287248180868 1 0.011334650157953539 1 1 0.011328784247242691 1 1 1 1 1 1 1 1 0.011222128153118025 1 1 1 1 1 1 0.010135363055140232 1 1 0.012031657822724246 1 1 1 1 1 0.0099127230122498938 1 1 1 1 0.010006036118193834 1 0.010114697512504042 1 1 1 0.013251922287826597 1 1 1 1 1 1 1 1 1 1 1 1 1 1 1 0.0096127199090832935 1 1 1 1 1 0.01001740522195013 0.012717953175812138 1 1 1 1 1 1 1 1 1 0.009993055854798108 1 1 1 1 1 1 1 0.010964271084281656 1 1 1 1 1 0.012765024141411965 1 1 1 1 1 1 0.010382456880030179 1 1 1 1 1 1 1 1 1 1 1 0.011430373983458428 1 1 1 1 1 1 1 1 1 1 1 1 1 1 1 1 1 1 1 1 1 1 1 1 1 1 0.010414658538148028 1 1 1 1 1 1 1 1 1 1 1 1 1 1 1 1 0.01040535763587939 1 1 1 0.010278297581970734 1 1 1 1 1 1 0.010799369857184597 1 1 0.012780451026091403 1 0.012898133398442589 1 1 1 1 0.012778260287388861 1 1 1 1 1 1 1 1 1 1 1 1 1 1 1 1 1 1 1 1 1 1 1 1 1 1 1 1 1 1 1 1 1 1 1 1 0.0091846092033504509 1 1 1 0.012545310754230857 1 0.0098109960185989043 1 1 1 0.011166012973520234 0.009738017841093044 1 1 1 1 1 1 1 1 1 1 1 1 1 1 1 0.010426676524521974 1 1 1 1 1 0.01464802175675794 1 1 1 1 1 1 1 1 1 1 1 1 1 1 1 1 1 1 1 0.014912668514417273 1 0.010008101206341991 1 0.011330894351786011 1 1 1 1 1 1 0.010107886042646362 1 1 1 1 1 1 1 1 1 1 1 1 1 1 1 0.010863022424220463 1 1 0.010315191105105285 1 1 1 1 1 1 1 1 0.010610743351625712 1 0.010200190176549736 1 1 1 1 1 1 1 1 1 1 1 1 1 1 1 1 1 1 0.010064517345000211 1 1 1 1 1 1 1 1 1 1 1 1 1 1 0.0099995050817412254 1 1 1 0.010013644234607261 1 1 1 1 1 1 1 1 0.011240072760031078 1 1 0.015035811163192752 1 1 1 1 1 0.013847608688190832 1 1 1 1 1 1 1 1 1 1 0.0096928806598656492 1 1 0.013630803805253324 1 1 1 1 0.0098381489204747603 1 0.012857805835539002 1 1 1 1 0.011204270064711901 1 0.01178337233720941 1 1 0.010241385596810815 0.012994486822888805 0.012246855082495381 1 1 0.013296935324145401 1 1 1 1 1 1 0.010317892175333049 1 1 1 1 1 1 0.013081098450953073 1 1 1 1 1 1 1 0.0099920827268139625 1 1 1 1 1 1 1 1 1 1 1 1 0.012187964684868505 1 1 1 1 1 1 1 1 1 1 0.014250102410690375 1 1 1 1 1 1 1 1 1 1 1 1 1 1 1 1 1 1 1 1 1 1 1 1 1 1 1 0.012713340614003263 1 1 1 1 1 1 1 1 1 1 1 0.010796532897457843 1 1 1 1 1 1 1 1 1 1 0.010000973284405697 0.01371720967537682 1 1 1 1 1 1 0.0098713194536122293 1 1 1 1 1 0.010228227171720852 1 1 1 1 1 1 1 1 1 1 1 1 0.010646170413259498 1 1 1 1 1 1 1 1 1 1 1 1 1 1 1 1 1 1 1 1 1 1 1 1 1 0.011671898776119523 1 1 1 1 0.014364413640893426 1 1 1 1 1 1 1 0.016206359759223167 1 1 1 0.019112692353364099 0.010991643696215169 1 1 1 1 1 0.015620038246425608 0.015374739485719654 1 1 1 1 1 1 1 1 1 1 1 1 0.011286861118192526 1 0.010514014190451938 1 1 1 1 1 1 1 1 1 1 1 1 1 1 1 1 1 1 1 0.012563068994127102 0.01266827861232268 1 1 1 1 1 1 1 1 1 1 1 1 1 1 1 1 1 1 0.014776250260646977 1 1 1 1 1 1 0.010948600965452162 0.012248908418584538 1 1 1 1 1 1 1 1 1 1 1 1 1 1 1 1 1 1 1 1 0.01247693056334603 1 1 0.011163514413578563 1 1 0.0096889694548094353 1 1 1 0.009853078885186467 1 0.01081968033690623 1 1 1 1 1 1 1 0.013151337625059311 1 1 1 1 1 1 1 1 1 1 1 1 1 1 1 1 1 1 0.010766502804606091 1 1 1 1 0.011976418380491242 1 1 1 1 1 0.010457542237680835 1 1 1 1 1 1 1 1 1 0.014605923878829311 1 1 1 1 1 1 1 1 1 1 1 1 1 1 1 1 1 1 1 0.010686754003961792 1 1 1 1 1 0.010556033304340252 1 1 1 0.010467783891949464 1 1 0.01119298845452216 1 1 1 1 1 1 1 1 1 1 1 1 1 0.010839216749503722 0.011525970753465512 1 1 1 1 1 1 1 1 1 1 1 1 1 1 1 1 1 0.011601142500304123 1 1 0.013140493004089527 0.01042716035636608 1 1 1 1 1 1 1 1 1 0.011414960952559044 1 0.010568651472150289 1 1 1 1 1 1 1 1 1 1 1 0.010007335793608607 0.011722298630204273 1 1 1 1 1 1 1 0.011394340947353494 1 1 1 1 1 1 1 0.011859587898536757 1 1 1 0.01213983449495548 1 1 1 1 1 1 1 1 1 1 1 1 1 1 1 1 1 1 1 1 1 1 1 1 1 1 1 1 1 1 1 1 1 1 1 1 1 1 1 1 1 1 1 1 0.009888637048533374 1 1 1 1 1 1 1 1 1 1 1 1 1 1 1 1 1 1 1 1 1 1 1 1 1 1 1 1 1 1 1 1 1 1 1 1 1 1 1 1 1 1 1 0.0099965079087318796 1 0.0098682118429639989 1 1 1 1 1 1 1 1 1 1 1 1 1 1 1 1 1 1 1 1 0.0099794881222406151 1 1 1 1 1 1 1 1 1 1 1 1 1 1 1 1 1 1 1 1 1 0.0099875124902258257 1 1 0.010008024367985213 1 1 1 1 1 1 1 1 1 0.011420997718411451 1 1 1 1 1 1 1 1 0.010648150790670861 1 1 1 1 1 1 1 1 1 1 0.010919828738449952 1 1 1 1 0.011306549372798652 1 1 1 0.011651137949897531 1 0.0068501286324677375 1 1 1 0.015535145757304091 1 1 1 0.010338423340511146 1 1 0.010333118141088282 1 0.010893984766215246 1 1 1 0.011327723681890257 1 1 1 1 0.0099976548211881556 1 0.011190217911398077 1 1 1 1 0.011561431051345796 1 1 1 0.010394515269469148 0.0098428849748499053 1 1 1 0.0096289519969451707 0.010823440597218579 1 1 1 1 0.011537593695833112 1 1 1 1 0.0095251082347829683 1 1 1 1 1 1 1 1 1 1 1 0.012131297334607343 1 1 1 0.016009843812777598 1 1 1 0.010474719191457383 1 1 1 0.015076768510097295 1 1 1 1 1 1 0.01008397430166821 1 1 1 1 1 1 1 0.010007447286377348 1 0.010312170291126561 1 1 1 1 1 0.010566426326729822 1 1 1 0.010434316986435418 0.010086247811053304 1 0.012662099868638966 1 1 1 1 1 1 1 1 1 1 1 1 0.012237685793992963 1 1 1 1 1 0.0089083293014407122 0.0122095096097335 1 0.01428393667678866 1 0.0096747301045966953 1 1 1 1 0.009928675010058452 0.01208686020859814 1 1 0.0096349833908703358 1 1 1 1 1 1 1 1 1 0.013702044800301195 1 1 1 0.013387996010303577 1 0.0090338973115971569 1 1 1 1 0.010196793689885101 1 0.010172197348414109 1 1 1 1 1 1 1 1 1 1 1 1 1 1 1 0.010025747668851274 1 1 0.010090732772340639 1 1 0.010320493316878392 1 1 1 0.015246882411116811 0.009990048861248723 1 1 0.013321114559045211 0.010926167181221524 1 1 1 1 0.011480490228602799 1 1 1 0.0085823264375664877 1 1 1 1 0.0088771989158981431 1 1 1 0.015693769392253375 1 1 0.0076320310125474354 1 1 1 1 1 0.008143755041482988 1 1 1 0.0095239591967748657 1 1 1 1 1 1 1 0.0083372955507234441 1 1 1 1 1 1 1 1 1 1 1 1 1 1 1 1 1 1 1 1 1 1 1 1 1 1 1 1 1 0.010427070409507976 1 1 1 1 1 1 0.010246759038438623 1 1 1 0.0089454309778472883 1 1 1 1 1 0.0099373334443365324 1 1 1 0.012469322275472289 1 1 1 1 0.012956629082536131 1 1 0.0099578652702649924 1 1 1 1 1 1 1 1 1 1 1 1 1 1 1 1 0.011335289163615116 1 1 1 0.0098422193055591137 0.010391669593166616 1 1 1 1 1 0.010019891450537624 1 1 1 0.011180417388225734 1 1 1 1 0.011014163696207073 1 1 1 0.010675383690611034 1 1 1 1 1 1 1 1 1 1 1 1 1 1 1 1 1 1 1 1 1 1 1 1 0.011186993410726287 1 1 1 1 0.011405522448814702 1 1 1 1 1 1 1 0.011124257731035985 0.010969589363607774 1 1 1 0.01002990479399677 1 1 1 1 0.0097251130977607774 1 1 1 1 1 1 1 0.0097699559500833665 1 1 1 1 0.0093010823373865219 1 1 1 1 0.0099169310628646895 1 1 1 0.012013481753302531 1 0.0091474541579551656 1 1 1 1 0.0099920329485266961 1 1 1 1 1 0.0106325037899137 1 1 0.0099023072095578649 1 0.010577824393204479 1 1 1 1 1 1 1 1 1 1 1 1 1 1 1 0.012418140604033519 1 1 0.010137545295182369 1 0.0096376400805899543 1 1 1 1 1 1 1 1 1 1 1 1 1 0.010219763977396015 1 1 1 1 1 1 1 1 1 0.012168373610460973 1 1 1 1 1 1 1 1 1 1 1 1 1 0.011774792464875157 1 1 1 1 1 0.013185046648232005 1 1 1 1 1 1 1 0.01106319081582862 1 1 1 1 1 0.010531724336770611 0.010176910134826501 1 1 1 1 1 1 1 1 1 1 1 1 1 1 1 1 1 1 0.013537108666830219 1 1 1 1 1 1 1 1 1 1 1 1 1 1 1 1 1 1 1 1 0.014355323872051991 1 1 0.010964772138670351 1 1 1 1 1 1 1 1 1 1 1 0.010003473108226702 0.010951611634660642 1 0.012814182322156366 1 1 1 1 1 1 1 0.012674916853411334 1 1 0.013621123827671115 1 1 1 0.0099758615439209733 1 1 0.010897280815661435 1 1 1 1 1 1 1 0.010288757354474104 1 1 1 1 1 1 0.013342774849976546 1 1 1 1 0.013733357206637247 1 1 0.010026053843926071 1 1 1 0.01356820850536527 0.010239238044855509 1 1 1 0.014357604596135953 0.0097771451656365124 1 1 0.010006555050815083 1 0.0076716020444640648 1 0.013911856267188188 1 1 0.013029449349416539 1 0.0077468718296252815 1 1 0.010002489951711123 1 1 0.010078832403367408 1 1 1 1 1 1 0.010164879035466956 1 1 1 0.010505073480051554 1 1 1 0.010139561365173902 1 1 1 1 0.0099409347059725602 1 1 1 0.012689802246772979 1 1 1 1 1 1 0.01598091288869791 0.0098053666185656946 1 1 1 1 1 1 1 0.0091453144418105967 1 1 1 1 1 1 0.018362527201950592 1 1 1 0.010289017770302165 1 0.0099784430384474501 1 0.023647868170028737 1 0.018832826312493365 1 1 1 0.011296056020795125 1 1 1 1 1 1 1 1 1 1 1 1 1 1 0.010043351142597273 1 1 1 1 1 1 1 1 1 1 1 1 0.0089766831387293258 0.010143513636357205 1 1 1 1 1 0.009998835256258061 1 0.010886473906871507 0.010935122795846184 1 0.0097732830606370863 0.01081493815560094 1 1 1 0.010081169122044639 1 1 1 1 1 1 1 1 1 1 1 0.010069741857715595 1 0.010523350047552733 1 1 0.010336717218006346 1 0.010119009424829788 1 1 1 1 1 1 1 1 1 1 1 1 1 1 1 1 1 0.010161052937308433 0.011315681993498986 1 1 1 0.01059335269872271 1 1 1 1 1 1 1 1 1 0.00958836949795327 1 1 1 1 1 1 1 1 1 1 0.0089665900248012565 1 1 0.0099439934966508801 1 0.011716356499808501 1 0.012394776947229808 1 1 1 1 1 0.012323723426996341 1 1 1 0.011397084833318369 1 0.011960958840356939 0.012858543273241206 0.010121764900500001 1 0.010000720414410835 1 0.010251474696185835 0.010467191746278914 1 1 1 1 0.010245848549570639 1 1 1 1 0.0095459057473623668 1 1 1 1 1 1 1 1 1 1 1 0.013741301575536116 1 1 1 1 1 1 1 1 1 0.0085355865518315314 1 0.011278439469168159 1 1 1 1 1 0.011064005044246185 1 1 1 1 0.01087375822698685 0.011772447850237951 1 1 1 1 1 0.01256001842028787 1 0.012184912653777354 1 0.010001257563976977 1 1 1 1 1 1 1 1 1 1 1 1 1 0.012590477083371984 0.011103954245263859 0.011674225881805691 1 1 0.012362730200781595 0.011704754899185666 1 0.010717148255036958 1 1 1 1 1 1 1 1 1 1 1 0.010072374226474985 1 1 1 1 1 1 1 1 1 1 1 1 0.011141324064402028 1 0.011454694079059306 1 1 0.010299418255965049 1 0.01043288029109854 0.010732494379537383 0.014539813994638289 1 0.01350735906437643 1 1 0.0099660519956236565 1 0.010555567214034556 1 0.010831751729305381 1 1 1 1 1 1 1 1 0.014195188275978078 1 1 0.015047017366403374 1 1 1 1 0.010098566490904069 1 1 1 1 0.013133161461415237 1 1 1 1 1 1 1 1 0.0099986513881761066 1 1 1 1 1 1 1 1 1 1 0.015628532492580338 1 1 1 1 1 1 1 1 0.0092468142363602689 1 1 0.010092533115090542 1 1 1 1 1 1 1 0.015779001466114901 0.0099321982913518313 1 1 1 1 1 1 1 1 1 1 1 1 1 1 0.010166849256420264 1 1 1 1 0.010930818512820677 1 1 1 1 1 1 1 1 1 1 1 1 1 1 1 1 1 1 1 1 1 1 1 0.012286599142940099 1 0.010371742000464548 1 1 1 0.011612493976089556 1 1 1 1 1 1 0.010595283449998483 1 0.011388418608552357 1 1 1 1 1 1 1 1 1 1 1 1 1 1 1 1 0.01004170390330944 1 1 1 1 0.011290877246833189 1 1 1 1 1 0.010480797314450566 1 1 0.014784570447199299 1 1 1 0.012572618283970048 0.0099924378618233764 1 1 1 1 0.012707794099823432 1 1 1 0.010428991003190762 1 0.009817820201051472 1 1 1 1 0.0096209529896450399 1 1 0.010963429499053554 1 1 1 1 0.010335267241934074 1 1 1 1 0.014767812014065846 1 1 1 0.0129543566558257 1 1 1 1 1 0.0092907331928135019 1 1 1 0.013309769052049662 1 1 0.011918186138917526 1 1 0.011463579150773031 0.011534266020020983 1 0.0099587594978637756 1 1 1 0.013817156396187833 1 0.010009305558347193 1 1 0.0095140447493692829 1 1 1 1 1 1 0.012129233787885801 1 0.0099342193885009495 0.01181590767273762 0.01147743201472313 0.010003684951152567 1 1 1 0.010145531999494986 1 0.012269729212475615 1 1 0.009098397057172674 1 1 1 0.0094984754296412593 1 1 0.010294258954659838 1 0.012866095259473399 1 0.010653975478969156 1 1 1 0.010177465939799674 1 1 0.011109888205507094 1 1 0.010002832554619161 1 1 0.010488664900213312 1 1 1 1 1 1 0.010435096449407261 1 1 1 0.0098679731647988017 0.010364294011046242 0.0099981057925450315 0.013789697048736484 0.010004770342662606 1 1 1 1 1 1 1 1 1 1 1 1 1 0.011996915231701353 1 1 1 1 1 1 1 1 1 1 1 1 1 1 1 1 1 0.010106248283538687 1 1 1 1 1 1 0.010027359546452166 1 1 1 1 1 1 1 0.018176528043611289 1 1 1 1 1 1 1 1 1 1 1 1 1 1 1 1 1 1 1 1 1 1 1 1 0.013567525190417394 1 0.013304508263838232 1 1 1 1 1 1 1 1 1 1 1 1 1 1 1 1 1 1 1 1 1 1 1 1 1 1 1 1 1 1 1 1 1 0.016334360126698401 1 1 1 1 1 1 1 1 1 1 1 1 1 1 1 1 1 1 1 0.022128065185139559 1 0.011173515854900394 1 0.031590267458197971 0.012726699611296809 1 1 1 1 1 1 0.010675128462470488 0.022762900413221432 1 1 0.0091120842408394659 1 1 1 1 1 1 0.015659731720548766 1 1 1 1 1 1 1 1 1 1 1 1 1 1 1 1 1 1 1 0.027548652074313184 0.010207012799182262 1 1 1 1 1 1 1 1 1 1 1 1 1 1 1 1 1 1 1 1 1 1 1 1 1 1 1 1 1 1 1 1 0.011119880278181195 1 0.010470872791285619 1 0.011123498407872631 1 1 1 1 0.010214248856438794 1 1 1 0.015635843795316795 1 1 0.013823055163014266 1 1 1 1 1 1 1 1 1 1 1 1 1 0.011608986765503614 1 1 0.009843203520706105 1 1 1 1 1 1 0.010619968034797034 1 1 1 1 1 1 1 1 1 1 1 1 1 1 1 0.01227059090430381 1 1 1 1 1 1 0.010750868757123631 1 1 1 1 1 1 1 1 1 1 1 1 0.0093697922041244899 1 1 1 1 1 1 0.012885409128587128 1 1 1 1 0.008884114284220708 0.012757131050034107 1 1 0.010040665366045427 0.017881881537930348 1 1 1 0.01759574229187259 1 0.01543132853108569 1 0.010058765043944408 1 1 1 1 1 1 1 1 1 1 0.017790056668356608 1 1 0.016179594006218573 1 1 0.026768183371541902 0.010410907709159423 1 1 1 1 1 1 1 1 1 1 1 1 1 1 1 0.0099763336481158982 1 1 1 1 1 0.0099563244991603978 0.01627001400286408 1 1 0.014403275827930537 1 1 1 1 1 1 1 1 1 0.012144887808892071 1 1 0.012466486477959105 1 0.010728581005104754 1 0.010007842256011085 1 1 1 0.012752455488017291 1 1 0.0087965369547023577 1 1 0.012692112846596347 1 1 0.012402673963509572 1 0.014429536567630186 1 1 0.010184166187653916 1 1 1 0.012191300902377633 0.013513792750672625 1 1 0.017375993787238843 1 1 0.010000730113766978 0.011482900955997032 1 0.011873072927667776 1 1 0.010690035117943034 1 0.011200517182684389 1 0.013158504164615956 1 1 0.011025429204892577 0.013366475003901262 1 1 0.011229561663533495 1 0.0092534091636487965 0.01421406272401015 1 1 1 1 1 0.0097392808113289861 1 1 1 1 1 1 1 0.017554287997964352 1 1 0.017806053950977088 1 1 1 1 1 1 1 1 1 1 1 1 1 1 1 1 1 1 1 1 1 0.0097882912284555333 1 1 1 0.0094269951107353971 1 1 1 1 0.0099148210570651884 1 1 1 1 1 0.010251282837371195 1 0.011872488230556474 1 1 0.01017911129198692 1 1 1 1 0.010071611578562966 1 1 1 0.010751678178385893 1 1 1 0.011626390363683785 1 0.01122615348187019 1 1 1 1 1 0.010268801048277112 1 1 0.010400465394220373 1 1 0.013519561615856272 0.010001200993580265 1 0.011514216735581999 1 1 1 0.012915084145491626 1 1 0.013627251429704855 1 1 0.010866695155109565 1 1 0.011261187774401346 0.013986910814014875 1 1 1 0.011556364492843939 1 1 1 1 1 1 1 1 0.012650627429038304 1 0.014044123040330999 1 1 0.011596353414902496 1 1 0.011260047599921129 1 0.014052934527808236 0.011247255092661773 1 1 1 1 1 1 0.010049530125540943 1 1 1 1 1 1 1 1 1 1 1 1 0.009002915875895974 0.010487928150535501 1 0.010089380536932402 1 1 1 0.0085333212708969298 1 0.014308401462244786 1 1 1 0.010026947778430122 1 1 1 1 0.017692339278716756 0.01724111606353863 1 1 1 0.011069134845149368 1 1 0.013306252383062338 1 0.010824003965785174 0.015178917835774301 0.017661806015490264 1 0.014810965727555745 1 1 0.0099984917459161188 1 1 0.01894359355142617 1 0.011583139476086685 1 0.022930938730066956 0.015021479099813608 1 1 0.0091035898434694302 1 1 1 0.022122604540387086 0.0099992356190406976 1 1 0.0092368448872113471 1 1 1 0.009112074301993742 1 1 1 0.022115751137716324 0.011858910752755393 0.01895726621789956 1 1 1 1 1 0.019574191039150295 1 0.018362249438420894 1 1 1 1 0.0096505768682147355 1 1 0.0092504768937313846 1 1 1 1 0.038511066640789238 1 0.0094447465759247146 0.024404206761205263 1 0.026200116087043604 1 0.0071859305707373073 1 1 1 1 1 1 1 1 1 1 1 1 1 1 0.021488107686681353 1 1 1 0.016447421295760364 1 0.01032785770176162 0.0099971203394238952 1 1 1 1 1 1 1 0.010445595341922036 1 1 0.010366373881936326 1 1 1 1 1 0.0086236344590309762 1 0.0089479054195321442 1 0.0099815738018587535 1 1 1 1 1 1 1 1 1 1 1 1 1 1 1 1 0.0094526085246961593 1 0.009978081710590633 1 1 1 1 1 1 1 1 1 1 1 1 1 1 1 1 1 1 1 1 1 1 1 0.010154407235641087 1 1 1 1 1 1 1 1 1 1 0.0097374970589793435 1 1 1 1 1 1 1 1 1 1 1 0.010149905669637709 1 1 1 1 1 1 1 1 1 1 1 1 1 1 0.010144596184214478 1 1 1 0.009191816986945444 0.0096616853680993528 1 1 1 1 1 0.0098764760772788625 1 0.0095246168197130783 1 1 1 1 1 1 1 0.010435672015654839 1 0.010596114024935772 1 1 1 1 1 1 1 1 1 1 1 0.0099862757904856884 1 0.0081351083015426782 0.010214234046268643 1 1 1 1 1 1 1 1 1 1 1 1 1 1 1 1 0.010319722323911752 1 1 1 1 1 1 1 0.010747227475391549 1 1 1 1 1 1 1 1 1 1 1 1 1 1 1 1 1 1 0.015125370872607203 1 1 1 0.0074586002251166902 0.0098438969160864389 1 0.010244109550661651 1 1 1 1 1 1 1 1 1 1 1 1 1 1 1 1 0.0098881655895015855 1 1 1 0.014718478216111355 1 1 1 0.0099379789442730244 1 1 1 0.0072531750155891243 1 1 1 1 1 1 0.014989839346882458 1 1 1 1 1 0.016110004852791092 1 1 1 0.015429308471437272 1 1 1 0.017290596138126019 1 1 1 1 0.01055194201596127 0.014799204116603907 0.010228393839638141 1 1 1 0.014840074695587955 1 0.010013252761449896 1 1 1 0.016551534141103667 1 1 1 0.012457623531971797 0.015609370541196479 1 1 0.01326487392176655 1 0.014940959077946372 1 1 0.015359627431137049 1 1 1 1 1 1 1 1 0.016810194629714243 1 1 1 0.013667194555520245 1 1 1 0.0099993854638733264 1 0.012142094969994108 1 1 1 1 0.010796884498760959 1 1 1 1 1 0.010295074054550379 1 1 1 1 1 0.014181339206400516 1 1 1 0.011972118440660918 0.0096422759944535252 1 0.010988968929865645 0.012306115324414973 1 1 0.029550639643120089 1 1 1 1 1 1 0.012368660211617725 1 1 1 0.011307822237235183 1 1 1 1 1 0.01008370132797996 1 1 0.013696343459628802 1 1 0.020228217568265205 0.018634679834541874 1 1 1 0.013578339174810702 0.015263921027623027 1 1 0.0094354951763704845 1 1 0.016427913919791433 0.014568423191742541 1 1 0.011931063011616266 0.013292559539386605 1 1 0.011164246801280711 1 1 1 1 1 0.0099042241831459044 1 1 1 1 1 1 1 1 1 1 0.010987449378943331 1 1 1 1 1 1 1 1 1 1 1 1 1 0.010519594715530173 1 1 1 1 1 1 0.010171258178120073 1 1 0.013152097194724521 1 1 1 0.014486248516307285 1 1 1 1 0.0099950645394593692 0.010631016685604677 1 1 1 1 1 1 1 1 1 1 0.010273038422811888 1 1 1 1 1 0.019576804709887437 1 1 0.01004807137109098 1 1 1 1 1 1 1 1 0.017843361627590454 1 1 1 1 0.010982445321518493 0.0099024322531273325 1 1 1 1 1 0.0097620248667705991 0.011227434040010656 1 1 1 1 1 1 1 1 1 1 1 1 1 1 1 1 1 1 1 1 1 1 1 1 1 1 0.010380280135425614 1 1 1 1 1 1 1 1 1 1 0.010241574779443895 1 1 1 1 1 1 1 1 0.010559587145909509 1 1 1 1 1 0.010286548723097616 1 1 1 1 1 1 1 1 1 1 1 1 1 1 1 1 1 1 1 1 1 1 1 0.010111275294739024 1 0.010276942583099056 1 1 1 1 1 1 1 0.010102697611917441 1 1 1 1 1 1 1 1 1 1 1 1 1 0.01016576740220651 1 1 1 0.01049277941182037 1 1 1 1 1 1 1 1 1 1 0.010664966220973293 1 1 1 1 1 1 1 1 1 0.0099819341419998681 1 1 1 1 1 1 1 1 1 1 1 1 1 1 1 1 0.010691466071710478 1 1 1 1 1 1 1 1 1 1 0.011583555753293638 0.0095517409143243363 1 0.010017852609586961 0.0092028988375463961 1 1 1 1 1 0.015049445663283189 1 1 1 0.014537072304070739 1 1 1 1 1 1 1 1 1 1 1 1 1 1 0.012466474512793535 1 1 1 1 1 1 0.012171038373602868 1 1 1 1 1 1 1 1 1 1 1 1 1 1 1 1 1 1 1 1 1 1 1 1 1 1 0.011320427448105932 1 1 1 1 1 1 1 0.016460828168995426 1 1 1 1 1 0.0088947656925550036 1 1 0.0097265825381929964 0.0085790419331871828 1 1 0.015789202818432303 1 1 1 0.013727879616164508 1 1 1 1 1 1 1 1 1 1 1 1 0.010195553375865137 1 1 1 0.012669985297948024 1 1 1 0.010128501598033369 0.009969484238616759 1 1 0.009936004681568085 1 1 1 1 1 1 1 1 1 1 1 1 1 1 1 1 1 1 1 1 1 1 1 1 1 1 1 1 1 1 1 1 1 1 1 1 1 1 1 1 1 1 1 1 1 1 1 1 0.0099563339183380908 1 1 1 1 1 0.0094435864873992081 1 1 1 1 0.0090726857235340977 1 1 1 0.0086783854176430315 1 1 1 1 1 0.010691936047941306 0.010033130803191018 1 1 1 0.011363423369060802 1 1 1 1 1 1 1 1 1 1 1 1 1 1 1 1 0.010418609333700844 1 0.0098218712208496799 1 0.011092006615712816 1 1 1 1 1 1 1 1 1 1 0.011795285225896422 1 1 1 1 1 1 1 1 1 1 1 1 1 1 1 1 1 1 1 1 1 1 1 1 1 1 1 1 0.030091918806026539 1 1 1 1 1 1 1 1 1 0.011834251082469417 1 1 1 0.010667817024308078 1 1 1 1 1 0.014687567688389951 1 1 0.0095908473278412953 1 1 1 1 1 1 0.027165842541317292 1 1 1 1 1 1 1 1 0.010627275792899347 1 1 1 1 1 1 1 1 0.01254934004243018 1 1 0.018627533161581309 1 0.021046040622072233 1 1 1 1 1 1 1 1 1 1 0.024055047811075876 1 1 1 1 1 0.016760125905733014 1 1 1 1 0.018444567147856913 1 0.010074882448750634 1 1 1 0.017713476231605636 1 1 0.0099374917566527957 1 1 1 1 1 1 1 1 1 1 1 1 1 1 1 1 1 1 0.010142180810626671 1 1 1 1 1 1 1 1 0.010360341400225924 1 1 1 0.01014239131427341 1 1 1 1 0.011299814597407453 1 1 1 1 0.010568983371509591 1 1 1 1 1 1 1 0.012135906049489623 1 1 1 1 0.015659974045036745 0.010000673036891035 1 1 1 1 1 1 0.02161257046285029 1 1 1 0.010467744055048724 1 1 1 0.011385596390846534 1 1 1 1 1 1 0.010331410927585513 1 1 1 1 1 1 0.011015739267079909 1 0.011447538465651783 1 0.015889793167377018 0.012059968247287825 0.011656540037341732 1 1 1 1 1 1 1 1 1 1 0.017841258256516584 0.008933509999933963 1 0.017273989144288494 0.017345955273197107 1 1 1 0.010275623648732243 1 0.0097350223946882173 1 1 1 1 0.0084536754069294926 0.017848168599632161 1 1 1 1 1 1 1 0.018299025655598031 1 1 0.010442573814669072 1 1 1 1 0.0099457788801392034 1 1 1 0.025242636969100084 1 1 1 1 1 1 1 1 1 1 1 1 1 1 1 0.0094235885109829123 1 1 1 1 1 1 1 0.009806792169587096 1 1 1 1 0.022324680742144581 1 1 1 1 1 1 1 0.010036171426862266 1 1 0.023047823407911602 1 1 1 1 1 1 1 1 0.0082574987956761537 1 0.010010466912509158 1 0.013742800230287492 0.0096244153080772849 1 1 1 1 1 0.00975087702746881 1 1 1 1 1 1 1 1 1 1 1 1 1 0.021863153359261811 1 1 1 1 1 1 1 1 1 1 1 0.010228495963070306 1 1 1 1 0.010293865658886205 1 1 1 1 0.010181019801060323 1 1 1 1 1 1 1 1 1 1 1 1 1 1 1 1 1 1 1 1 1 1 1 1 0.010379527858686715 1 1 1 1 1 1 1 1 1 0.0099108982885535678 1 1 1 1 1 1 1 1 1 1 1 1 1 1 1 1 1 1 1 1 1 1 1 1 1 1 1 1 1 1 1 1 1 1 1 1 1 1 1 1 1 1 1 1 1 1 1 1 1 1 1 0.0099516920313211989 1 0.0097614112979193656 1 1 1 1 1 1 1 1 1 1 1 1 1 1 1 1 1 1 1 1 1 1 1 1 1 1 1 1 1 1 1 1 1 1 1 1 1 1 1 1 1 0.010439396824615227 1 0.011131600681520942 1 1 1 1 1 1 1 1 1 1 0.011595758992310704 1 1 1 0.010008294037834353 1 1 0.010002346162115009 1 0.0095752057363175953 1 0.011681034811079176 0.010121208129331698 0.011076087186997785 1 1 0.011993231063631107 1 1 1 0.011648584840652629 1 1 1 1 1 1 0.01108340614683052 1 1 0.0098504976594554674 1 1 1 1 1 0.013447735685094192 1 1 1 1 1 1 1 1 0.009963667280823367 1 0.014116382048223089 1 0.010087934736635856 1 1 1 1 1 0.014893022676353302 1 1 1 1 1 0.009987387470451194 1 1 0.010069972514012489 1 1 1 1 1 1 1 1 1 1 1 1 1 1 1 1 1 1 1 1 1 1 1 1 1 1 1 1 1 1 1 1 1 1 1 1 1 1 1 1 1 0.0101366377252441 1 0.009957312814537024 1 1 1 1 1 1 1 1 1 1 1 1 1 1 1 1 1 1 1 1 1 1 1 1 1 0.0104841935787839 1 1 1 1 1 1 1 1 1 0.010491221539922225 1 0.010133213705293572 1 1 1 1 1 1 0.010190798433847792 1 0.010047708357282779 1 1 1 1 1 0.0099934030831793415 1 1 0.010049871111589781 1 1 1 1 1 1 1 1 1 0.014087007813569738 1 1 1 1 1 1 0.010118955603292108 1 1 1 1 1 1 1 1 1 0.010019068864737524 1 1 1 1 1 1 1 1 1 1 1 1 0.010046580061113593 1 1 0.010014597532367294 1 1 1 1 1 0.010022249585119568 0.011258555654547659 0.013921693345127564 1 1 1 0.01312664482944834 1 1 0.010610332715644745 1 0.011093142774136713 0.012134694476570784 1 0.008653602914835315 1 1 1 0.010768072378873074 0.010185510504376855 0.015439243961548783 1 1 1 1 1 1 1 0.010141200116051359 1 1 0.01008039476853193 1 1 0.010297182167633014 1 1 1 1 1 0.010243815792537178 1 1 1 0.015238031975112025 1 0.015497707342483742 1 1 1 1 1 1 1 1 1 0.010257836335064439 1 1 1 1 1 1 1 1 0.010189682950583676 1 1 0.010382898225388971 1 1 1 1 1 1 0.010618252887093879 1 1 1 1 1 0.011099649447212761 1 1 1 0.010241252684977602 1 1 1 1 1 1 1 1 1 1 1 1 1 1 0.010545923962481126 1 1 1 1 1 0.010097754280477836 1 1 1 1 1 1 1 1 1 1 0.01027387547951682 1 0.0099055062508960883 1 1 1 0.0096367567066154187 0.011626718028399471 1 1 1 0.010593088834357587 1 1 1 1 0.011545305167899833 1 1 1 1 1 0.011175174814431829 0.010249539533244947 1 1 1 1 1 1 0.013005164003003583 1 1 1 1 1 1 1 1 1 1 1 1 0.010061520253030372 1 1 1 1 1 1 1 1 0.010326078358199708 1 1 1 1 1 1 1 0.010326511651933438 1 0.014871625370437791 1 1 0.010869392712627237 1 1 1 1 0.0096998093839546565 1 1 0.013186752267435676 0.010005471172041678 1 0.014377302050898173 1 1 1 1 1 1 1 1 1 1 1 1 1 1 0.010286188668857745 1 1 1 1 1 1 1 0.014733717317099472 1 0.014984967793507567 1 1 1 0.014740668074018498 1 1 1 1 0.014887998294682694 1 1 0.010015000762933851 0.014157671285945271 1 1 1 0.010202903618273935 1 1 1 0.013287978378585193 1 1 0.017433367208320748 0.01058819309117629 1 1 1 1 1 0.017682777003984962 0.010506493789057485 1 1 0.012915079420385913 1 1 1 1 0.011363222646445501 0.012326925713975156 1 1 1 1 1 0.0098885580929228226 1 1 1 1 1 1 1 1 1 1 0.016307137847928931 1 1 1 0.012712215714124011 1 1 1 1 1 1 1 1 1 1 1 1 1 1 1 1 0.010656074029419659 1 1 1 1 1 1 1 1 1 1 1 1 1 1 1 1 1 1 1 1 1 1 1 1 1 1 1 1 0.010121455838945803 1 1 0.010000471837471981 1 1 1 1 1 1 0.010438072515131345 1 1 1 1 1 1 0.013415423095866845 1 0.013391048941854687 1 1 0.015660950513057714 1 0.010746912343418107 1 1 0.010759383611699244 1 0.011073376020327933 1 1 0.011236154766133672 1 1 1 0.011249676024750948 1 1 1 1 1 1 0.01002998138954005 1 1 0.01102437684793298 1 1 1 1 1 1 1 1 1 1 1 0.011286034442046174 1 1 0.015924768531094535 1 1 0.01628355750635797 1 1 1 1 0.010195679867696561 1 1 1 1 1 1 1 0.015503043108261587 0.010378593192330959 1 1 1 1 1 1 1 1 1 1 1 1 1 1 1 1 1 1 1 1 0.011090370646643744 0.010121852223213901 1 1 1 1 1 1 1 0.011591299694428708 1 1 1 1 1 0.01957620216131007 1 1 1 0.01088709771848196 1 0.015628972078976809 1 1 1 0.020957222212043512 1 1 1 1 0.010016246961587524 1 1 1 1 1 1 0.010055069472943785 1 1 1 1 1 0.01013519611738237 1 1 1 1 1 1 1 0.011579289921219796 1 1 1 1 0.011519857554140396 0.010297164126563101 1 1 0.0099987592712214701 1 1 0.01149034066273469 1 1 1 0.010012251598645654 1 1 1 1 1 1 0.013841581289510366 1 0.015565871448382682 0.010010933463890658 1 1 1 1 1 1 1 1 1 1 1 1 1 1 1 1 1 1 1 1 0.01003389639139541 1 1 0.011829451941261122 1 0.010103942255330319 1 1 1 1 1 1 1 1 1 1 1 1 0.014433369005314389 1 1 1 0.014392474925580555 1 1 1 1 1 1 1 1 1 1 0.014180244833916625 1 1 1 1 1 1 0.01123970736506605 1 1 1 1 0.01077104758949426 1 1 1 0.010042326311191389 1 0.010348824008917609 1 0.0099428875556164635 1 1 1 0.010963694186758874 1 1 0.010473119167073889 1 1 1 1 1 0.01090337398496467 1 1 1 1 1 1 1 1 1 0.0099766843478560178 0.010319883769969035 1 0.009096194656476219 1 1 1 1 0.010421798474002555 1 0.0089190107386036502 1 1 0.010070009075877653 1 1 0.0083003026183960677 1 0.0099998704656820876 1 1 1 1 0.01001635323177612 1 1 1 1 0.010111573131838998 1 1 1 1 1 1 0.014621748149334819 1 0.0086855450114589998 1 1 1 1 1 1 0.013063210075578716 1 1 1 1 0.012996656595142285 1 1 1 1 0.013862417457527369 1 1 0.010029317756708827 1 1 1 0.013995029217427466 0.0095302511806799658 1 0.0098461536799217837 1 0.010000832701793506 0.012163817699552489 1 1 0.010511878715575665 1 1 0.013847023774344207 1 1 1 1 1 1 1 1 1 1 1 1 1 1 1 1 1 1 1 1 1 1 1 1 1 1 1 1 1 1 1 1 1 1 1 1 1 1 1 1 1 1 1 1 1 1 1 1 1 1 0.010656798342225422 1 1 1 1 1 1 1 1 1 1 1 1 1 1 1 1 1 1 1 1 1 1 1 1 1 1 1 1 1 1 1 1 1 1 1 1 1 1 1 1 1 1 1 1 1 1 0.01143918763110267 1 1 1 1 1 1 1 1 1 0.010928983611320917 0.010801540407683986 1 1 1 0.011763277014362413 1 1 1 1 1 1 0.012143772549307543 1 1 0.010709085526093291 1 1 1 1 1 0.010834293403041491 1 1 0.011726724166193643 1 1 1 0.010925183758509656 1 1 1 1 1 1 1 1 1 1 1 1 1 1 1 1 1 1 0.011010801104013127 1 1 1 1 1 1 1 1 1 1 1 0.0088778639612741954 1 1 1 1 1 1 1 1 1 1 1 1 1 1 1 1 1 1 1 1 1 1 1 1 1 1 1 1 1 1 1 1 1 1 1 1 1 1 1 1 0.010127856506852526 1 1 1 1 0.01022125941141418 1 1 0.01011932548608052 0.016402853878313948 1 1 1 0.014440704847177096 1 1 1 1 1 0.011661866008702346 1 1 1 1 1 1 1 0.011902671734944956 1 1 0.010975995479107882 1 1 0.010087841316028374 1 1 1 1 1 1 1 1 1 1 1 1 1 1 1 1 1 0.016470170267211967 1 1 1 1 1 1 1 1 1 1 1 1 0.010005790864751301 1 0.0099982707336382717 1 1 1 0.020056465990189509 1 1 0.0077120422256593824 1 1 1 1 1 0.010082850698368759 1 1 0.010938380767041974 1 1 1 1 0.010866009441996515 1 1 1 1 1 1 1 0.010254202002700982 1 1 1 1 1 1 1 1 1 0.010381843272403954 1 1 1 1 1 1 1 1 1 0.011169495937269068 1 1 1 1 1 0.010796416988050828 1 1 1 0.014579679503811385 1 1 1 1 1 1 1 1 1 1 1 0.011807218092063953 1 1 1 1 1 1 0.0114993173160576 1 1 1 1 1 1 1 1 1 1 1 1 1 1 1 1 1 1 0.011088969270603384 1 1 1 1 1 1 1 1 1 1 1 1 1 0.013127341993074824 1 1 1 0.014873915991754496 1 1 1 0.010137870941374314 1 0.0098314310755988951 1 1 1 1 1 1 1 1 1 1 0.010435713561178651 1 1 0.011210067948849175 1 1 0.014526761400806627 1 1 0.010003892608576538 1 1 0.016027121083003394 1 1 0.011417955864244614 0.011580002505557021 1 1 1 1 1 1 1 0.010236064212240428 1 1 1 1 1 1 1 1 1 1 1 1 1 0.011710714786601987 1 1 1 0.0105123919937777 1 0.022560469097857978 1 1 1 1 1 1 1 1 1 1 0.018292092004204626 1 1 1 0.020855313623873127 0.010448450153760563 1 1 1 1 1 1 1 1 1 1 1 1 1 1 1 1 0.0088570089739830708 1 0.014258159110684506 1 1 0.010213689039777867 1 1 1 1 1 1 1 1 1 1 0.011856815805180729 1 1 1 1 1 1 1 1 1 1 1 1 1 1 1 1 1 1 1 1 1 1 1 1 1 1 1 1 1 1 1 1 1 1 0.0093831335077617269 1 1 1 1 0.011037312526064495 1 1 1 0.010015189594620178 1 1 1 1 1 1 0.012399342133564558 1 1 1 0.01048490998025025 1 0.010128967645268166 1 1 1 1 1 1 1 1 1 1 0.0098619017874473462 1 1 0.01085288259128972 1 1 0.012487164280112966 1 1 1 0.0095719638888525152 1 0.010912892035960749 1 1 1 1 1 1 1 0.012737063288484684 1 1 1 0.011138550237374832 1 1 0.012006662177094804 1 1 0.0090003454344958697 0.013570611521175179 1 1 1 0.0071087779796054941 1 1 1 1 0.0092086464693014632 1 1 1 1 1 1 1 1 1 1 1 1 1 1 0.012878087713676774 1 1 1 1 1 1 0.0084669359887281446 0.0093883017442184385 1 1 0.025828105829682393 1 1 1 0.011024307277563025 1 1 1 1 1 1 1 1 0.026792818783495355 0.0097777052406105344 1 1 1 1 1 1 1 1 1 1 1 1 0.010032570651826434 1 0.010383431807910841 1 1 0.010004371885340632 1 1 0.0094867507040354085 1 0.0084559149764821227 1 1 0.0083480801705909154 1 0.012134479246205011 1 1 1 0.01000546302135173 1 0.012045169854046385 1 1 0.010170869821975258 1 1 1 1 1 0.011425087378302615 0.0091182053835779861 1 1 0.0096641203298063749 1 1 1 1 1 1 1 0.010975557475937876 1 1 1 1 1 1 1 1 1 1 1 1 1 1 1 0.0097680027763978172 1 1 1 0.0099356415912568042 1 1 1 1 1 1 1 1 0.020101026502536718 1 1 1 1 0.021639740356776571 0.022687984174929673 1 1 1 1 1 1 1 1 1 1 1 1 1 1 1 1 1 0.010487101674458871 1 1 1 1 1 1 0.011179936389957727 1 1 1 1 0.0084125052340864384 1 0.0092520564735981622 1 1 1 0.0084392278987867331 0.010092810016034345 1 0.017909977699051102 1 1 0.010801356067127101 1 1 0.0099071938416984591 1 1 1 0.022361499211627819 1 1 0.020948588426781101 1 1 1 1 1 1 0.010801708123940448 1 1 1 1 1 0.010335434182991836 1 1 1 1 1 0.0099481926574412766 1 1 1 1 1 1 1 1 1 0.0096209028042351704 1 1 1 1 1 1 1 1 1 1 1 1 1 1 1 1 1 1 1 1 1 1 1 1 1 1 1 0.010277843507046939 1 1 1 1 1 1 1 1 1 1 0.010265010122266134 1 1 1 1 1 1 1 1 1 1 1 1 1 1 1 1 1 1 1 1 1 1 1 1 1 1 1 1 1 1 1 1 1 1 1 1 0.010116565977392798 1 1 1 0.011860045862218649 1 1 1 1 1 1 1 1 1 1 1 1 1 1 1 1 1 1 1 0.01029568817688553 1 0.0098832066692777984 0.0099824715665676918 1 1 1 0.010562206708641678 0.013263454211968362 1 0.011307604739984024 0.011669258143352925 0.011255026651859673 1 1 0.011294759805139793 0.009985423953437756 1 0.0099644376575745916 0.0098390667757771531 1 1 1 1 1 1 0.0094583878103613375 1 1 0.010290422157667841 1 0.008796922940854577 1 0.010001253792540436 0.011946868793528881 1 1 1 1 1 1 1 1 1 1 1 0.0098938777957932253 1 1 0.0099605159225610758 1 1 1 1 1 1 1 1 1 1 1 1 1 1 1 1 0.0093698433903785516 0.0087322501628104201 1 1 1 1 1 0.0099976647232940981 1 1 1 1 0.017543982895904957 0.010122576807873178 1 1 1 1 1 0.018942752976433885 1 0.0087697515681052409 1 1 0.010624847013145707 1 1 0.012025583545042729 1 1 1 1 0.010647758334758568 1 0.017487537519750795 1 1 1 1 1 1 1 1 1 1 0.011740933987563986 0.015874665604618123 1 1 0.010445230901954284 1 1 1 1 1 0.010141510581359576 1 1 1 1 1 0.010067298361876038 1 1 1 0.017478768558862899 0.009998504827080975 0.015583042995030372 1 1 1 1 1 1 1 1 1 1 1 0.011115556124014641 1 1 1 0.010098042492530358 1 1 1 1 1 1 1 1 1 1 0.0099082963062030668 1 1 1 1 1 1 1 1 1 1 1 1 1 1 1 1 1 1 1 1 0.011170758804754466 0.014043814105576161 0.021008655146021314 1 1 1 1 1 0.010013887531321868 1 1 1 0.0095425712815961489 1 1 1 1 1 0.020149699115455534 1 1 0.01096477314362726 1 1 1 1 1 1 0.012005697259916188 1 1 0.014237966028561155 0.0099962816393501276 1 1 1 1 1 1 1 1 0.0099984559039316794 1 1 1 1 1 0.010050216057815045 1 1 1 1 1 1 1 0.010455844405757135 0.010094904355205729 1 1 1 1 1 0.010908725843467077 1 1 1 0.010843423372174716 1 1 1 0.01009004905679527 1 1 0.011154435703511701 1 1 1 1 1 1 1 1 0.01038377415751281 1 1 1 1 1 1 0.010021709623812738 1 0.010041464373865753 1 1 1 1 1 1 1 1 1 0.01008748055956918 1 1 1 1 1 0.010019468392473651 1 1 1 1 1 1 1 0.010146548378555859 1 1 1 1 1 0.010234028938125042 
</DataArray>
</CellData>
</Piece>
</UnstructuredGrid>
</VTKFile>
