<?xml version="1.0"?>
<VTKFile type="UnstructuredGrid" version="0.1" byte_order="LittleEndian">
<UnstructuredGrid>
<Piece NumberOfPoints="30881" NumberOfCells="10862">
<Points>
<DataArray type="Float64" NumberOfComponents="3" format="ascii">
-0.49999999999999828 -0.48677703703187492 0 -0.5 -0.5 0 -0.48129281494584059 -0.49338851851593718 0 -0.5 -0.5 0 -0.48129281494584059 -0.49338851851593718 0 -0.46258562989168328 -0.5 0 -0.49999999999999828 -0.48677703703187492 0 -0.48129281494584059 -0.49338851851593718 0 -0.49999999999999828 -0.48677703703187492 0 -0.4824545428279598 -0.47451624516148783 0 -0.48129281494584059 -0.49338851851593718 0 -0.49999999999999828 -0.48677703703187492 0 -0.4824545428279598 -0.47451624516148783 0 -0.5 -0.46599539173150673 0 -0.4824545428279598 -0.47451624516148783 0 -0.46853075243710779 -0.48354990242643758 0 -0.46411508256092049 -0.46598235294430129 0 -0.4824545428279598 -0.47451624516148783 0 -0.48129281494584059 -0.49338851851593718 0 -0.46853075243710779 -0.48354990242643758 0 -0.48129281494584059 -0.49338851851593718 0 -0.46258562989168328 -0.5 0 -0.48129281494584059 -0.49338851851593718 0 -0.46258562989168328 -0.5 0 -0.46853075243710779 -0.48354990242643758 0 -0.46258562989168328 -0.5 0 -0.46853075243710779 -0.48354990242643758 0 -0.45147378687733691 -0.48362213557840178 0 -0.46853075243710779 -0.48354990242643758 0 -0.45147378687733691 -0.48362213557840178 0 -0.46411508256092049 -0.46598235294430129 0 -0.4457251648104853 -0.47020164095208389 0 -0.45147378687733691 -0.48362213557840178 0 -0.46411508256092049 -0.46598235294430129 0 -0.4457251648104853 -0.47020164095208389 0 -0.45147378687733691 -0.48362213557840178 0 -0.43513446131126993 -0.48199891714758791 0 -0.45147378687733691 -0.48362213557840178 0 -0.43275163025255442 -0.5 0 -0.43513446131126993 -0.48199891714758791 0 -0.46258562989168328 -0.5 0 -0.45147378687733691 -0.48362213557840178 0 -0.43275163025255442 -0.5 0 -0.4467190029717853 -0.45478934699519452 0 -0.4422915115958943 -0.43555510214664611 0 -0.43246707723660932 -0.44794326854796312 0 -0.4457251648104853 -0.47020164095208389 0 -0.4467190029717853 -0.45478934699519452 0 -0.46411508256092049 -0.46598235294430129 0 -0.4457251648104853 -0.47020164095208389 0 -0.4467190029717853 -0.45478934699519452 0 -0.43016578207734568 -0.46313500011938619 0 -0.4467190029717853 -0.45478934699519452 0 -0.46411508256092049 -0.46598235294430129 0 -0.47114575579794699 -0.4403844242888923 0 -0.4467190029717853 -0.45478934699519452 0 -0.47114575579794699 -0.4403844242888923 0 -0.4422915115958943 -0.43555510214664611 0 -0.47114575579794699 -0.4403844242888923 0 -0.4422915115958943 -0.43555510214664611 0 -0.46411508256092049 -0.46598235294430129 0 -0.47114575579794699 -0.4403844242888923 0 -0.48354307623736548 -0.45841843211146538 0 -0.4824545428279598 -0.47451624516148783 0 -0.46411508256092049 -0.46598235294430129 0 -0.48354307623736548 -0.45841843211146538 0 -0.4824545428279598 -0.47451624516148783 0 -0.48354307623736548 -0.45841843211146538 0 -0.5 -0.46599539173150673 0 -0.48354307623736548 -0.45841843211146538 0 -0.5 -0.46599539173150673 0 -0.49999999999999972 -0.44521374643113848 0 -0.47114575579794699 -0.4403844242888923 0 -0.49999999999999972 -0.44521374643113848 0 -0.47114575579794699 -0.4403844242888923 0 -0.49999999999999972 -0.44521374643113848 0 -0.48704432221743971 -0.42935617662229603 0 -0.47114575579794699 -0.4403844242888923 0 -0.48354307623736548 -0.45841843211146538 0 -0.49999999999999972 -0.44521374643113848 0 -0.49999999999999972 -0.44521374643113848 0 -0.48704432221743971 -0.42935617662229603 0 -0.5 -0.41591957503128979 0 -0.48704432221743971 -0.42935617662229603 0 -0.5 -0.41591957503128979 0 -0.47703153307181151 -0.41590696073786332 0 -0.5 -0.41591957503128979 0 -0.47703153307181151 -0.41590696073786332 0 -0.48817838912021821 -0.4022119694541284 0 -0.47114575579794699 -0.4403844242888923 0 -0.48704432221743971 -0.42935617662229603 0 -0.47703153307181151 -0.41590696073786332 0 -0.5 -0.38662540363144121 0 -0.47568202340906118 -0.39039593841591919 0 -0.4947615751445838 -0.37332156409002909 0 -0.47568202340906118 -0.39039593841591919 0 -0.4947615751445838 -0.37332156409002909 0 -0.5 -0.38662540363144121 0 -0.48817838912021821 -0.4022119694541284 0 -0.47568202340906118 -0.39039593841591919 0 -0.5 -0.41591957503128979 0 -0.5 -0.38662540363144121 0 -0.48817838912021821 -0.4022119694541284 0 -0.47703153307181151 -0.41590696073786332 0 -0.48817838912021821 -0.4022119694541284 0 -0.47568202340906118 -0.39039593841591919 0 -0.47703153307181151 -0.41590696073786332 0 -0.47568202340906118 -0.39039593841591919 0 -0.45660247167353862 -0.40747031274180939 0 -0.47568202340906118 -0.39039593841591919 0 -0.48030931097003587 -0.37191064435083931 0 -0.46669490250066459 -0.37481721741951951 0 -0.47568202340906118 -0.39039593841591919 0 -0.4947615751445838 -0.37332156409002909 0 -0.48030931097003587 -0.37191064435083931 0 -0.45332061783919553 -0.38729481725706361 0 -0.46669490250066459 -0.37481721741951951 0 -0.45095991715087752 -0.36968037302039969 0 -0.47568202340906118 -0.39039593841591919 0 -0.45332061783919553 -0.38729481725706361 0 -0.46669490250066459 -0.37481721741951951 0 -0.47568202340906118 -0.39039593841591919 0 -0.45660247167353862 -0.40747031274180939 0 -0.47568202340906118 -0.39039593841591919 0 -0.45332061783919553 -0.38729481725706361 0 -0.45660247167353862 -0.40747031274180939 0 -0.44332653075004852 -0.401690115615219 0 -0.44646247228389868 -0.41654464256061052 0 -0.42870657106664078 -0.39987574649354879 0 -0.45332061783919553 -0.38729481725706361 0 -0.44332653075004852 -0.401690115615219 0 -0.43479631603355468 -0.39077639303142497 0 -0.45332061783919553 -0.38729481725706361 0 -0.44332653075004852 -0.401690115615219 0 -0.45660247167353862 -0.40747031274180939 0 -0.45332061783919553 -0.38729481725706361 0 -0.43421362475025049 -0.37527491429266319 0 -0.43479631603355468 -0.39077639303142497 0 -0.45332061783919553 -0.38729481725706361 0 -0.43421362475025049 -0.37527491429266319 0 -0.45095991715087752 -0.36968037302039969 0 -0.47114575579794699 -0.4403844242888923 0 -0.45663439814062529 -0.42533932462455271 0 -0.4422915115958943 -0.43555510214664611 0 -0.47114575579794699 -0.4403844242888923 0 -0.47703153307181151 -0.41590696073786332 0 -0.45663439814062529 -0.42533932462455271 0 -0.45663439814062529 -0.42533932462455271 0 -0.45660247167353862 -0.40747031274180939 0 -0.44646247228389868 -0.41654464256061052 0 -0.47703153307181151 -0.41590696073786332 0 -0.45663439814062529 -0.42533932462455271 0 -0.45660247167353862 -0.40747031274180939 0 -0.44332653075004852 -0.401690115615219 0 -0.45660247167353862 -0.40747031274180939 0 -0.44646247228389868 -0.41654464256061052 0 -0.45660247167353862 -0.40747031274180939 0 -0.44646247228389868 -0.41654464256061052 0 -0.44646247228389868 -0.41654464256061052 0 -0.4375229199380159 -0.42454468706769971 0 -0.45663439814062529 -0.42533932462455271 0 -0.4375229199380159 -0.42454468706769971 0 -0.4422915115958943 -0.43555510214664611 0 -0.45663439814062529 -0.42533932462455271 0 -0.44646247228389868 -0.41654464256061052 0 -0.4375229199380159 -0.42454468706769971 0 -0.4375229199380159 -0.42454468706769971 0 -0.4422915115958943 -0.43555510214664611 0 -0.43077617074680319 -0.43406335077952207 0 -0.43077617074680319 -0.43406335077952207 0 -0.42550232634077589 -0.42345940056268039 0 -0.41950844772475421 -0.43888456563633732 0 -0.4375229199380159 -0.42454468706769971 0 -0.43077617074680319 -0.43406335077952207 0 -0.42550232634077589 -0.42345940056268039 0 -0.44646247228389868 -0.41654464256061052 0 -0.41657232816672918 -0.41306671883907142 0 -0.42870657106664078 -0.39987574649354879 0 -0.44646247228389868 -0.41654464256061052 0 -0.4375229199380159 -0.42454468706769971 0 -0.42550232634077589 -0.42345940056268039 0 -0.44646247228389868 -0.41654464256061052 0 -0.42550232634077589 -0.42345940056268039 0 -0.41657232816672918 -0.41306671883907142 0 -0.44646247228389868 -0.41654464256061052 0 -0.41657232816672918 -0.41306671883907142 0 -0.42550232634077589 -0.42345940056268039 0 -0.41657232816672918 -0.41306671883907142 0 -0.41333489101611293 -0.42699700567040988 0 -0.41657232816672918 -0.41306671883907142 0 -0.41333489101611293 -0.42699700567040988 0 -0.39893236021425188 -0.42931692235905211 0 -0.41333489101611293 -0.42699700567040988 0 -0.39893236021425188 -0.42931692235905211 0 -0.41950844772475421 -0.43888456563633732 0 -0.42550232634077589 -0.42345940056268039 0 -0.41333489101611293 -0.42699700567040988 0 -0.41950844772475421 -0.43888456563633732 0 -0.43421362475025049 -0.37527491429266319 0 -0.42478231784314502 -0.38643128255249681 0 -0.41656514696884139 -0.37636588688318029 0 -0.43421362475025049 -0.37527491429266319 0 -0.42478231784314502 -0.38643128255249681 0 -0.43479631603355468 -0.39077639303142497 0 -0.42478231784314502 -0.38643128255249681 0 -0.43479631603355468 -0.39077639303142497 0 -0.42870657106664078 -0.39987574649354879 0 -0.44332653075004852 -0.401690115615219 0 -0.43479631603355468 -0.39077639303142497 0 -0.42870657106664078 -0.39987574649354879 0 -0.41657232816672918 -0.41306671883907142 0 -0.40962993039643741 -0.3898634720616666 0 -0.3946356370269814 -0.39577424904278191 0 -0.42478231784314502 -0.38643128255249681 0 -0.42870657106664078 -0.39987574649354879 0 -0.40962993039643741 -0.3898634720616666 0 -0.41657232816672918 -0.41306671883907142 0 -0.42870657106664078 -0.39987574649354879 0 -0.40962993039643741 -0.3898634720616666 0 -0.42478231784314502 -0.38643128255249681 0 -0.40962993039643741 -0.3898634720616666 0 -0.41656514696884139 -0.37636588688318029 0 -0.40962993039643741 -0.3898634720616666 0 -0.41656514696884139 -0.37636588688318029 0 -0.40465459864295228 -0.37650109000307358 0 -0.39431275766669582 -0.38061373190328529 0 -0.40465459864295228 -0.37650109000307358 0 -0.3968495855878465 -0.36923685638487008 0 -0.40962993039643741 -0.3898634720616666 0 -0.39431275766669582 -0.38061373190328529 0 -0.40465459864295228 -0.37650109000307358 0 -0.40962993039643741 -0.3898634720616666 0 -0.39431275766669582 -0.38061373190328529 0 -0.3946356370269814 -0.39577424904278191 0 -0.3946356370269814 -0.39577424904278191 0 -0.38704143117499401 -0.40999023144455299 0 -0.37464038230528551 -0.396492613407532 0 -0.3946356370269814 -0.39577424904278191 0 -0.37522403377147279 -0.38060127254172499 0 -0.37464038230528551 -0.396492613407532 0 -0.39431275766669582 -0.38061373190328529 0 -0.3946356370269814 -0.39577424904278191 0 -0.37522403377147279 -0.38060127254172499 0 -0.39431275766669582 -0.38061373190328529 0 -0.37522403377147279 -0.38060127254172499 0 -0.38569326772338258 -0.37053454129240582 0 -0.41657232816672918 -0.41306671883907142 0 -0.39893236021425188 -0.42931692235905211 0 -0.38704143117499401 -0.40999023144455299 0 -0.41657232816672918 -0.41306671883907142 0 -0.3946356370269814 -0.39577424904278191 0 -0.38704143117499401 -0.40999023144455299 0 -0.41657232816672918 -0.41306671883907142 0 -0.38704143117499401 -0.40999023144455299 0 -0.38704143117499401 -0.40999023144455299 0 -0.38131756488089769 -0.42670085612339947 0 -0.36377437909963828 -0.41972983174959272 0 -0.38131756488089769 -0.42670085612339947 0 -0.38339996822118783 -0.44368928783448319 0 -0.36866352395763108 -0.4313760290561211 0 -0.39893236021425188 -0.42931692235905211 0 -0.38131756488089769 -0.42670085612339947 0 -0.38339996822118783 -0.44368928783448319 0 -0.39893236021425188 -0.42931692235905211 0 -0.38704143117499401 -0.40999023144455299 0 -0.38131756488089769 -0.42670085612339947 0 -0.38339996822118783 -0.44368928783448319 0 -0.40446438048225181 -0.45117017211807442 0 -0.3895931593355052 -0.46351353191466821 0 -0.39893236021425188 -0.42931692235905211 0 -0.38339996822118783 -0.44368928783448319 0 -0.40446438048225181 -0.45117017211807442 0 -0.40446438048225181 -0.45117017211807442 0 -0.3895931593355052 -0.46351353191466821 0 -0.40280611050484572 -0.47090640128894168 0 -0.38339996822118783 -0.44368928783448319 0 -0.3895931593355052 -0.46351353191466821 0 -0.37415472949075129 -0.45946062715310632 0 -0.3895931593355052 -0.46351353191466821 0 -0.38039451612360919 -0.47713749807852829 0 -0.37415472949075129 -0.45946062715310632 0 -0.38039451612360919 -0.47713749807852829 0 -0.39198476482648659 -0.49312537606366408 0 -0.39366244928105898 -0.47747566409097131 0 -0.3895931593355052 -0.46351353191466821 0 -0.38039451612360919 -0.47713749807852829 0 -0.39366244928105898 -0.47747566409097131 0 -0.39198476482648659 -0.49312537606366408 0 -0.37055643484088358 -0.49425936316784103 0 -0.39198476482648659 -0.49312537606366408 0 -0.40291763061342539 -0.5 0 -0.37308363097429631 -0.50000000000000244 0 -0.39198476482648659 -0.49312537606366408 0 -0.37055643484088358 -0.49425936316784103 0 -0.37308363097429631 -0.50000000000000244 0 -0.38039451612360919 -0.47713749807852829 0 -0.39198476482648659 -0.49312537606366408 0 -0.37055643484088358 -0.49425936316784103 0 -0.39198476482648659 -0.49312537606366408 0 -0.41341309481208982 -0.49199138895948757 0 -0.39198476482648659 -0.49312537606366408 0 -0.39366244928105898 -0.47747566409097131 0 -0.40353369561484831 -0.48269551310905429 0 -0.39198476482648659 -0.49312537606366408 0 -0.40291763061342539 -0.5 0 -0.41341309481208982 -0.49199138895948757 0 -0.39198476482648659 -0.49312537606366408 0 -0.40353369561484831 -0.48269551310905429 0 -0.41341309481208982 -0.49199138895948757 0 -0.3895931593355052 -0.46351353191466821 0 -0.39366244928105898 -0.47747566409097131 0 -0.40280611050484572 -0.47090640128894168 0 -0.39366244928105898 -0.47747566409097131 0 -0.40353369561484831 -0.48269551310905429 0 -0.40280611050484572 -0.47090640128894168 0 -0.40280611050484572 -0.47090640128894168 0 -0.41792735015940108 -0.47619959015896091 0 -0.41524515795200517 -0.46243146669528151 0 -0.40353369561484831 -0.48269551310905429 0 -0.41792735015940108 -0.47619959015896091 0 -0.41341309481208982 -0.49199138895948757 0 -0.40353369561484831 -0.48269551310905429 0 -0.40280611050484572 -0.47090640128894168 0 -0.41792735015940108 -0.47619959015896091 0 -0.41792735015940108 -0.47619959015896091 0 -0.41341309481208982 -0.49199138895948757 0 -0.42480663413382869 -0.48754747406650911 0 -0.40291763061342539 -0.5 0 -0.41341309481208982 -0.49199138895948757 0 -0.43275163025255442 -0.5 0 -0.41341309481208982 -0.49199138895948757 0 -0.42480663413382869 -0.48754747406650911 0 -0.43275163025255442 -0.5 0 -0.42480663413382869 -0.48754747406650911 0 -0.43275163025255442 -0.5 0 -0.43513446131126993 -0.48199891714758791 0 -0.4457251648104853 -0.47020164095208389 0 -0.43513446131126993 -0.48199891714758791 0 -0.43016578207734568 -0.46313500011938619 0 -0.41792735015940108 -0.47619959015896091 0 -0.43513446131126993 -0.48199891714758791 0 -0.43016578207734568 -0.46313500011938619 0 -0.41792735015940108 -0.47619959015896091 0 -0.42480663413382869 -0.48754747406650911 0 -0.43513446131126993 -0.48199891714758791 0 -0.4467190029717853 -0.45478934699519452 0 -0.43016578207734568 -0.46313500011938619 0 -0.43246707723660932 -0.44794326854796312 0 -0.43016578207734568 -0.46313500011938619 0 -0.42051073979218989 -0.45215097324273301 0 -0.41524515795200517 -0.46243146669528151 0 -0.43016578207734568 -0.46313500011938619 0 -0.43246707723660932 -0.44794326854796312 0 -0.42051073979218989 -0.45215097324273301 0 -0.4422915115958943 -0.43555510214664611 0 -0.43077617074680319 -0.43406335077952207 0 -0.43246707723660932 -0.44794326854796312 0 -0.43077617074680319 -0.43406335077952207 0 -0.43246707723660932 -0.44794326854796312 0 -0.41950844772475421 -0.43888456563633732 0 -0.43246707723660932 -0.44794326854796312 0 -0.42051073979218989 -0.45215097324273301 0 -0.41950844772475421 -0.43888456563633732 0 -0.39893236021425188 -0.42931692235905211 0 -0.40446438048225181 -0.45117017211807442 0 -0.41950844772475421 -0.43888456563633732 0 -0.40446438048225181 -0.45117017211807442 0 -0.42051073979218989 -0.45215097324273301 0 -0.41950844772475421 -0.43888456563633732 0 -0.40446438048225181 -0.45117017211807442 0 -0.42051073979218989 -0.45215097324273301 0 -0.41524515795200517 -0.46243146669528151 0 -0.40446438048225181 -0.45117017211807442 0 -0.40280611050484572 -0.47090640128894168 0 -0.41524515795200517 -0.46243146669528151 0 -0.41792735015940108 -0.47619959015896091 0 -0.43016578207734568 -0.46313500011938619 0 -0.41524515795200517 -0.46243146669528151 0 -0.45018232007011222 -0.256765034028549 0 -0.429874989515865 -0.26165756953837482 0 -0.43598079583492633 -0.24721882136819351 0 -0.45018232007011222 -0.256765034028549 0 -0.43765198640052377 -0.27443700488157741 0 -0.429874989515865 -0.26165756953837482 0 -0.45018232007011222 -0.256765034028549 0 -0.43598079583492633 -0.24721882136819351 0 -0.45139902778349827 -0.24711062934306771 0 -0.45018232007011222 -0.256765034028549 0 -0.43765198640052377 -0.27443700488157741 0 -0.46196722525855399 -0.27174391220054139 0 -0.43765198640052377 -0.27443700488157741 0 -0.46196722525855399 -0.27174391220054139 0 -0.4476129789611048 -0.29283803371489903 0 -0.46196722525855399 -0.27174391220054139 0 -0.48050148842732221 -0.25523221810557922 0 -0.46267023581878858 -0.24817136713935201 0 -0.45018232007011222 -0.256765034028549 0 -0.46196722525855399 -0.27174391220054139 0 -0.46267023581878858 -0.24817136713935201 0 -0.45018232007011222 -0.256765034028549 0 -0.46267023581878858 -0.24817136713935201 0 -0.45139902778349827 -0.24711062934306771 0 -0.48050148842732221 -0.25523221810557922 0 -0.5 -0.26944871803204617 0 -0.5 -0.2401545466321974 0 -0.48050148842732221 -0.25523221810557922 0 -0.5 -0.26944871803204617 0 -0.48245797385404121 -0.28063059353633901 0 -0.46196722525855399 -0.27174391220054139 0 -0.48050148842732221 -0.25523221810557922 0 -0.48245797385404121 -0.28063059353633901 0 -0.46196722525855399 -0.27174391220054139 0 -0.48245797385404121 -0.28063059353633901 0 -0.46937090116945868 -0.29821258941183898 0 -0.48245797385404121 -0.28063059353633901 0 -0.5 -0.29874288943189498 0 -0.46937090116945868 -0.29821258941183898 0 -0.5 -0.26944871803204617 0 -0.48245797385404121 -0.28063059353633901 0 -0.5 -0.29874288943189498 0 -0.5 -0.29874288943189498 0 -0.46937090116945868 -0.29821258941183898 0 -0.47623524987602139 -0.32201367690444971 0 -0.46937090116945868 -0.29821258941183898 0 -0.4476129789611048 -0.29283803371489903 0 -0.45018982867155483 -0.32180400573951162 0 -0.46196722525855399 -0.27174391220054139 0 -0.46937090116945868 -0.29821258941183898 0 -0.4476129789611048 -0.29283803371489903 0 -0.43765198640052377 -0.27443700488157741 0 -0.4476129789611048 -0.29283803371489903 0 -0.43236213870239748 -0.29002705800971151 0 -0.4476129789611048 -0.29283803371489903 0 -0.45018982867155483 -0.32180400573951162 0 -0.4314578060398388 -0.3048790663939604 0 -0.45018982867155483 -0.32180400573951162 0 -0.4314578060398388 -0.3048790663939604 0 -0.45018982867155483 -0.32180400573951162 0 -0.46157657978994598 -0.34139555482026068 0 -0.43521386225128428 -0.33802231259611382 0 -0.46157657978994598 -0.34139555482026068 0 -0.43521386225128428 -0.33802231259611382 0 -0.45018982867155483 -0.32180400573951162 0 -0.46157657978994598 -0.34139555482026068 0 -0.47623524987602139 -0.32201367690444971 0 -0.46937090116945868 -0.29821258941183898 0 -0.45018982867155483 -0.32180400573951162 0 -0.47623524987602139 -0.32201367690444971 0 -0.5 -0.29874288943189498 0 -0.47623524987602139 -0.32201367690444971 0 -0.5 -0.32803706083174372 0 -0.47623524987602139 -0.32201367690444971 0 -0.5 -0.32803706083174372 0 -0.48561656391384522 -0.34384835974822991 0 -0.5 -0.32803706083174372 0 -0.5 -0.35733123223159241 0 -0.48561656391384522 -0.34384835974822991 0 -0.46157657978994598 -0.34139555482026068 0 -0.47623524987602139 -0.32201367690444971 0 -0.48561656391384522 -0.34384835974822991 0 -0.46157657978994598 -0.34139555482026068 0 -0.47568148196104371 -0.35852722048879659 0 -0.48561656391384522 -0.34384835974822991 0 -0.47568148196104371 -0.35852722048879659 0 -0.48561656391384522 -0.34384835974822991 0 -0.48768886795130861 -0.36141736908419309 0 -0.5 -0.35733123223159241 0 -0.48561656391384522 -0.34384835974822991 0 -0.48768886795130861 -0.36141736908419309 0 -0.5 -0.35733123223159241 0 -0.4947615751445838 -0.37332156409002909 0 -0.48768886795130861 -0.36141736908419309 0 -0.5 -0.38662540363144121 0 -0.5 -0.35733123223159241 0 -0.4947615751445838 -0.37332156409002909 0 -0.4947615751445838 -0.37332156409002909 0 -0.48768886795130861 -0.36141736908419309 0 -0.48030931097003587 -0.37191064435083931 0 -0.47568148196104371 -0.35852722048879659 0 -0.48030931097003587 -0.37191064435083931 0 -0.46669490250066459 -0.37481721741951951 0 -0.47568148196104371 -0.35852722048879659 0 -0.48768886795130861 -0.36141736908419309 0 -0.48030931097003587 -0.37191064435083931 0 -0.46669490250066459 -0.37481721741951951 0 -0.45985290530711531 -0.35919053618658509 0 -0.45095991715087752 -0.36968037302039969 0 -0.47568148196104371 -0.35852722048879659 0 -0.46669490250066459 -0.37481721741951951 0 -0.45985290530711531 -0.35919053618658509 0 -0.46157657978994598 -0.34139555482026068 0 -0.47568148196104371 -0.35852722048879659 0 -0.45985290530711531 -0.35919053618658509 0 -0.46157657978994598 -0.34139555482026068 0 -0.45985290530711531 -0.35919053618658509 0 -0.44091292170358748 -0.35617636658334351 0 -0.46157657978994598 -0.34139555482026068 0 -0.44091292170358748 -0.35617636658334351 0 -0.43521386225128428 -0.33802231259611382 0 -0.43421362475025049 -0.37527491429266319 0 -0.44091292170358748 -0.35617636658334351 0 -0.45095991715087752 -0.36968037302039969 0 -0.45985290530711531 -0.35919053618658509 0 -0.44091292170358748 -0.35617636658334351 0 -0.45095991715087752 -0.36968037302039969 0 -0.43421362475025049 -0.37527491429266319 0 -0.41656514696884139 -0.37636588688318029 0 -0.42218579342164808 -0.36334977441807748 0 -0.43421362475025049 -0.37527491429266319 0 -0.44091292170358748 -0.35617636658334351 0 -0.42218579342164808 -0.36334977441807748 0 -0.44091292170358748 -0.35617636658334351 0 -0.42218579342164808 -0.36334977441807748 0 -0.42066840753926321 -0.34864312644900147 0 -0.44091292170358748 -0.35617636658334351 0 -0.42066840753926321 -0.34864312644900147 0 -0.43521386225128428 -0.33802231259611382 0 -0.42218579342164808 -0.36334977441807748 0 -0.42066840753926321 -0.34864312644900147 0 -0.40690054455725883 -0.35815659477868023 0 -0.40690054455725883 -0.35815659477868023 0 -0.40885114471262263 -0.334649070371968 0 -0.42066840753926321 -0.34864312644900147 0 -0.40690054455725883 -0.35815659477868023 0 -0.40885114471262263 -0.334649070371968 0 -0.42218579342164808 -0.36334977441807748 0 -0.40690054455725883 -0.35815659477868023 0 -0.40625971269279348 -0.36587953617857771 0 -0.40690054455725883 -0.35815659477868023 0 -0.40625971269279348 -0.36587953617857771 0 -0.41656514696884139 -0.37636588688318029 0 -0.42218579342164808 -0.36334977441807748 0 -0.40625971269279348 -0.36587953617857771 0 -0.42218579342164808 -0.36334977441807748 0 -0.40690054455725883 -0.35815659477868023 0 -0.41656514696884139 -0.37636588688318029 0 -0.40465459864295228 -0.37650109000307358 0 -0.40625971269279348 -0.36587953617857771 0 -0.40465459864295228 -0.37650109000307358 0 -0.40625971269279348 -0.36587953617857771 0 -0.3968495855878465 -0.36923685638487008 0 -0.40690054455725883 -0.35815659477868023 0 -0.40029228617445223 -0.36350286704594809 0 -0.3911593018599101 -0.36073848084166482 0 -0.40625971269279348 -0.36587953617857771 0 -0.40029228617445223 -0.36350286704594809 0 -0.3968495855878465 -0.36923685638487008 0 -0.40690054455725883 -0.35815659477868023 0 -0.40625971269279348 -0.36587953617857771 0 -0.40029228617445223 -0.36350286704594809 0 -0.3911593018599101 -0.36073848084166482 0 -0.3968495855878465 -0.36923685638487008 0 -0.38569326772338258 -0.37053454129240582 0 -0.40029228617445223 -0.36350286704594809 0 -0.3911593018599101 -0.36073848084166482 0 -0.3968495855878465 -0.36923685638487008 0 -0.39431275766669582 -0.38061373190328529 0 -0.3968495855878465 -0.36923685638487008 0 -0.38569326772338258 -0.37053454129240582 0 -0.3911593018599101 -0.36073848084166482 0 -0.38569326772338258 -0.37053454129240582 0 -0.37568472164775779 -0.36524225821647011 0 -0.37522403377147279 -0.38060127254172499 0 -0.38569326772338258 -0.37053454129240582 0 -0.37568472164775779 -0.36524225821647011 0 -0.3911593018599101 -0.36073848084166482 0 -0.37568472164775779 -0.36524225821647011 0 -0.38024887903539811 -0.3491016629308506 0 -0.40690054455725883 -0.35815659477868023 0 -0.3911593018599101 -0.36073848084166482 0 -0.38024887903539811 -0.3491016629308506 0 -0.40690054455725883 -0.35815659477868023 0 -0.38024887903539811 -0.3491016629308506 0 -0.39533213247953691 -0.34338662223350158 0 -0.40690054455725883 -0.35815659477868023 0 -0.39533213247953691 -0.34338662223350158 0 -0.40885114471262263 -0.334649070371968 0 -0.40690054455725883 -0.35815659477868023 0 -0.38024887903539811 -0.3491016629308506 0 -0.39533213247953691 -0.34338662223350158 0 -0.38532796161286798 -0.33163916085250739 0 -0.40885114471262263 -0.334649070371968 0 -0.38532796161286798 -0.33163916085250739 0 -0.40885114471262263 -0.334649070371968 0 -0.38024887903539811 -0.3491016629308506 0 -0.39533213247953691 -0.34338662223350158 0 -0.38532796161286798 -0.33163916085250739 0 -0.38024887903539811 -0.3491016629308506 0 -0.38532796161286798 -0.33163916085250739 0 -0.37024470816872912 -0.33735420154985679 0 -0.38532796161286798 -0.33163916085250739 0 -0.37601492727600683 -0.3197696392392384 0 -0.39293033406270472 -0.31505081143976649 0 -0.37601492727600683 -0.3197696392392384 0 -0.39293033406270472 -0.31505081143976649 0 -0.37651642550459341 -0.307078797330949 0 -0.38532796161286798 -0.33163916085250739 0 -0.39293033406270472 -0.31505081143976649 0 -0.40885114471262263 -0.334649070371968 0 -0.39293033406270472 -0.31505081143976649 0 -0.40885114471262263 -0.334649070371968 0 -0.41078846406037228 -0.3113015987101887 0 -0.40885114471262263 -0.334649070371968 0 -0.42554877913925399 -0.3223331804902434 0 -0.41078846406037228 -0.3113015987101887 0 -0.40885114471262263 -0.334649070371968 0 -0.41078846406037228 -0.3113015987101887 0 -0.42066840753926321 -0.34864312644900147 0 -0.40885114471262263 -0.334649070371968 0 -0.43521386225128428 -0.33802231259611382 0 -0.40885114471262263 -0.334649070371968 0 -0.43521386225128428 -0.33802231259611382 0 -0.40885114471262263 -0.334649070371968 0 -0.43521386225128428 -0.33802231259611382 0 -0.42554877913925399 -0.3223331804902434 0 -0.42554877913925399 -0.3223331804902434 0 -0.4314578060398388 -0.3048790663939604 0 -0.41078846406037228 -0.3113015987101887 0 -0.45018982867155483 -0.32180400573951162 0 -0.43521386225128428 -0.33802231259611382 0 -0.42554877913925399 -0.3223331804902434 0 -0.45018982867155483 -0.32180400573951162 0 -0.42554877913925399 -0.3223331804902434 0 -0.4314578060398388 -0.3048790663939604 0 -0.4476129789611048 -0.29283803371489903 0 -0.4314578060398388 -0.3048790663939604 0 -0.43236213870239748 -0.29002705800971151 0 -0.4314578060398388 -0.3048790663939604 0 -0.43236213870239748 -0.29002705800971151 0 -0.41272578340812272 -0.2879541270484095 0 -0.4314578060398388 -0.3048790663939604 0 -0.41272578340812272 -0.2879541270484095 0 -0.43765198640052377 -0.27443700488157741 0 -0.43236213870239748 -0.29002705800971151 0 -0.41272578340812272 -0.2879541270484095 0 -0.4314578060398388 -0.3048790663939604 0 -0.41272578340812272 -0.2879541270484095 0 -0.41078846406037228 -0.3113015987101887 0 -0.41272578340812272 -0.2879541270484095 0 -0.41078846406037228 -0.3113015987101887 0 -0.41272578340812272 -0.2879541270484095 0 -0.41078846406037228 -0.3113015987101887 0 -0.39233272698174793 -0.29435547039456872 0 -0.39293033406270472 -0.31505081143976649 0 -0.41078846406037228 -0.3113015987101887 0 -0.39233272698174793 -0.29435547039456872 0 -0.39293033406270472 -0.31505081143976649 0 -0.37651642550459341 -0.307078797330949 0 -0.39233272698174793 -0.29435547039456872 0 -0.39233272698174793 -0.29435547039456872 0 -0.39278725088820249 -0.26993907014966689 0 -0.37040839911066209 -0.28171057629616708 0 -0.37651642550459341 -0.307078797330949 0 -0.39233272698174793 -0.29435547039456872 0 -0.37040839911066209 -0.28171057629616708 0 -0.41272578340812272 -0.2879541270484095 0 -0.39233272698174793 -0.29435547039456872 0 -0.39278725088820249 -0.26993907014966689 0 -0.41272578340812272 -0.2879541270484095 0 -0.39278725088820249 -0.26993907014966689 0 -0.39278725088820249 -0.26993907014966689 0 -0.37040839911066209 -0.28171057629616708 0 -0.39278725088820249 -0.26993907014966689 0 -0.37533687834285862 -0.25417213976024849 0 -0.37040839911066209 -0.28171057629616708 0 -0.39278725088820249 -0.26993907014966689 0 -0.37533687834285862 -0.25417213976024849 0 -0.39826986996263802 -0.25360934065352753 0 -0.39278725088820249 -0.26993907014966689 0 -0.37533687834285862 -0.25417213976024849 0 -0.39278725088820249 -0.26993907014966689 0 -0.39826986996263802 -0.25360934065352753 0 -0.41519883225968468 -0.25815034790020708 0 -0.39278725088820249 -0.26993907014966689 0 -0.41519883225968468 -0.25815034790020708 0 -0.39826986996263802 -0.25360934065352753 0 -0.41519883225968468 -0.25815034790020708 0 -0.41615383063077721 -0.2466412503256647 0 -0.41519883225968468 -0.25815034790020708 0 -0.41615383063077721 -0.2466412503256647 0 -0.41272578340812272 -0.2879541270484095 0 -0.41519883225968468 -0.25815034790020708 0 -0.41272578340812272 -0.2879541270484095 0 -0.41519883225968468 -0.25815034790020708 0 -0.429874989515865 -0.26165756953837482 0 -0.41272578340812272 -0.2879541270484095 0 -0.39278725088820249 -0.26993907014966689 0 -0.41519883225968468 -0.25815034790020708 0 -0.43765198640052377 -0.27443700488157741 0 -0.41272578340812272 -0.2879541270484095 0 -0.429874989515865 -0.26165756953837482 0 -0.41519883225968468 -0.25815034790020708 0 -0.43598079583492633 -0.24721882136819351 0 -0.41519883225968468 -0.25815034790020708 0 -0.429874989515865 -0.26165756953837482 0 -0.43598079583492633 -0.24721882136819351 0 -0.41519883225968468 -0.25815034790020708 0 -0.43598079583492633 -0.24721882136819351 0 -0.41615383063077721 -0.2466412503256647 0 -0.31968345090478489 -0.25798973640781447 0 -0.33623326073948312 -0.25365348176558788 0 -0.32213598881581812 -0.2442700999577708 0 -0.31968345090478489 -0.25798973640781447 0 -0.31319680135340772 -0.27337899374224139 0 -0.30564385326437488 -0.26015983685037081 0 -0.31968345090478489 -0.25798973640781447 0 -0.31319680135340772 -0.27337899374224139 0 -0.33256675641106698 -0.27199424518209242 0 -0.31319680135340772 -0.27337899374224139 0 -0.33256675641106698 -0.27199424518209242 0 -0.3219330120753135 -0.28752383142540722 0 -0.33256675641106698 -0.27199424518209242 0 -0.33623326073948312 -0.25365348176558788 0 -0.35329637777243872 -0.26495799818728782 0 -0.31968345090478489 -0.25798973640781447 0 -0.33256675641106698 -0.27199424518209242 0 -0.33623326073948312 -0.25365348176558788 0 -0.33623326073948312 -0.25365348176558788 0 -0.35329637777243872 -0.26495799818728782 0 -0.35305879752332059 -0.24486073726717009 0 -0.37533687834285862 -0.25417213976024849 0 -0.35329637777243872 -0.26495799818728782 0 -0.35305879752332059 -0.24486073726717009 0 -0.37533687834285862 -0.25417213976024849 0 -0.35329637777243872 -0.26495799818728782 0 -0.37040839911066209 -0.28171057629616708 0 -0.35329637777243872 -0.26495799818728782 0 -0.34802954733312141 -0.29348208244266671 0 -0.37040839911066209 -0.28171057629616708 0 -0.33256675641106698 -0.27199424518209242 0 -0.35329637777243872 -0.26495799818728782 0 -0.34802954733312141 -0.29348208244266671 0 -0.34802954733312141 -0.29348208244266671 0 -0.37040839911066209 -0.28171057629616708 0 -0.37651642550459341 -0.307078797330949 0 -0.37040839911066209 -0.28171057629616708 0 -0.36249180620921062 -0.30132401124355712 0 -0.34802954733312141 -0.29348208244266671 0 -0.37040839911066209 -0.28171057629616708 0 -0.36249180620921062 -0.30132401124355712 0 -0.37651642550459341 -0.307078797330949 0 -0.36249180620921062 -0.30132401124355712 0 -0.36514172279026702 -0.314674684486903 0 -0.36249180620921062 -0.30132401124355712 0 -0.35217384865543538 -0.31302074178168637 0 -0.36514172279026702 -0.314674684486903 0 -0.34802954733312141 -0.29348208244266671 0 -0.33894022777705518 -0.31261958861733652 0 -0.35217384865543538 -0.31302074178168637 0 -0.34802954733312141 -0.29348208244266671 0 -0.36249180620921062 -0.30132401124355712 0 -0.35217384865543538 -0.31302074178168637 0 -0.34802954733312141 -0.29348208244266671 0 -0.32565069555558063 -0.30525358858916618 0 -0.33894022777705518 -0.31261958861733652 0 -0.34802954733312141 -0.29348208244266671 0 -0.32565069555558063 -0.30525358858916618 0 -0.32565069555558063 -0.30525358858916618 0 -0.32940773276489932 -0.31652548782855527 0 -0.33894022777705518 -0.31261958861733652 0 -0.33256675641106698 -0.27199424518209242 0 -0.34802954733312141 -0.29348208244266671 0 -0.3219330120753135 -0.28752383142540722 0 -0.34802954733312141 -0.29348208244266671 0 -0.3219330120753135 -0.28752383142540722 0 -0.32565069555558063 -0.30525358858916618 0 -0.3219330120753135 -0.28752383142540722 0 -0.31228269981280887 -0.29918463989613459 0 -0.30483638085835207 -0.28788342401786787 0 -0.31319680135340772 -0.27337899374224139 0 -0.3219330120753135 -0.28752383142540722 0 -0.30483638085835207 -0.28788342401786787 0 -0.32565069555558063 -0.30525358858916618 0 -0.30327184377803978 -0.31702509473566581 0 -0.31228269981280887 -0.29918463989613459 0 -0.3219330120753135 -0.28752383142540722 0 -0.32565069555558063 -0.30525358858916618 0 -0.31228269981280887 -0.29918463989613459 0 -0.32565069555558063 -0.30525358858916618 0 -0.30327184377803978 -0.31702509473566581 0 -0.31475841231360341 -0.32260943229412947 0 -0.32694554799167658 -0.33099179923519167 0 -0.33828159541335823 -0.32561934181358893 0 -0.32565069555558063 -0.30525358858916618 0 -0.31475841231360341 -0.32260943229412947 0 -0.30327184377803978 -0.31702509473566581 0 -0.31475841231360341 -0.32260943229412947 0 -0.33828159541335823 -0.32561934181358893 0 -0.32940773276489932 -0.31652548782855527 0 -0.32565069555558063 -0.30525358858916618 0 -0.31475841231360341 -0.32260943229412947 0 -0.32940773276489932 -0.31652548782855527 0 -0.31475841231360341 -0.32260943229412947 0 -0.33828159541335823 -0.32561934181358893 0 -0.31475841231360341 -0.32260943229412947 0 -0.31372637242327511 -0.33497634201883658 0 -0.32694554799167658 -0.33099179923519167 0 -0.32694554799167658 -0.33099179923519167 0 -0.32737612656656928 -0.35021722948502532 0 -0.3170311031704231 -0.34491623006635341 0 -0.31372637242327511 -0.33497634201883658 0 -0.32694554799167658 -0.33099179923519167 0 -0.3170311031704231 -0.34491623006635341 0 -0.31372637242327511 -0.33497634201883658 0 -0.3170311031704231 -0.34491623006635341 0 -0.30849554643820359 -0.34481279163420842 0 -0.32694554799167658 -0.33099179923519167 0 -0.33828159541335823 -0.32561934181358893 0 -0.35359721351353718 -0.34004673108302108 0 -0.32694554799167658 -0.33099179923519167 0 -0.35359721351353718 -0.34004673108302108 0 -0.33765025977867152 -0.34480892108230998 0 -0.32694554799167658 -0.33099179923519167 0 -0.35359721351353718 -0.34004673108302108 0 -0.32694554799167658 -0.33099179923519167 0 -0.33765025977867152 -0.34480892108230998 0 -0.32737612656656928 -0.35021722948502532 0 -0.33828159541335823 -0.32561934181358893 0 -0.32940773276489932 -0.31652548782855527 0 -0.33894022777705518 -0.31261958861733652 0 -0.33828159541335823 -0.32561934181358893 0 -0.33894022777705518 -0.31261958861733652 0 -0.35217384865543538 -0.31302074178168637 0 -0.33828159541335823 -0.32561934181358893 0 -0.3618047785131131 -0.32862925133304821 0 -0.33828159541335823 -0.32561934181358893 0 -0.35217384865543538 -0.31302074178168637 0 -0.3618047785131131 -0.32862925133304821 0 -0.38532796161286798 -0.33163916085250739 0 -0.37601492727600683 -0.3197696392392384 0 -0.3618047785131131 -0.32862925133304821 0 -0.35217384865543538 -0.31302074178168637 0 -0.36514172279026702 -0.314674684486903 0 -0.3618047785131131 -0.32862925133304821 0 -0.37601492727600683 -0.3197696392392384 0 -0.36514172279026702 -0.314674684486903 0 -0.3618047785131131 -0.32862925133304821 0 -0.37601492727600683 -0.3197696392392384 0 -0.37651642550459341 -0.307078797330949 0 -0.36514172279026702 -0.314674684486903 0 -0.38532796161286798 -0.33163916085250739 0 -0.37024470816872912 -0.33735420154985679 0 -0.3618047785131131 -0.32862925133304821 0 -0.37024470816872912 -0.33735420154985679 0 -0.3618047785131131 -0.32862925133304821 0 -0.35359721351353718 -0.34004673108302108 0 -0.38532796161286798 -0.33163916085250739 0 -0.3618047785131131 -0.32862925133304821 0 -0.38024887903539811 -0.3491016629308506 0 -0.37024470816872912 -0.33735420154985679 0 -0.35359721351353718 -0.34004673108302108 0 -0.33828159541335823 -0.32561934181358893 0 -0.3618047785131131 -0.32862925133304821 0 -0.35359721351353718 -0.34004673108302108 0 -0.35359721351353718 -0.34004673108302108 0 -0.36247207576052709 -0.35740109745143939 0 -0.34268215104290278 -0.35797992452600158 0 -0.35359721351353718 -0.34004673108302108 0 -0.34268215104290278 -0.35797992452600158 0 -0.33765025977867152 -0.34480892108230998 0 -0.37568472164775779 -0.36524225821647011 0 -0.38024887903539811 -0.3491016629308506 0 -0.36247207576052709 -0.35740109745143939 0 -0.38024887903539811 -0.3491016629308506 0 -0.35359721351353718 -0.34004673108302108 0 -0.36247207576052709 -0.35740109745143939 0 -0.38024887903539811 -0.3491016629308506 0 -0.35359721351353718 -0.34004673108302108 0 -0.37522403377147279 -0.38060127254172499 0 -0.37568472164775779 -0.36524225821647011 0 -0.35964608014779109 -0.37334112637938882 0 -0.37568472164775779 -0.36524225821647011 0 -0.36247207576052709 -0.35740109745143939 0 -0.35964608014779109 -0.37334112637938882 0 -0.36247207576052709 -0.35740109745143939 0 -0.35964608014779109 -0.37334112637938882 0 -0.34268215104290278 -0.35797992452600158 0 -0.35964608014779109 -0.37334112637938882 0 -0.34268215104290278 -0.35797992452600158 0 -0.34254000635277743 -0.38197763020755832 0 -0.34268215104290278 -0.35797992452600158 0 -0.32737612656656928 -0.35021722948502532 0 -0.32270418411731933 -0.37181077970513959 0 -0.34268215104290278 -0.35797992452600158 0 -0.32270418411731933 -0.37181077970513959 0 -0.34254000635277743 -0.38197763020755832 0 -0.34268215104290278 -0.35797992452600158 0 -0.34254000635277743 -0.38197763020755832 0 -0.34268215104290278 -0.35797992452600158 0 -0.33765025977867152 -0.34480892108230998 0 -0.32737612656656928 -0.35021722948502532 0 -0.32737612656656928 -0.35021722948502532 0 -0.31662274924076123 -0.35606216629487569 0 -0.32270418411731933 -0.37181077970513959 0 -0.32737612656656928 -0.35021722948502532 0 -0.3170311031704231 -0.34491623006635341 0 -0.31662274924076123 -0.35606216629487569 0 -0.3170311031704231 -0.34491623006635341 0 -0.31662274924076123 -0.35606216629487569 0 -0.30902027636205309 -0.35243705172998302 0 -0.31662274924076123 -0.35606216629487569 0 -0.32270418411731933 -0.37181077970513959 0 -0.30796050174877349 -0.36016317053514468 0 -0.32270418411731933 -0.37181077970513959 0 -0.29719619905707523 -0.36594012765828582 0 -0.30796050174877349 -0.36016317053514468 0 -0.32270418411731933 -0.37181077970513959 0 -0.29719619905707523 -0.36594012765828582 0 -0.3103864423796594 -0.37828470113645102 0 -0.32270418411731933 -0.37181077970513959 0 -0.29719619905707523 -0.36594012765828582 0 -0.29719619905707523 -0.36594012765828582 0 -0.29943295026653399 -0.35953932364306618 0 -0.30796050174877349 -0.36016317053514468 0 -0.29719619905707523 -0.36594012765828582 0 -0.29584447723995128 -0.37444813956539807 0 -0.3103864423796594 -0.37828470113645102 0 -0.31662274924076123 -0.35606216629487569 0 -0.30796050174877349 -0.36016317053514468 0 -0.30902027636205309 -0.35243705172998302 0 -0.30796050174877349 -0.36016317053514468 0 -0.30902027636205309 -0.35243705172998302 0 -0.30278665144889838 -0.35518957417951802 0 -0.3170311031704231 -0.34491623006635341 0 -0.30902027636205309 -0.35243705172998302 0 -0.30849554643820359 -0.34481279163420842 0 -0.30902027636205309 -0.35243705172998302 0 -0.30849554643820359 -0.34481279163420842 0 -0.30076474035813339 -0.34759465108555682 0 -0.30849554643820359 -0.34481279163420842 0 -0.30076474035813339 -0.34759465108555682 0 -0.30398917998114899 -0.33934800480643368 0 -0.30902027636205309 -0.35243705172998302 0 -0.30076474035813339 -0.34759465108555682 0 -0.30278665144889838 -0.35518957417951802 0 -0.29943295026653399 -0.35953932364306618 0 -0.30796050174877349 -0.36016317053514468 0 -0.30278665144889838 -0.35518957417951802 0 -0.30076474035813339 -0.34759465108555682 0 -0.30278665144889838 -0.35518957417951802 0 -0.29719830368448108 -0.35301728683459582 0 -0.29943295026653399 -0.35953932364306618 0 -0.30278665144889838 -0.35518957417951802 0 -0.29719830368448108 -0.35301728683459582 0 -0.29943295026653399 -0.35953932364306618 0 -0.29719830368448108 -0.35301728683459582 0 -0.29016743694869812 -0.35649807524262711 0 -0.29016743694869812 -0.35649807524262711 0 -0.28284547851944208 -0.35047845284871731 0 -0.27168821399683141 -0.36006947561143121 0 -0.29719830368448108 -0.35301728683459582 0 -0.29016743694869812 -0.35649807524262711 0 -0.2925915294609488 -0.34919256188026188 0 -0.2925915294609488 -0.34919256188026188 0 -0.28611540962297188 -0.3426453659285974 0 -0.29619358151489988 -0.34015641309103278 0 -0.30076474035813339 -0.34759465108555682 0 -0.29719830368448108 -0.35301728683459582 0 -0.2925915294609488 -0.34919256188026188 0 -0.30076474035813339 -0.34759465108555682 0 -0.2925915294609488 -0.34919256188026188 0 -0.29619358151489988 -0.34015641309103278 0 -0.2925915294609488 -0.34919256188026188 0 -0.28284547851944208 -0.35047845284871731 0 -0.28611540962297188 -0.3426453659285974 0 -0.28284547851944208 -0.35047845284871731 0 -0.27676447355633299 -0.3457480812413124 0 -0.28611540962297188 -0.3426453659285974 0 -0.29016743694869812 -0.35649807524262711 0 -0.2925915294609488 -0.34919256188026188 0 -0.28284547851944208 -0.35047845284871731 0 -0.29202770366946113 -0.36668513997228358 0 -0.27168821399683141 -0.36006947561143121 0 -0.28307956849111848 -0.3828068929804474 0 -0.29719619905707523 -0.36594012765828582 0 -0.27168821399683141 -0.36006947561143121 0 -0.29202770366946113 -0.36668513997228358 0 -0.28307956849111848 -0.3828068929804474 0 -0.29202770366946113 -0.36668513997228358 0 -0.29584447723995128 -0.37444813956539807 0 -0.28307956849111848 -0.3828068929804474 0 -0.29719619905707523 -0.36594012765828582 0 -0.29016743694869812 -0.35649807524262711 0 -0.27168821399683141 -0.36006947561143121 0 -0.29719619905707523 -0.36594012765828582 0 -0.29202770366946113 -0.36668513997228358 0 -0.27168821399683141 -0.36006947561143121 0 -0.29719619905707523 -0.36594012765828582 0 -0.29943295026653399 -0.35953932364306618 0 -0.29016743694869812 -0.35649807524262711 0 -0.29719619905707523 -0.36594012765828582 0 -0.29202770366946113 -0.36668513997228358 0 -0.29584447723995128 -0.37444813956539807 0 -0.27168821399683141 -0.36006947561143121 0 -0.28307956849111848 -0.3828068929804474 0 -0.27168821399683141 -0.36006947561143121 0 -0.28307956849111848 -0.3828068929804474 0 -0.26050234447883253 -0.38027693877573482 0 -0.27168821399683141 -0.36006947561143121 0 -0.25721723303835431 -0.36623646057876708 0 -0.26050234447883253 -0.38027693877573482 0 -0.27168821399683141 -0.36006947561143121 0 -0.25721723303835431 -0.36623646057876708 0 -0.24850069890613241 -0.35473287875334369 0 -0.25721723303835431 -0.36623646057876708 0 -0.24817767477162081 -0.36986654917455902 0 -0.24850069890613241 -0.35473287875334369 0 -0.25721723303835431 -0.36623646057876708 0 -0.26050234447883253 -0.38027693877573482 0 -0.24817767477162081 -0.36986654917455902 0 -0.27168821399683141 -0.36006947561143121 0 -0.25445926970156468 -0.34270101061729968 0 -0.24850069890613241 -0.35473287875334369 0 -0.27168821399683141 -0.36006947561143121 0 -0.26120815563270988 -0.3391510272218049 0 -0.25445926970156468 -0.34270101061729968 0 -0.27168821399683141 -0.36006947561143121 0 -0.24850069890613241 -0.35473287875334369 0 -0.27168821399683141 -0.36006947561143121 0 -0.27676447355633299 -0.3457480812413124 0 -0.26120815563270988 -0.3391510272218049 0 -0.27168821399683141 -0.36006947561143121 0 -0.26120815563270988 -0.3391510272218049 0 -0.28284547851944208 -0.35047845284871731 0 -0.27168821399683141 -0.36006947561143121 0 -0.27676447355633299 -0.3457480812413124 0 -0.27676447355633299 -0.3457480812413124 0 -0.27858368134566353 -0.33798527866036399 0 -0.28611540962297188 -0.3426453659285974 0 -0.27676447355633299 -0.3457480812413124 0 -0.27858368134566353 -0.33798527866036399 0 -0.26120815563270988 -0.3391510272218049 0 -0.28089299200049878 -0.32879660088216478 0 -0.26120815563270988 -0.3391510272218049 0 -0.28089299200049878 -0.32879660088216478 0 -0.26120815563270988 -0.3391510272218049 0 -0.26730676106940449 -0.32685643845792262 0 -0.27858368134566353 -0.33798527866036399 0 -0.28089299200049878 -0.32879660088216478 0 -0.26120815563270988 -0.3391510272218049 0 -0.26120815563270988 -0.3391510272218049 0 -0.26057751607960811 -0.32279583566460812 0 -0.26730676106940449 -0.32685643845792262 0 -0.26120815563270988 -0.3391510272218049 0 -0.25273748935779161 -0.32224337373924072 0 -0.26120815563270988 -0.3391510272218049 0 -0.25207330520806498 -0.33378255792528982 0 -0.25273748935779161 -0.32224337373924072 0 -0.26120815563270988 -0.3391510272218049 0 -0.25445926970156468 -0.34270101061729968 0 -0.25207330520806498 -0.33378255792528982 0 -0.25445926970156468 -0.34270101061729968 0 -0.2460450098649074 -0.33743905859998191 0 -0.26120815563270988 -0.3391510272218049 0 -0.25207330520806498 -0.33378255792528982 0 -0.25445926970156468 -0.34270101061729968 0 -0.25273748935779161 -0.32224337373924072 0 -0.26050456352867191 -0.3149367065078193 0 -0.24426682308287331 -0.30533572025667649 0 -0.26120815563270988 -0.3391510272218049 0 -0.25273748935779161 -0.32224337373924072 0 -0.26057751607960811 -0.32279583566460812 0 -0.26057751607960811 -0.32279583566460812 0 -0.26050456352867191 -0.3149367065078193 0 -0.26730676106940449 -0.32685643845792262 0 -0.25273748935779161 -0.32224337373924072 0 -0.26057751607960811 -0.32279583566460812 0 -0.26050456352867191 -0.3149367065078193 0 -0.28089299200049878 -0.32879660088216478 0 -0.26050456352867191 -0.3149367065078193 0 -0.27445713665833338 -0.31633796571173628 0 -0.28089299200049878 -0.32879660088216478 0 -0.26050456352867191 -0.3149367065078193 0 -0.26050456352867191 -0.3149367065078193 0 -0.27445713665833338 -0.31633796571173628 0 -0.26793999894844561 -0.31004618489902153 0 -0.28089299200049878 -0.32879660088216478 0 -0.26050456352867191 -0.3149367065078193 0 -0.26730676106940449 -0.32685643845792262 0 -0.28089299200049878 -0.32879660088216478 0 -0.27445713665833338 -0.31633796571173628 0 -0.28125105682705043 -0.31976055402590231 0 -0.27445713665833338 -0.31633796571173628 0 -0.28252008875028978 -0.31254235777143202 0 -0.28125105682705043 -0.31976055402590231 0 -0.28252008875028978 -0.31254235777143202 0 -0.28823329624350208 -0.31711313423980658 0 -0.29327146190654751 -0.30876504511160502 0 -0.28089299200049878 -0.32879660088216478 0 -0.28823329624350208 -0.31711313423980658 0 -0.30327184377803978 -0.31702509473566581 0 -0.28089299200049878 -0.32879660088216478 0 -0.29457520052377689 -0.33013191680287202 0 -0.30327184377803978 -0.31702509473566581 0 -0.28089299200049878 -0.32879660088216478 0 -0.30327184377803978 -0.31702509473566581 0 -0.28252008875028978 -0.31254235777143202 0 -0.28125105682705043 -0.31976055402590231 0 -0.28823329624350208 -0.31711313423980658 0 -0.28823329624350208 -0.31711313423980658 0 -0.30327184377803978 -0.31702509473566581 0 -0.29327146190654751 -0.30876504511160502 0 -0.28089299200049878 -0.32879660088216478 0 -0.28125105682705043 -0.31976055402590231 0 -0.28823329624350208 -0.31711313423980658 0 -0.28089299200049878 -0.32879660088216478 0 -0.28793737591580382 -0.33358531802794061 0 -0.27858368134566353 -0.33798527866036399 0 -0.28089299200049878 -0.32879660088216478 0 -0.28793737591580382 -0.33358531802794061 0 -0.28089299200049878 -0.32879660088216478 0 -0.28793737591580382 -0.33358531802794061 0 -0.29457520052377689 -0.33013191680287202 0 -0.27858368134566353 -0.33798527866036399 0 -0.28793737591580382 -0.33358531802794061 0 -0.28611540962297188 -0.3426453659285974 0 -0.28793737591580382 -0.33358531802794061 0 -0.28611540962297188 -0.3426453659285974 0 -0.29619358151489988 -0.34015641309103278 0 -0.28793737591580382 -0.33358531802794061 0 -0.29619358151489988 -0.34015641309103278 0 -0.29457520052377689 -0.33013191680287202 0 -0.29619358151489988 -0.34015641309103278 0 -0.29457520052377689 -0.33013191680287202 0 -0.30458020940964259 -0.3310961572775562 0 -0.30076474035813339 -0.34759465108555682 0 -0.29619358151489988 -0.34015641309103278 0 -0.30398917998114899 -0.33934800480643368 0 -0.29619358151489988 -0.34015641309103278 0 -0.30458020940964259 -0.3310961572775562 0 -0.30398917998114899 -0.33934800480643368 0 -0.31372637242327511 -0.33497634201883658 0 -0.30849554643820359 -0.34481279163420842 0 -0.30398917998114899 -0.33934800480643368 0 -0.31475841231360341 -0.32260943229412947 0 -0.31372637242327511 -0.33497634201883658 0 -0.30458020940964259 -0.3310961572775562 0 -0.31372637242327511 -0.33497634201883658 0 -0.30458020940964259 -0.3310961572775562 0 -0.30398917998114899 -0.33934800480643368 0 -0.31475841231360341 -0.32260943229412947 0 -0.30458020940964259 -0.3310961572775562 0 -0.30327184377803978 -0.31702509473566581 0 -0.29457520052377689 -0.33013191680287202 0 -0.30458020940964259 -0.3310961572775562 0 -0.30327184377803978 -0.31702509473566581 0 -0.30327184377803978 -0.31702509473566581 0 -0.30068554560480582 -0.30112982209441241 0 -0.31228269981280887 -0.29918463989613459 0 -0.30327184377803978 -0.31702509473566581 0 -0.30068554560480582 -0.30112982209441241 0 -0.29327146190654751 -0.30876504511160502 0 -0.30068554560480582 -0.30112982209441241 0 -0.30483638085835207 -0.28788342401786787 0 -0.28888361246081401 -0.29493054457851903 0 -0.30068554560480582 -0.30112982209441241 0 -0.31228269981280887 -0.29918463989613459 0 -0.30483638085835207 -0.28788342401786787 0 -0.28888361246081401 -0.29493054457851903 0 -0.28078806465599399 -0.28300047521785149 0 -0.29451735460655398 -0.27472288856989607 0 -0.30483638085835207 -0.28788342401786787 0 -0.28888361246081401 -0.29493054457851903 0 -0.29451735460655398 -0.27472288856989607 0 -0.28888361246081401 -0.29493054457851903 0 -0.28295382644196537 -0.3038897035906043 0 -0.27388309143310768 -0.29511411685975181 0 -0.28888361246081401 -0.29493054457851903 0 -0.28295382644196537 -0.3038897035906043 0 -0.29327146190654751 -0.30876504511160502 0 -0.30068554560480582 -0.30112982209441241 0 -0.28888361246081401 -0.29493054457851903 0 -0.29327146190654751 -0.30876504511160502 0 -0.28252008875028978 -0.31254235777143202 0 -0.28295382644196537 -0.3038897035906043 0 -0.29327146190654751 -0.30876504511160502 0 -0.27445713665833338 -0.31633796571173628 0 -0.28252008875028978 -0.31254235777143202 0 -0.27524002690986649 -0.30828041126704497 0 -0.28252008875028978 -0.31254235777143202 0 -0.28295382644196537 -0.3038897035906043 0 -0.27524002690986649 -0.30828041126704497 0 -0.28295382644196537 -0.3038897035906043 0 -0.27524002690986649 -0.30828041126704497 0 -0.27388309143310768 -0.29511411685975181 0 -0.26808679199009749 -0.30362992927208171 0 -0.26252268864995981 -0.29761987486456531 0 -0.27388309143310768 -0.29511411685975181 0 -0.27524002690986649 -0.30828041126704497 0 -0.26808679199009749 -0.30362992927208171 0 -0.27388309143310768 -0.29511411685975181 0 -0.27445713665833338 -0.31633796571173628 0 -0.27524002690986649 -0.30828041126704497 0 -0.26793999894844561 -0.31004618489902153 0 -0.27524002690986649 -0.30828041126704497 0 -0.26808679199009749 -0.30362992927208171 0 -0.26793999894844561 -0.31004618489902153 0 -0.26808679199009749 -0.30362992927208171 0 -0.26793999894844561 -0.31004618489902153 0 -0.26278193746552841 -0.30551063084933561 0 -0.26050456352867191 -0.3149367065078193 0 -0.25485564421046719 -0.30132045870319019 0 -0.24011613505684479 -0.30107681213347393 0 -0.26050456352867191 -0.3149367065078193 0 -0.24011613505684479 -0.30107681213347393 0 -0.26050456352867191 -0.3149367065078193 0 -0.26278193746552841 -0.30551063084933561 0 -0.25485564421046719 -0.30132045870319019 0 -0.26050456352867191 -0.3149367065078193 0 -0.26793999894844561 -0.31004618489902153 0 -0.26278193746552841 -0.30551063084933561 0 -0.26278193746552841 -0.30551063084933561 0 -0.26252268864995981 -0.29761987486456531 0 -0.25485564421046719 -0.30132045870319019 0 -0.26252268864995981 -0.29761987486456531 0 -0.25485564421046719 -0.30132045870319019 0 -0.2567143935458242 -0.29223768812186002 0 -0.26808679199009749 -0.30362992927208171 0 -0.26278193746552841 -0.30551063084933561 0 -0.26252268864995981 -0.29761987486456531 0 -0.25608276685525683 -0.28295324223861612 0 -0.2567143935458242 -0.29223768812186002 0 -0.24732420154209239 -0.29033586459568173 0 -0.25485564421046719 -0.30132045870319019 0 -0.2567143935458242 -0.29223768812186002 0 -0.24732420154209239 -0.29033586459568173 0 -0.26252268864995981 -0.29761987486456531 0 -0.2567143935458242 -0.29223768812186002 0 -0.26350989061834318 -0.28909490770035701 0 -0.25608276685525683 -0.28295324223861612 0 -0.26350989061834318 -0.28909490770035701 0 -0.26907982973782107 -0.2804670883869903 0 -0.25608276685525683 -0.28295324223861612 0 -0.2567143935458242 -0.29223768812186002 0 -0.26350989061834318 -0.28909490770035701 0 -0.26350989061834318 -0.28909490770035701 0 -0.27388309143310768 -0.29511411685975181 0 -0.26907982973782107 -0.2804670883869903 0 -0.26252268864995981 -0.29761987486456531 0 -0.26350989061834318 -0.28909490770035701 0 -0.27388309143310768 -0.29511411685975181 0 -0.28888361246081401 -0.29493054457851903 0 -0.27388309143310768 -0.29511411685975181 0 -0.28078806465599399 -0.28300047521785149 0 -0.27388309143310768 -0.29511411685975181 0 -0.28078806465599399 -0.28300047521785149 0 -0.26907982973782107 -0.2804670883869903 0 -0.27772768471542669 -0.26767482265106679 0 -0.26907982973782107 -0.2804670883869903 0 -0.25958550566062261 -0.27102626557679149 0 -0.28078806465599399 -0.28300047521785149 0 -0.27772768471542669 -0.26767482265106679 0 -0.26907982973782107 -0.2804670883869903 0 -0.25608276685525683 -0.28295324223861612 0 -0.26907982973782107 -0.2804670883869903 0 -0.25958550566062261 -0.27102626557679149 0 -0.25608276685525683 -0.28295324223861612 0 -0.25958550566062261 -0.27102626557679149 0 -0.2444485511135471 -0.27534046621033159 0 -0.26398002587916253 -0.25656090854441049 0 -0.24465976002352091 -0.25387891845332877 0 -0.25992972331208369 -0.2410680052130979 0 -0.25958550566062261 -0.27102626557679149 0 -0.26398002587916253 -0.25656090854441049 0 -0.24465976002352091 -0.25387891845332877 0 -0.27772768471542669 -0.26767482265106679 0 -0.26398002587916253 -0.25656090854441049 0 -0.27722523139620658 -0.24922189107985179 0 -0.27772768471542669 -0.26767482265106679 0 -0.25958550566062261 -0.27102626557679149 0 -0.26398002587916253 -0.25656090854441049 0 -0.27772768471542669 -0.26767482265106679 0 -0.29131753467172561 -0.25675805269722002 0 -0.27722523139620658 -0.24922189107985179 0 -0.28078806465599399 -0.28300047521785149 0 -0.27772768471542669 -0.26767482265106679 0 -0.29451735460655398 -0.27472288856989607 0 -0.27772768471542669 -0.26767482265106679 0 -0.29131753467172561 -0.25675805269722002 0 -0.29451735460655398 -0.27472288856989607 0 -0.31319680135340772 -0.27337899374224139 0 -0.29451735460655398 -0.27472288856989607 0 -0.30564385326437488 -0.26015983685037081 0 -0.31319680135340772 -0.27337899374224139 0 -0.30483638085835207 -0.28788342401786787 0 -0.29451735460655398 -0.27472288856989607 0 -0.29131753467172561 -0.25675805269722002 0 -0.29451735460655398 -0.27472288856989607 0 -0.30564385326437488 -0.26015983685037081 0 -0.29131753467172561 -0.25675805269722002 0 -0.30564385326437488 -0.26015983685037081 0 -0.30769212114973271 -0.24578220261295139 0 -0.31968345090478489 -0.25798973640781447 0 -0.30564385326437488 -0.26015983685037081 0 -0.30769212114973271 -0.24578220261295139 0 -0.34207866423036198 -0.45986413066326443 0 -0.33141508850449702 -0.45187214799378478 0 -0.32594289259428999 -0.46085836632795257 0 -0.34207866423036198 -0.45986413066326443 0 -0.32594289259428999 -0.46085836632795257 0 -0.33264581849560632 -0.47431014716802089 0 -0.34207866423036198 -0.45986413066326443 0 -0.34225571697252682 -0.42997304157067162 0 -0.34207866423036198 -0.45986413066326443 0 -0.33358626016413989 -0.44229992863572659 0 -0.33141508850449702 -0.45187214799378478 0 -0.34207866423036198 -0.45986413066326443 0 -0.33358626016413989 -0.44229992863572659 0 -0.34225571697252682 -0.42997304157067162 0 -0.33358626016413989 -0.44229992863572659 0 -0.33141508850449702 -0.45187214799378478 0 -0.32300139100864811 -0.44723989508536771 0 -0.33358626016413989 -0.44229992863572659 0 -0.32300139100864811 -0.44723989508536771 0 -0.32413493920603592 -0.43586432580396972 0 -0.32300139100864811 -0.44723989508536771 0 -0.31385630152515048 -0.44199725430357722 0 -0.32413493920603592 -0.43586432580396972 0 -0.32300139100864811 -0.44723989508536771 0 -0.31385630152515048 -0.44199725430357722 0 -0.31044958537109257 -0.45255960714027171 0 -0.32594289259428999 -0.46085836632795257 0 -0.31333683559556219 -0.46686726284272168 0 -0.31044958537109257 -0.45255960714027171 0 -0.32594289259428999 -0.46085836632795257 0 -0.31333683559556219 -0.46686726284272168 0 -0.32224857144892449 -0.47649828689453749 0 -0.32300139100864811 -0.44723989508536771 0 -0.32594289259428999 -0.46085836632795257 0 -0.31044958537109257 -0.45255960714027171 0 -0.33141508850449702 -0.45187214799378478 0 -0.32300139100864811 -0.44723989508536771 0 -0.32594289259428999 -0.46085836632795257 0 -0.31333683559556219 -0.46686726284272168 0 -0.32224857144892449 -0.47649828689453749 0 -0.30503152439861497 -0.48190266549989857 0 -0.32224857144892449 -0.47649828689453749 0 -0.32279626626388608 -0.48781718170045291 0 -0.30503152439861497 -0.48190266549989857 0 -0.32594289259428999 -0.46085836632795257 0 -0.32224857144892449 -0.47649828689453749 0 -0.33264581849560632 -0.47431014716802089 0 -0.32224857144892449 -0.47649828689453749 0 -0.32279626626388608 -0.48781718170045291 0 -0.33105735271625752 -0.4845747321984929 0 -0.32006214434654462 -0.5 0 -0.32279626626388608 -0.48781718170045291 0 -0.30503152439861497 -0.48190266549989857 0 -0.32006214434654462 -0.5 0 -0.32279626626388608 -0.48781718170045291 0 -0.33558173840908911 -0.49611022390933512 0 -0.32006214434654462 -0.5 0 -0.33558173840908911 -0.49611022390933512 0 -0.34657288766042038 -0.5 0 -0.33558173840908911 -0.49611022390933512 0 -0.34190161148819742 -0.48975521975585701 0 -0.35306908662498632 -0.4951847935385878 0 -0.32279626626388608 -0.48781718170045291 0 -0.33558173840908911 -0.49611022390933512 0 -0.33105735271625752 -0.4845747321984929 0 -0.33558173840908911 -0.49611022390933512 0 -0.33105735271625752 -0.4845747321984929 0 -0.34190161148819742 -0.48975521975585701 0 -0.34207866423036198 -0.45986413066326443 0 -0.34190161148819742 -0.48975521975585701 0 -0.34207866423036198 -0.45986413066326443 0 -0.34190161148819742 -0.48975521975585701 0 -0.33264581849560632 -0.47431014716802089 0 -0.33105735271625752 -0.4845747321984929 0 -0.34190161148819742 -0.48975521975585701 0 -0.33264581849560632 -0.47431014716802089 0 -0.32224857144892449 -0.47649828689453749 0 -0.33105735271625752 -0.4845747321984929 0 -0.33264581849560632 -0.47431014716802089 0 -0.34190161148819742 -0.48975521975585701 0 -0.35001641252228072 -0.47142734906239081 0 -0.35328963507943428 -0.48328499015431992 0 -0.34207866423036198 -0.45986413066326443 0 -0.34190161148819742 -0.48975521975585701 0 -0.35001641252228072 -0.47142734906239081 0 -0.35328963507943428 -0.48328499015431992 0 -0.35950950469085041 -0.48638993404071668 0 -0.36112286221809747 -0.47283058930211808 0 -0.35001641252228072 -0.47142734906239081 0 -0.35328963507943428 -0.48328499015431992 0 -0.36112286221809747 -0.47283058930211808 0 -0.33558173840908911 -0.49611022390933512 0 -0.35306908662498632 -0.4951847935385878 0 -0.33558173840908911 -0.49611022390933512 0 -0.34657288766042038 -0.5 0 -0.35306908662498632 -0.4951847935385878 0 -0.34657288766042038 -0.5 0 -0.35306908662498632 -0.4951847935385878 0 -0.37308363097429631 -0.50000000000000244 0 -0.34190161148819742 -0.48975521975585701 0 -0.35328963507943428 -0.48328499015431992 0 -0.35306908662498632 -0.4951847935385878 0 -0.35328963507943428 -0.48328499015431992 0 -0.35306908662498632 -0.4951847935385878 0 -0.35950950469085041 -0.48638993404071668 0 -0.35306908662498632 -0.4951847935385878 0 -0.35950950469085041 -0.48638993404071668 0 -0.37055643484088358 -0.49425936316784103 0 -0.35306908662498632 -0.4951847935385878 0 -0.37055643484088358 -0.49425936316784103 0 -0.35950950469085041 -0.48638993404071668 0 -0.37055643484088358 -0.49425936316784103 0 -0.36112286221809747 -0.47283058930211808 0 -0.35306908662498632 -0.4951847935385878 0 -0.37055643484088358 -0.49425936316784103 0 -0.37308363097429631 -0.50000000000000244 0 -0.37055643484088358 -0.49425936316784103 0 -0.37308363097429631 -0.50000000000000244 0 -0.38039451612360919 -0.47713749807852829 0 -0.37055643484088358 -0.49425936316784103 0 -0.36112286221809747 -0.47283058930211808 0 -0.37055643484088358 -0.49425936316784103 0 -0.36112286221809747 -0.47283058930211808 0 -0.38039451612360919 -0.47713749807852829 0 -0.36112286221809747 -0.47283058930211808 0 -0.37415472949075129 -0.45946062715310632 0 -0.37415472949075129 -0.45946062715310632 0 -0.3629811744391212 -0.45722253899736259 0 -0.36406731613876331 -0.44506275929787698 0 -0.36112286221809747 -0.47283058930211808 0 -0.37415472949075129 -0.45946062715310632 0 -0.3629811744391212 -0.45722253899736259 0 -0.36112286221809747 -0.47283058930211808 0 -0.3629811744391212 -0.45722253899736259 0 -0.35168928959531232 -0.4514018154363949 0 -0.36112286221809747 -0.47283058930211808 0 -0.35168928959531232 -0.4514018154363949 0 -0.35001641252228072 -0.47142734906239081 0 -0.36112286221809747 -0.47283058930211808 0 -0.35168928959531232 -0.4514018154363949 0 -0.34207866423036198 -0.45986413066326443 0 -0.35001641252228072 -0.47142734906239081 0 -0.35168928959531232 -0.4514018154363949 0 -0.35168928959531232 -0.4514018154363949 0 -0.34225571697252682 -0.42997304157067162 0 -0.35168928959531232 -0.4514018154363949 0 -0.36406731613876331 -0.44506275929787698 0 -0.34225571697252682 -0.42997304157067162 0 -0.34207866423036198 -0.45986413066326443 0 -0.35168928959531232 -0.4514018154363949 0 -0.34225571697252682 -0.42997304157067162 0 -0.38339996822118783 -0.44368928783448319 0 -0.36406731613876331 -0.44506275929787698 0 -0.36866352395763108 -0.4313760290561211 0 -0.38339996822118783 -0.44368928783448319 0 -0.37415472949075129 -0.45946062715310632 0 -0.36406731613876331 -0.44506275929787698 0 -0.3629811744391212 -0.45722253899736259 0 -0.35168928959531232 -0.4514018154363949 0 -0.36406731613876331 -0.44506275929787698 0 -0.38131756488089769 -0.42670085612339947 0 -0.36866352395763108 -0.4313760290561211 0 -0.36377437909963828 -0.41972983174959272 0 -0.38704143117499401 -0.40999023144455299 0 -0.3575105341832589 -0.40691374405003478 0 -0.38704143117499401 -0.40999023144455299 0 -0.36377437909963828 -0.41972983174959272 0 -0.3575105341832589 -0.40691374405003478 0 -0.35062038894632092 -0.41624612172537079 0 -0.34239786166265201 -0.40597533588911489 0 -0.34225571697252682 -0.42997304157067162 0 -0.36377437909963828 -0.41972983174959272 0 -0.3575105341832589 -0.40691374405003478 0 -0.35062038894632092 -0.41624612172537079 0 -0.3575105341832589 -0.40691374405003478 0 -0.35062038894632092 -0.41624612172537079 0 -0.34239786166265201 -0.40597533588911489 0 -0.36406731613876331 -0.44506275929787698 0 -0.36866352395763108 -0.4313760290561211 0 -0.34225571697252682 -0.42997304157067162 0 -0.36866352395763108 -0.4313760290561211 0 -0.36377437909963828 -0.41972983174959272 0 -0.34225571697252682 -0.42997304157067162 0 -0.36377437909963828 -0.41972983174959272 0 -0.35062038894632092 -0.41624612172537079 0 -0.34225571697252682 -0.42997304157067162 0 -0.37522403377147279 -0.38060127254172499 0 -0.37464038230528551 -0.396492613407532 0 -0.35879027536972019 -0.3891835699585654 0 -0.37522403377147279 -0.38060127254172499 0 -0.35964608014779109 -0.37334112637938882 0 -0.35879027536972019 -0.3891835699585654 0 -0.38704143117499401 -0.40999023144455299 0 -0.3575105341832589 -0.40691374405003478 0 -0.37464038230528551 -0.396492613407532 0 -0.3575105341832589 -0.40691374405003478 0 -0.37464038230528551 -0.396492613407532 0 -0.35879027536972019 -0.3891835699585654 0 -0.3575105341832589 -0.40691374405003478 0 -0.35030966939210212 -0.39601257002631829 0 -0.35879027536972019 -0.3891835699585654 0 -0.35030966939210212 -0.39601257002631829 0 -0.34254000635277743 -0.38197763020755832 0 -0.34239786166265201 -0.40597533588911489 0 -0.3575105341832589 -0.40691374405003478 0 -0.35030966939210212 -0.39601257002631829 0 -0.34239786166265201 -0.40597533588911489 0 -0.35964608014779109 -0.37334112637938882 0 -0.35879027536972019 -0.3891835699585654 0 -0.34254000635277743 -0.38197763020755832 0 -0.35030966939210212 -0.39601257002631829 0 -0.35879027536972019 -0.3891835699585654 0 -0.34254000635277743 -0.38197763020755832 0 -0.32270418411731933 -0.37181077970513959 0 -0.34254000635277743 -0.38197763020755832 0 -0.32435131947256218 -0.38428518727128619 0 -0.34254000635277743 -0.38197763020755832 0 -0.33211028503505757 -0.39455092735479258 0 -0.32435131947256218 -0.38428518727128619 0 -0.34254000635277743 -0.38197763020755832 0 -0.33211028503505757 -0.39455092735479258 0 -0.34239786166265201 -0.40597533588911489 0 -0.34254000635277743 -0.38197763020755832 0 -0.34239786166265201 -0.40597533588911489 0 -0.33211028503505757 -0.39455092735479258 0 -0.32627218782356721 -0.40254155632103228 0 -0.33325599186729038 -0.40952977136485508 0 -0.33211028503505757 -0.39455092735479258 0 -0.34239786166265201 -0.40597533588911489 0 -0.33325599186729038 -0.40952977136485508 0 -0.32627218782356721 -0.40254155632103228 0 -0.31778611784491262 -0.39429551077659458 0 -0.31836523457261151 -0.40628576827473822 0 -0.31778611784491262 -0.39429551077659458 0 -0.31836523457261151 -0.40628576827473822 0 -0.30856762168503782 -0.40330407176644772 0 -0.33211028503505757 -0.39455092735479258 0 -0.32627218782356721 -0.40254155632103228 0 -0.31778611784491262 -0.39429551077659458 0 -0.33211028503505757 -0.39455092735479258 0 -0.31778611784491262 -0.39429551077659458 0 -0.32435131947256218 -0.38428518727128619 0 -0.31778611784491262 -0.39429551077659458 0 -0.32435131947256218 -0.38428518727128619 0 -0.3103864423796594 -0.37828470113645102 0 -0.32270418411731933 -0.37181077970513959 0 -0.32435131947256218 -0.38428518727128619 0 -0.3103864423796594 -0.37828470113645102 0 -0.34225571697252682 -0.42997304157067162 0 -0.32127707919304882 -0.42450406978857058 0 -0.32413493920603592 -0.43586432580396972 0 -0.33358626016413989 -0.44229992863572659 0 -0.34225571697252682 -0.42997304157067162 0 -0.32413493920603592 -0.43586432580396972 0 -0.34225571697252682 -0.42997304157067162 0 -0.32547848823970138 -0.41505510354763547 0 -0.32127707919304882 -0.42450406978857058 0 -0.34225571697252682 -0.42997304157067162 0 -0.33325599186729038 -0.40952977136485508 0 -0.34239786166265201 -0.40597533588911489 0 -0.34225571697252682 -0.42997304157067162 0 -0.34225571697252682 -0.42997304157067162 0 -0.33325599186729038 -0.40952977136485508 0 -0.32547848823970138 -0.41505510354763547 0 -0.34239786166265201 -0.40597533588911489 0 -0.34225571697252682 -0.42997304157067162 0 -0.33325599186729038 -0.40952977136485508 0 -0.32627218782356721 -0.40254155632103228 0 -0.33325599186729038 -0.40952977136485508 0 -0.32547848823970138 -0.41505510354763547 0 -0.32547848823970138 -0.41505510354763547 0 -0.3149711123139971 -0.41411215899080989 0 -0.32127707919304882 -0.42450406978857058 0 -0.32627218782356721 -0.40254155632103228 0 -0.32547848823970138 -0.41505510354763547 0 -0.31836523457261151 -0.40628576827473822 0 -0.32547848823970138 -0.41505510354763547 0 -0.31836523457261151 -0.40628576827473822 0 -0.3149711123139971 -0.41411215899080989 0 -0.31836523457261151 -0.40628576827473822 0 -0.3149711123139971 -0.41411215899080989 0 -0.30856762168503782 -0.40330407176644772 0 -0.3149711123139971 -0.41411215899080989 0 -0.32127707919304882 -0.42450406978857058 0 -0.31068047406536009 -0.42124040027518911 0 -0.32127707919304882 -0.42450406978857058 0 -0.31073004788055869 -0.43167813375356229 0 -0.31068047406536009 -0.42124040027518911 0 -0.32127707919304882 -0.42450406978857058 0 -0.32413493920603592 -0.43586432580396972 0 -0.31073004788055869 -0.43167813375356229 0 -0.31385630152515048 -0.44199725430357722 0 -0.32413493920603592 -0.43586432580396972 0 -0.31073004788055869 -0.43167813375356229 0 -0.31073004788055869 -0.43167813375356229 0 -0.29829421210859891 -0.43220714453990322 0 -0.30286215921622678 -0.44210958888768459 0 -0.31073004788055869 -0.43167813375356229 0 -0.29829421210859891 -0.43220714453990322 0 -0.30293836312512551 -0.42244552438862548 0 -0.29829421210859891 -0.43220714453990322 0 -0.30293836312512551 -0.42244552438862548 0 -0.29038846928103268 -0.42353273433611682 0 -0.31073004788055869 -0.43167813375356229 0 -0.30293836312512551 -0.42244552438862548 0 -0.31068047406536009 -0.42124040027518911 0 -0.3149711123139971 -0.41411215899080989 0 -0.31068047406536009 -0.42124040027518911 0 -0.30545777612822328 -0.41428354029227837 0 -0.30293836312512551 -0.42244552438862548 0 -0.31068047406536009 -0.42124040027518911 0 -0.30545777612822328 -0.41428354029227837 0 -0.3149711123139971 -0.41411215899080989 0 -0.30545777612822328 -0.41428354029227837 0 -0.30856762168503782 -0.40330407176644772 0 -0.30545777612822328 -0.41428354029227837 0 -0.30856762168503782 -0.40330407176644772 0 -0.30079847364115991 -0.40578130343003371 0 -0.30545777612822328 -0.41428354029227837 0 -0.2987732092282892 -0.41413177709842958 0 -0.30079847364115991 -0.40578130343003371 0 -0.30293836312512551 -0.42244552438862548 0 -0.2987732092282892 -0.41413177709842958 0 -0.29038846928103268 -0.42353273433611682 0 -0.30293836312512551 -0.42244552438862548 0 -0.2987732092282892 -0.41413177709842958 0 -0.30293836312512551 -0.42244552438862548 0 -0.30545777612822328 -0.41428354029227837 0 -0.2987732092282892 -0.41413177709842958 0 -0.30545777612822328 -0.41428354029227837 0 -0.2987732092282892 -0.41413177709842958 0 -0.2987732092282892 -0.41413177709842958 0 -0.29092638885970451 -0.39846933503943821 0 -0.2987732092282892 -0.41413177709842958 0 -0.28243901841779939 -0.41376093348156762 0 -0.29092638885970451 -0.39846933503943821 0 -0.2987732092282892 -0.41413177709842958 0 -0.28243901841779939 -0.41376093348156762 0 -0.29038846928103268 -0.42353273433611682 0 -0.2987732092282892 -0.41413177709842958 0 -0.28243901841779939 -0.41376093348156762 0 -0.28243901841779939 -0.41376093348156762 0 -0.29038846928103268 -0.42353273433611682 0 -0.27500508569675858 -0.42792788340523652 0 -0.29038846928103268 -0.42353273433611682 0 -0.27500508569675858 -0.42792788340523652 0 -0.28620792983366777 -0.44117103379144762 0 -0.29829421210859891 -0.43220714453990322 0 -0.29038846928103268 -0.42353273433611682 0 -0.28620792983366777 -0.44117103379144762 0 -0.31778611784491262 -0.39429551077659458 0 -0.3103864423796594 -0.37828470113645102 0 -0.30424293331838692 -0.39073887816822978 0 -0.29584447723995128 -0.37444813956539807 0 -0.29713407365637251 -0.38186722723828942 0 -0.3103864423796594 -0.37828470113645102 0 -0.29713407365637251 -0.38186722723828942 0 -0.30424293331838692 -0.39073887816822978 0 -0.29406976999373469 -0.38920344929064732 0 -0.29713407365637251 -0.38186722723828942 0 -0.3103864423796594 -0.37828470113645102 0 -0.30424293331838692 -0.39073887816822978 0 -0.29998863005712628 -0.39809616774203599 0 -0.30424293331838692 -0.39073887816822978 0 -0.30856762168503782 -0.40330407176644772 0 -0.29998863005712628 -0.39809616774203599 0 -0.30424293331838692 -0.39073887816822978 0 -0.29406976999373469 -0.38920344929064732 0 -0.31778611784491262 -0.39429551077659458 0 -0.30424293331838692 -0.39073887816822978 0 -0.30856762168503782 -0.40330407176644772 0 -0.29998863005712628 -0.39809616774203599 0 -0.30079847364115991 -0.40578130343003371 0 -0.29092638885970451 -0.39846933503943821 0 -0.29998863005712628 -0.39809616774203599 0 -0.30856762168503782 -0.40330407176644772 0 -0.30079847364115991 -0.40578130343003371 0 -0.2987732092282892 -0.41413177709842958 0 -0.30079847364115991 -0.40578130343003371 0 -0.29092638885970451 -0.39846933503943821 0 -0.29092638885970451 -0.39846933503943821 0 -0.28307956849111848 -0.3828068929804474 0 -0.29092638885970451 -0.39846933503943821 0 -0.28307956849111848 -0.3828068929804474 0 -0.27459219804921331 -0.39809849142257658 0 -0.28243901841779939 -0.41376093348156762 0 -0.29092638885970451 -0.39846933503943821 0 -0.27459219804921331 -0.39809849142257658 0 -0.29998863005712628 -0.39809616774203599 0 -0.29092638885970451 -0.39846933503943821 0 -0.29406976999373469 -0.38920344929064732 0 -0.29092638885970451 -0.39846933503943821 0 -0.29406976999373469 -0.38920344929064732 0 -0.28307956849111848 -0.3828068929804474 0 -0.29713407365637251 -0.38186722723828942 0 -0.29406976999373469 -0.38920344929064732 0 -0.28307956849111848 -0.3828068929804474 0 -0.29584447723995128 -0.37444813956539807 0 -0.29713407365637251 -0.38186722723828942 0 -0.28307956849111848 -0.3828068929804474 0 -0.28307956849111848 -0.3828068929804474 0 -0.27459219804921331 -0.39809849142257658 0 -0.26050234447883253 -0.38027693877573482 0 -0.28307956849111848 -0.3828068929804474 0 -0.27459219804921331 -0.39809849142257658 0 -0.27459219804921331 -0.39809849142257658 0 -0.26610482760730952 -0.4133900898647066 0 -0.27459219804921331 -0.39809849142257658 0 -0.26088670843651829 -0.40068536336094251 0 -0.26610482760730952 -0.4133900898647066 0 -0.26088670843651829 -0.40068536336094251 0 -0.26050234447883253 -0.38027693877573482 0 -0.2487824818667288 -0.3954643368039899 0 -0.27459219804921331 -0.39809849142257658 0 -0.26088670843651829 -0.40068536336094251 0 -0.26050234447883253 -0.38027693877573482 0 -0.26088670843651829 -0.40068536336094251 0 -0.24694430377570939 -0.41295507854145541 0 -0.2487824818667288 -0.3954643368039899 0 -0.27500508569675858 -0.42792788340523652 0 -0.25298523514652932 -0.43702750984159111 0 -0.27028712802556781 -0.44002206955302048 0 -0.27500508569675858 -0.42792788340523652 0 -0.27028712802556781 -0.44002206955302048 0 -0.28620792983366777 -0.44117103379144762 0 -0.28243901841779939 -0.41376093348156762 0 -0.27500508569675858 -0.42792788340523652 0 -0.26610482760730952 -0.4133900898647066 0 -0.28243901841779939 -0.41376093348156762 0 -0.27459219804921331 -0.39809849142257658 0 -0.26610482760730952 -0.4133900898647066 0 -0.28243901841779939 -0.41376093348156762 0 -0.26610482760730952 -0.4133900898647066 0 -0.26610482760730952 -0.4133900898647066 0 -0.24694430377570939 -0.41295507854145541 0 -0.26610482760730952 -0.4133900898647066 0 -0.25298523514652932 -0.43702750984159111 0 -0.24694430377570939 -0.41295507854145541 0 -0.26088670843651829 -0.40068536336094251 0 -0.26610482760730952 -0.4133900898647066 0 -0.24694430377570939 -0.41295507854145541 0 -0.27500508569675858 -0.42792788340523652 0 -0.26610482760730952 -0.4133900898647066 0 -0.25298523514652932 -0.43702750984159111 0 -0.26610482760730952 -0.4133900898647066 0 -0.25298523514652932 -0.43702750984159111 0 -0.25298523514652932 -0.43702750984159111 0 -0.25823473398406083 -0.46259190486934387 0 -0.27139768853026319 -0.45350369328431828 0 -0.25298523514652932 -0.43702750984159111 0 -0.27139768853026319 -0.45350369328431828 0 -0.27028712802556781 -0.44002206955302048 0 -0.25298523514652932 -0.43702750984159111 0 -0.25823473398406083 -0.46259190486934387 0 -0.2398656426857485 -0.46066492981847512 0 -0.27139768853026319 -0.45350369328431828 0 -0.28665438526504589 -0.45880473289459528 0 -0.27499686831673542 -0.4693274569635677 0 -0.25823473398406083 -0.46259190486934387 0 -0.27139768853026319 -0.45350369328431828 0 -0.27499686831673542 -0.4693274569635677 0 -0.27139768853026319 -0.45350369328431828 0 -0.27028712802556781 -0.44002206955302048 0 -0.28620792983366777 -0.44117103379144762 0 -0.28620792983366777 -0.44117103379144762 0 -0.29665932401628559 -0.4519210782245337 0 -0.28665438526504589 -0.45880473289459528 0 -0.28620792983366777 -0.44117103379144762 0 -0.29665932401628559 -0.4519210782245337 0 -0.30286215921622678 -0.44210958888768459 0 -0.27139768853026319 -0.45350369328431828 0 -0.28620792983366777 -0.44117103379144762 0 -0.28665438526504589 -0.45880473289459528 0 -0.29829421210859891 -0.43220714453990322 0 -0.28620792983366777 -0.44117103379144762 0 -0.30286215921622678 -0.44210958888768459 0 -0.28665438526504589 -0.45880473289459528 0 -0.28928475434474438 -0.47221518125428918 0 -0.27499686831673542 -0.4693274569635677 0 -0.28665438526504589 -0.45880473289459528 0 -0.30029558254474148 -0.46389675841394568 0 -0.28928475434474438 -0.47221518125428918 0 -0.29665932401628559 -0.4519210782245337 0 -0.28665438526504589 -0.45880473289459528 0 -0.30029558254474148 -0.46389675841394568 0 -0.29665932401628559 -0.4519210782245337 0 -0.30029558254474148 -0.46389675841394568 0 -0.31044958537109257 -0.45255960714027171 0 -0.31333683559556219 -0.46686726284272168 0 -0.30029558254474148 -0.46389675841394568 0 -0.31044958537109257 -0.45255960714027171 0 -0.31385630152515048 -0.44199725430357722 0 -0.31044958537109257 -0.45255960714027171 0 -0.30286215921622678 -0.44210958888768459 0 -0.31385630152515048 -0.44199725430357722 0 -0.31073004788055869 -0.43167813375356229 0 -0.30286215921622678 -0.44210958888768459 0 -0.29665932401628559 -0.4519210782245337 0 -0.31044958537109257 -0.45255960714027171 0 -0.30286215921622678 -0.44210958888768459 0 -0.32006214434654462 -0.5 0 -0.30503152439861497 -0.48190266549989857 0 -0.29355140103266869 -0.5 0 -0.30029558254474148 -0.46389675841394568 0 -0.30503152439861497 -0.48190266549989857 0 -0.28928475434474438 -0.47221518125428918 0 -0.31333683559556219 -0.46686726284272168 0 -0.30029558254474148 -0.46389675841394568 0 -0.30503152439861497 -0.48190266549989857 0 -0.30503152439861497 -0.48190266549989857 0 -0.28928475434474438 -0.47221518125428918 0 -0.27944541119858413 -0.48714429249943858 0 -0.30503152439861497 -0.48190266549989857 0 -0.29355140103266869 -0.5 0 -0.27944541119858413 -0.48714429249943858 0 -0.26704065771879287 -0.5 0 -0.27944541119858413 -0.48714429249943858 0 -0.26377894750559139 -0.4817410620592058 0 -0.29355140103266869 -0.5 0 -0.26704065771879287 -0.5 0 -0.27944541119858413 -0.48714429249943858 0 -0.27944541119858413 -0.48714429249943858 0 -0.27499686831673542 -0.4693274569635677 0 -0.26377894750559139 -0.4817410620592058 0 -0.28928475434474438 -0.47221518125428918 0 -0.27944541119858413 -0.48714429249943858 0 -0.27499686831673542 -0.4693274569635677 0 -0.25823473398406083 -0.46259190486934387 0 -0.27499686831673542 -0.4693274569635677 0 -0.26377894750559139 -0.4817410620592058 0 -0.25823473398406083 -0.46259190486934387 0 -0.26377894750559139 -0.4817410620592058 0 -0.24769273461092009 -0.47775775457152359 0 -0.26704065771879287 -0.5 0 -0.26377894750559139 -0.4817410620592058 0 -0.24052991440491719 -0.5 0 -0.26377894750559139 -0.4817410620592058 0 -0.24052991440491719 -0.5 0 -0.24769273461092009 -0.47775775457152359 0 -0.24052991440491719 -0.5 0 -0.24769273461092009 -0.47775775457152359 0 -0.2238647917587385 -0.47868470982513422 0 -0.24769273461092009 -0.47775775457152359 0 -0.2238647917587385 -0.47868470982513422 0 -0.2253613830811457 -0.45761053917550981 0 -0.24052991440491719 -0.5 0 -0.2238647917587385 -0.47868470982513422 0 -0.2140191710910414 -0.49999999999999972 0 -0.25298523514652932 -0.43702750984159111 0 -0.23591515519085041 -0.44398209369878189 0 -0.2398656426857485 -0.46066492981847512 0 -0.25298523514652932 -0.43702750984159111 0 -0.2398656426857485 -0.46066492981847512 0 -0.25823473398406083 -0.46259190486934387 0 -0.24769273461092009 -0.47775775457152359 0 -0.2398656426857485 -0.46066492981847512 0 -0.24769273461092009 -0.47775775457152359 0 -0.2398656426857485 -0.46066492981847512 0 -0.2253613830811457 -0.45761053917550981 0 -0.24769273461092009 -0.47775775457152359 0 -0.2253613830811457 -0.45761053917550981 0 -0.2238647917587385 -0.47868470982513422 0 -0.2253613830811457 -0.45761053917550981 0 -0.20999779143719291 -0.46083672605530768 0 -0.23591515519085041 -0.44398209369878189 0 -0.2398656426857485 -0.46066492981847512 0 -0.2253613830811457 -0.45761053917550981 0 -0.23591515519085041 -0.44398209369878189 0 -0.2253613830811457 -0.45761053917550981 0 -0.22549954629610269 -0.43500765649169948 0 -0.2253613830811457 -0.45761053917550981 0 -0.20999779143719291 -0.46083672605530768 0 -0.2030300315513712 -0.43746332377949593 0 -0.2253613830811457 -0.45761053917550981 0 -0.2030300315513712 -0.43746332377949593 0 -0.20999779143719291 -0.46083672605530768 0 -0.19715634076338631 -0.4518064782969281 0 -0.2030300315513712 -0.43746332377949593 0 -0.2253613830811457 -0.45761053917550981 0 -0.2030300315513712 -0.43746332377949593 0 -0.22549954629610269 -0.43500765649169948 0 -0.20999779143719291 -0.46083672605530768 0 -0.19715634076338631 -0.4518064782969281 0 -0.2055877559272139 -0.47590323914846377 0 -0.19715634076338631 -0.4518064782969281 0 -0.2055877559272139 -0.47590323914846377 0 -0.19179305986328829 -0.46711759196808689 0 -0.19715634076338631 -0.4518064782969281 0 -0.2055877559272139 -0.47590323914846377 0 -0.19179305986328829 -0.46711759196808689 0 -0.19715634076338631 -0.4518064782969281 0 -0.184822707974968 -0.45592422963236362 0 -0.19715634076338631 -0.4518064782969281 0 -0.2030300315513712 -0.43746332377949593 0 -0.18872492559955881 -0.42770971744539221 0 -0.19715634076338631 -0.4518064782969281 0 -0.18872492559955881 -0.42770971744539221 0 -0.19715634076338631 -0.4518064782969281 0 -0.1870173619903012 -0.44414077979923022 0 -0.18872492559955881 -0.42770971744539221 0 -0.19715634076338631 -0.4518064782969281 0 -0.184822707974968 -0.45592422963236362 0 -0.1870173619903012 -0.44414077979923022 0 -0.2140191710910414 -0.49999999999999972 0 -0.2055877559272139 -0.47590323914846377 0 -0.2140191710910414 -0.49999999999999972 0 -0.2055877559272139 -0.47590323914846377 0 -0.1915741566131953 -0.48274482478870012 0 -0.2238647917587385 -0.47868470982513422 0 -0.2140191710910414 -0.49999999999999972 0 -0.2055877559272139 -0.47590323914846377 0 -0.2238647917587385 -0.47868470982513422 0 -0.20999779143719291 -0.46083672605530768 0 -0.2055877559272139 -0.47590323914846377 0 -0.19179305986328829 -0.46711759196808689 0 -0.2055877559272139 -0.47590323914846377 0 -0.1915741566131953 -0.48274482478870012 0 -0.19179305986328829 -0.46711759196808689 0 -0.1915741566131953 -0.48274482478870012 0 -0.17982433803767831 -0.46920918797397909 0 -0.2140191710910414 -0.49999999999999972 0 -0.1915741566131953 -0.48274482478870012 0 -0.1841956238768391 -0.5 0 -0.1915741566131953 -0.48274482478870012 0 -0.1841956238768391 -0.5 0 -0.17247084166804699 -0.48396500267038112 0 -0.1841956238768391 -0.5 0 -0.17247084166804699 -0.48396500267038112 0 -0.15437207666263669 -0.50000000000000022 0 -0.15669106487963419 -0.47716915445828201 0 -0.17247084166804699 -0.48396500267038112 0 -0.15437207666263669 -0.50000000000000022 0 -0.15669106487963419 -0.47716915445828201 0 -0.17247084166804699 -0.48396500267038112 0 -0.1680230602922401 -0.4683158249620154 0 -0.17247084166804699 -0.48396500267038112 0 -0.17982433803767831 -0.46920918797397909 0 -0.1680230602922401 -0.4683158249620154 0 -0.1915741566131953 -0.48274482478870012 0 -0.17247084166804699 -0.48396500267038112 0 -0.17982433803767831 -0.46920918797397909 0 -0.19179305986328829 -0.46711759196808689 0 -0.17982433803767831 -0.46920918797397909 0 -0.184822707974968 -0.45592422963236362 0 -0.17982433803767831 -0.46920918797397909 0 -0.184822707974968 -0.45592422963236362 0 -0.17211900377920919 -0.45689747079087062 0 -0.17982433803767831 -0.46920918797397909 0 -0.17211900377920919 -0.45689747079087062 0 -0.1680230602922401 -0.4683158249620154 0 -0.1870173619903012 -0.44414077979923022 0 -0.17843006300647921 -0.44542980211747812 0 -0.1823118302108766 -0.43680876328769058 0 -0.184822707974968 -0.45592422963236362 0 -0.1870173619903012 -0.44414077979923022 0 -0.17843006300647921 -0.44542980211747812 0 -0.17211900377920919 -0.45689747079087062 0 -0.17843006300647921 -0.44542980211747812 0 -0.16919262628862339 -0.44362555979768409 0 -0.184822707974968 -0.45592422963236362 0 -0.17211900377920919 -0.45689747079087062 0 -0.17843006300647921 -0.44542980211747812 0 -0.17843006300647921 -0.44542980211747812 0 -0.16919262628862339 -0.44362555979768409 0 -0.17507497024716731 -0.42995475378866199 0 -0.1590100530966318 -0.45433830891656402 0 -0.148881704538534 -0.44296791951084241 0 -0.1613290413136293 -0.43150746337484569 0 -0.1590100530966318 -0.45433830891656402 0 -0.1613290413136293 -0.43150746337484569 0 -0.16919262628862339 -0.44362555979768409 0 -0.1590100530966318 -0.45433830891656402 0 -0.1613290413136293 -0.43150746337484569 0 -0.17211900377920919 -0.45689747079087062 0 -0.16919262628862339 -0.44362555979768409 0 -0.1590100530966318 -0.45433830891656402 0 -0.15669106487963419 -0.47716915445828201 0 -0.1680230602922401 -0.4683158249620154 0 -0.1590100530966318 -0.45433830891656402 0 -0.15669106487963419 -0.47716915445828201 0 -0.1590100530966318 -0.45433830891656402 0 -0.17211900377920919 -0.45689747079087062 0 -0.1680230602922401 -0.4683158249620154 0 -0.1590100530966318 -0.45433830891656402 0 -0.15669106487963419 -0.47716915445828201 0 -0.1590100530966318 -0.45433830891656402 0 -0.1472923250818238 -0.46077477567243558 0 -0.1590100530966318 -0.45433830891656402 0 -0.1472923250818238 -0.46077477567243558 0 -0.148881704538534 -0.44296791951084241 0 -0.1472923250818238 -0.46077477567243558 0 -0.148881704538534 -0.44296791951084241 0 -0.13194602454298601 -0.43962244526902572 0 -0.13194602454298601 -0.43962244526902572 0 -0.13077987840644981 -0.46069854066347632 0 -0.11615585050415531 -0.45102464773050138 0 -0.1472923250818238 -0.46077477567243558 0 -0.13194602454298601 -0.43962244526902572 0 -0.1472923250818238 -0.46077477567243558 0 -0.13077987840644981 -0.46069854066347632 0 -0.13742439756140509 -0.48004162281001828 0 -0.1472923250818238 -0.46077477567243558 0 -0.13194602454298601 -0.43962244526902572 0 -0.13077987840644981 -0.46069854066347632 0 -0.13742439756140509 -0.48004162281001828 0 -0.12108079434187891 -0.47202921183540031 0 -0.1206292342060253 -0.48641385964910883 0 -0.13077987840644981 -0.46069854066347632 0 -0.13742439756140509 -0.48004162281001828 0 -0.12108079434187891 -0.47202921183540031 0 -0.13742439756140509 -0.48004162281001828 0 -0.131118449396015 -0.5 0 -0.1206292342060253 -0.48641385964910883 0 -0.15669106487963419 -0.47716915445828201 0 -0.13742439756140509 -0.48004162281001828 0 -0.15437207666263669 -0.50000000000000022 0 -0.15669106487963419 -0.47716915445828201 0 -0.15437207666263669 -0.50000000000000022 0 -0.13742439756140509 -0.48004162281001828 0 -0.131118449396015 -0.5 0 -0.15437207666263669 -0.50000000000000022 0 -0.15669106487963419 -0.47716915445828201 0 -0.1472923250818238 -0.46077477567243558 0 -0.13742439756140509 -0.48004162281001828 0 -0.13678826443221431 -0.39755243580027871 0 -0.14931675495270949 -0.41057852288770358 0 -0.15761740849691311 -0.38818340141201402 0 -0.1369224961495438 -0.38192389563367207 0 -0.13678826443221431 -0.39755243580027871 0 -0.15761740849691311 -0.38818340141201402 0 -0.1369224961495438 -0.38192389563367207 0 -0.15761740849691311 -0.38818340141201402 0 -0.148308101659717 -0.36695316985008092 0 -0.1369224961495438 -0.38192389563367207 0 -0.12526638733901391 -0.39147447277512609 0 -0.13678826443221431 -0.39755243580027871 0 -0.1369224961495438 -0.38192389563367207 0 -0.1303219987982592 -0.3665496015062627 0 -0.12201267174342199 -0.37938718301114999 0 -0.1369224961495438 -0.38192389563367207 0 -0.12526638733901391 -0.39147447277512609 0 -0.12201267174342199 -0.37938718301114999 0 -0.12526638733901391 -0.39147447277512609 0 -0.13678826443221431 -0.39755243580027871 0 -0.12592730430259419 -0.40432488328170318 0 -0.13678826443221431 -0.39755243580027871 0 -0.12592730430259419 -0.40432488328170318 0 -0.1345256340888337 -0.41538851269275129 0 -0.13678826443221431 -0.39755243580027871 0 -0.1345256340888337 -0.41538851269275129 0 -0.14931675495270949 -0.41057852288770358 0 -0.12592730430259419 -0.40432488328170318 0 -0.1345256340888337 -0.41538851269275129 0 -0.1165997240041481 -0.41847011486561592 0 -0.13194602454298601 -0.43962244526902572 0 -0.1345256340888337 -0.41538851269275129 0 -0.14483107865759889 -0.42859660432134139 0 -0.13194602454298601 -0.43962244526902572 0 -0.1345256340888337 -0.41538851269275129 0 -0.1165997240041481 -0.41847011486561592 0 -0.148881704538534 -0.44296791951084241 0 -0.14483107865759889 -0.42859660432134139 0 -0.1613290413136293 -0.43150746337484569 0 -0.148881704538534 -0.44296791951084241 0 -0.13194602454298601 -0.43962244526902572 0 -0.14483107865759889 -0.42859660432134139 0 -0.14483107865759889 -0.42859660432134139 0 -0.14931675495270949 -0.41057852288770358 0 -0.1613290413136293 -0.43150746337484569 0 -0.1345256340888337 -0.41538851269275129 0 -0.14483107865759889 -0.42859660432134139 0 -0.14931675495270949 -0.41057852288770358 0 -0.16364802953062679 -0.40867661783312748 0 -0.1613290413136293 -0.43150746337484569 0 -0.14931675495270949 -0.41057852288770358 0 -0.16364802953062679 -0.40867661783312748 0 -0.1613290413136293 -0.43150746337484569 0 -0.16364802953062679 -0.40867661783312748 0 -0.1613290413136293 -0.43150746337484569 0 -0.17507497024716731 -0.42995475378866199 0 -0.16919262628862339 -0.44362555979768409 0 -0.1613290413136293 -0.43150746337484569 0 -0.17507497024716731 -0.42995475378866199 0 -0.1870173619903012 -0.44414077979923022 0 -0.1823118302108766 -0.43680876328769058 0 -0.18872492559955881 -0.42770971744539221 0 -0.17843006300647921 -0.44542980211747812 0 -0.17507497024716731 -0.42995475378866199 0 -0.1823118302108766 -0.43680876328769058 0 -0.17507497024716731 -0.42995475378866199 0 -0.1806986800215967 -0.4173161083834821 0 -0.18872492559955881 -0.42770971744539221 0 -0.17507497024716731 -0.42995475378866199 0 -0.1823118302108766 -0.43680876328769058 0 -0.18872492559955881 -0.42770971744539221 0 -0.1806986800215967 -0.4173161083834821 0 -0.18228064084688081 -0.39610998094782668 0 -0.19209360216251761 -0.40824625574224149 0 -0.16364802953062679 -0.40867661783312748 0 -0.17507497024716731 -0.42995475378866199 0 -0.1806986800215967 -0.4173161083834821 0 -0.16364802953062679 -0.40867661783312748 0 -0.1806986800215967 -0.4173161083834821 0 -0.18228064084688081 -0.39610998094782668 0 -0.16364802953062679 -0.40867661783312748 0 -0.18228064084688081 -0.39610998094782668 0 -0.15761740849691311 -0.38818340141201402 0 -0.14931675495270949 -0.41057852288770358 0 -0.16364802953062679 -0.40867661783312748 0 -0.15761740849691311 -0.38818340141201402 0 -0.15761740849691311 -0.38818340141201402 0 -0.183603859264966 -0.3766054584014627 0 -0.1661931572416451 -0.36889933283976362 0 -0.18228064084688081 -0.39610998094782668 0 -0.15761740849691311 -0.38818340141201402 0 -0.183603859264966 -0.3766054584014627 0 -0.18228064084688081 -0.39610998094782668 0 -0.183603859264966 -0.3766054584014627 0 -0.20216487974800659 -0.3829991661375407 0 -0.18228064084688081 -0.39610998094782668 0 -0.20343785588976751 -0.39944649130885712 0 -0.19209360216251761 -0.40824625574224149 0 -0.18228064084688081 -0.39610998094782668 0 -0.20216487974800659 -0.3829991661375407 0 -0.20343785588976751 -0.39944649130885712 0 -0.20343785588976751 -0.39944649130885712 0 -0.21350444502423929 -0.40864471589815532 0 -0.22035180610084079 -0.39356726900625483 0 -0.20216487974800659 -0.3829991661375407 0 -0.20343785588976751 -0.39944649130885712 0 -0.22035180610084079 -0.39356726900625483 0 -0.20216487974800659 -0.3829991661375407 0 -0.22035180610084079 -0.39356726900625483 0 -0.219169022554425 -0.37113875127287832 0 -0.1806986800215967 -0.4173161083834821 0 -0.2030300315513712 -0.43746332377949593 0 -0.18872492559955881 -0.42770971744539221 0 -0.1806986800215967 -0.4173161083834821 0 -0.2030300315513712 -0.43746332377949593 0 -0.2030300315513712 -0.43746332377949593 0 -0.19369636752838881 -0.41903658901391427 0 -0.2031687955665597 -0.42354741618771741 0 -0.1806986800215967 -0.4173161083834821 0 -0.2030300315513712 -0.43746332377949593 0 -0.19369636752838881 -0.41903658901391427 0 -0.19369636752838881 -0.41903658901391427 0 -0.20299923128825029 -0.41376529568937459 0 -0.2031687955665597 -0.42354741618771741 0 -0.1806986800215967 -0.4173161083834821 0 -0.19369636752838881 -0.41903658901391427 0 -0.19209360216251761 -0.40824625574224149 0 -0.19369636752838881 -0.41903658901391427 0 -0.19209360216251761 -0.40824625574224149 0 -0.20299923128825029 -0.41376529568937459 0 -0.20343785588976751 -0.39944649130885712 0 -0.19209360216251761 -0.40824625574224149 0 -0.20299923128825029 -0.41376529568937459 0 -0.20343785588976751 -0.39944649130885712 0 -0.20299923128825029 -0.41376529568937459 0 -0.21350444502423929 -0.40864471589815532 0 -0.21350444502423929 -0.40864471589815532 0 -0.21294955189822859 -0.42392445626808489 0 -0.2277837799441092 -0.41252006721820539 0 -0.20299923128825029 -0.41376529568937459 0 -0.2031687955665597 -0.42354741618771741 0 -0.21294955189822859 -0.42392445626808489 0 -0.20299923128825029 -0.41376529568937459 0 -0.21350444502423929 -0.40864471589815532 0 -0.21294955189822859 -0.42392445626808489 0 -0.2030300315513712 -0.43746332377949593 0 -0.21294955189822859 -0.42392445626808489 0 -0.22549954629610269 -0.43500765649169948 0 -0.2030300315513712 -0.43746332377949593 0 -0.2031687955665597 -0.42354741618771741 0 -0.21294955189822859 -0.42392445626808489 0 -0.23591515519085041 -0.44398209369878189 0 -0.22549954629610269 -0.43500765649169948 0 -0.23735783041644329 -0.42609093398936743 0 -0.22549954629610269 -0.43500765649169948 0 -0.2277837799441092 -0.41252006721820539 0 -0.23735783041644329 -0.42609093398936743 0 -0.21294955189822859 -0.42392445626808489 0 -0.22549954629610269 -0.43500765649169948 0 -0.2277837799441092 -0.41252006721820539 0 -0.2277837799441092 -0.41252006721820539 0 -0.24694430377570939 -0.41295507854145541 0 -0.2277837799441092 -0.41252006721820539 0 -0.24694430377570939 -0.41295507854145541 0 -0.23735783041644329 -0.42609093398936743 0 -0.2277837799441092 -0.41252006721820539 0 -0.24694430377570939 -0.41295507854145541 0 -0.2359891007147569 -0.39914414181493052 0 -0.25298523514652932 -0.43702750984159111 0 -0.24694430377570939 -0.41295507854145541 0 -0.23735783041644329 -0.42609093398936743 0 -0.25298523514652932 -0.43702750984159111 0 -0.23591515519085041 -0.44398209369878189 0 -0.23735783041644329 -0.42609093398936743 0 -0.22035180610084079 -0.39356726900625483 0 -0.23802591309349369 -0.38358476956933441 0 -0.219169022554425 -0.37113875127287832 0 -0.22035180610084079 -0.39356726900625483 0 -0.2359891007147569 -0.39914414181493052 0 -0.23802591309349369 -0.38358476956933441 0 -0.21350444502423929 -0.40864471589815532 0 -0.2277837799441092 -0.41252006721820539 0 -0.22035180610084079 -0.39356726900625483 0 -0.2277837799441092 -0.41252006721820539 0 -0.22035180610084079 -0.39356726900625483 0 -0.2359891007147569 -0.39914414181493052 0 -0.2359891007147569 -0.39914414181493052 0 -0.2487824818667288 -0.3954643368039899 0 -0.23802591309349369 -0.38358476956933441 0 -0.24694430377570939 -0.41295507854145541 0 -0.2359891007147569 -0.39914414181493052 0 -0.2487824818667288 -0.3954643368039899 0 -0.26050234447883253 -0.38027693877573482 0 -0.2487824818667288 -0.3954643368039899 0 -0.23802591309349369 -0.38358476956933441 0 -0.26050234447883253 -0.38027693877573482 0 -0.23802591309349369 -0.38358476956933441 0 -0.24817767477162081 -0.36986654917455902 0 -0.23802591309349369 -0.38358476956933441 0 -0.24817767477162081 -0.36986654917455902 0 -0.23583729862822109 -0.36574384613307409 0 -0.24817767477162081 -0.36986654917455902 0 -0.23583729862822109 -0.36574384613307409 0 -0.24850069890613241 -0.35473287875334369 0 -0.23583729862822109 -0.36574384613307409 0 -0.219169022554425 -0.37113875127287832 0 -0.22531318381543361 -0.34939628189525529 0 -0.23802591309349369 -0.38358476956933441 0 -0.23583729862822109 -0.36574384613307409 0 -0.219169022554425 -0.37113875127287832 0 -0.22531318381543361 -0.34939628189525529 0 -0.24850069890613241 -0.35473287875334369 0 -0.24219101746094579 -0.34438554910399921 0 -0.23583729862822109 -0.36574384613307409 0 -0.22531318381543361 -0.34939628189525529 0 -0.24850069890613241 -0.35473287875334369 0 -0.22531318381543361 -0.34939628189525529 0 -0.24850069890613241 -0.35473287875334369 0 -0.25445926970156468 -0.34270101061729968 0 -0.24850069890613241 -0.35473287875334369 0 -0.24219101746094579 -0.34438554910399921 0 -0.25445926970156468 -0.34270101061729968 0 -0.24219101746094579 -0.34438554910399921 0 -0.2460450098649074 -0.33743905859998191 0 -0.25207330520806498 -0.33378255792528982 0 -0.2460450098649074 -0.33743905859998191 0 -0.24306356592407591 -0.32787829483024122 0 -0.2348359590034956 -0.33686915078515089 0 -0.24306356592407591 -0.32787829483024122 0 -0.23163603200856511 -0.32708080208212859 0 -0.2460450098649074 -0.33743905859998191 0 -0.2348359590034956 -0.33686915078515089 0 -0.24306356592407591 -0.32787829483024122 0 -0.24219101746094579 -0.34438554910399921 0 -0.2460450098649074 -0.33743905859998191 0 -0.2348359590034956 -0.33686915078515089 0 -0.25273748935779161 -0.32224337373924072 0 -0.24326482791746179 -0.31394285089519419 0 -0.24426682308287331 -0.30533572025667649 0 -0.25273748935779161 -0.32224337373924072 0 -0.24426682308287331 -0.30533572025667649 0 -0.25273748935779161 -0.32224337373924072 0 -0.24326482791746179 -0.31394285089519419 0 -0.2440208243134171 -0.32058552998791068 0 -0.25273748935779161 -0.32224337373924072 0 -0.24306356592407591 -0.32787829483024122 0 -0.2440208243134171 -0.32058552998791068 0 -0.25207330520806498 -0.33378255792528982 0 -0.25273748935779161 -0.32224337373924072 0 -0.24306356592407591 -0.32787829483024122 0 -0.24306356592407591 -0.32787829483024122 0 -0.2440208243134171 -0.32058552998791068 0 -0.23701741405433899 -0.31827760048696663 0 -0.24306356592407591 -0.32787829483024122 0 -0.23701741405433899 -0.31827760048696663 0 -0.23163603200856511 -0.32708080208212859 0 -0.24326482791746179 -0.31394285089519419 0 -0.23701741405433899 -0.31827760048696663 0 -0.2384772558931193 -0.30928307653082621 0 -0.24326482791746179 -0.31394285089519419 0 -0.2440208243134171 -0.32058552998791068 0 -0.23701741405433899 -0.31827760048696663 0 -0.22244826701882919 -0.32070202864358233 0 -0.22802593536356699 -0.30882837184141948 0 -0.21110805984082151 -0.30983785689108939 0 -0.23701741405433899 -0.31827760048696663 0 -0.22244826701882919 -0.32070202864358233 0 -0.22802593536356699 -0.30882837184141948 0 -0.23701741405433899 -0.31827760048696663 0 -0.23163603200856511 -0.32708080208212859 0 -0.22244826701882919 -0.32070202864358233 0 -0.23163603200856511 -0.32708080208212859 0 -0.22244826701882919 -0.32070202864358233 0 -0.22079431421521131 -0.33353493235345111 0 -0.22531318381543361 -0.34939628189525529 0 -0.2348359590034956 -0.33686915078515089 0 -0.22079431421521131 -0.33353493235345111 0 -0.22531318381543361 -0.34939628189525529 0 -0.24219101746094579 -0.34438554910399921 0 -0.2348359590034956 -0.33686915078515089 0 -0.2348359590034956 -0.33686915078515089 0 -0.23163603200856511 -0.32708080208212859 0 -0.22079431421521131 -0.33353493235345111 0 -0.22079431421521131 -0.33353493235345111 0 -0.20839645480677241 -0.32403064402179738 0 -0.20212566872473489 -0.34405968503716688 0 -0.22531318381543361 -0.34939628189525529 0 -0.22079431421521131 -0.33353493235345111 0 -0.20212566872473489 -0.34405968503716688 0 -0.22244826701882919 -0.32070202864358233 0 -0.20839645480677241 -0.32403064402179738 0 -0.21110805984082151 -0.30983785689108939 0 -0.22244826701882919 -0.32070202864358233 0 -0.22079431421521131 -0.33353493235345111 0 -0.20839645480677241 -0.32403064402179738 0 -0.20839645480677241 -0.32403064402179738 0 -0.19575919956014079 -0.31702437624003538 0 -0.21110805984082151 -0.30983785689108939 0 -0.20839645480677241 -0.32403064402179738 0 -0.19575919956014079 -0.31702437624003538 0 -0.19562896033857519 -0.33020038185646122 0 -0.19575919956014079 -0.31702437624003538 0 -0.19562896033857519 -0.33020038185646122 0 -0.18477851095256179 -0.32477614194451959 0 -0.20212566872473489 -0.34405968503716688 0 -0.1789381536340362 -0.33872308817907848 0 -0.19562896033857519 -0.33020038185646122 0 -0.20212566872473489 -0.34405968503716688 0 -0.1789381536340362 -0.33872308817907848 0 -0.20839645480677241 -0.32403064402179738 0 -0.19562896033857519 -0.33020038185646122 0 -0.20212566872473489 -0.34405968503716688 0 -0.20212566872473489 -0.34405968503716688 0 -0.2037839996862793 -0.36234410805543599 0 -0.1863350517553729 -0.35962674217565882 0 -0.20212566872473489 -0.34405968503716688 0 -0.1863350517553729 -0.35962674217565882 0 -0.1789381536340362 -0.33872308817907848 0 -0.183603859264966 -0.3766054584014627 0 -0.20216487974800659 -0.3829991661375407 0 -0.2037839996862793 -0.36234410805543599 0 -0.183603859264966 -0.3766054584014627 0 -0.2037839996862793 -0.36234410805543599 0 -0.1863350517553729 -0.35962674217565882 0 -0.219169022554425 -0.37113875127287832 0 -0.22531318381543361 -0.34939628189525529 0 -0.2037839996862793 -0.36234410805543599 0 -0.20216487974800659 -0.3829991661375407 0 -0.219169022554425 -0.37113875127287832 0 -0.2037839996862793 -0.36234410805543599 0 -0.22531318381543361 -0.34939628189525529 0 -0.20212566872473489 -0.34405968503716688 0 -0.2037839996862793 -0.36234410805543599 0 -0.22531318381543361 -0.34939628189525529 0 -0.20212566872473489 -0.34405968503716688 0 -0.24465976002352091 -0.25387891845332877 0 -0.23199225124923151 -0.26692477658714647 0 -0.21854221021918649 -0.25236034283526498 0 -0.23199225124923151 -0.26692477658714647 0 -0.21864709985809599 -0.27150291036173302 0 -0.21854221021918649 -0.25236034283526498 0 -0.24465976002352091 -0.25387891845332877 0 -0.2444485511135471 -0.27534046621033159 0 -0.23199225124923151 -0.26692477658714647 0 -0.25958550566062261 -0.27102626557679149 0 -0.24465976002352091 -0.25387891845332877 0 -0.2444485511135471 -0.27534046621033159 0 -0.2444485511135471 -0.27534046621033159 0 -0.23199225124923151 -0.26692477658714647 0 -0.23366363503180709 -0.28154124507507411 0 -0.2197277065850177 -0.2872169177591285 0 -0.23366363503180709 -0.28154124507507411 0 -0.21864709985809599 -0.27150291036173302 0 -0.23199225124923151 -0.26692477658714647 0 -0.23366363503180709 -0.28154124507507411 0 -0.21864709985809599 -0.27150291036173302 0 -0.2197277065850177 -0.2872169177591285 0 -0.23366363503180709 -0.28154124507507411 0 -0.24011613505684479 -0.30107681213347393 0 -0.2197277065850177 -0.2872169177591285 0 -0.24011613505684479 -0.30107681213347393 0 -0.2197277065850177 -0.2872169177591285 0 -0.24011613505684479 -0.30107681213347393 0 -0.2201073871300871 -0.30044142834658671 0 -0.2444485511135471 -0.27534046621033159 0 -0.23366363503180709 -0.28154124507507411 0 -0.24732420154209239 -0.29033586459568173 0 -0.23366363503180709 -0.28154124507507411 0 -0.24732420154209239 -0.29033586459568173 0 -0.24011613505684479 -0.30107681213347393 0 -0.25608276685525683 -0.28295324223861612 0 -0.2444485511135471 -0.27534046621033159 0 -0.24732420154209239 -0.29033586459568173 0 -0.26050456352867191 -0.3149367065078193 0 -0.24011613505684479 -0.30107681213347393 0 -0.24426682308287331 -0.30533572025667649 0 -0.25485564421046719 -0.30132045870319019 0 -0.24732420154209239 -0.29033586459568173 0 -0.24011613505684479 -0.30107681213347393 0 -0.24011613505684479 -0.30107681213347393 0 -0.2384772558931193 -0.30928307653082621 0 -0.22802593536356699 -0.30882837184141948 0 -0.24326482791746179 -0.31394285089519419 0 -0.24426682308287331 -0.30533572025667649 0 -0.2384772558931193 -0.30928307653082621 0 -0.24011613505684479 -0.30107681213347393 0 -0.24426682308287331 -0.30533572025667649 0 -0.2384772558931193 -0.30928307653082621 0 -0.23701741405433899 -0.31827760048696663 0 -0.2384772558931193 -0.30928307653082621 0 -0.22802593536356699 -0.30882837184141948 0 -0.22802593536356699 -0.30882837184141948 0 -0.2201073871300871 -0.30044142834658671 0 -0.21110805984082151 -0.30983785689108939 0 -0.24011613505684479 -0.30107681213347393 0 -0.22802593536356699 -0.30882837184141948 0 -0.2201073871300871 -0.30044142834658671 0 -0.2201073871300871 -0.30044142834658671 0 -0.21110805984082151 -0.30983785689108939 0 -0.20155909880418441 -0.29524718310782239 0 -0.21110805984082151 -0.30983785689108939 0 -0.2000775247532616 -0.30687463122530689 0 -0.20155909880418441 -0.29524718310782239 0 -0.19575919956014079 -0.31702437624003538 0 -0.21110805984082151 -0.30983785689108939 0 -0.2000775247532616 -0.30687463122530689 0 -0.18961770926909149 -0.30481471110084102 0 -0.20155909880418441 -0.29524718310782239 0 -0.1798976030385912 -0.29461474791537873 0 -0.19575919956014079 -0.31702437624003538 0 -0.2000775247532616 -0.30687463122530689 0 -0.18961770926909149 -0.30481471110084102 0 -0.19575919956014079 -0.31702437624003538 0 -0.18961770926909149 -0.30481471110084102 0 -0.1803928959391416 -0.31521744924658562 0 -0.2000775247532616 -0.30687463122530689 0 -0.18961770926909149 -0.30481471110084102 0 -0.20155909880418441 -0.29524718310782239 0 -0.19933927811319041 -0.27335702338478318 0 -0.1798976030385912 -0.29461474791537873 0 -0.20155909880418441 -0.29524718310782239 0 -0.19933927811319041 -0.27335702338478318 0 -0.1798976030385912 -0.29461474791537873 0 -0.2197277065850177 -0.2872169177591285 0 -0.20155909880418441 -0.29524718310782239 0 -0.19933927811319041 -0.27335702338478318 0 -0.2197277065850177 -0.2872169177591285 0 -0.2201073871300871 -0.30044142834658671 0 -0.20155909880418441 -0.29524718310782239 0 -0.21864709985809599 -0.27150291036173302 0 -0.19933927811319041 -0.27335702338478318 0 -0.21854221021918649 -0.25236034283526498 0 -0.2197277065850177 -0.2872169177591285 0 -0.21864709985809599 -0.27150291036173302 0 -0.19933927811319041 -0.27335702338478318 0 -0.2197277065850177 -0.2872169177591285 0 -0.19933927811319041 -0.27335702338478318 0 -0.19672455084482071 -0.27157955221738023 0 -0.19563648814007639 -0.2627950405098789 0 -0.1773613401945949 -0.28300380337564962 0 -0.19672455084482071 -0.27157955221738023 0 -0.19933927811319041 -0.27335702338478318 0 -0.1773613401945949 -0.28300380337564962 0 -0.19672455084482071 -0.27157955221738023 0 -0.19933927811319041 -0.27335702338478318 0 -0.19563648814007639 -0.2627950405098789 0 -0.19672455084482071 -0.27157955221738023 0 -0.19933927811319041 -0.27335702338478318 0 -0.19933927811319041 -0.27335702338478318 0 -0.19563648814007639 -0.2627950405098789 0 -0.2024770003035091 -0.25628481747185139 0 -0.19563648814007639 -0.2627950405098789 0 -0.19160736129165659 -0.25262396586623759 0 -0.18182513936558051 -0.25739227955256888 0 -0.19563648814007639 -0.2627950405098789 0 -0.19160736129165659 -0.25262396586623759 0 -0.2024770003035091 -0.25628481747185139 0 -0.19160736129165659 -0.25262396586623759 0 -0.2024770003035091 -0.25628481747185139 0 -0.19988453840298659 -0.24176205441804 0 -0.19933927811319041 -0.27335702338478318 0 -0.2024770003035091 -0.25628481747185139 0 -0.21854221021918649 -0.25236034283526498 0 -0.2024770003035091 -0.25628481747185139 0 -0.21854221021918649 -0.25236034283526498 0 -0.19988453840298659 -0.24176205441804 0 -0.19933927811319041 -0.27335702338478318 0 -0.21854221021918649 -0.25236034283526498 0 -0.16270034237907721 -0.26451024010365409 0 -0.1689202540561075 -0.25519621835756329 0 -0.15263230708737521 -0.24356194903458239 0 -0.16270034237907721 -0.26451024010365409 0 -0.15585924966824549 -0.27338725763800159 0 -0.15263230708737521 -0.24356194903458239 0 -0.16270034237907721 -0.26451024010365409 0 -0.1689202540561075 -0.25519621835756329 0 -0.17291740387759841 -0.2648938158906885 0 -0.1689202540561075 -0.25519621835756329 0 -0.18182513936558051 -0.25739227955256888 0 -0.1745260775709061 -0.24562280720632229 0 -0.19160736129165659 -0.25262396586623759 0 -0.18182513936558051 -0.25739227955256888 0 -0.1745260775709061 -0.24562280720632229 0 -0.19563648814007639 -0.2627950405098789 0 -0.18182513936558051 -0.25739227955256888 0 -0.18269465011250469 -0.26841637399603913 0 -0.1689202540561075 -0.25519621835756329 0 -0.18182513936558051 -0.25739227955256888 0 -0.17291740387759841 -0.2648938158906885 0 -0.18182513936558051 -0.25739227955256888 0 -0.17291740387759841 -0.2648938158906885 0 -0.18269465011250469 -0.26841637399603913 0 -0.19563648814007639 -0.2627950405098789 0 -0.18269465011250469 -0.26841637399603913 0 -0.1773613401945949 -0.28300380337564962 0 -0.17291740387759841 -0.2648938158906885 0 -0.17526212336935321 -0.27297056277525461 0 -0.1680750992927145 -0.27556825783864097 0 -0.19563648814007639 -0.2627950405098789 0 -0.1773613401945949 -0.28300380337564962 0 -0.17291740387759841 -0.2648938158906885 0 -0.17526212336935321 -0.27297056277525461 0 -0.18269465011250469 -0.26841637399603913 0 -0.17526212336935321 -0.27297056277525461 0 -0.18269465011250469 -0.26841637399603913 0 -0.1773613401945949 -0.28300380337564962 0 -0.17526212336935321 -0.27297056277525461 0 -0.1680750992927145 -0.27556825783864097 0 -0.1773613401945949 -0.28300380337564962 0 -0.1680750992927145 -0.27556825783864097 0 -0.1682011228878135 -0.28257539269247411 0 -0.1773613401945949 -0.28300380337564962 0 -0.1680750992927145 -0.27556825783864097 0 -0.1622412594804854 -0.28273310688964581 0 -0.1682011228878135 -0.28257539269247411 0 -0.16270034237907721 -0.26451024010365409 0 -0.17291740387759841 -0.2648938158906885 0 -0.1680750992927145 -0.27556825783864097 0 -0.16270034237907721 -0.26451024010365409 0 -0.1680750992927145 -0.27556825783864097 0 -0.16179622859894191 -0.27503335760685149 0 -0.16270034237907721 -0.26451024010365409 0 -0.16179622859894191 -0.27503335760685149 0 -0.15585924966824549 -0.27338725763800159 0 -0.16179622859894191 -0.27503335760685149 0 -0.1622412594804854 -0.28273310688964581 0 -0.15585924966824549 -0.27338725763800159 0 -0.1680750992927145 -0.27556825783864097 0 -0.16179622859894191 -0.27503335760685149 0 -0.1622412594804854 -0.28273310688964581 0 -0.1622412594804854 -0.28273310688964581 0 -0.16512679258345911 -0.28899640266596011 0 -0.15908619224911419 -0.30321256624142101 0 -0.1622412594804854 -0.28273310688964581 0 -0.15908619224911419 -0.30321256624142101 0 -0.15585924966824549 -0.27338725763800159 0 -0.15908619224911419 -0.30321256624142101 0 -0.15585924966824549 -0.27338725763800159 0 -0.16512679258345911 -0.28899640266596011 0 -0.1773613401945949 -0.28300380337564962 0 -0.15908619224911419 -0.30321256624142101 0 -0.1773613401945949 -0.28300380337564962 0 -0.15908619224911419 -0.30321256624142101 0 -0.16512679258345911 -0.28899640266596011 0 -0.1682011228878135 -0.28257539269247411 0 -0.1773613401945949 -0.28300380337564962 0 -0.1622412594804854 -0.28273310688964581 0 -0.16512679258345911 -0.28899640266596011 0 -0.1682011228878135 -0.28257539269247411 0 -0.1773613401945949 -0.28300380337564962 0 -0.1798976030385912 -0.29461474791537873 0 -0.15908619224911419 -0.30321256624142101 0 -0.19933927811319041 -0.27335702338478318 0 -0.1773613401945949 -0.28300380337564962 0 -0.1798976030385912 -0.29461474791537873 0 -0.1798976030385912 -0.29461474791537873 0 -0.17759103405270391 -0.30762984517719472 0 -0.16045592796399111 -0.3158724724459735 0 -0.18961770926909149 -0.30481471110084102 0 -0.1798976030385912 -0.29461474791537873 0 -0.17759103405270391 -0.30762984517719472 0 -0.18961770926909149 -0.30481471110084102 0 -0.17759103405270391 -0.30762984517719472 0 -0.1803928959391416 -0.31521744924658562 0 -0.1798976030385912 -0.29461474791537873 0 -0.16045592796399111 -0.3158724724459735 0 -0.1798976030385912 -0.29461474791537873 0 -0.15908619224911419 -0.30321256624142101 0 -0.16045592796399111 -0.3158724724459735 0 -0.15908619224911419 -0.30321256624142101 0 -0.16045592796399111 -0.3158724724459735 0 -0.1471380549162328 -0.30532142906175452 0 -0.14032160831301491 -0.30752887986621158 0 -0.14130665940473261 -0.32287327510069419 0 -0.15908619224911419 -0.30321256624142101 0 -0.1471380549162328 -0.30532142906175452 0 -0.14130665940473261 -0.32287327510069419 0 -0.15908619224911419 -0.30321256624142101 0 -0.1471380549162328 -0.30532142906175452 0 -0.1510678287434867 -0.29559461902651829 0 -0.14390798587081549 -0.29739780507392732 0 -0.1471380549162328 -0.30532142906175452 0 -0.1510678287434867 -0.29559461902651829 0 -0.14390798587081549 -0.29739780507392732 0 -0.1471380549162328 -0.30532142906175452 0 -0.14032160831301491 -0.30752887986621158 0 -0.14032160831301491 -0.30752887986621158 0 -0.13439128381467691 -0.29991683468539793 0 -0.13033731665847181 -0.31286393971371201 0 -0.13439128381467691 -0.29991683468539793 0 -0.13033731665847181 -0.31286393971371201 0 -0.12304085188452731 -0.29931348820209958 0 -0.14390798587081549 -0.29739780507392732 0 -0.14032160831301491 -0.30752887986621158 0 -0.13439128381467691 -0.29991683468539793 0 -0.14390798587081549 -0.29739780507392732 0 -0.13439128381467691 -0.29991683468539793 0 -0.14011095662501261 -0.28947786809128212 0 -0.13439128381467691 -0.29991683468539793 0 -0.14011095662501261 -0.28947786809128212 0 -0.12994370463312691 -0.28995419054763111 0 -0.13439128381467691 -0.29991683468539793 0 -0.12994370463312691 -0.28995419054763111 0 -0.12304085188452731 -0.29931348820209958 0 -0.12994370463312691 -0.28995419054763111 0 -0.13687965345326569 -0.27993872332247433 0 -0.1257911728949061 -0.280427018304516 0 -0.12994370463312691 -0.28995419054763111 0 -0.1257911728949061 -0.280427018304516 0 -0.1194571486541455 -0.28746452468861589 0 -0.14011095662501261 -0.28947786809128212 0 -0.12994370463312691 -0.28995419054763111 0 -0.13687965345326569 -0.27993872332247433 0 -0.15908619224911419 -0.30321256624142101 0 -0.15162645984294551 -0.28670064183700439 0 -0.15585924966824549 -0.27338725763800159 0 -0.14011095662501261 -0.28947786809128212 0 -0.1458827091329962 -0.28225219708249882 0 -0.13687965345326569 -0.27993872332247433 0 -0.15908619224911419 -0.30321256624142101 0 -0.1510678287434867 -0.29559461902651829 0 -0.15162645984294551 -0.28670064183700439 0 -0.1458827091329962 -0.28225219708249882 0 -0.1468811506158991 -0.28912565090950809 0 -0.15162645984294551 -0.28670064183700439 0 -0.14011095662501261 -0.28947786809128212 0 -0.1458827091329962 -0.28225219708249882 0 -0.1468811506158991 -0.28912565090950809 0 -0.14390798587081549 -0.29739780507392732 0 -0.1468811506158991 -0.28912565090950809 0 -0.1510678287434867 -0.29559461902651829 0 -0.14390798587081549 -0.29739780507392732 0 -0.14011095662501261 -0.28947786809128212 0 -0.1468811506158991 -0.28912565090950809 0 -0.1468811506158991 -0.28912565090950809 0 -0.1510678287434867 -0.29559461902651829 0 -0.15162645984294551 -0.28670064183700439 0 -0.1458827091329962 -0.28225219708249882 0 -0.15162645984294551 -0.28670064183700439 0 -0.15098162864793119 -0.27663156012407891 0 -0.15162645984294551 -0.28670064183700439 0 -0.15098162864793119 -0.27663156012407891 0 -0.15585924966824549 -0.27338725763800159 0 -0.15098162864793119 -0.27663156012407891 0 -0.1522527558101047 -0.27366235468835692 0 -0.14903370440966179 -0.27344637702894548 0 -0.15098162864793119 -0.27663156012407891 0 -0.1522527558101047 -0.27366235468835692 0 -0.15585924966824549 -0.27338725763800159 0 -0.14903370440966179 -0.27344637702894548 0 -0.1531364405145805 -0.27118422396240138 0 -0.14385763015454139 -0.26954128824380802 0 -0.1522527558101047 -0.27366235468835692 0 -0.15585924966824549 -0.27338725763800159 0 -0.1531364405145805 -0.27118422396240138 0 -0.1522527558101047 -0.27366235468835692 0 -0.14903370440966179 -0.27344637702894548 0 -0.1531364405145805 -0.27118422396240138 0 -0.14903370440966179 -0.27344637702894548 0 -0.14385763015454139 -0.26954128824380802 0 -0.1442805510697899 -0.27562940435382949 0 -0.14385763015454139 -0.26954128824380802 0 -0.1442805510697899 -0.27562940435382949 0 -0.13835653564694769 -0.27242798417408381 0 -0.1458827091329962 -0.28225219708249882 0 -0.1442805510697899 -0.27562940435382949 0 -0.13687965345326569 -0.27993872332247433 0 -0.15098162864793119 -0.27663156012407891 0 -0.14903370440966179 -0.27344637702894548 0 -0.1442805510697899 -0.27562940435382949 0 -0.1458827091329962 -0.28225219708249882 0 -0.15098162864793119 -0.27663156012407891 0 -0.1442805510697899 -0.27562940435382949 0 -0.13687965345326569 -0.27993872332247433 0 -0.12970248462840331 -0.2717774759070859 0 -0.13835653564694769 -0.27242798417408381 0 -0.1442805510697899 -0.27562940435382949 0 -0.13687965345326569 -0.27993872332247433 0 -0.13835653564694769 -0.27242798417408381 0 -0.13687965345326569 -0.27993872332247433 0 -0.1257911728949061 -0.280427018304516 0 -0.12970248462840331 -0.2717774759070859 0 -0.12970248462840331 -0.2717774759070859 0 -0.13570208279224111 -0.26528350045903498 0 -0.12855037573501921 -0.26115248962005239 0 -0.14385763015454139 -0.26954128824380802 0 -0.13835653564694769 -0.27242798417408381 0 -0.13570208279224111 -0.26528350045903498 0 -0.12970248462840331 -0.2717774759070859 0 -0.13835653564694769 -0.27242798417408381 0 -0.13570208279224111 -0.26528350045903498 0 -0.13570208279224111 -0.26528350045903498 0 -0.12855037573501921 -0.26115248962005239 0 -0.1377523016625678 -0.25581657194563601 0 -0.14385763015454139 -0.26954128824380802 0 -0.13570208279224111 -0.26528350045903498 0 -0.1377523016625678 -0.25581657194563601 0 -0.12855037573501921 -0.26115248962005239 0 -0.1377523016625678 -0.25581657194563601 0 -0.1223681628105569 -0.24044891992886891 0 -0.1531364405145805 -0.27118422396240138 0 -0.1377523016625678 -0.25581657194563601 0 -0.15263230708737521 -0.24356194903458239 0 -0.15585924966824549 -0.27338725763800159 0 -0.1531364405145805 -0.27118422396240138 0 -0.15263230708737521 -0.24356194903458239 0 -0.15585924966824549 -0.27338725763800159 0 -0.15263230708737521 -0.24356194903458239 0 -0.1531364405145805 -0.27118422396240138 0 -0.1377523016625678 -0.25581657194563601 0 -0.1531364405145805 -0.27118422396240138 0 -0.14385763015454139 -0.26954128824380802 0 -0.1377523016625678 -0.25581657194563601 0 -0.1661931572416451 -0.36889933283976362 0 -0.1633245426028184 -0.34238590264286861 0 -0.15433175674287769 -0.35458729317269139 0 -0.1661931572416451 -0.36889933283976362 0 -0.1633245426028184 -0.34238590264286861 0 -0.1661931572416451 -0.36889933283976362 0 -0.17388048196752651 -0.3522733272046466 0 -0.1633245426028184 -0.34238590264286861 0 -0.1661931572416451 -0.36889933283976362 0 -0.15433175674287769 -0.35458729317269139 0 -0.148308101659717 -0.36695316985008092 0 -0.15761740849691311 -0.38818340141201402 0 -0.1661931572416451 -0.36889933283976362 0 -0.148308101659717 -0.36695316985008092 0 -0.183603859264966 -0.3766054584014627 0 -0.1661931572416451 -0.36889933283976362 0 -0.1863350517553729 -0.35962674217565882 0 -0.1661931572416451 -0.36889933283976362 0 -0.1863350517553729 -0.35962674217565882 0 -0.17388048196752651 -0.3522733272046466 0 -0.1863350517553729 -0.35962674217565882 0 -0.17388048196752651 -0.3522733272046466 0 -0.1789381536340362 -0.33872308817907848 0 -0.17388048196752651 -0.3522733272046466 0 -0.1789381536340362 -0.33872308817907848 0 -0.1633245426028184 -0.34238590264286861 0 -0.19562896033857519 -0.33020038185646122 0 -0.1789381536340362 -0.33872308817907848 0 -0.18477851095256179 -0.32477614194451959 0 -0.1789381536340362 -0.33872308817907848 0 -0.18477851095256179 -0.32477614194451959 0 -0.1735479853981102 -0.32728394705986258 0 -0.1789381536340362 -0.33872308817907848 0 -0.1735479853981102 -0.32728394705986258 0 -0.1633245426028184 -0.34238590264286861 0 -0.17759103405270391 -0.30762984517719472 0 -0.1803928959391416 -0.31521744924658562 0 -0.16045592796399111 -0.3158724724459735 0 -0.19575919956014079 -0.31702437624003538 0 -0.1803928959391416 -0.31521744924658562 0 -0.18477851095256179 -0.32477614194451959 0 -0.1803928959391416 -0.31521744924658562 0 -0.18477851095256179 -0.32477614194451959 0 -0.1735479853981102 -0.32728394705986258 0 -0.1803928959391416 -0.31521744924658562 0 -0.1735479853981102 -0.32728394705986258 0 -0.16045592796399111 -0.3158724724459735 0 -0.1735479853981102 -0.32728394705986258 0 -0.16045592796399111 -0.3158724724459735 0 -0.1633245426028184 -0.34238590264286861 0 -0.16045592796399111 -0.3158724724459735 0 -0.1633245426028184 -0.34238590264286861 0 -0.1476770575246594 -0.3298450188736391 0 -0.16045592796399111 -0.3158724724459735 0 -0.1633245426028184 -0.34238590264286861 0 -0.1633245426028184 -0.34238590264286861 0 -0.15030263560259111 -0.34285112818916452 0 -0.1476770575246594 -0.3298450188736391 0 -0.1476770575246594 -0.3298450188736391 0 -0.14130665940473261 -0.32287327510069419 0 -0.13989838249203351 -0.33226752099114382 0 -0.1476770575246594 -0.3298450188736391 0 -0.14096893258994439 -0.33934882548262568 0 -0.13989838249203351 -0.33226752099114382 0 -0.15030263560259111 -0.34285112818916452 0 -0.1476770575246594 -0.3298450188736391 0 -0.14096893258994439 -0.33934882548262568 0 -0.15908619224911419 -0.30321256624142101 0 -0.14130665940473261 -0.32287327510069419 0 -0.16045592796399111 -0.3158724724459735 0 -0.1476770575246594 -0.3298450188736391 0 -0.14130665940473261 -0.32287327510069419 0 -0.15908619224911419 -0.30321256624142101 0 -0.16045592796399111 -0.3158724724459735 0 -0.14130665940473261 -0.32287327510069419 0 -0.16045592796399111 -0.3158724724459735 0 -0.1476770575246594 -0.3298450188736391 0 -0.14130665940473261 -0.32287327510069419 0 -0.12766342535057629 -0.32481504462803062 0 -0.13033731665847181 -0.31286393971371201 0 -0.14032160831301491 -0.30752887986621158 0 -0.14130665940473261 -0.32287327510069419 0 -0.13033731665847181 -0.31286393971371201 0 -0.14130665940473261 -0.32287327510069419 0 -0.12766342535057629 -0.32481504462803062 0 -0.12902917457320359 -0.33644978787578289 0 -0.12766342535057629 -0.32481504462803062 0 -0.12902917457320359 -0.33644978787578289 0 -0.123033176677132 -0.34308019655903149 0 -0.14096893258994439 -0.33934882548262568 0 -0.12902917457320359 -0.33644978787578289 0 -0.13366226850604379 -0.34759248760944123 0 -0.14096893258994439 -0.33934882548262568 0 -0.13989838249203351 -0.33226752099114382 0 -0.12902917457320359 -0.33644978787578289 0 -0.14130665940473261 -0.32287327510069419 0 -0.12902917457320359 -0.33644978787578289 0 -0.14130665940473261 -0.32287327510069419 0 -0.13989838249203351 -0.33226752099114382 0 -0.12902917457320359 -0.33644978787578289 0 -0.12902917457320359 -0.33644978787578289 0 -0.123033176677132 -0.34308019655903149 0 -0.12902917457320359 -0.33644978787578289 0 -0.13366226850604379 -0.34759248760944123 0 -0.123033176677132 -0.34308019655903149 0 -0.13366226850604379 -0.34759248760944123 0 -0.1303219987982592 -0.3665496015062627 0 -0.123033176677132 -0.34308019655903149 0 -0.1303219987982592 -0.3665496015062627 0 -0.123033176677132 -0.34308019655903149 0 -0.13366226850604379 -0.34759248760944123 0 -0.1435303466076166 -0.35184693234157938 0 -0.1303219987982592 -0.3665496015062627 0 -0.14096893258994439 -0.33934882548262568 0 -0.13366226850604379 -0.34759248760944123 0 -0.1435303466076166 -0.35184693234157938 0 -0.15030263560259111 -0.34285112818916452 0 -0.14096893258994439 -0.33934882548262568 0 -0.1435303466076166 -0.35184693234157938 0 -0.1435303466076166 -0.35184693234157938 0 -0.15433175674287769 -0.35458729317269139 0 -0.148308101659717 -0.36695316985008092 0 -0.1633245426028184 -0.34238590264286861 0 -0.15030263560259111 -0.34285112818916452 0 -0.15433175674287769 -0.35458729317269139 0 -0.15030263560259111 -0.34285112818916452 0 -0.1435303466076166 -0.35184693234157938 0 -0.15433175674287769 -0.35458729317269139 0 -0.1435303466076166 -0.35184693234157938 0 -0.148308101659717 -0.36695316985008092 0 -0.1303219987982592 -0.3665496015062627 0 -0.1369224961495438 -0.38192389563367207 0 -0.148308101659717 -0.36695316985008092 0 -0.1303219987982592 -0.3665496015062627 0 -0.1303219987982592 -0.3665496015062627 0 -0.1159926709000937 -0.36685414663024191 0 -0.11895596668836859 -0.34683008488337108 0 -0.1303219987982592 -0.3665496015062627 0 -0.1159926709000937 -0.36685414663024191 0 -0.12201267174342199 -0.37938718301114999 0 -0.1024060606807759 -0.36205135125861898 0 -0.1016559479587178 -0.38500202459504551 0 -0.1159926709000937 -0.36685414663024191 0 -0.1024060606807759 -0.36205135125861898 0 -0.1094440337948836 -0.37923577087639421 0 -0.1024060606807759 -0.36205135125861898 0 -0.1016559479587178 -0.38500202459504551 0 -0.095426438310298192 -0.37780241062099151 0 -0.1024060606807759 -0.36205135125861898 0 -0.090139611558562177 -0.37333304007799939 0 -0.095426438310298192 -0.37780241062099151 0 -0.1024060606807759 -0.36205135125861898 0 -0.093943439343664059 -0.36410026383479388 0 -0.090139611558562177 -0.37333304007799939 0 -0.1024060606807759 -0.36205135125861898 0 -0.093943439343664059 -0.36410026383479388 0 -0.095626283443773746 -0.35612124291623848 0 -0.1024060606807759 -0.36205135125861898 0 -0.090139611558562177 -0.37333304007799939 0 -0.1024060606807759 -0.36205135125861898 0 -0.1029439411344124 -0.34559419992324319 0 -0.1024060606807759 -0.36205135125861898 0 -0.1029439411344124 -0.34559419992324319 0 -0.11895596668836859 -0.34683008488337108 0 -0.1024060606807759 -0.36205135125861898 0 -0.095626283443773746 -0.35612124291623848 0 -0.1029439411344124 -0.34559419992324319 0 -0.095626283443773746 -0.35612124291623848 0 -0.1029439411344124 -0.34559419992324319 0 -0.093212578299404075 -0.34130700998995739 0 -0.1159926709000937 -0.36685414663024191 0 -0.1024060606807759 -0.36205135125861898 0 -0.11895596668836859 -0.34683008488337108 0 -0.1024060606807759 -0.36205135125861898 0 -0.11895596668836859 -0.34683008488337108 0 -0.1303219987982592 -0.3665496015062627 0 -0.11895596668836859 -0.34683008488337108 0 -0.123033176677132 -0.34308019655903149 0 -0.1029439411344124 -0.34559419992324319 0 -0.11895596668836859 -0.34683008488337108 0 -0.123033176677132 -0.34308019655903149 0 -0.11895596668836859 -0.34683008488337108 0 -0.123033176677132 -0.34308019655903149 0 -0.1029439411344124 -0.34559419992324319 0 -0.1137910684918501 -0.33520612369310882 0 -0.123033176677132 -0.34308019655903149 0 -0.123033176677132 -0.34308019655903149 0 -0.1159692764993048 -0.31568518943543378 0 -0.1137910684918501 -0.33520612369310882 0 -0.123033176677132 -0.34308019655903149 0 -0.1159692764993048 -0.31568518943543378 0 -0.12766342535057629 -0.32481504462803062 0 -0.123033176677132 -0.34308019655903149 0 -0.1159692764993048 -0.31568518943543378 0 -0.1137910684918501 -0.33520612369310882 0 -0.1159692764993048 -0.31568518943543378 0 -0.1034818215880495 -0.3291370485878673 0 -0.12766342535057629 -0.32481504462803062 0 -0.13033731665847181 -0.31286393971371201 0 -0.1159692764993048 -0.31568518943543378 0 -0.1159692764993048 -0.31568518943543378 0 -0.10079975883819629 -0.31506063040533638 0 -0.1034818215880495 -0.3291370485878673 0 -0.10079975883819629 -0.31506063040533638 0 -0.093212578299404075 -0.34130700998995739 0 -0.10079975883819629 -0.31506063040533638 0 -0.093212578299404075 -0.34130700998995739 0 -0.087373844159168004 -0.3291061545470132 0 -0.10079975883819629 -0.31506063040533638 0 -0.1034818215880495 -0.3291370485878673 0 -0.093212578299404075 -0.34130700998995739 0 -0.1029439411344124 -0.34559419992324319 0 -0.1034818215880495 -0.3291370485878673 0 -0.1029439411344124 -0.34559419992324319 0 -0.1034818215880495 -0.3291370485878673 0 -0.093212578299404075 -0.34130700998995739 0 -0.1029439411344124 -0.34559419992324319 0 -0.1137910684918501 -0.33520612369310882 0 -0.1034818215880495 -0.3291370485878673 0 -0.093212578299404075 -0.34130700998995739 0 -0.087373844159168004 -0.3291061545470132 0 -0.080908772255243899 -0.33898270124258217 0 -0.087373844159168004 -0.3291061545470132 0 -0.080908772255243899 -0.33898270124258217 0 -0.077490532230771417 -0.32991328235931511 0 -0.093212578299404075 -0.34130700998995739 0 -0.080908772255243899 -0.33898270124258217 0 -0.080378844364046895 -0.35001101873094542 0 -0.10079975883819629 -0.31506063040533638 0 -0.085305929108392881 -0.31951846990187233 0 -0.091873739319295072 -0.31122357941036211 0 -0.10079975883819629 -0.31506063040533638 0 -0.087373844159168004 -0.3291061545470132 0 -0.085305929108392881 -0.31951846990187233 0 -0.085305929108392881 -0.31951846990187233 0 -0.076805788315873161 -0.32077910918615782 0 -0.077490532230771417 -0.32991328235931511 0 -0.087373844159168004 -0.3291061545470132 0 -0.085305929108392881 -0.31951846990187233 0 -0.077490532230771417 -0.32991328235931511 0 -0.085305929108392881 -0.31951846990187233 0 -0.076805788315873161 -0.32077910918615782 0 -0.078544889372492196 -0.31002595631180607 0 -0.085305929108392881 -0.31951846990187233 0 -0.091873739319295072 -0.31122357941036211 0 -0.078544889372492196 -0.31002595631180607 0 -0.066882954587322394 -0.32486941793266988 0 -0.078544889372492196 -0.31002595631180607 0 -0.05424539878688571 -0.319762651601179 0 -0.078544889372492196 -0.31002595631180607 0 -0.05424539878688571 -0.319762651601179 0 -0.076805788315873161 -0.32077910918615782 0 -0.066882954587322394 -0.32486941793266988 0 -0.078544889372492196 -0.31002595631180607 0 -0.076805788315873161 -0.32077910918615782 0 -0.066882954587322394 -0.32486941793266988 0 -0.077490532230771417 -0.32991328235931511 0 -0.066882954587322394 -0.32486941793266988 0 -0.070160141916437824 -0.34098238217286791 0 -0.054527031800802053 -0.34042178362413461 0 -0.066882954587322394 -0.32486941793266988 0 -0.077490532230771417 -0.32991328235931511 0 -0.070160141916437824 -0.34098238217286791 0 -0.080908772255243899 -0.33898270124258217 0 -0.077490532230771417 -0.32991328235931511 0 -0.070160141916437824 -0.34098238217286791 0 -0.080908772255243899 -0.33898270124258217 0 -0.070160141916437824 -0.34098238217286791 0 -0.080378844364046895 -0.35001101873094542 0 -0.070160141916437824 -0.34098238217286791 0 -0.066522813126512412 -0.35680227137673098 0 -0.054527031800802053 -0.34042178362413461 0 -0.070160141916437824 -0.34098238217286791 0 -0.066522813126512412 -0.35680227137673098 0 -0.080378844364046895 -0.35001101873094542 0 -0.066522813126512412 -0.35680227137673098 0 -0.076582500297099523 -0.36039923154202719 0 -0.080378844364046895 -0.35001101873094542 0 -0.066522813126512412 -0.35680227137673098 0 -0.073802945937226916 -0.36723024648585417 0 -0.058387822440418388 -0.36975607908058028 0 -0.073802945937226916 -0.36723024648585417 0 -0.058387822440418388 -0.36975607908058028 0 -0.08170780991661282 -0.38109255286014232 0 -0.066522813126512412 -0.35680227137673098 0 -0.073802945937226916 -0.36723024648585417 0 -0.076582500297099523 -0.36039923154202719 0 -0.073802945937226916 -0.36723024648585417 0 -0.076582500297099523 -0.36039923154202719 0 -0.085625397760611066 -0.36755338957457828 0 -0.085625397760611066 -0.36755338957457828 0 -0.087954911787112483 -0.37534235041220648 0 -0.08170780991661282 -0.38109255286014232 0 -0.073802945937226916 -0.36723024648585417 0 -0.085625397760611066 -0.36755338957457828 0 -0.08170780991661282 -0.38109255286014232 0 -0.085625397760611066 -0.36755338957457828 0 -0.08170780991661282 -0.38109255286014232 0 -0.093943439343664059 -0.36410026383479388 0 -0.085625397760611066 -0.36755338957457828 0 -0.090139611558562177 -0.37333304007799939 0 -0.093943439343664059 -0.36410026383479388 0 -0.090139611558562177 -0.37333304007799939 0 -0.085625397760611066 -0.36755338957457828 0 -0.090139611558562177 -0.37333304007799939 0 -0.087954911787112483 -0.37534235041220648 0 -0.085625397760611066 -0.36755338957457828 0 -0.087954911787112483 -0.37534235041220648 0 -0.090139611558562177 -0.37333304007799939 0 -0.087954911787112483 -0.37534235041220648 0 -0.093943439343664059 -0.36410026383479388 0 -0.095626283443773746 -0.35612124291623848 0 -0.085625397760611066 -0.36755338957457828 0 -0.093212578299404075 -0.34130700998995739 0 -0.085625397760611066 -0.36755338957457828 0 -0.076582500297099523 -0.36039923154202719 0 -0.085625397760611066 -0.36755338957457828 0 -0.080378844364046895 -0.35001101873094542 0 -0.093212578299404075 -0.34130700998995739 0 -0.085625397760611066 -0.36755338957457828 0 -0.080378844364046895 -0.35001101873094542 0 -0.085625397760611066 -0.36755338957457828 0 -0.080378844364046895 -0.35001101873094542 0 -0.095626283443773746 -0.35612124291623848 0 -0.093212578299404075 -0.34130700998995739 0 -0.085625397760611066 -0.36755338957457828 0 -0.10474757541744149 -0.26087495970427582 0 -0.090174700483665673 -0.26498018187443112 0 -0.1005321994236209 -0.2431127607729493 0 -0.10474757541744149 -0.26087495970427582 0 -0.11757885349586771 -0.25701660664448461 0 -0.1005321994236209 -0.2431127607729493 0 -0.12855037573501921 -0.26115248962005239 0 -0.11757885349586771 -0.25701660664448461 0 -0.1127895441811773 -0.27358429336009982 0 -0.12855037573501921 -0.26115248962005239 0 -0.11757885349586771 -0.25701660664448461 0 -0.1223681628105569 -0.24044891992886891 0 -0.10474757541744149 -0.26087495970427582 0 -0.11757885349586771 -0.25701660664448461 0 -0.1127895441811773 -0.27358429336009982 0 -0.11757885349586771 -0.25701660664448461 0 -0.1127895441811773 -0.27358429336009982 0 -0.1257911728949061 -0.280427018304516 0 -0.12970248462840331 -0.2717774759070859 0 -0.1127895441811773 -0.27358429336009982 0 -0.12855037573501921 -0.26115248962005239 0 -0.1127895441811773 -0.27358429336009982 0 -0.12970248462840331 -0.2717774759070859 0 -0.12855037573501921 -0.26115248962005239 0 -0.1127895441811773 -0.27358429336009982 0 -0.1257911728949061 -0.280427018304516 0 -0.1127895441811773 -0.27358429336009982 0 -0.1194571486541455 -0.28746452468861589 0 -0.1127895441811773 -0.27358429336009982 0 -0.1083869393769897 -0.28881425082071571 0 -0.1127895441811773 -0.27358429336009982 0 -0.093274829049746905 -0.28897707944045958 0 -0.090174700483665673 -0.26498018187443112 0 -0.10474757541744149 -0.26087495970427582 0 -0.1127895441811773 -0.27358429336009982 0 -0.090174700483665673 -0.26498018187443112 0 -0.1127895441811773 -0.27358429336009982 0 -0.1067008731150054 -0.28283902414649681 0 -0.093274829049746905 -0.28897707944045958 0 -0.1127895441811773 -0.27358429336009982 0 -0.093274829049746905 -0.28897707944045958 0 -0.1083869393769897 -0.28881425082071571 0 -0.102844379958099 -0.30028926102243358 0 -0.093274829049746905 -0.28897707944045958 0 -0.1127895441811773 -0.27358429336009982 0 -0.1083869393769897 -0.28881425082071571 0 -0.1067008731150054 -0.28283902414649681 0 -0.1083869393769897 -0.28881425082071571 0 -0.1067008731150054 -0.28283902414649681 0 -0.1083869393769897 -0.28881425082071571 0 -0.1067008731150054 -0.28283902414649681 0 -0.093274829049746905 -0.28897707944045958 0 -0.1127895441811773 -0.27358429336009982 0 -0.1083869393769897 -0.28881425082071571 0 -0.1194571486541455 -0.28746452468861589 0 -0.12994370463312691 -0.28995419054763111 0 -0.1194571486541455 -0.28746452468861589 0 -0.12304085188452731 -0.29931348820209958 0 -0.1083869393769897 -0.28881425082071571 0 -0.1194571486541455 -0.28746452468861589 0 -0.12304085188452731 -0.29931348820209958 0 -0.1159692764993048 -0.31568518943543378 0 -0.1083869393769897 -0.28881425082071571 0 -0.12304085188452731 -0.29931348820209958 0 -0.1159692764993048 -0.31568518943543378 0 -0.1083869393769897 -0.28881425082071571 0 -0.13033731665847181 -0.31286393971371201 0 -0.1159692764993048 -0.31568518943543378 0 -0.12304085188452731 -0.29931348820209958 0 -0.1159692764993048 -0.31568518943543378 0 -0.10079975883819629 -0.31506063040533638 0 -0.1083869393769897 -0.28881425082071571 0 -0.10079975883819629 -0.31506063040533638 0 -0.1083869393769897 -0.28881425082071571 0 -0.10079975883819629 -0.31506063040533638 0 -0.1083869393769897 -0.28881425082071571 0 -0.102844379958099 -0.30028926102243358 0 -0.10079975883819629 -0.31506063040533638 0 -0.102844379958099 -0.30028926102243358 0 -0.091873739319295072 -0.31122357941036211 0 -0.078544889372492196 -0.31002595631180607 0 -0.073760113918316481 -0.30436986552081963 0 -0.093274829049746905 -0.28897707944045958 0 -0.102844379958099 -0.30028926102243358 0 -0.078544889372492196 -0.31002595631180607 0 -0.093274829049746905 -0.28897707944045958 0 -0.102844379958099 -0.30028926102243358 0 -0.091873739319295072 -0.31122357941036211 0 -0.078544889372492196 -0.31002595631180607 0 -0.102844379958099 -0.30028926102243358 0 -0.078544889372492196 -0.31002595631180607 0 -0.078544889372492196 -0.31002595631180607 0 -0.073760113918316481 -0.30436986552081963 0 -0.05424539878688571 -0.319762651601179 0 -0.073760113918316481 -0.30436986552081963 0 -0.05424539878688571 -0.319762651601179 0 -0.073760113918316481 -0.30436986552081963 0 -0.071188273097670243 -0.28513602236808322 0 -0.055748641784298267 -0.30178875706485681 0 -0.073760113918316481 -0.30436986552081963 0 -0.071188273097670243 -0.28513602236808322 0 -0.093274829049746905 -0.28897707944045958 0 -0.073760113918316481 -0.30436986552081963 0 -0.093274829049746905 -0.28897707944045958 0 -0.071188273097670243 -0.28513602236808322 0 -0.093274829049746905 -0.28897707944045958 0 -0.090174700483665673 -0.26498018187443112 0 -0.071188273097670243 -0.28513602236808322 0 -0.063484538676239377 -0.26413124226689111 0 -0.090174700483665673 -0.26498018187443112 0 -0.063484538676239377 -0.26413124226689111 0 -0.076282262678724011 -0.24169347649274159 0 -0.063484538676239377 -0.26413124226689111 0 -0.090174700483665673 -0.26498018187443112 0 -0.076282262678724011 -0.24169347649274159 0 -0.036942597034766073 -0.27265489088473938 0 -0.050686814673754729 -0.28656900804104057 0 -0.0185119813334658 -0.28327625011988139 0 -0.038581934025118947 -0.25114857380685968 0 -0.038334603868346327 -0.2604973367990705 0 -0.03064478186574425 -0.25326356670072259 0 -0.038334603868346327 -0.2604973367990705 0 -0.029413390480137139 -0.26518294325465769 0 -0.03064478186574425 -0.25326356670072259 0 -0.038334603868346327 -0.2604973367990705 0 -0.046517308340487992 -0.25474718453952289 0 -0.048289188575406587 -0.26955092917192058 0 -0.038581934025118947 -0.25114857380685968 0 -0.038334603868346327 -0.2604973367990705 0 -0.046517308340487992 -0.25474718453952289 0 -0.063484538676239377 -0.26413124226689111 0 -0.046517308340487992 -0.25474718453952289 0 -0.0567919256119837 -0.24387644547435741 0 -0.063484538676239377 -0.26413124226689111 0 -0.046517308340487992 -0.25474718453952289 0 -0.048289188575406587 -0.26955092917192058 0 -0.063484538676239377 -0.26413124226689111 0 -0.050686814673754729 -0.28656900804104057 0 -0.071188273097670243 -0.28513602236808322 0 -0.063484538676239377 -0.26413124226689111 0 -0.050686814673754729 -0.28656900804104057 0 -0.063484538676239377 -0.26413124226689111 0 -0.048289188575406587 -0.26955092917192058 0 -0.050686814673754729 -0.28656900804104057 0 -0.048289188575406587 -0.26955092917192058 0 -0.036942597034766073 -0.27265489088473938 0 -0.050686814673754729 -0.28656900804104057 0 -0.038334603868346327 -0.2604973367990705 0 -0.048289188575406587 -0.26955092917192058 0 -0.036942597034766073 -0.27265489088473938 0 -0.038334603868346327 -0.2604973367990705 0 -0.036942597034766073 -0.27265489088473938 0 -0.029413390480137139 -0.26518294325465769 0 -0.050686814673754729 -0.28656900804104057 0 -0.037889090671270123 -0.30900677381518998 0 -0.0185119813334658 -0.28327625011988139 0 -0.071188273097670243 -0.28513602236808322 0 -0.050686814673754729 -0.28656900804104057 0 -0.055748641784298267 -0.30178875706485681 0 -0.073760113918316481 -0.30436986552081963 0 -0.055748641784298267 -0.30178875706485681 0 -0.05424539878688571 -0.319762651601179 0 -0.055748641784298267 -0.30178875706485681 0 -0.037889090671270123 -0.30900677381518998 0 -0.05424539878688571 -0.319762651601179 0 -0.050686814673754729 -0.28656900804104057 0 -0.055748641784298267 -0.30178875706485681 0 -0.037889090671270123 -0.30900677381518998 0 -0.050686814673754729 -0.28656900804104057 0 -0.037889090671270123 -0.30900677381518998 0 -0.037889090671270123 -0.30900677381518998 0 -0.014390974368570029 -0.31032982847088841 0 -0.0185119813334658 -0.28327625011988139 0 -0.014390974368570029 -0.31032982847088841 0 0.001904989571353899 -0.32214434476741449 0 0.0019518825097332619 -0.30029273945570772 0 -0.014390974368570029 -0.31032982847088841 0 -0.0185119813334658 -0.28327625011988139 0 0.0019518825097332619 -0.30029273945570772 0 -0.0185119813334658 -0.28327625011988139 0 -0.0020851015340006161 -0.28052611142458661 0 0.0019518825097332619 -0.30029273945570772 0 -0.014390974368570029 -0.31032982847088841 0 -0.0185119813334658 -0.28327625011988139 0 -0.036942597034766073 -0.27265489088473938 0 -0.0185119813334658 -0.28327625011988139 0 -0.029413390480137139 -0.26518294325465769 0 -0.0185119813334658 -0.28327625011988139 0 -0.02263298829836323 -0.25622267176887481 0 -0.029413390480137139 -0.26518294325465769 0 -0.0185119813334658 -0.28327625011988139 0 -0.02263298829836323 -0.25622267176887481 0 -0.0185119813334658 -0.28327625011988139 0 -0.0093077836028632385 -0.27105033158696179 0 -0.02263298829836323 -0.25622267176887481 0 -0.0185119813334658 -0.28327625011988139 0 -0.0020851015340006161 -0.28052611142458661 0 -0.0093077836028632385 -0.27105033158696179 0 -0.0020851015340006161 -0.28052611142458661 0 -0.0093077836028632385 -0.27105033158696179 0 0.0055944649301708496 -0.26664830233551728 0 -0.014059514610042069 -0.25416210053859828 0 -0.02263298829836323 -0.25622267176887481 0 0.0055944649301708496 -0.26664830233551728 0 -0.0093077836028632385 -0.27105033158696179 0 -0.02263298829836323 -0.25622267176887481 0 0.0055944649301708496 -0.26664830233551728 0 -0.02263298829836323 -0.25622267176887481 0 0.0055944649301708496 -0.26664830233551728 0 -0.014059514610042069 -0.25416210053859828 0 -0.0080727856436109482 -0.2481099565327444 0 0.0055944649301708496 -0.26664830233551728 0 -0.014059514610042069 -0.25416210053859828 0 -0.01887874476148543 -0.24814250919209771 0 -0.0080727856436109482 -0.2481099565327444 0 -0.014059514610042069 -0.25416210053859828 0 -0.02263298829836323 -0.25622267176887481 0 -0.02285766608625657 -0.25474770747244752 0 -0.014059514610042069 -0.25416210053859828 0 -0.02285766608625657 -0.25474770747244752 0 -0.01887874476148543 -0.24814250919209771 0 -0.02285766608625657 -0.25474770747244752 0 -0.026067501294639708 -0.24850247980592871 0 -0.01887874476148543 -0.24814250919209771 0 -0.02263298829836323 -0.25622267176887481 0 -0.02285766608625657 -0.25474770747244752 0 -0.02263298829836323 -0.25622267176887481 0 -0.029413390480137139 -0.26518294325465769 0 -0.03064478186574425 -0.25326356670072259 0 -0.02263298829836323 -0.25622267176887481 0 -0.03064478186574425 -0.25326356670072259 0 -0.02263298829836323 -0.25622267176887481 0 -0.02285766608625657 -0.25474770747244752 0 -0.03064478186574425 -0.25326356670072259 0 -0.02285766608625657 -0.25474770747244752 0 -0.03064478186574425 -0.25326356670072259 0 -0.026067501294639708 -0.24850247980592871 0 -0.040780788735907937 -0.34809370153295588 0 -0.035070660285960877 -0.35841379707961513 0 -0.051335308585544609 -0.35442186843706669 0 -0.040780788735907937 -0.34809370153295588 0 -0.033802973987086503 -0.33588719504380232 0 -0.029167969020145641 -0.35132386348016093 0 -0.040780788735907937 -0.34809370153295588 0 -0.035070660285960877 -0.35841379707961513 0 -0.029167969020145641 -0.35132386348016093 0 -0.035070660285960877 -0.35841379707961513 0 -0.040000350022935588 -0.37213681664196291 0 -0.021437446366364531 -0.36359117576668931 0 -0.035070660285960877 -0.35841379707961513 0 -0.058387822440418388 -0.36975607908058028 0 -0.035070660285960877 -0.35841379707961513 0 -0.040000350022935588 -0.37213681664196291 0 -0.058387822440418388 -0.36975607908058028 0 -0.040000350022935588 -0.37213681664196291 0 -0.058387822440418388 -0.36975607908058028 0 -0.058563253679506787 -0.38068245751723601 0 -0.035070660285960877 -0.35841379707961513 0 -0.058387822440418388 -0.36975607908058028 0 -0.051335308585544609 -0.35442186843706669 0 -0.066522813126512412 -0.35680227137673098 0 -0.058387822440418388 -0.36975607908058028 0 -0.051335308585544609 -0.35442186843706669 0 -0.066522813126512412 -0.35680227137673098 0 -0.051335308585544609 -0.35442186843706669 0 -0.054527031800802053 -0.34042178362413461 0 -0.040780788735907937 -0.34809370153295588 0 -0.051335308585544609 -0.35442186843706669 0 -0.054527031800802053 -0.34042178362413461 0 -0.066882954587322394 -0.32486941793266988 0 -0.054527031800802053 -0.34042178362413461 0 -0.05424539878688571 -0.319762651601179 0 -0.054527031800802053 -0.34042178362413461 0 -0.05424539878688571 -0.319762651601179 0 -0.033802973987086503 -0.33588719504380232 0 -0.05424539878688571 -0.319762651601179 0 -0.039668382727836717 -0.32560359559526031 0 -0.05424539878688571 -0.319762651601179 0 -0.033802973987086503 -0.33588719504380232 0 -0.037889090671270123 -0.30900677381518998 0 -0.025091366668787349 -0.3314445395893405 0 -0.05424539878688571 -0.319762651601179 0 -0.039668382727836717 -0.32560359559526031 0 -0.033802973987086503 -0.33588719504380232 0 -0.037889090671270123 -0.30900677381518998 0 -0.05424539878688571 -0.319762651601179 0 -0.039668382727836717 -0.32560359559526031 0 -0.037889090671270123 -0.30900677381518998 0 -0.039668382727836717 -0.32560359559526031 0 -0.025091366668787349 -0.3314445395893405 0 -0.040780788735907937 -0.34809370153295588 0 -0.054527031800802053 -0.34042178362413461 0 -0.033802973987086503 -0.33588719504380232 0 -0.039668382727836717 -0.32560359559526031 0 -0.025091366668787349 -0.3314445395893405 0 -0.039668382727836717 -0.32560359559526031 0 -0.033802973987086503 -0.33588719504380232 0 -0.025091366668787349 -0.3314445395893405 0 -0.025091366668787349 -0.3314445395893405 0 -0.01336054918728761 -0.35201173848642592 0 -0.033802973987086503 -0.33588719504380232 0 -0.025091366668787349 -0.3314445395893405 0 -0.01336054918728761 -0.35201173848642592 0 -0.025091366668787349 -0.3314445395893405 0 -0.01532372128421448 -0.33535839064186268 0 -0.01336054918728761 -0.35201173848642592 0 -0.025091366668787349 -0.3314445395893405 0 -0.022734703789933738 -0.32728556430890232 0 -0.01532372128421448 -0.33535839064186268 0 -0.025091366668787349 -0.3314445395893405 0 -0.01532372128421448 -0.33535839064186268 0 -0.022734703789933738 -0.32728556430890232 0 -0.01532372128421448 -0.33535839064186268 0 -0.037889090671270123 -0.30900677381518998 0 -0.014390974368570029 -0.31032982847088841 0 -0.022734703789933738 -0.32728556430890232 0 -0.037889090671270123 -0.30900677381518998 0 -0.025091366668787349 -0.3314445395893405 0 -0.022734703789933738 -0.32728556430890232 0 -0.014390974368570029 -0.31032982847088841 0 -0.022734703789933738 -0.32728556430890232 0 -0.01532372128421448 -0.33535839064186268 0 -0.014390974368570029 -0.31032982847088841 0 -0.010269967403673339 -0.33738340682189533 0 -0.014390974368570029 -0.31032982847088841 0 -0.010269967403673339 -0.33738340682189533 0 -0.01532372128421448 -0.33535839064186268 0 -0.014390974368570029 -0.31032982847088841 0 -0.010269967403673339 -0.33738340682189533 0 0.001904989571353899 -0.32214434476741449 0 -0.010269967403673339 -0.33738340682189533 0 -0.0096343958099064687 -0.34155580596031437 0 0.0075807645751098419 -0.34453611388615663 0 -0.010269967403673339 -0.33738340682189533 0 0.0075807645751098419 -0.34453611388615663 0 -0.0096343958099064687 -0.34155580596031437 0 -0.01532372128421448 -0.33535839064186268 0 -0.01336054918728761 -0.35201173848642592 0 -0.010269967403673339 -0.33738340682189533 0 -0.0096343958099064687 -0.34155580596031437 0 -0.010269967403673339 -0.33738340682189533 0 -0.0096343958099064687 -0.34155580596031437 0 -0.01532372128421448 -0.33535839064186268 0 -0.0096343958099064687 -0.34155580596031437 0 -0.01532372128421448 -0.33535839064186268 0 -0.010269967403673339 -0.33738340682189533 0 -0.01532372128421448 -0.33535839064186268 0 -0.010269967403673339 -0.33738340682189533 0 0.0034794820758208261 -0.33361449123698089 0 0.001904989571353899 -0.32214434476741449 0 -0.0096343958099064687 -0.34155580596031437 0 -0.0070150904897389628 -0.35875101633193152 0 -0.0096343958099064687 -0.34155580596031437 0 -0.0070150904897389628 -0.35875101633193152 0 -0.01336054918728761 -0.35201173848642592 0 -0.0096343958099064687 -0.34155580596031437 0 -0.0070150904897389628 -0.35875101633193152 0 0.0099352179383349771 -0.36287309999936251 0 -0.033802973987086503 -0.33588719504380232 0 -0.01336054918728761 -0.35201173848642592 0 -0.029167969020145641 -0.35132386348016093 0 -0.01336054918728761 -0.35201173848642592 0 -0.029167969020145641 -0.35132386348016093 0 -0.021437446366364531 -0.36359117576668931 0 -0.033802973987086503 -0.33588719504380232 0 -0.01336054918728761 -0.35201173848642592 0 -0.035070660285960877 -0.35841379707961513 0 -0.029167969020145641 -0.35132386348016093 0 -0.021437446366364531 -0.36359117576668931 0 -0.040000350022935588 -0.37213681664196291 0 -0.021437446366364531 -0.36359117576668931 0 -0.02618172091304426 -0.37743656618445498 0 -0.021437446366364531 -0.36359117576668931 0 -0.002178803782163227 -0.37161627006544062 0 -0.02618172091304426 -0.37743656618445498 0 -0.040000350022935588 -0.37213681664196291 0 -0.021437446366364531 -0.36359117576668931 0 -0.01336054918728761 -0.35201173848642592 0 -0.021437446366364531 -0.36359117576668931 0 -0.002178803782163227 -0.37161627006544062 0 -0.01336054918728761 -0.35201173848642592 0 -0.002178803782163227 -0.37161627006544062 0 -0.0070150904897389628 -0.35875101633193152 0 -0.01336054918728761 -0.35201173848642592 0 -0.002178803782163227 -0.37161627006544062 0 -0.002178803782163227 -0.37161627006544062 0 -0.026336278995230201 -0.38905167830789189 0 -0.002178803782163227 -0.37161627006544062 0 -0.0066930742226519926 -0.39143820132839208 0 -0.026336278995230201 -0.38905167830789189 0 -0.0066930742226519926 -0.39143820132839208 0 -0.001728596279610697 -0.40597762003102339 0 -0.017737199096442072 -0.40073047040120602 0 -0.0066930742226519926 -0.39143820132839208 0 -0.017737199096442072 -0.40073047040120602 0 -0.026336278995230201 -0.38905167830789189 0 -0.017737199096442072 -0.40073047040120602 0 -0.026336278995230201 -0.38905167830789189 0 -0.033287388117186109 -0.40399871831440642 0 -0.002178803782163227 -0.37161627006544062 0 -0.026336278995230201 -0.38905167830789189 0 -0.02618172091304426 -0.37743656618445498 0 -0.026336278995230201 -0.38905167830789189 0 -0.02618172091304426 -0.37743656618445498 0 -0.033482850758781962 -0.383939184607547 0 -0.02618172091304426 -0.37743656618445498 0 -0.042372487296275553 -0.37905951185084519 0 -0.033482850758781962 -0.383939184607547 0 -0.02618172091304426 -0.37743656618445498 0 -0.042372487296275553 -0.37905951185084519 0 -0.040000350022935588 -0.37213681664196291 0 -0.02618172091304426 -0.37743656618445498 0 -0.042372487296275553 -0.37905951185084519 0 -0.042372487296275553 -0.37905951185084519 0 -0.039040915830577852 -0.39020898208699611 0 -0.049048127186911553 -0.38756594990863991 0 -0.042372487296275553 -0.37905951185084519 0 -0.039040915830577852 -0.39020898208699611 0 -0.033482850758781962 -0.383939184607547 0 -0.026336278995230201 -0.38905167830789189 0 -0.039040915830577852 -0.39020898208699611 0 -0.033482850758781962 -0.383939184607547 0 -0.026336278995230201 -0.38905167830789189 0 -0.050493754208297943 -0.40648708655034188 0 -0.039040915830577852 -0.39020898208699611 0 -0.048181286987745188 -0.3967611761759377 0 -0.050493754208297943 -0.40648708655034188 0 -0.026336278995230201 -0.38905167830789189 0 -0.039040915830577852 -0.39020898208699611 0 -0.050493754208297943 -0.40648708655034188 0 -0.026336278995230201 -0.38905167830789189 0 -0.033287388117186109 -0.40399871831440642 0 -0.050493754208297943 -0.40648708655034188 0 -0.039040915830577852 -0.39020898208699611 0 -0.048181286987745188 -0.3967611761759377 0 -0.049048127186911553 -0.38756594990863991 0 -0.048181286987745188 -0.3967611761759377 0 -0.055512870853615448 -0.39455951290216967 0 -0.049048127186911553 -0.38756594990863991 0 -0.055512870853615448 -0.39455951290216967 0 -0.052509649903146327 -0.40794203844841681 0 -0.074281153156084773 -0.38791836881244668 0 -0.048181286987745188 -0.3967611761759377 0 -0.055512870853615448 -0.39455951290216967 0 -0.050493754208297943 -0.40648708655034188 0 -0.055512870853615448 -0.39455951290216967 0 -0.052509649903146327 -0.40794203844841681 0 -0.050493754208297943 -0.40648708655034188 0 -0.048181286987745188 -0.3967611761759377 0 -0.050493754208297943 -0.40648708655034188 0 -0.040000350022935588 -0.37213681664196291 0 -0.042372487296275553 -0.37905951185084519 0 -0.058563253679506787 -0.38068245751723601 0 -0.042372487296275553 -0.37905951185084519 0 -0.058563253679506787 -0.38068245751723601 0 -0.040000350022935588 -0.37213681664196291 0 -0.058563253679506787 -0.38068245751723601 0 -0.042372487296275553 -0.37905951185084519 0 -0.058563253679506787 -0.38068245751723601 0 -0.049048127186911553 -0.38756594990863991 0 -0.055512870853615448 -0.39455951290216967 0 -0.058563253679506787 -0.38068245751723601 0 -0.049048127186911553 -0.38756594990863991 0 -0.055571169944573007 -0.4278419796903028 0 -0.060002998013559863 -0.44648162232419802 0 -0.069408814394604765 -0.42365151461769918 0 -0.055571169944573007 -0.4278419796903028 0 -0.060002998013559863 -0.44648162232419802 0 -0.055571169944573007 -0.4278419796903028 0 -0.04142135733128624 -0.43391233418184683 0 -0.048623679129421588 -0.44273110985945369 0 -0.055571169944573007 -0.4278419796903028 0 -0.059775586818595829 -0.41787661413097049 0 -0.069408814394604765 -0.42365151461769918 0 -0.055571169944573007 -0.4278419796903028 0 -0.059775586818595829 -0.41787661413097049 0 -0.052509649903146327 -0.40794203844841681 0 -0.055571169944573007 -0.4278419796903028 0 -0.052509649903146327 -0.40794203844841681 0 -0.038621424185474637 -0.4207153063468223 0 -0.055571169944573007 -0.4278419796903028 0 -0.052509649903146327 -0.40794203844841681 0 -0.052509649903146327 -0.40794203844841681 0 -0.070248957975066639 -0.42074520084202788 0 -0.059775586818595829 -0.41787661413097049 0 -0.052509649903146327 -0.40794203844841681 0 -0.070248957975066639 -0.42074520084202788 0 -0.052509649903146327 -0.40794203844841681 0 -0.050493754208297943 -0.40648708655034188 0 -0.041470954428671609 -0.41006675355118111 0 -0.052509649903146327 -0.40794203844841681 0 -0.050493754208297943 -0.40648708655034188 0 -0.052509649903146327 -0.40794203844841681 0 -0.038621424185474637 -0.4207153063468223 0 -0.033287388117186109 -0.40399871831440642 0 -0.050493754208297943 -0.40648708655034188 0 -0.041470954428671609 -0.41006675355118111 0 -0.052509649903146327 -0.40794203844841681 0 -0.041470954428671609 -0.41006675355118111 0 -0.038621424185474637 -0.4207153063468223 0 -0.033287388117186109 -0.40399871831440642 0 -0.041470954428671609 -0.41006675355118111 0 -0.027792962261932352 -0.41547375898907968 0 -0.041470954428671609 -0.41006675355118111 0 -0.038621424185474637 -0.4207153063468223 0 -0.027792962261932352 -0.41547375898907968 0 -0.055571169944573007 -0.4278419796903028 0 -0.038621424185474637 -0.4207153063468223 0 -0.04142135733128624 -0.43391233418184683 0 -0.038621424185474637 -0.4207153063468223 0 -0.026103506495360269 -0.43222827563723731 0 -0.038621424185474637 -0.4207153063468223 0 -0.04142135733128624 -0.43391233418184683 0 -0.026103506495360269 -0.43222827563723731 0 -0.04142135733128624 -0.43391233418184683 0 -0.026103506495360269 -0.43222827563723731 0 -0.035662081446574762 -0.44437129177822371 0 -0.026103506495360269 -0.43222827563723731 0 -0.027792962261932352 -0.41547375898907968 0 -0.009537301248459449 -0.42510302968362512 0 -0.026103506495360269 -0.43222827563723731 0 -0.009537301248459449 -0.42510302968362512 0 -0.019709463090837601 -0.44530454005801179 0 -0.038621424185474637 -0.4207153063468223 0 -0.026103506495360269 -0.43222827563723731 0 -0.027792962261932352 -0.41547375898907968 0 -0.017737199096442072 -0.40073047040120602 0 -0.027792962261932352 -0.41547375898907968 0 -0.009537301248459449 -0.42510302968362512 0 -0.017737199096442072 -0.40073047040120602 0 -0.033287388117186109 -0.40399871831440642 0 -0.027792962261932352 -0.41547375898907968 0 -0.001728596279610697 -0.40597762003102339 0 -0.017737199096442072 -0.40073047040120602 0 -0.009537301248459449 -0.42510302968362512 0 -0.017737199096442072 -0.40073047040120602 0 -0.009537301248459449 -0.42510302968362512 0 -0.001728596279610697 -0.40597762003102339 0 -0.009537301248459449 -0.42510302968362512 0 0.0082246319185010179 -0.41465428951275207 0 -0.009537301248459449 -0.42510302968362512 0 -0.0013374034004768371 -0.44947558896604423 0 -0.009537301248459449 -0.42510302968362512 0 -0.0013374034004768371 -0.44947558896604423 0 0.01039378864355619 -0.42848339288335913 0 -0.009537301248459449 -0.42510302968362512 0 -0.0013374034004768371 -0.44947558896604423 0 -0.019709463090837601 -0.44530454005801179 0 -0.0013374034004768371 -0.44947558896604423 0 -0.014612752260004851 -0.46155177919014362 0 -0.019709463090837601 -0.44530454005801179 0 -0.0013374034004768371 -0.44947558896604423 0 -0.014612752260004851 -0.46155177919014362 0 0.0068624944475057766 -0.47384814824846327 0 -0.014612752260004851 -0.46155177919014362 0 -0.028521420705905499 -0.4674310816654948 0 -0.030789477839635839 -0.45543267362212791 0 -0.014612752260004851 -0.46155177919014362 0 -0.030789477839635839 -0.45543267362212791 0 -0.019709463090837601 -0.44530454005801179 0 -0.030789477839635839 -0.45543267362212791 0 -0.019709463090837601 -0.44530454005801179 0 -0.035662081446574762 -0.44437129177822371 0 -0.026103506495360269 -0.43222827563723731 0 -0.019709463090837601 -0.44530454005801179 0 -0.035662081446574762 -0.44437129177822371 0 -0.015217900669161011 -0.5 0 -0.01418124297067914 -0.47781864258071971 0 0.0024053695883212941 -0.48891336768777249 0 -0.01418124297067914 -0.47781864258071971 0 0.0068624944475057766 -0.47384814824846327 0 0.0024053695883212941 -0.48891336768777249 0 -0.014612752260004851 -0.46155177919014362 0 -0.01418124297067914 -0.47781864258071971 0 0.0068624944475057766 -0.47384814824846327 0 -0.014612752260004851 -0.46155177919014362 0 -0.028521420705905499 -0.4674310816654948 0 -0.01418124297067914 -0.47781864258071971 0 -0.028521420705905499 -0.4674310816654948 0 -0.01418124297067914 -0.47781864258071971 0 -0.027752274071966478 -0.47742461628286209 0 -0.015217900669161011 -0.5 0 -0.027752274071966478 -0.47742461628286209 0 -0.038171784631523778 -0.48284131767108018 0 -0.015217900669161011 -0.5 0 -0.01418124297067914 -0.47781864258071971 0 -0.027752274071966478 -0.47742461628286209 0 -0.015217900669161011 -0.5 0 -0.043972809743024373 -0.5 0 -0.038171784631523778 -0.48284131767108018 0 -0.043972809743024373 -0.5 0 -0.038171784631523778 -0.48284131767108018 0 -0.049841179956411519 -0.48183723669954598 0 -0.038171784631523778 -0.48284131767108018 0 -0.048675315621036823 -0.47094071089761919 0 -0.038171784631523778 -0.48284131767108018 0 -0.048675315621036823 -0.47094071089761919 0 -0.049841179956411519 -0.48183723669954598 0 -0.027752274071966478 -0.47742461628286209 0 -0.038171784631523778 -0.48284131767108018 0 -0.038764373548703768 -0.47063519779216179 0 -0.028521420705905499 -0.4674310816654948 0 -0.027752274071966478 -0.47742461628286209 0 -0.038764373548703768 -0.47063519779216179 0 -0.038764373548703768 -0.47063519779216179 0 -0.048675315621036823 -0.47094071089761919 0 -0.045335619097383061 -0.46570514195792412 0 -0.038171784631523778 -0.48284131767108018 0 -0.038764373548703768 -0.47063519779216179 0 -0.048675315621036823 -0.47094071089761919 0 -0.048675315621036823 -0.47094071089761919 0 -0.055120034750126161 -0.47128965669693351 0 -0.049841179956411519 -0.48183723669954598 0 -0.048675315621036823 -0.47094071089761919 0 -0.055120034750126161 -0.47128965669693351 0 -0.057384894248553399 -0.46524593439390849 0 -0.055120034750126161 -0.47128965669693351 0 -0.059149819292987238 -0.47777467248794547 0 -0.064422500494955764 -0.4650694252783244 0 -0.059149819292987238 -0.47777467248794547 0 -0.049841179956411519 -0.48183723669954598 0 -0.058853327493046781 -0.48842932436532971 0 -0.055120034750126161 -0.47128965669693351 0 -0.059149819292987238 -0.47777467248794547 0 -0.049841179956411519 -0.48183723669954598 0 -0.059149819292987238 -0.47777467248794547 0 -0.058853327493046781 -0.48842932436532971 0 -0.068575109655922298 -0.48253471263916042 0 -0.043972809743024373 -0.5 0 -0.058853327493046781 -0.48842932436532971 0 -0.072727718816887776 -0.49999999999999672 0 -0.043972809743024373 -0.5 0 -0.049841179956411519 -0.48183723669954598 0 -0.058853327493046781 -0.48842932436532971 0 -0.045123684251444827 -0.45223268167437758 0 -0.035662081446574762 -0.44437129177822371 0 -0.048623679129421588 -0.44273110985945369 0 -0.04142135733128624 -0.43391233418184683 0 -0.035662081446574762 -0.44437129177822371 0 -0.048623679129421588 -0.44273110985945369 0 -0.030789477839635839 -0.45543267362212791 0 -0.045123684251444827 -0.45223268167437758 0 -0.035662081446574762 -0.44437129177822371 0 -0.030789477839635839 -0.45543267362212791 0 -0.045123684251444827 -0.45223268167437758 0 -0.04007978340352341 -0.46172459869688548 0 -0.028521420705905499 -0.4674310816654948 0 -0.030789477839635839 -0.45543267362212791 0 -0.04007978340352341 -0.46172459869688548 0 -0.028521420705905499 -0.4674310816654948 0 -0.038764373548703768 -0.47063519779216179 0 -0.04007978340352341 -0.46172459869688548 0 -0.038764373548703768 -0.47063519779216179 0 -0.04007978340352341 -0.46172459869688548 0 -0.045335619097383061 -0.46570514195792412 0 -0.04007978340352341 -0.46172459869688548 0 -0.045335619097383061 -0.46570514195792412 0 -0.047248161051959649 -0.4591011094540644 0 -0.045123684251444827 -0.45223268167437758 0 -0.04007978340352341 -0.46172459869688548 0 -0.047248161051959649 -0.4591011094540644 0 -0.045123684251444827 -0.45223268167437758 0 -0.050581796861615229 -0.45333412325219669 0 -0.047248161051959649 -0.4591011094540644 0 -0.050581796861615229 -0.45333412325219669 0 -0.047248161051959649 -0.4591011094540644 0 -0.051910461861691633 -0.46612409294888979 0 -0.051910461861691633 -0.46612409294888979 0 -0.05917884661055 -0.4590401041241583 0 -0.060002998013559863 -0.44648162232419802 0 -0.051910461861691633 -0.46612409294888979 0 -0.060002998013559863 -0.44648162232419802 0 -0.050581796861615229 -0.45333412325219669 0 -0.051910461861691633 -0.46612409294888979 0 -0.060002998013559863 -0.44648162232419802 0 -0.048675315621036823 -0.47094071089761919 0 -0.05917884661055 -0.4590401041241583 0 -0.048675315621036823 -0.47094071089761919 0 -0.051910461861691633 -0.46612409294888979 0 -0.05917884661055 -0.4590401041241583 0 -0.048675315621036823 -0.47094071089761919 0 -0.045335619097383061 -0.46570514195792412 0 -0.051910461861691633 -0.46612409294888979 0 -0.045335619097383061 -0.46570514195792412 0 -0.047248161051959649 -0.4591011094540644 0 -0.051910461861691633 -0.46612409294888979 0 -0.055120034750126161 -0.47128965669693351 0 -0.057384894248553399 -0.46524593439390849 0 -0.064422500494955764 -0.4650694252783244 0 -0.048675315621036823 -0.47094071089761919 0 -0.057384894248553399 -0.46524593439390849 0 -0.05917884661055 -0.4590401041241583 0 -0.057384894248553399 -0.46524593439390849 0 -0.05917884661055 -0.4590401041241583 0 -0.059237257045792073 -0.46090013765886428 0 -0.064422500494955764 -0.4650694252783244 0 -0.057384894248553399 -0.46524593439390849 0 -0.059237257045792073 -0.46090013765886428 0 -0.064422500494955764 -0.4650694252783244 0 -0.057384894248553399 -0.46524593439390849 0 -0.059237257045792073 -0.46090013765886428 0 -0.05917884661055 -0.4590401041241583 0 -0.059237257045792073 -0.46090013765886428 0 -0.062180371227510647 -0.45563934639583059 0 -0.064422500494955764 -0.4650694252783244 0 -0.059237257045792073 -0.46090013765886428 0 -0.05917884661055 -0.4590401041241583 0 -0.062180371227510647 -0.45563934639583059 0 -0.05917884661055 -0.4590401041241583 0 -0.062180371227510647 -0.45563934639583059 0 -0.05917884661055 -0.4590401041241583 0 -0.061269440441321127 -0.45180810022505591 0 -0.05917884661055 -0.4590401041241583 0 -0.062180371227510647 -0.45563934639583059 0 -0.061269440441321127 -0.45180810022505591 0 -0.062180371227510647 -0.45563934639583059 0 -0.061269440441321127 -0.45180810022505591 0 -0.055571169944573007 -0.4278419796903028 0 -0.060002998013559863 -0.44648162232419802 0 -0.048623679129421588 -0.44273110985945369 0 -0.05917884661055 -0.4590401041241583 0 -0.061269440441321127 -0.45180810022505591 0 -0.060002998013559863 -0.44648162232419802 0 -0.061269440441321127 -0.45180810022505591 0 -0.060002998013559863 -0.44648162232419802 0 -0.050581796861615229 -0.45333412325219669 0 -0.060002998013559863 -0.44648162232419802 0 -0.048623679129421588 -0.44273110985945369 0 -0.045123684251444827 -0.45223268167437758 0 -0.050581796861615229 -0.45333412325219669 0 -0.048623679129421588 -0.44273110985945369 0 -0.061269440441321127 -0.45180810022505591 0 -0.069408814394604765 -0.42365151461769918 0 -0.062180371227510647 -0.45563934639583059 0 -0.061269440441321127 -0.45180810022505591 0 -0.077098496045509793 -0.43873696019506903 0 -0.062180371227510647 -0.45563934639583059 0 -0.077098496045509793 -0.43873696019506903 0 -0.073769461018799692 -0.45951707792468061 0 -0.061269440441321127 -0.45180810022505591 0 -0.077098496045509793 -0.43873696019506903 0 -0.069408814394604765 -0.42365151461769918 0 -0.061269440441321127 -0.45180810022505591 0 -0.060002998013559863 -0.44648162232419802 0 -0.069408814394604765 -0.42365151461769918 0 -0.062180371227510647 -0.45563934639583059 0 -0.077098496045509793 -0.43873696019506903 0 -0.062180371227510647 -0.45563934639583059 0 -0.064422500494955764 -0.4650694252783244 0 -0.062180371227510647 -0.45563934639583059 0 -0.064422500494955764 -0.4650694252783244 0 -0.073769461018799692 -0.45951707792468061 0 -0.084521355142842869 -0.45759592347480388 0 -0.086143661312174283 -0.48253471263916248 0 -0.099165393688022629 -0.46120376842987459 0 -0.073769461018799692 -0.45951707792468061 0 -0.084521355142842869 -0.45759592347480388 0 -0.086143661312174283 -0.48253471263916248 0 -0.084521355142842869 -0.45759592347480388 0 -0.089624247433654214 -0.44685599598904568 0 -0.099165393688022629 -0.46120376842987459 0 -0.077098496045509793 -0.43873696019506903 0 -0.084521355142842869 -0.45759592347480388 0 -0.089624247433654214 -0.44685599598904568 0 -0.077098496045509793 -0.43873696019506903 0 -0.073769461018799692 -0.45951707792468061 0 -0.084521355142842869 -0.45759592347480388 0 -0.089624247433654214 -0.44685599598904568 0 -0.099878095611554862 -0.4393977270813314 0 -0.089545628933694749 -0.43673796215895883 0 -0.077098496045509793 -0.43873696019506903 0 -0.089624247433654214 -0.44685599598904568 0 -0.089545628933694749 -0.43673796215895883 0 -0.072727718816887776 -0.49999999999999672 0 -0.068575109655922298 -0.48253471263916042 0 -0.058853327493046781 -0.48842932436532971 0 -0.072727718816887776 -0.49999999999999672 0 -0.068575109655922298 -0.48253471263916042 0 -0.072727718816887776 -0.49999999999999672 0 -0.068575109655922298 -0.48253471263916042 0 -0.086143661312174283 -0.48253471263916248 0 -0.064422500494955764 -0.4650694252783244 0 -0.068575109655922298 -0.48253471263916042 0 -0.059149819292987238 -0.47777467248794547 0 -0.064422500494955764 -0.4650694252783244 0 -0.068575109655922298 -0.48253471263916042 0 -0.064422500494955764 -0.4650694252783244 0 -0.073769461018799692 -0.45951707792468061 0 -0.086143661312174283 -0.48253471263916248 0 -0.064422500494955764 -0.4650694252783244 0 -0.068575109655922298 -0.48253471263916042 0 -0.086143661312174283 -0.48253471263916248 0 -0.064422500494955764 -0.4650694252783244 0 -0.086143661312174283 -0.48253471263916248 0 -0.072727718816887776 -0.49999999999999672 0 -0.086143661312174283 -0.48253471263916248 0 -0.090296270473140428 -0.5 0 -0.086143661312174283 -0.48253471263916248 0 -0.090296270473140428 -0.5 0 -0.10786482212939311 -0.50000000000000011 0 -0.086143661312174283 -0.48253471263916248 0 -0.10786482212939311 -0.50000000000000011 0 -0.086143661312174283 -0.48253471263916248 0 -0.10786482212939311 -0.50000000000000011 0 -0.1056577076014347 -0.47999846360012538 0 -0.086143661312174283 -0.48253471263916248 0 -0.1056577076014347 -0.47999846360012538 0 -0.099165393688022629 -0.46120376842987459 0 -0.1056577076014347 -0.47999846360012538 0 -0.12108079434187891 -0.47202921183540031 0 -0.099165393688022629 -0.46120376842987459 0 -0.1056577076014347 -0.47999846360012538 0 -0.12108079434187891 -0.47202921183540031 0 -0.1206292342060253 -0.48641385964910883 0 -0.131118449396015 -0.5 0 -0.10786482212939311 -0.50000000000000011 0 -0.1206292342060253 -0.48641385964910883 0 -0.10786482212939311 -0.50000000000000011 0 -0.1056577076014347 -0.47999846360012538 0 -0.1206292342060253 -0.48641385964910883 0 -0.099878095611554862 -0.4393977270813314 0 -0.099165393688022629 -0.46120376842987459 0 -0.099878095611554862 -0.4393977270813314 0 -0.099165393688022629 -0.46120376842987459 0 -0.11615585050415531 -0.45102464773050138 0 -0.089624247433654214 -0.44685599598904568 0 -0.099878095611554862 -0.4393977270813314 0 -0.099165393688022629 -0.46120376842987459 0 -0.12108079434187891 -0.47202921183540031 0 -0.099165393688022629 -0.46120376842987459 0 -0.11615585050415531 -0.45102464773050138 0 -0.13077987840644981 -0.46069854066347632 0 -0.12108079434187891 -0.47202921183540031 0 -0.11615585050415531 -0.45102464773050138 0 -0.13194602454298601 -0.43962244526902572 0 -0.11615585050415531 -0.45102464773050138 0 -0.1129403580353462 -0.43280081863281078 0 -0.099878095611554862 -0.4393977270813314 0 -0.11615585050415531 -0.45102464773050138 0 -0.1129403580353462 -0.43280081863281078 0 -0.13194602454298601 -0.43962244526902572 0 -0.1165997240041481 -0.41847011486561592 0 -0.13194602454298601 -0.43962244526902572 0 -0.1129403580353462 -0.43280081863281078 0 -0.1165997240041481 -0.41847011486561592 0 -0.1129403580353462 -0.43280081863281078 0 -0.1079125428112538 -0.41892639524425412 0 -0.1165997240041481 -0.41847011486561592 0 -0.099878095611554862 -0.4393977270813314 0 -0.100590797535087 -0.41759168573278821 0 -0.092016620863508841 -0.4218345739943074 0 -0.099878095611554862 -0.4393977270813314 0 -0.089545628933694749 -0.43673796215895883 0 -0.092016620863508841 -0.4218345739943074 0 -0.099878095611554862 -0.4393977270813314 0 -0.1129403580353462 -0.43280081863281078 0 -0.10283731640903 -0.42510314405888588 0 -0.099878095611554862 -0.4393977270813314 0 -0.100590797535087 -0.41759168573278821 0 -0.099878095611554862 -0.4393977270813314 0 -0.10283731640903 -0.42510314405888588 0 -0.100590797535087 -0.41759168573278821 0 -0.1129403580353462 -0.43280081863281078 0 -0.10283731640903 -0.42510314405888588 0 -0.1079125428112538 -0.41892639524425412 0 -0.100590797535087 -0.41759168573278821 0 -0.1012534234653099 -0.39731778446220639 0 -0.1165997240041481 -0.41847011486561592 0 -0.1012534234653099 -0.39731778446220639 0 -0.100590797535087 -0.41759168573278821 0 -0.094499944748829334 -0.39722631626938482 0 -0.088610052547492879 -0.41006814396079783 0 -0.100590797535087 -0.41759168573278821 0 -0.1079125428112538 -0.41892639524425412 0 -0.1012534234653099 -0.39731778446220639 0 -0.100590797535087 -0.41759168573278821 0 -0.094499944748829334 -0.39722631626938482 0 -0.1079125428112538 -0.41892639524425412 0 -0.1165997240041481 -0.41847011486561592 0 -0.1012534234653099 -0.39731778446220639 0 -0.10283731640903 -0.42510314405888588 0 -0.100590797535087 -0.41759168573278821 0 -0.1079125428112538 -0.41892639524425412 0 -0.10283731640903 -0.42510314405888588 0 -0.100590797535087 -0.41759168573278821 0 -0.12592730430259419 -0.40432488328170318 0 -0.1165997240041481 -0.41847011486561592 0 -0.1152538145686829 -0.39895411709426332 0 -0.1165997240041481 -0.41847011486561592 0 -0.1152538145686829 -0.39895411709426332 0 -0.1012534234653099 -0.39731778446220639 0 -0.12526638733901391 -0.39147447277512609 0 -0.12592730430259419 -0.40432488328170318 0 -0.1152538145686829 -0.39895411709426332 0 -0.12526638733901391 -0.39147447277512609 0 -0.1152538145686829 -0.39895411709426332 0 -0.1147112201852714 -0.38836266809632891 0 -0.1152538145686829 -0.39895411709426332 0 -0.1147112201852714 -0.38836266809632891 0 -0.1077648281157602 -0.39377477908459929 0 -0.12526638733901391 -0.39147447277512609 0 -0.12201267174342199 -0.37938718301114999 0 -0.1147112201852714 -0.38836266809632891 0 -0.1147112201852714 -0.38836266809632891 0 -0.1094440337948836 -0.37923577087639421 0 -0.1073228884697877 -0.3875649225559597 0 -0.1147112201852714 -0.38836266809632891 0 -0.1073228884697877 -0.3875649225559597 0 -0.1077648281157602 -0.39377477908459929 0 -0.12201267174342199 -0.37938718301114999 0 -0.1147112201852714 -0.38836266809632891 0 -0.1094440337948836 -0.37923577087639421 0 -0.1159926709000937 -0.36685414663024191 0 -0.12201267174342199 -0.37938718301114999 0 -0.1094440337948836 -0.37923577087639421 0 -0.1024060606807759 -0.36205135125861898 0 -0.1094440337948836 -0.37923577087639421 0 -0.1016559479587178 -0.38500202459504551 0 -0.1094440337948836 -0.37923577087639421 0 -0.1016559479587178 -0.38500202459504551 0 -0.1073228884697877 -0.3875649225559597 0 -0.1016559479587178 -0.38500202459504551 0 -0.1014693111655476 -0.390712419775258 0 -0.1016559479587178 -0.38500202459504551 0 -0.1073228884697877 -0.3875649225559597 0 -0.1014693111655476 -0.390712419775258 0 -0.1016559479587178 -0.38500202459504551 0 -0.091585827134305964 -0.3839926061052007 0 -0.1016559479587178 -0.38500202459504551 0 -0.1014693111655476 -0.390712419775258 0 -0.093729726096669103 -0.3869476153003294 0 -0.1016559479587178 -0.38500202459504551 0 -0.091585827134305964 -0.3839926061052007 0 -0.093729726096669103 -0.3869476153003294 0 -0.1014693111655476 -0.390712419775258 0 -0.093729726096669103 -0.3869476153003294 0 -0.1016559479587178 -0.38500202459504551 0 -0.095426438310298192 -0.37780241062099151 0 -0.091585827134305964 -0.3839926061052007 0 -0.100590797535087 -0.41759168573278821 0 -0.1012534234653099 -0.39731778446220639 0 -0.099487365185966847 -0.39952233119993291 0 -0.100590797535087 -0.41759168573278821 0 -0.094499944748829334 -0.39722631626938482 0 -0.099487365185966847 -0.39952233119993291 0 -0.1152538145686829 -0.39895411709426332 0 -0.1077648281157602 -0.39377477908459929 0 -0.1012534234653099 -0.39731778446220639 0 -0.1073228884697877 -0.3875649225559597 0 -0.1077648281157602 -0.39377477908459929 0 -0.1014693111655476 -0.390712419775258 0 -0.1077648281157602 -0.39377477908459929 0 -0.1012534234653099 -0.39731778446220639 0 -0.1014693111655476 -0.390712419775258 0 -0.1077648281157602 -0.39377477908459929 0 -0.1014693111655476 -0.390712419775258 0 -0.1012534234653099 -0.39731778446220639 0 -0.094499944748829334 -0.39722631626938482 0 -0.099487365185966847 -0.39952233119993291 0 -0.1012534234653099 -0.39731778446220639 0 -0.094499944748829334 -0.39722631626938482 0 -0.093729726096669103 -0.3869476153003294 0 -0.1012534234653099 -0.39731778446220639 0 -0.1014693111655476 -0.390712419775258 0 -0.093729726096669103 -0.3869476153003294 0 -0.1012534234653099 -0.39731778446220639 0 -0.093729726096669103 -0.3869476153003294 0 -0.1012534234653099 -0.39731778446220639 0 -0.1014693111655476 -0.390712419775258 0 -0.094499944748829334 -0.39722631626938482 0 -0.099487365185966847 -0.39952233119993291 0 -0.094499944748829334 -0.39722631626938482 0 -0.085553154766675646 -0.40134027138503481 0 -0.088610052547492879 -0.41006814396079783 0 -0.094499944748829334 -0.39722631626938482 0 -0.082560309743270749 -0.39172977139542609 0 -0.085553154766675646 -0.40134027138503481 0 -0.094499944748829334 -0.39722631626938482 0 -0.082560309743270749 -0.39172977139542609 0 -0.091033556626635648 -0.38563610430902873 0 -0.094499944748829334 -0.39722631626938482 0 -0.082560309743270749 -0.39172977139542609 0 -0.094499944748829334 -0.39722631626938482 0 -0.091033556626635648 -0.38563610430902873 0 -0.082560309743270749 -0.39172977139542609 0 -0.079097438192195432 -0.39013559964190198 0 -0.074673198083630793 -0.40544040024196493 0 -0.082560309743270749 -0.39172977139542609 0 -0.079097438192195432 -0.39013559964190198 0 -0.082560309743270749 -0.39172977139542609 0 -0.076542312027108539 -0.406336853914531 0 -0.082560309743270749 -0.39172977139542609 0 -0.085553154766675646 -0.40134027138503481 0 -0.076542312027108539 -0.406336853914531 0 -0.085553154766675646 -0.40134027138503481 0 -0.076542312027108539 -0.406336853914531 0 -0.088610052547492879 -0.41006814396079783 0 -0.090139611558562177 -0.37333304007799939 0 -0.088525620654428705 -0.37725057202694517 0 -0.088525620654428705 -0.37725057202694517 0 -0.087954911787112483 -0.37534235041220648 0 -0.08170780991661282 -0.38109255286014232 0 -0.090139611558562177 -0.37333304007799939 0 -0.088525620654428705 -0.37725057202694517 0 -0.087954911787112483 -0.37534235041220648 0 -0.088525620654428705 -0.37725057202694517 0 -0.087954911787112483 -0.37534235041220648 0 -0.090139611558562177 -0.37333304007799939 0 -0.095426438310298192 -0.37780241062099151 0 -0.088525620654428705 -0.37725057202694517 0 -0.088525620654428705 -0.37725057202694517 0 -0.091585827134305964 -0.3839926061052007 0 -0.095426438310298192 -0.37780241062099151 0 -0.088525620654428705 -0.37725057202694517 0 -0.091585827134305964 -0.3839926061052007 0 -0.088525620654428705 -0.37725057202694517 0 -0.086634605294488312 -0.38349630075200858 0 -0.088525620654428705 -0.37725057202694517 0 -0.086634605294488312 -0.38349630075200858 0 -0.091585827134305964 -0.3839926061052007 0 -0.082560309743270749 -0.39172977139542609 0 -0.086634605294488312 -0.38349630075200858 0 -0.091033556626635648 -0.38563610430902873 0 -0.094499944748829334 -0.39722631626938482 0 -0.091033556626635648 -0.38563610430902873 0 -0.093729726096669103 -0.3869476153003294 0 -0.086634605294488312 -0.38349630075200858 0 -0.091585827134305964 -0.3839926061052007 0 -0.086634605294488312 -0.38349630075200858 0 -0.091033556626635648 -0.38563610430902873 0 -0.086634605294488312 -0.38349630075200858 0 -0.091585827134305964 -0.3839926061052007 0 -0.091033556626635648 -0.38563610430902873 0 -0.091585827134305964 -0.3839926061052007 0 -0.091033556626635648 -0.38563610430902873 0 -0.093729726096669103 -0.3869476153003294 0 -0.091033556626635648 -0.38563610430902873 0 -0.093729726096669103 -0.3869476153003294 0 -0.091585827134305964 -0.3839926061052007 0 -0.093729726096669103 -0.3869476153003294 0 -0.091585827134305964 -0.3839926061052007 0 -0.091033556626635648 -0.38563610430902873 0 -0.082560309743270749 -0.39172977139542609 0 -0.086634605294488312 -0.38349630075200858 0 -0.082560309743270749 -0.39172977139542609 0 -0.086634605294488312 -0.38349630075200858 0 -0.081174899406055781 -0.38294902548401538 0 -0.082560309743270749 -0.39172977139542609 0 -0.079097438192195432 -0.39013559964190198 0 -0.081174899406055781 -0.38294902548401538 0 -0.079097438192195432 -0.39013559964190198 0 -0.081174899406055781 -0.38294902548401538 0 -0.074281153156084773 -0.38791836881244668 0 -0.079097438192195432 -0.39013559964190198 0 -0.081174899406055781 -0.38294902548401538 0 -0.086634605294488312 -0.38349630075200858 0 -0.081174899406055781 -0.38294902548401538 0 -0.088525620654428705 -0.37725057202694517 0 -0.086634605294488312 -0.38349630075200858 0 -0.08170780991661282 -0.38109255286014232 0 -0.086634605294488312 -0.38349630075200858 0 -0.081174899406055781 -0.38294902548401538 0 -0.08170780991661282 -0.38109255286014232 0 -0.086634605294488312 -0.38349630075200858 0 -0.08170780991661282 -0.38109255286014232 0 -0.081174899406055781 -0.38294902548401538 0 -0.08170780991661282 -0.38109255286014232 0 -0.087954911787112483 -0.37534235041220648 0 -0.08170780991661282 -0.38109255286014232 0 -0.055512870853615448 -0.39455951290216967 0 -0.058563253679506787 -0.38068245751723601 0 -0.074281153156084773 -0.38791836881244668 0 -0.058563253679506787 -0.38068245751723601 0 -0.074281153156084773 -0.38791836881244668 0 -0.058387822440418388 -0.36975607908058028 0 -0.08170780991661282 -0.38109255286014232 0 -0.058387822440418388 -0.36975607908058028 0 -0.081174899406055781 -0.38294902548401538 0 -0.08170780991661282 -0.38109255286014232 0 -0.058563253679506787 -0.38068245751723601 0 -0.081174899406055781 -0.38294902548401538 0 -0.074281153156084773 -0.38791836881244668 0 -0.058563253679506787 -0.38068245751723601 0 -0.081174899406055781 -0.38294902548401538 0 -0.058387822440418388 -0.36975607908058028 0 -0.058563253679506787 -0.38068245751723601 0 -0.081174899406055781 -0.38294902548401538 0 -0.081174899406055781 -0.38294902548401538 0 -0.074281153156084773 -0.38791836881244668 0 -0.079097438192195432 -0.39013559964190198 0 -0.074281153156084773 -0.38791836881244668 0 -0.079097438192195432 -0.39013559964190198 0 -0.074281153156084773 -0.38791836881244668 0 -0.074673198083630793 -0.40544040024196493 0 -0.052509649903146327 -0.40794203844841681 0 -0.074281153156084773 -0.38791836881244668 0 -0.052509649903146327 -0.40794203844841681 0 -0.074281153156084773 -0.38791836881244668 0 -0.074673198083630793 -0.40544040024196493 0 -0.082560309743270749 -0.39172977139542609 0 -0.074673198083630793 -0.40544040024196493 0 -0.076542312027108539 -0.406336853914531 0 -0.079097438192195432 -0.39013559964190198 0 -0.074673198083630793 -0.40544040024196493 0 -0.052509649903146327 -0.40794203844841681 0 -0.074673198083630793 -0.40544040024196493 0 -0.070248957975066639 -0.42074520084202788 0 -0.076542312027108539 -0.406336853914531 0 -0.070248957975066639 -0.42074520084202788 0 -0.074673198083630793 -0.40544040024196493 0 -0.070248957975066639 -0.42074520084202788 0 -0.074673198083630793 -0.40544040024196493 0 -0.076542312027108539 -0.406336853914531 0 -0.070248957975066639 -0.42074520084202788 0 -0.070248957975066639 -0.42074520084202788 0 -0.077246521605040669 -0.42579562012280953 0 -0.078194253298280558 -0.41865647959270891 0 -0.076542312027108539 -0.406336853914531 0 -0.070248957975066639 -0.42074520084202788 0 -0.078194253298280558 -0.41865647959270891 0 -0.059775586818595829 -0.41787661413097049 0 -0.070248957975066639 -0.42074520084202788 0 -0.069408814394604765 -0.42365151461769918 0 -0.060002998013559863 -0.44648162232419802 0 -0.069408814394604765 -0.42365151461769918 0 -0.070248957975066639 -0.42074520084202788 0 -0.069408814394604765 -0.42365151461769918 0 -0.077098496045509793 -0.43873696019506903 0 -0.069408814394604765 -0.42365151461769918 0 -0.077246521605040669 -0.42579562012280953 0 -0.070248957975066639 -0.42074520084202788 0 -0.069408814394604765 -0.42365151461769918 0 -0.077246521605040669 -0.42579562012280953 0 -0.070248957975066639 -0.42074520084202788 0 -0.077246521605040669 -0.42579562012280953 0 -0.077246521605040669 -0.42579562012280953 0 -0.082943237868067593 -0.4239856173255338 0 -0.078194253298280558 -0.41865647959270891 0 -0.077098496045509793 -0.43873696019506903 0 -0.082943237868067593 -0.4239856173255338 0 -0.092016620863508841 -0.4218345739943074 0 -0.077098496045509793 -0.43873696019506903 0 -0.089545628933694749 -0.43673796215895883 0 -0.092016620863508841 -0.4218345739943074 0 -0.077098496045509793 -0.43873696019506903 0 -0.092016620863508841 -0.4218345739943074 0 -0.077098496045509793 -0.43873696019506903 0 -0.077246521605040669 -0.42579562012280953 0 -0.082943237868067593 -0.4239856173255338 0 -0.100590797535087 -0.41759168573278821 0 -0.092016620863508841 -0.4218345739943074 0 -0.088610052547492879 -0.41006814396079783 0 -0.082943237868067593 -0.4239856173255338 0 -0.092016620863508841 -0.4218345739943074 0 -0.083714880680240453 -0.41622037016703428 0 -0.092016620863508841 -0.4218345739943074 0 -0.088610052547492879 -0.41006814396079783 0 -0.083714880680240453 -0.41622037016703428 0 -0.076542312027108539 -0.406336853914531 0 -0.088610052547492879 -0.41006814396079783 0 -0.083714880680240453 -0.41622037016703428 0 -0.076542312027108539 -0.406336853914531 0 -0.078194253298280558 -0.41865647959270891 0 -0.083714880680240453 -0.41622037016703428 0 -0.082943237868067593 -0.4239856173255338 0 -0.078194253298280558 -0.41865647959270891 0 -0.083714880680240453 -0.41622037016703428 0 -0.081808777729522386 -0.083143660930833002 0 -0.073985000225153141 -0.099795971436559522 0 -0.085935801107842547 -0.09579043756499836 0 -0.081808777729522386 -0.083143660930833002 0 -0.085935801107842547 -0.09579043756499836 0 -0.094306078709463503 -0.087148618235937392 0 -0.081808777729522386 -0.083143660930833002 0 -0.094306078709463503 -0.087148618235937392 0 -0.095869533599057435 -0.074719864200214883 0 -0.081808777729522386 -0.083143660930833002 0 -0.087640100333796281 -0.066301869750421821 0 -0.076351800502585221 -0.068318825045574613 0 -0.081808777729522386 -0.083143660930833002 0 -0.087640100333796281 -0.066301869750421821 0 -0.095869533599057435 -0.074719864200214883 0 -0.087640100333796281 -0.066301869750421821 0 -0.095869533599057435 -0.074719864200214883 0 -0.097041901727127691 -0.062312633498474219 0 -0.087640100333796281 -0.066301869750421821 0 -0.076351800502585221 -0.068318825045574613 0 -0.079773765115028039 -0.057914828426178573 0 -0.081808777729522386 -0.083143660930833002 0 -0.076351800502585221 -0.068318825045574613 0 -0.068001603171865072 -0.074911341683796137 0 -0.068001603171865072 -0.074911341683796137 0 -0.065822825648978775 -0.060485584973140792 0 -0.05753372126900759 -0.073422836261521005 0 -0.076351800502585221 -0.068318825045574613 0 -0.068001603171865072 -0.074911341683796137 0 -0.065822825648978775 -0.060485584973140792 0 -0.068001603171865072 -0.074911341683796137 0 -0.066670257350634976 -0.085780572793309681 0 -0.05753372126900759 -0.073422836261521005 0 -0.081808777729522386 -0.083143660930833002 0 -0.066670257350634976 -0.085780572793309681 0 -0.073985000225153141 -0.099795971436559522 0 -0.081808777729522386 -0.083143660930833002 0 -0.068001603171865072 -0.074911341683796137 0 -0.066670257350634976 -0.085780572793309681 0 -0.066670257350634976 -0.085780572793309681 0 -0.073985000225153141 -0.099795971436559522 0 -0.05982498813170789 -0.10249801488187529 0 -0.073985000225153141 -0.099795971436559522 0 -0.065415314349395459 -0.11473522154729129 0 -0.05982498813170789 -0.10249801488187529 0 -0.073985000225153141 -0.099795971436559522 0 -0.065415314349395459 -0.11473522154729129 0 -0.07727601190464152 -0.1134926659633375 0 -0.065415314349395459 -0.11473522154729129 0 -0.060446148579459319 -0.1303024678998376 0 -0.071674103496310607 -0.1250344835198243 0 -0.07727601190464152 -0.1134926659633375 0 -0.082994471061899833 -0.1234246307735777 0 -0.071674103496310607 -0.1250344835198243 0 -0.065415314349395459 -0.11473522154729129 0 -0.07727601190464152 -0.1134926659633375 0 -0.071674103496310607 -0.1250344835198243 0 -0.07727601190464152 -0.1134926659633375 0 -0.082994471061899833 -0.1234246307735777 0 -0.08680817640523622 -0.1078855820033275 0 -0.082994471061899833 -0.1234246307735777 0 -0.08680817640523622 -0.1078855820033275 0 -0.095277368860953449 -0.1178446661751102 0 -0.082994471061899833 -0.1234246307735777 0 -0.095277368860953449 -0.1178446661751102 0 -0.095971306836852913 -0.13086642389395989 0 -0.085935801107842547 -0.09579043756499836 0 -0.08680817640523622 -0.1078855820033275 0 -0.1020424425883536 -0.1015565670732166 0 -0.073985000225153141 -0.099795971436559522 0 -0.085935801107842547 -0.09579043756499836 0 -0.08680817640523622 -0.1078855820033275 0 -0.073985000225153141 -0.099795971436559522 0 -0.07727601190464152 -0.1134926659633375 0 -0.08680817640523622 -0.1078855820033275 0 -0.085935801107842547 -0.09579043756499836 0 -0.1020424425883536 -0.1015565670732166 0 -0.094306078709463503 -0.087148618235937392 0 -0.08680817640523622 -0.1078855820033275 0 -0.1020424425883536 -0.1015565670732166 0 -0.095277368860953449 -0.1178446661751102 0 -0.1020424425883536 -0.1015565670732166 0 -0.095277368860953449 -0.1178446661751102 0 -0.1085913382140784 -0.11903379143832921 0 -0.095277368860953449 -0.1178446661751102 0 -0.1085913382140784 -0.11903379143832921 0 -0.095971306836852913 -0.13086642389395989 0 -0.1085913382140784 -0.11903379143832921 0 -0.11893842975153809 -0.10446969177473921 0 -0.12736410167423581 -0.1213878944680517 0 -0.1020424425883536 -0.1015565670732166 0 -0.11893842975153809 -0.10446969177473921 0 -0.1189291253072135 -0.086669643832799348 0 -0.1020424425883536 -0.1015565670732166 0 -0.1085913382140784 -0.11903379143832921 0 -0.11893842975153809 -0.10446969177473921 0 -0.1189291253072135 -0.086669643832799348 0 -0.1056068239719813 -0.08097964138995771 0 -0.1139735316209595 -0.069866863539540053 0 -0.1020424425883536 -0.1015565670732166 0 -0.1189291253072135 -0.086669643832799348 0 -0.1056068239719813 -0.08097964138995771 0 -0.1020424425883536 -0.1015565670732166 0 -0.1056068239719813 -0.08097964138995771 0 -0.094306078709463503 -0.087148618235937392 0 -0.1056068239719813 -0.08097964138995771 0 -0.094306078709463503 -0.087148618235937392 0 -0.095869533599057435 -0.074719864200214883 0 -0.095869533599057435 -0.074719864200214883 0 -0.1039382096783972 -0.069282752438140638 0 -0.097041901727127691 -0.062312633498474219 0 -0.1056068239719813 -0.08097964138995771 0 -0.1039382096783972 -0.069282752438140638 0 -0.1139735316209595 -0.069866863539540053 0 -0.1056068239719813 -0.08097964138995771 0 -0.095869533599057435 -0.074719864200214883 0 -0.1039382096783972 -0.069282752438140638 0 -0.1039382096783972 -0.069282752438140638 0 -0.097041901727127691 -0.062312633498474219 0 -0.1071992574728602 -0.058534759562516372 0 -0.1039382096783972 -0.069282752438140638 0 -0.1139735316209595 -0.069866863539540053 0 -0.1071992574728602 -0.058534759562516372 0 -0.1189291253072135 -0.086669643832799348 0 -0.1139735316209595 -0.069866863539540053 0 -0.12930964035960699 -0.069761515268982097 0 -0.1139735316209595 -0.069866863539540053 0 -0.1161384697585349 -0.056806249932135858 0 -0.12930964035960699 -0.069761515268982097 0 -0.1161384697585349 -0.056806249932135858 0 -0.1208541397454049 -0.045822468476665427 0 -0.12930964035960699 -0.069761515268982097 0 -0.1248214427799455 -0.0491876577223027 0 -0.1208541397454049 -0.045822468476665427 0 -0.12930964035960699 -0.069761515268982097 0 -0.1161384697585349 -0.056806249932135858 0 -0.10991932193075039 -0.048940588969216672 0 -0.1071992574728602 -0.058534759562516372 0 -0.1139735316209595 -0.069866863539540053 0 -0.1161384697585349 -0.056806249932135858 0 -0.1071992574728602 -0.058534759562516372 0 -0.1161384697585349 -0.056806249932135858 0 -0.10991932193075039 -0.048940588969216672 0 -0.1149357203506014 -0.047989794102068162 0 -0.1161384697585349 -0.056806249932135858 0 -0.1149357203506014 -0.047989794102068162 0 -0.1208541397454049 -0.045822468476665427 0 -0.1248214427799455 -0.0491876577223027 0 -0.1208541397454049 -0.045822468476665427 0 -0.1246368416492639 -0.024787675353444869 0 -0.1128309499677153 -0.040389869030254703 0 -0.10841128816168021 -0.033720593740292633 0 -0.11239863913120279 -0.021883421684348751 0 -0.1208541397454049 -0.045822468476665427 0 -0.11239863913120279 -0.021883421684348751 0 -0.1208541397454049 -0.045822468476665427 0 -0.1128309499677153 -0.040389869030254703 0 -0.11239863913120279 -0.021883421684348751 0 -0.1248214427799455 -0.0491876577223027 0 -0.1246368416492639 -0.024787675353444869 0 -0.1149357203506014 -0.047989794102068162 0 -0.1208541397454049 -0.045822468476665427 0 -0.1128309499677153 -0.040389869030254703 0 -0.10991932193075039 -0.048940588969216672 0 -0.1149357203506014 -0.047989794102068162 0 -0.1128309499677153 -0.040389869030254703 0 -0.10991932193075039 -0.048940588969216672 0 -0.1128309499677153 -0.040389869030254703 0 -0.1049963107845597 -0.040407454994133042 0 -0.10991932193075039 -0.048940588969216672 0 -0.1049963107845597 -0.040407454994133042 0 -0.1002598709818909 -0.049694841596422852 0 -0.1049963107845597 -0.040407454994133042 0 -0.10841128816168021 -0.033720593740292633 0 -0.1012581714839781 -0.029848849592015819 0 -0.1128309499677153 -0.040389869030254703 0 -0.1049963107845597 -0.040407454994133042 0 -0.10841128816168021 -0.033720593740292633 0 -0.097298262181343159 -0.039849987036595598 0 -0.1012581714839781 -0.029848849592015819 0 -0.091929659262116575 -0.033133953101480262 0 -0.1049963107845597 -0.040407454994133042 0 -0.097298262181343159 -0.039849987036595598 0 -0.1012581714839781 -0.029848849592015819 0 -0.1049963107845597 -0.040407454994133042 0 -0.097298262181343159 -0.039849987036595598 0 -0.1002598709818909 -0.049694841596422852 0 -0.097298262181343159 -0.039849987036595598 0 -0.1002598709818909 -0.049694841596422852 0 -0.087030839425688053 -0.044306376809862227 0 -0.1002598709818909 -0.049694841596422852 0 -0.097041901727127691 -0.062312633498474219 0 -0.1071992574728602 -0.058534759562516372 0 -0.1002598709818909 -0.049694841596422852 0 -0.097041901727127691 -0.062312633498474219 0 -0.090164156554830718 -0.055563028782557922 0 -0.10991932193075039 -0.048940588969216672 0 -0.1002598709818909 -0.049694841596422852 0 -0.1071992574728602 -0.058534759562516372 0 -0.1244522405185825 -0.00038769298458709092 0 -0.11239863913120279 -0.021883421684348751 0 -0.10394313851700079 0.0020556251079679459 0 -0.1244522405185825 -0.00038769298458709092 0 -0.1246368416492639 -0.024787675353444869 0 -0.1244522405185825 -0.00038769298458709092 0 -0.11239863913120279 -0.021883421684348751 0 -0.1246368416492639 -0.024787675353444869 0 -0.1208541397454049 -0.045822468476665427 0 -0.11239863913120279 -0.021883421684348751 0 -0.1246368416492639 -0.024787675353444869 0 -0.10841128816168021 -0.033720593740292633 0 -0.11239863913120279 -0.021883421684348751 0 -0.1012581714839781 -0.029848849592015819 0 -0.1012581714839781 -0.029848849592015819 0 -0.090677970328949406 -0.022917020247476879 0 -0.091929659262116575 -0.033133953101480262 0 -0.1012581714839781 -0.029848849592015819 0 -0.1001126671493681 -0.016491083843961009 0 -0.090677970328949406 -0.022917020247476879 0 -0.1001126671493681 -0.016491083843961009 0 -0.092285416285709382 -0.0098617528039315269 0 -0.090677970328949406 -0.022917020247476879 0 -0.11239863913120279 -0.021883421684348751 0 -0.1012581714839781 -0.029848849592015819 0 -0.1001126671493681 -0.016491083843961009 0 -0.1001126671493681 -0.016491083843961009 0 -0.092285416285709382 -0.0098617528039315269 0 -0.10394313851700079 0.0020556251079679459 0 -0.11239863913120279 -0.021883421684348751 0 -0.1001126671493681 -0.016491083843961009 0 -0.10394313851700079 0.0020556251079679459 0 -0.092285416285709382 -0.0098617528039315269 0 -0.10394313851700079 0.0020556251079679459 0 -0.085958893623968774 0.001514634656162053 0 -0.11239863913120279 -0.021883421684348751 0 -0.10394313851700079 0.0020556251079679459 0 -0.092285416285709382 -0.0098617528039315269 0 -0.077949881484559239 -0.01307625006729682 0 -0.085958893623968774 0.001514634656162053 0 -0.092285416285709382 -0.0098617528039315269 0 -0.090677970328949406 -0.022917020247476879 0 -0.077949881484559239 -0.01307625006729682 0 -0.090677970328949406 -0.022917020247476879 0 -0.073841780976804383 -0.025706854857452392 0 -0.077949881484559239 -0.01307625006729682 0 -0.090677970328949406 -0.022917020247476879 0 -0.073841780976804383 -0.025706854857452392 0 -0.082102255714859004 -0.034759692131612618 0 -0.090677970328949406 -0.022917020247476879 0 -0.091929659262116575 -0.033133953101480262 0 -0.082102255714859004 -0.034759692131612618 0 -0.073841780976804383 -0.025706854857452392 0 -0.077949881484559239 -0.01307625006729682 0 -0.060674527584339763 -0.015412449877807689 0 -0.073841780976804383 -0.025706854857452392 0 -0.060674527584339763 -0.015412449877807689 0 -0.060703590497751453 -0.03101491529774986 0 -0.077949881484559239 -0.01307625006729682 0 -0.085958893623968774 0.001514634656162053 0 -0.065648076432031049 0.00090955339710942099 0 -0.077949881484559239 -0.01307625006729682 0 -0.060674527584339763 -0.015412449877807689 0 -0.065648076432031049 0.00090955339710942099 0 -0.079773765115028039 -0.057914828426178573 0 -0.087030839425688053 -0.044306376809862227 0 -0.074827122987446398 -0.047817820925290022 0 -0.079773765115028039 -0.057914828426178573 0 -0.090164156554830718 -0.055563028782557922 0 -0.087030839425688053 -0.044306376809862227 0 -0.087640100333796281 -0.066301869750421821 0 -0.079773765115028039 -0.057914828426178573 0 -0.090164156554830718 -0.055563028782557922 0 -0.087640100333796281 -0.066301869750421821 0 -0.097041901727127691 -0.062312633498474219 0 -0.090164156554830718 -0.055563028782557922 0 -0.1002598709818909 -0.049694841596422852 0 -0.090164156554830718 -0.055563028782557922 0 -0.087030839425688053 -0.044306376809862227 0 -0.097298262181343159 -0.039849987036595598 0 -0.087030839425688053 -0.044306376809862227 0 -0.091929659262116575 -0.033133953101480262 0 -0.087030839425688053 -0.044306376809862227 0 -0.091929659262116575 -0.033133953101480262 0 -0.082102255714859004 -0.034759692131612618 0 -0.087030839425688053 -0.044306376809862227 0 -0.082102255714859004 -0.034759692131612618 0 -0.074827122987446398 -0.047817820925290022 0 -0.082102255714859004 -0.034759692131612618 0 -0.070942460250367517 -0.03706080152277047 0 -0.074827122987446398 -0.047817820925290022 0 -0.073841780976804383 -0.025706854857452392 0 -0.082102255714859004 -0.034759692131612618 0 -0.070942460250367517 -0.03706080152277047 0 -0.073841780976804383 -0.025706854857452392 0 -0.070942460250367517 -0.03706080152277047 0 -0.060703590497751453 -0.03101491529774986 0 -0.070942460250367517 -0.03706080152277047 0 -0.061850736208416378 -0.044087883634974623 0 -0.060703590497751453 -0.03101491529774986 0 -0.070942460250367517 -0.03706080152277047 0 -0.074827122987446398 -0.047817820925290022 0 -0.061850736208416378 -0.044087883634974623 0 -0.074827122987446398 -0.047817820925290022 0 -0.065822825648978775 -0.060485584973140792 0 -0.061850736208416378 -0.044087883634974623 0 -0.079773765115028039 -0.057914828426178573 0 -0.074827122987446398 -0.047817820925290022 0 -0.065822825648978775 -0.060485584973140792 0 -0.076351800502585221 -0.068318825045574613 0 -0.079773765115028039 -0.057914828426178573 0 -0.065822825648978775 -0.060485584973140792 0 -0.065822825648978775 -0.060485584973140792 0 -0.051906109188989122 -0.051634581827710108 0 -0.055146373663134192 -0.063188587977351315 0 -0.065822825648978775 -0.060485584973140792 0 -0.051906109188989122 -0.051634581827710108 0 -0.061850736208416378 -0.044087883634974623 0 -0.051906109188989122 -0.051634581827710108 0 -0.044968642856814678 -0.064628327886466996 0 -0.055146373663134192 -0.063188587977351315 0 -0.061850736208416378 -0.044087883634974623 0 -0.048286593140243993 -0.039377229684959138 0 -0.060703590497751453 -0.03101491529774986 0 -0.051906109188989122 -0.051634581827710108 0 -0.061850736208416378 -0.044087883634974623 0 -0.048286593140243993 -0.039377229684959138 0 -0.048286593140243993 -0.039377229684959138 0 -0.039642814346724391 -0.052475069278980747 0 -0.030584103036016622 -0.035608219704199993 0 -0.039642814346724391 -0.052475069278980747 0 -0.024435088609687641 -0.049746151716912712 0 -0.030584103036016622 -0.035608219704199993 0 -0.048286593140243993 -0.039377229684959138 0 -0.044331283213942488 -0.020119990811347448 0 -0.030584103036016622 -0.035608219704199993 0 -0.039642814346724391 -0.052475069278980747 0 -0.03034189778213453 -0.060014988360291517 0 -0.024435088609687641 -0.049746151716912712 0 -0.039642814346724391 -0.052475069278980747 0 -0.03034189778213453 -0.060014988360291517 0 -0.044968642856814678 -0.064628327886466996 0 -0.051906109188989122 -0.051634581827710108 0 -0.039642814346724391 -0.052475069278980747 0 -0.044968642856814678 -0.064628327886466996 0 -0.051906109188989122 -0.051634581827710108 0 -0.048286593140243993 -0.039377229684959138 0 -0.039642814346724391 -0.052475069278980747 0 -0.060674527584339763 -0.015412449877807689 0 -0.044331283213942488 -0.020119990811347448 0 -0.045118160941850949 -0.00049033847668307538 0 -0.060674527584339763 -0.015412449877807689 0 -0.045118160941850949 -0.00049033847668307538 0 -0.065648076432031049 0.00090955339710942099 0 -0.048286593140243993 -0.039377229684959138 0 -0.060703590497751453 -0.03101491529774986 0 -0.044331283213942488 -0.020119990811347448 0 -0.060674527584339763 -0.015412449877807689 0 -0.060703590497751453 -0.03101491529774986 0 -0.044331283213942488 -0.020119990811347448 0 -0.044331283213942488 -0.020119990811347448 0 -0.027025641752002061 -0.0079319500279313396 0 -0.030584103036016622 -0.035608219704199993 0 -0.044331283213942488 -0.020119990811347448 0 -0.045118160941850949 -0.00049033847668307538 0 -0.027025641752002061 -0.0079319500279313396 0 -0.027025641752002061 -0.0079319500279313396 0 -0.0118242871531395 -0.020545428430059291 0 -0.0091716063734174208 -0.003332990253060792 0 -0.027025641752002061 -0.0079319500279313396 0 -0.0091716063734174208 -0.003332990253060792 0 -0.01566814095190756 0.010235570601176981 0 -0.027025641752002061 -0.0079319500279313396 0 -0.0118242871531395 -0.020545428430059291 0 -0.030584103036016622 -0.035608219704199993 0 -0.0118242871531395 -0.020545428430059291 0 -0.030584103036016622 -0.035608219704199993 0 -0.0118242871531395 -0.020545428430059291 0 0.006935528729737548 -0.0054826371559186567 0 0.0027408304473846411 -0.028176541972939319 0 -0.0118242871531395 -0.020545428430059291 0 -0.01026660782967455 -0.041229232136501717 0 0.0027408304473846411 -0.028176541972939319 0 -0.0118242871531395 -0.020545428430059291 0 -0.0091716063734174208 -0.003332990253060792 0 0.006935528729737548 -0.0054826371559186567 0 -0.0118242871531395 -0.020545428430059291 0 0.006935528729737548 -0.0054826371559186567 0 -0.024435088609687641 -0.049746151716912712 0 -0.01026660782967455 -0.041229232136501717 0 -0.01499476028908407 -0.06055090283160456 0 -0.03034189778213453 -0.060014988360291517 0 -0.01499476028908407 -0.06055090283160456 0 -0.03034189778213453 -0.060014988360291517 0 -0.024435088609687641 -0.049746151716912712 0 -0.01499476028908407 -0.06055090283160456 0 -0.024435088609687641 -0.049746151716912712 0 -0.030584103036016622 -0.035608219704199993 0 -0.01026660782967455 -0.041229232136501717 0 -0.0118242871531395 -0.020545428430059291 0 -0.030584103036016622 -0.035608219704199993 0 -0.01026660782967455 -0.041229232136501717 0 -0.01026660782967455 -0.041229232136501717 0 0.0096258971738255473 -0.043108802377643002 0 0.00035237720396625368 -0.061086817302918282 0 -0.01026660782967455 -0.041229232136501717 0 -0.01499476028908407 -0.06055090283160456 0 0.00035237720396625368 -0.061086817302918282 0 -0.01499476028908407 -0.06055090283160456 0 0.00035237720396625368 -0.061086817302918282 0 -0.011408129540087309 -0.083886203777590068 0 0.0065051428120863272 -0.082127796022149757 0 0.00035237720396625368 -0.061086817302918282 0 -0.011408129540087309 -0.083886203777590068 0 0.00035237720396625368 -0.061086817302918282 0 -0.01499476028908407 -0.06055090283160456 0 -0.011408129540087309 -0.083886203777590068 0 0.00035237720396625368 -0.061086817302918282 0 -0.011408129540087309 -0.083886203777590068 0 0.001856719827670471 -0.098182337095309047 0 0.0065051428120863272 -0.082127796022149757 0 -0.011408129540087309 -0.083886203777590068 0 -0.03053113156520738 -0.089911417014305078 0 -0.02316863628414112 -0.10668559025226169 0 -0.011408129540087309 -0.083886203777590068 0 -0.03053113156520738 -0.089911417014305078 0 -0.026049830403481512 -0.075342802050597457 0 -0.01499476028908407 -0.06055090283160456 0 -0.011408129540087309 -0.083886203777590068 0 -0.026049830403481512 -0.075342802050597457 0 -0.03034189778213453 -0.060014988360291517 0 -0.01499476028908407 -0.06055090283160456 0 -0.026049830403481512 -0.075342802050597457 0 -0.03034189778213453 -0.060014988360291517 0 -0.026049830403481512 -0.075342802050597457 0 -0.041349905228919973 -0.078428718904655664 0 -0.03034189778213453 -0.060014988360291517 0 -0.044968642856814678 -0.064628327886466996 0 -0.041349905228919973 -0.078428718904655664 0 -0.03053113156520738 -0.089911417014305078 0 -0.026049830403481512 -0.075342802050597457 0 -0.041349905228919973 -0.078428718904655664 0 -0.03053113156520738 -0.089911417014305078 0 -0.041349905228919973 -0.078428718904655664 0 -0.047432501145458397 -0.097370211357339573 0 -0.041349905228919973 -0.078428718904655664 0 -0.053879666709155317 -0.08598560359304859 0 -0.05753372126900759 -0.073422836261521005 0 -0.041349905228919973 -0.078428718904655664 0 -0.053879666709155317 -0.08598560359304859 0 -0.047432501145458397 -0.097370211357339573 0 -0.066670257350634976 -0.085780572793309681 0 -0.053879666709155317 -0.08598560359304859 0 -0.05982498813170789 -0.10249801488187529 0 -0.066670257350634976 -0.085780572793309681 0 -0.053879666709155317 -0.08598560359304859 0 -0.05753372126900759 -0.073422836261521005 0 -0.044968642856814678 -0.064628327886466996 0 -0.041349905228919973 -0.078428718904655664 0 -0.05753372126900759 -0.073422836261521005 0 -0.065822825648978775 -0.060485584973140792 0 -0.05753372126900759 -0.073422836261521005 0 -0.055146373663134192 -0.063188587977351315 0 -0.044968642856814678 -0.064628327886466996 0 -0.05753372126900759 -0.073422836261521005 0 -0.055146373663134192 -0.063188587977351315 0 -0.065415314349395459 -0.11473522154729129 0 -0.048239208743362072 -0.1165718691901324 0 -0.05982498813170789 -0.10249801488187529 0 -0.065415314349395459 -0.11473522154729129 0 -0.048239208743362072 -0.1165718691901324 0 -0.060446148579459319 -0.1303024678998376 0 -0.048239208743362072 -0.1165718691901324 0 -0.05982498813170789 -0.10249801488187529 0 -0.047432501145458397 -0.097370211357339573 0 -0.053879666709155317 -0.08598560359304859 0 -0.05982498813170789 -0.10249801488187529 0 -0.047432501145458397 -0.097370211357339573 0 -0.048239208743362072 -0.1165718691901324 0 -0.047432501145458397 -0.097370211357339573 0 -0.02316863628414112 -0.10668559025226169 0 -0.03053113156520738 -0.089911417014305078 0 -0.047432501145458397 -0.097370211357339573 0 -0.02316863628414112 -0.10668559025226169 0 -0.048239208743362072 -0.1165718691901324 0 -0.02316863628414112 -0.10668559025226169 0 -0.029948833034415319 -0.13246817914486481 0 -0.02316863628414112 -0.10668559025226169 0 -0.01250087523651249 -0.12826546419306251 0 -0.029948833034415319 -0.13246817914486481 0 -0.011408129540087309 -0.083886203777590068 0 -0.02316863628414112 -0.10668559025226169 0 -0.02316863628414112 -0.10668559025226169 0 0.0015243557028834459 -0.11711868301268021 0 0.001856719827670471 -0.098182337095309047 0 -0.011408129540087309 -0.083886203777590068 0 -0.02316863628414112 -0.10668559025226169 0 0.001856719827670471 -0.098182337095309047 0 -0.02316863628414112 -0.10668559025226169 0 -0.01250087523651249 -0.12826546419306251 0 0.0015243557028834459 -0.11711868301268021 0 -0.01250087523651249 -0.12826546419306251 0 -0.013317386200938249 -0.14799664519887931 0 0.0088678229424013627 -0.13941235935176011 0 -0.01250087523651249 -0.12826546419306251 0 0.0088678229424013627 -0.13941235935176011 0 0.0015243557028834459 -0.11711868301268021 0 -0.01250087523651249 -0.12826546419306251 0 -0.029948833034415319 -0.13246817914486481 0 -0.013317386200938249 -0.14799664519887931 0 -0.013317386200938249 -0.14799664519887931 0 -0.035502595344277812 -0.15658093104599841 0 -0.029948833034415319 -0.13246817914486481 0 -0.013317386200938249 -0.14799664519887931 0 -0.035502595344277812 -0.15658093104599841 0 -0.013317386200938249 -0.14799664519887931 0 0.0088678229424013627 -0.13941235935176011 0 -0.013317386200938249 -0.14799664519887931 0 0.0027310736070901482 -0.15493719994590471 0 0.0088678229424013627 -0.13941235935176011 0 -0.013317386200938249 -0.14799664519887931 0 -0.0013673002328405961 -0.1767093328090546 0 0.0027310736070901482 -0.15493719994590471 0 -0.013317386200938249 -0.14799664519887931 0 -0.0013673002328405961 -0.1767093328090546 0 -0.029934926785222919 -0.1776443960910804 0 -0.0013673002328405961 -0.1767093328090546 0 -0.0217915143334447 -0.19785215020996011 0 -0.0013673002328405961 -0.1767093328090546 0 -0.029934926785222919 -0.1776443960910804 0 -0.0217915143334447 -0.19785215020996011 0 -0.013317386200938249 -0.14799664519887931 0 -0.029934926785222919 -0.1776443960910804 0 -0.035502595344277812 -0.15658093104599841 0 -0.035502595344277812 -0.15658093104599841 0 -0.057687804487617317 -0.16516521689311761 0 -0.029934926785222919 -0.1776443960910804 0 -0.035502595344277812 -0.15658093104599841 0 -0.057687804487617317 -0.16516521689311761 0 -0.029934926785222919 -0.1776443960910804 0 -0.048583433801033478 -0.18728911877980611 0 -0.034676635542126917 -0.191298641696723 0 -0.029934926785222919 -0.1776443960910804 0 -0.048583433801033478 -0.18728911877980611 0 -0.057687804487617317 -0.16516521689311761 0 -0.048583433801033478 -0.18728911877980611 0 -0.057687804487617317 -0.16516521689311761 0 -0.063770138428779252 -0.18079669395549949 0 -0.035502595344277812 -0.15658093104599841 0 -0.057687804487617317 -0.16516521689311761 0 -0.06059931965736505 -0.14742373122833671 0 -0.035502595344277812 -0.15658093104599841 0 -0.06059931965736505 -0.14742373122833671 0 -0.046947221071775923 -0.13666943570183401 0 -0.048239208743362072 -0.1165718691901324 0 -0.046947221071775923 -0.13666943570183401 0 -0.060446148579459319 -0.1303024678998376 0 -0.06059931965736505 -0.14742373122833671 0 -0.046947221071775923 -0.13666943570183401 0 -0.060446148579459319 -0.1303024678998376 0 -0.048239208743362072 -0.1165718691901324 0 -0.029948833034415319 -0.13246817914486481 0 -0.046947221071775923 -0.13666943570183401 0 -0.029948833034415319 -0.13246817914486481 0 -0.035502595344277812 -0.15658093104599841 0 -0.046947221071775923 -0.13666943570183401 0 -0.03064478186574425 -0.25326356670072259 0 -0.026067501294639708 -0.24850247980592871 0 -0.033387688564450117 -0.24425465961654741 0 -0.026067501294639708 -0.24850247980592871 0 -0.02456862519526215 -0.24210395604782819 0 -0.033387688564450117 -0.24425465961654741 0 -0.02974340118516787 -0.23585106297766359 0 -0.02456862519526215 -0.24210395604782819 0 -0.02062871475200042 -0.2320366992723622 0 -0.02974340118516787 -0.23585106297766359 0 -0.02456862519526215 -0.24210395604782819 0 -0.033387688564450117 -0.24425465961654741 0 -0.02456862519526215 -0.24210395604782819 0 -0.01660477195623393 -0.2403164687020414 0 -0.02062871475200042 -0.2320366992723622 0 -0.02456862519526215 -0.24210395604782819 0 -0.01660477195623393 -0.2403164687020414 0 -0.01887874476148543 -0.24814250919209771 0 -0.026067501294639708 -0.24850247980592871 0 -0.02456862519526215 -0.24210395604782819 0 -0.01887874476148543 -0.24814250919209771 0 -0.01660477195623393 -0.2403164687020414 0 -0.01887874476148543 -0.24814250919209771 0 -0.0080727856436109482 -0.2481099565327444 0 -0.0080727856436109482 -0.2481099565327444 0 -0.0084819670471955304 -0.2367225590632196 0 0.0055632338660241776 -0.24332209518663511 0 -0.01660477195623393 -0.2403164687020414 0 -0.0084819670471955304 -0.2367225590632196 0 -0.02062871475200042 -0.2320366992723622 0 -0.01660477195623393 -0.2403164687020414 0 -0.0080727856436109482 -0.2481099565327444 0 -0.0084819670471955304 -0.2367225590632196 0 -0.0084819670471955304 -0.2367225590632196 0 -0.0075276580997289226 -0.21896018305478171 0 0.0032521440618358652 -0.23009641691855939 0 -0.0084819670471955304 -0.2367225590632196 0 -0.0075276580997289226 -0.21896018305478171 0 -0.02062871475200042 -0.2320366992723622 0 -0.0075276580997289226 -0.21896018305478171 0 -0.02062871475200042 -0.2320366992723622 0 -0.024832472176938718 -0.21885173135413241 0 -0.02974340118516787 -0.23585106297766359 0 -0.02062871475200042 -0.2320366992723622 0 -0.031998745265470661 -0.22641465662269231 0 -0.02062871475200042 -0.2320366992723622 0 -0.024832472176938718 -0.21885173135413241 0 -0.031998745265470661 -0.22641465662269231 0 -0.0075276580997289226 -0.21896018305478171 0 -0.024832472176938718 -0.21885173135413241 0 -0.0217915143334447 -0.19785215020996011 0 -0.024832472176938718 -0.21885173135413241 0 -0.0217915143334447 -0.19785215020996011 0 -0.042215728434048867 -0.21899496761086559 0 -0.0075276580997289226 -0.21896018305478171 0 -0.0217915143334447 -0.19785215020996011 0 0.003555539334036632 -0.19934620758084881 0 -0.0013673002328405961 -0.1767093328090546 0 -0.0217915143334447 -0.19785215020996011 0 0.003555539334036632 -0.19934620758084881 0 -0.029934926785222919 -0.1776443960910804 0 -0.0217915143334447 -0.19785215020996011 0 -0.034676635542126917 -0.191298641696723 0 -0.0217915143334447 -0.19785215020996011 0 -0.034676635542126917 -0.191298641696723 0 -0.04224094911505525 -0.20168175555289891 0 -0.048583433801033478 -0.18728911877980611 0 -0.034676635542126917 -0.191298641696723 0 -0.04224094911505525 -0.20168175555289891 0 -0.048583433801033478 -0.18728911877980611 0 -0.058327232484387218 -0.2013044317948425 0 -0.063770138428779252 -0.18079669395549949 0 -0.048583433801033478 -0.18728911877980611 0 -0.04224094911505525 -0.20168175555289891 0 -0.058327232484387218 -0.2013044317948425 0 -0.058327232484387218 -0.2013044317948425 0 -0.04785115009529034 -0.21335122322519601 0 -0.065984069430329237 -0.21594808513783789 0 -0.04224094911505525 -0.20168175555289891 0 -0.058327232484387218 -0.2013044317948425 0 -0.04785115009529034 -0.21335122322519601 0 -0.04785115009529034 -0.21335122322519601 0 -0.065984069430329237 -0.21594808513783789 0 -0.04785115009529034 -0.21335122322519601 0 -0.050089297127046031 -0.22131182591420251 0 -0.065984069430329237 -0.21594808513783789 0 -0.0217915143334447 -0.19785215020996011 0 -0.042215728434048867 -0.21899496761086559 0 -0.0217915143334447 -0.19785215020996011 0 -0.04224094911505525 -0.20168175555289891 0 -0.042215728434048867 -0.21899496761086559 0 -0.04224094911505525 -0.20168175555289891 0 -0.04785115009529034 -0.21335122322519601 0 -0.042215728434048867 -0.21899496761086559 0 -0.04785115009529034 -0.21335122322519601 0 -0.042215728434048867 -0.21899496761086559 0 -0.050089297127046031 -0.22131182591420251 0 -0.024832472176938718 -0.21885173135413241 0 -0.031998745265470661 -0.22641465662269231 0 -0.042215728434048867 -0.21899496761086559 0 -0.031998745265470661 -0.22641465662269231 0 -0.042215728434048867 -0.21899496761086559 0 -0.041320068815934301 -0.22639292378782619 0 -0.031998745265470661 -0.22641465662269231 0 -0.041320068815934301 -0.22639292378782619 0 -0.038133232148655979 -0.23444534332888789 0 -0.02974340118516787 -0.23585106297766359 0 -0.031998745265470661 -0.22641465662269231 0 -0.038133232148655979 -0.23444534332888789 0 -0.041320068815934301 -0.22639292378782619 0 -0.052151212760384272 -0.22988480121754831 0 -0.038133232148655979 -0.23444534332888789 0 -0.042215728434048867 -0.21899496761086559 0 -0.041320068815934301 -0.22639292378782619 0 -0.050089297127046031 -0.22131182591420251 0 -0.041320068815934301 -0.22639292378782619 0 -0.050089297127046031 -0.22131182591420251 0 -0.052151212760384272 -0.22988480121754831 0 -0.0567919256119837 -0.24387644547435741 0 -0.065984069430329237 -0.21594808513783789 0 -0.050089297127046031 -0.22131182591420251 0 -0.052151212760384272 -0.22988480121754831 0 -0.065984069430329237 -0.21594808513783789 0 -0.052151212760384272 -0.22988480121754831 0 -0.0567919256119837 -0.24387644547435741 0 -0.065984069430329237 -0.21594808513783789 0 -0.052151212760384272 -0.22988480121754831 0 -0.0567919256119837 -0.24387644547435741 0 -0.045207486351244337 -0.24272005325013779 0 -0.046517308340487992 -0.25474718453952289 0 -0.0567919256119837 -0.24387644547435741 0 -0.045207486351244337 -0.24272005325013779 0 -0.038581934025118947 -0.25114857380685968 0 -0.046517308340487992 -0.25474718453952289 0 -0.045207486351244337 -0.24272005325013779 0 -0.052151212760384272 -0.22988480121754831 0 -0.045207486351244337 -0.24272005325013779 0 -0.038133232148655979 -0.23444534332888789 0 -0.02974340118516787 -0.23585106297766359 0 -0.038133232148655979 -0.23444534332888789 0 -0.033387688564450117 -0.24425465961654741 0 -0.045207486351244337 -0.24272005325013779 0 -0.038133232148655979 -0.23444534332888789 0 -0.033387688564450117 -0.24425465961654741 0 -0.038581934025118947 -0.25114857380685968 0 -0.03064478186574425 -0.25326356670072259 0 -0.033387688564450117 -0.24425465961654741 0 -0.038581934025118947 -0.25114857380685968 0 -0.045207486351244337 -0.24272005325013779 0 -0.033387688564450117 -0.24425465961654741 0 -0.076282262678724011 -0.24169347649274159 0 -0.094544528280961701 -0.23130979592197831 0 -0.1005321994236209 -0.2431127607729493 0 -0.090174700483665673 -0.26498018187443112 0 -0.076282262678724011 -0.24169347649274159 0 -0.1005321994236209 -0.2431127607729493 0 -0.063484538676239377 -0.26413124226689111 0 -0.0567919256119837 -0.24387644547435741 0 -0.076282262678724011 -0.24169347649274159 0 -0.0567919256119837 -0.24387644547435741 0 -0.076282262678724011 -0.24169347649274159 0 -0.076216545617433393 -0.2267874217425101 0 -0.0567919256119837 -0.24387644547435741 0 -0.076216545617433393 -0.2267874217425101 0 -0.065984069430329237 -0.21594808513783789 0 -0.076216545617433393 -0.2267874217425101 0 -0.089079986681209755 -0.21925571071859279 0 -0.065984069430329237 -0.21594808513783789 0 -0.076282262678724011 -0.24169347649274159 0 -0.076216545617433393 -0.2267874217425101 0 -0.089079986681209755 -0.21925571071859279 0 -0.076282262678724011 -0.24169347649274159 0 -0.089079986681209755 -0.21925571071859279 0 -0.076282262678724011 -0.24169347649274159 0 -0.089079986681209755 -0.21925571071859279 0 -0.094544528280961701 -0.23130979592197831 0 -0.089079986681209755 -0.21925571071859279 0 -0.087982693832912948 -0.20610030108417279 0 -0.065984069430329237 -0.21594808513783789 0 -0.089079986681209755 -0.21925571071859279 0 -0.091681034097487346 -0.21469539259619891 0 -0.087982693832912948 -0.20610030108417279 0 -0.089079986681209755 -0.21925571071859279 0 -0.091681034097487346 -0.21469539259619891 0 -0.089079986681209755 -0.21925571071859279 0 -0.065984069430329237 -0.21594808513783789 0 -0.058327232484387218 -0.2013044317948425 0 -0.065984069430329237 -0.21594808513783789 0 -0.072928541530643487 -0.1948487939390374 0 -0.065984069430329237 -0.21594808513783789 0 -0.072928541530643487 -0.1948487939390374 0 -0.087982693832912948 -0.20610030108417279 0 -0.065984069430329237 -0.21594808513783789 0 -0.072928541530643487 -0.1948487939390374 0 -0.058327232484387218 -0.2013044317948425 0 -0.072928541530643487 -0.1948487939390374 0 -0.063770138428779252 -0.18079669395549949 0 -0.087982693832912948 -0.20610030108417279 0 -0.072928541530643487 -0.1948487939390374 0 -0.088647710124579282 -0.1895137930351245 0 -0.087982693832912948 -0.20610030108417279 0 -0.088647710124579282 -0.1895137930351245 0 -0.098413722631135098 -0.19641739989264009 0 -0.088647710124579282 -0.1895137930351245 0 -0.098413722631135098 -0.19641739989264009 0 -0.1039428787252024 -0.18306303235069041 0 -0.087982693832912948 -0.20610030108417279 0 -0.098413722631135098 -0.19641739989264009 0 -0.1018219586260966 -0.2062222809526808 0 -0.098413722631135098 -0.19641739989264009 0 -0.10967337184688419 -0.19718759204053191 0 -0.1018219586260966 -0.2062222809526808 0 -0.098413722631135098 -0.19641739989264009 0 -0.10967337184688419 -0.19718759204053191 0 -0.1039428787252024 -0.18306303235069041 0 -0.1039428787252024 -0.18306303235069041 0 -0.1280127438194481 -0.19237656196114411 0 -0.10967337184688419 -0.19718759204053191 0 -0.1178174188303993 -0.20556040013348681 0 -0.1280127438194481 -0.19237656196114411 0 -0.10967337184688419 -0.19718759204053191 0 -0.1039428787252024 -0.18306303235069041 0 -0.1280127438194481 -0.19237656196114411 0 -0.10967337184688419 -0.19718759204053191 0 -0.10961342770230489 -0.21003706569406461 0 -0.1178174188303993 -0.20556040013348681 0 -0.1178174188303993 -0.20556040013348681 0 -0.1109550451866443 -0.21888036136960631 0 -0.13246178853905299 -0.20873151589840269 0 -0.1109550451866443 -0.21888036136960631 0 -0.13246178853905299 -0.20873151589840269 0 -0.1109550451866443 -0.21888036136960631 0 -0.12407830270498089 -0.22426790937284519 0 -0.13246178853905299 -0.20873151589840269 0 -0.10961342770230489 -0.21003706569406461 0 -0.1178174188303993 -0.20556040013348681 0 -0.1109550451866443 -0.21888036136960631 0 -0.10961342770230489 -0.21003706569406461 0 -0.103172625086798 -0.22127395363072039 0 -0.1109550451866443 -0.21888036136960631 0 -0.10961342770230489 -0.21003706569406461 0 -0.1018219586260966 -0.2062222809526808 0 -0.103172625086798 -0.22127395363072039 0 -0.10967337184688419 -0.19718759204053191 0 -0.10961342770230489 -0.21003706569406461 0 -0.1018219586260966 -0.2062222809526808 0 -0.091681034097487346 -0.21469539259619891 0 -0.087982693832912948 -0.20610030108417279 0 -0.103172625086798 -0.22127395363072039 0 -0.089079986681209755 -0.21925571071859279 0 -0.091681034097487346 -0.21469539259619891 0 -0.103172625086798 -0.22127395363072039 0 -0.087982693832912948 -0.20610030108417279 0 -0.103172625086798 -0.22127395363072039 0 -0.087982693832912948 -0.20610030108417279 0 -0.1018219586260966 -0.2062222809526808 0 -0.103172625086798 -0.22127395363072039 0 -0.094544528280961701 -0.23130979592197831 0 -0.103172625086798 -0.22127395363072039 0 -0.1005321994236209 -0.2431127607729493 0 -0.089079986681209755 -0.21925571071859279 0 -0.103172625086798 -0.22127395363072039 0 -0.089079986681209755 -0.21925571071859279 0 -0.094544528280961701 -0.23130979592197831 0 -0.103172625086798 -0.22127395363072039 0 -0.103172625086798 -0.22127395363072039 0 -0.1223681628105569 -0.24044891992886891 0 -0.103172625086798 -0.22127395363072039 0 -0.12407830270498089 -0.22426790937284519 0 -0.1238233973506119 -0.23541481827178831 0 -0.103172625086798 -0.22127395363072039 0 -0.1223681628105569 -0.24044891992886891 0 -0.1238233973506119 -0.23541481827178831 0 -0.103172625086798 -0.22127395363072039 0 -0.12407830270498089 -0.22426790937284519 0 -0.103172625086798 -0.22127395363072039 0 -0.1109550451866443 -0.21888036136960631 0 -0.12407830270498089 -0.22426790937284519 0 -0.11757885349586771 -0.25701660664448461 0 -0.1223681628105569 -0.24044891992886891 0 -0.1005321994236209 -0.2431127607729493 0 -0.11757885349586771 -0.25701660664448461 0 -0.1223681628105569 -0.24044891992886891 0 -0.1223681628105569 -0.24044891992886891 0 -0.1238233973506119 -0.23541481827178831 0 -0.103172625086798 -0.22127395363072039 0 -0.1223681628105569 -0.24044891992886891 0 -0.1005321994236209 -0.2431127607729493 0 -0.088441251280713618 -0.1477167476767523 0 -0.085474651021334253 -0.13655174303235951 0 -0.077236065216807342 -0.1460130695171887 0 -0.088441251280713618 -0.1477167476767523 0 -0.077236065216807342 -0.1460130695171887 0 -0.072985053953480025 -0.15595005707556001 0 -0.088441251280713618 -0.1477167476767523 0 -0.093538562727787294 -0.15940564464812701 0 -0.098894310772838973 -0.14952020789867901 0 -0.088441251280713618 -0.1477167476767523 0 -0.085474651021334253 -0.13655174303235951 0 -0.095252038160572317 -0.1406191133899993 0 -0.085474651021334253 -0.13655174303235951 0 -0.095971306836852913 -0.13086642389395989 0 -0.095252038160572317 -0.1406191133899993 0 -0.082994471061899833 -0.1234246307735777 0 -0.085474651021334253 -0.13655174303235951 0 -0.095971306836852913 -0.13086642389395989 0 -0.082994471061899833 -0.1234246307735777 0 -0.085474651021334253 -0.13655174303235951 0 -0.073596501371478315 -0.1364787996572045 0 -0.085474651021334253 -0.13655174303235951 0 -0.073596501371478315 -0.1364787996572045 0 -0.077236065216807342 -0.1460130695171887 0 -0.06059931965736505 -0.14742373122833671 0 -0.060446148579459319 -0.1303024678998376 0 -0.073596501371478315 -0.1364787996572045 0 -0.082994471061899833 -0.1234246307735777 0 -0.073596501371478315 -0.1364787996572045 0 -0.071674103496310607 -0.1250344835198243 0 -0.060446148579459319 -0.1303024678998376 0 -0.073596501371478315 -0.1364787996572045 0 -0.071674103496310607 -0.1250344835198243 0 -0.06059931965736505 -0.14742373122833671 0 -0.073596501371478315 -0.1364787996572045 0 -0.077236065216807342 -0.1460130695171887 0 -0.057687804487617317 -0.16516521689311761 0 -0.06059931965736505 -0.14742373122833671 0 -0.072985053953480025 -0.15595005707556001 0 -0.06059931965736505 -0.14742373122833671 0 -0.077236065216807342 -0.1460130695171887 0 -0.072985053953480025 -0.15595005707556001 0 -0.057687804487617317 -0.16516521689311761 0 -0.079873013630956835 -0.17374950274023659 0 -0.057687804487617317 -0.16516521689311761 0 -0.072985053953480025 -0.15595005707556001 0 -0.079873013630956835 -0.17374950274023659 0 -0.072928541530643487 -0.1948487939390374 0 -0.079873013630956835 -0.17374950274023659 0 -0.057687804487617317 -0.16516521689311761 0 -0.063770138428779252 -0.18079669395549949 0 -0.079873013630956835 -0.17374950274023659 0 -0.072928541530643487 -0.1948487939390374 0 -0.063770138428779252 -0.18079669395549949 0 -0.079873013630956835 -0.17374950274023659 0 -0.072928541530643487 -0.1948487939390374 0 -0.088647710124579282 -0.1895137930351245 0 -0.079873013630956835 -0.17374950274023659 0 -0.079873013630956835 -0.17374950274023659 0 -0.1039428787252024 -0.18306303235069041 0 -0.088647710124579282 -0.1895137930351245 0 -0.079873013630956835 -0.17374950274023659 0 -0.1039428787252024 -0.18306303235069041 0 -0.088441251280713618 -0.1477167476767523 0 -0.079873013630956835 -0.17374950274023659 0 -0.079873013630956835 -0.17374950274023659 0 -0.093538562727787294 -0.15940564464812701 0 -0.098088850166783578 -0.16700629557107341 0 -0.088441251280713618 -0.1477167476767523 0 -0.079873013630956835 -0.17374950274023659 0 -0.093538562727787294 -0.15940564464812701 0 -0.088441251280713618 -0.1477167476767523 0 -0.072985053953480025 -0.15595005707556001 0 -0.079873013630956835 -0.17374950274023659 0 -0.093538562727787294 -0.15940564464812701 0 -0.098088850166783578 -0.16700629557107341 0 -0.1023953877876435 -0.15903546935389351 0 -0.098088850166783578 -0.16700629557107341 0 -0.1039428787252024 -0.18306303235069041 0 -0.1119878388851908 -0.16231915977259129 0 -0.098088850166783578 -0.16700629557107341 0 -0.1023953877876435 -0.15903546935389351 0 -0.1119878388851908 -0.16231915977259129 0 -0.079873013630956835 -0.17374950274023659 0 -0.098088850166783578 -0.16700629557107341 0 -0.1039428787252024 -0.18306303235069041 0 -0.1039428787252024 -0.18306303235069041 0 -0.11859204859796291 -0.17560578940816099 0 -0.1119878388851908 -0.16231915977259129 0 -0.1039428787252024 -0.18306303235069041 0 -0.11859204859796291 -0.17560578940816099 0 -0.1280127438194481 -0.19237656196114411 0 -0.1023953877876435 -0.15903546935389351 0 -0.1119878388851908 -0.16231915977259129 0 -0.1169630623746598 -0.14907522687480429 0 -0.11859204859796291 -0.17560578940816099 0 -0.1119878388851908 -0.16231915977259129 0 -0.12588679133122799 -0.1624874708491951 0 -0.1119878388851908 -0.16231915977259129 0 -0.1169630623746598 -0.14907522687480429 0 -0.12588679133122799 -0.1624874708491951 0 -0.1119878388851908 -0.16231915977259129 0 -0.1169630623746598 -0.14907522687480429 0 -0.1023953877876435 -0.15903546935389351 0 -0.1169630623746598 -0.14907522687480429 0 -0.098894310772838973 -0.14952020789867901 0 -0.1169630623746598 -0.14907522687480429 0 -0.098894310772838973 -0.14952020789867901 0 -0.1169630623746598 -0.14907522687480429 0 -0.098894310772838973 -0.14952020789867901 0 -0.1074786708911218 -0.1384404444482458 0 -0.088441251280713618 -0.1477167476767523 0 -0.098894310772838973 -0.14952020789867901 0 -0.095252038160572317 -0.1406191133899993 0 -0.098894310772838973 -0.14952020789867901 0 -0.095252038160572317 -0.1406191133899993 0 -0.1074786708911218 -0.1384404444482458 0 -0.093538562727787294 -0.15940564464812701 0 -0.1023953877876435 -0.15903546935389351 0 -0.098894310772838973 -0.14952020789867901 0 -0.1085913382140784 -0.11903379143832921 0 -0.095971306836852913 -0.13086642389395989 0 -0.1074786708911218 -0.1384404444482458 0 -0.095971306836852913 -0.13086642389395989 0 -0.095252038160572317 -0.1406191133899993 0 -0.1074786708911218 -0.1384404444482458 0 -0.1085913382140784 -0.11903379143832921 0 -0.1074786708911218 -0.1384404444482458 0 -0.12736410167423581 -0.1213878944680517 0 -0.1169630623746598 -0.14907522687480429 0 -0.1074786708911218 -0.1384404444482458 0 -0.12736410167423581 -0.1213878944680517 0 -0.1169630623746598 -0.14907522687480429 0 -0.12736410167423581 -0.1213878944680517 0 -0.13746664940214659 -0.13470709103134659 0 -0.12736410167423581 -0.1213878944680517 0 -0.14737054533773081 -0.1208951937003558 0 -0.1169630623746598 -0.14907522687480429 0 -0.13746664940214659 -0.13470709103134659 0 -0.12736410167423581 -0.1213878944680517 0 -0.1569759497016511 -0.14808982533941309 0 -0.14737054533773081 -0.1208951937003558 0 -0.13746664940214659 -0.13470709103134659 0 -0.1569759497016511 -0.14808982533941309 0 -0.14737054533773081 -0.1208951937003558 0 -0.1369695060381555 -0.1485825261071109 0 -0.1526603788815559 -0.1573596194762775 0 -0.1569759497016511 -0.14808982533941309 0 -0.13746664940214659 -0.13470709103134659 0 -0.1369695060381555 -0.1485825261071109 0 -0.1569759497016511 -0.14808982533941309 0 -0.1369695060381555 -0.1485825261071109 0 -0.1569759497016511 -0.14808982533941309 0 -0.1169630623746598 -0.14907522687480429 0 -0.1369695060381555 -0.1485825261071109 0 -0.1169630623746598 -0.14907522687480429 0 -0.1369695060381555 -0.1485825261071109 0 -0.12588679133122799 -0.1624874708491951 0 -0.1169630623746598 -0.14907522687480429 0 -0.13746664940214659 -0.13470709103134659 0 -0.1369695060381555 -0.1485825261071109 0 -0.11859204859796291 -0.17560578940816099 0 -0.12588679133122799 -0.1624874708491951 0 -0.13147554750711021 -0.17522771154146191 0 -0.12588679133122799 -0.1624874708491951 0 -0.13147554750711021 -0.17522771154146191 0 -0.14107140235061469 -0.16358211752318311 0 -0.13147554750711021 -0.17522771154146191 0 -0.14520517551865919 -0.17294749126987599 0 -0.14107140235061469 -0.16358211752318311 0 -0.1369695060381555 -0.1485825261071109 0 -0.12588679133122799 -0.1624874708491951 0 -0.14107140235061469 -0.16358211752318311 0 -0.11859204859796291 -0.17560578940816099 0 -0.13147554750711021 -0.17522771154146191 0 -0.1280127438194481 -0.19237656196114411 0 -0.13147554750711021 -0.17522771154146191 0 -0.1398254013782112 -0.18365029146927231 0 -0.1280127438194481 -0.19237656196114411 0 -0.13147554750711021 -0.17522771154146191 0 -0.1398254013782112 -0.18365029146927231 0 -0.14520517551865919 -0.17294749126987599 0 -0.1398254013782112 -0.18365029146927231 0 -0.14820117369214661 -0.18035874543477601 0 -0.1498687104188495 -0.18767128888863599 0 -0.1398254013782112 -0.18365029146927231 0 -0.14820117369214661 -0.18035874543477601 0 -0.14520517551865919 -0.17294749126987599 0 -0.14820117369214661 -0.18035874543477601 0 -0.14520517551865919 -0.17294749126987599 0 -0.1568216795970071 -0.17538216601134321 0 -0.14820117369214661 -0.18035874543477601 0 -0.15608754076248521 -0.18190001438557629 0 -0.1568216795970071 -0.17538216601134321 0 -0.14520517551865919 -0.17294749126987599 0 -0.15263532751206779 -0.16758471640843459 0 -0.1568216795970071 -0.17538216601134321 0 -0.14820117369214661 -0.18035874543477601 0 -0.15608754076248521 -0.18190001438557629 0 -0.1498687104188495 -0.18767128888863599 0 -0.15608754076248521 -0.18190001438557629 0 -0.1607184616130248 -0.18728683910860641 0 -0.1498687104188495 -0.18767128888863599 0 -0.1369695060381555 -0.1485825261071109 0 -0.14107140235061469 -0.16358211752318311 0 -0.1526603788815559 -0.1573596194762775 0 -0.14520517551865919 -0.17294749126987599 0 -0.14107140235061469 -0.16358211752318311 0 -0.15263532751206779 -0.16758471640843459 0 -0.15263532751206779 -0.16758471640843459 0 -0.1526603788815559 -0.1573596194762775 0 -0.16142564196989831 -0.16655703171874039 0 -0.14107140235061469 -0.16358211752318311 0 -0.15263532751206779 -0.16758471640843459 0 -0.1526603788815559 -0.1573596194762775 0 -0.1526603788815559 -0.1573596194762775 0 -0.16142564196989831 -0.16655703171874039 0 -0.16326087804426159 -0.16588359066980229 0 -0.16326087804426159 -0.16588359066980229 0 -0.1569759497016511 -0.14808982533941309 0 -0.1526603788815559 -0.1573596194762775 0 -0.16326087804426159 -0.16588359066980229 0 -0.1569759497016511 -0.14808982533941309 0 -0.1594122663447772 -0.17133307891758459 0 -0.16142564196989831 -0.16655703171874039 0 -0.16676641630013581 -0.17580840153182001 0 -0.15263532751206779 -0.16758471640843459 0 -0.1594122663447772 -0.17133307891758459 0 -0.16142564196989831 -0.16655703171874039 0 -0.16142564196989831 -0.16655703171874039 0 -0.16326087804426159 -0.16588359066980229 0 -0.16676641630013581 -0.17580840153182001 0 -0.15263532751206779 -0.16758471640843459 0 -0.1594122663447772 -0.17133307891758459 0 -0.1568216795970071 -0.17538216601134321 0 -0.16142564196989831 -0.16655703171874039 0 -0.16326087804426159 -0.16588359066980229 0 -0.16326087804426159 -0.16588359066980229 0 -0.16676641630013581 -0.17580840153182001 0 -0.1783922457352059 -0.17293489930968209 0 -0.16326087804426159 -0.16588359066980229 0 -0.16676641630013581 -0.17580840153182001 0 -0.15608754076248521 -0.18190001438557629 0 -0.1607184616130248 -0.18728683910860641 0 -0.16676641630013581 -0.17580840153182001 0 -0.15608754076248521 -0.18190001438557629 0 -0.1568216795970071 -0.17538216601134321 0 -0.16676641630013581 -0.17580840153182001 0 -0.1594122663447772 -0.17133307891758459 0 -0.1568216795970071 -0.17538216601134321 0 -0.16676641630013581 -0.17580840153182001 0 -0.1607184616130248 -0.18728683910860641 0 -0.16676641630013581 -0.17580840153182001 0 -0.17547527524387041 -0.1884338249559952 0 -0.17547527524387041 -0.1884338249559952 0 -0.1969820185962792 -0.17828497948479149 0 -0.1783922457352059 -0.17293489930968209 0 -0.17547527524387041 -0.1884338249559952 0 -0.1969820185962792 -0.17828497948479149 0 -0.16676641630013581 -0.17580840153182001 0 -0.1783922457352059 -0.17293489930968209 0 -0.17547527524387041 -0.1884338249559952 0 -0.16326087804426159 -0.16588359066980229 0 -0.18947664049148261 -0.1562636999060015 0 -0.16326087804426159 -0.16588359066980229 0 -0.18633417632017751 -0.14736681724080919 0 -0.18947664049148261 -0.1562636999060015 0 -0.16326087804426159 -0.16588359066980229 0 -0.1783922457352059 -0.17293489930968209 0 -0.18947664049148261 -0.1562636999060015 0 -0.18633417632017751 -0.14736681724080919 0 -0.16621773075288121 -0.1295318635244681 0 -0.18400621351090571 -0.1217110611121094 0 -0.16621773075288121 -0.1295318635244681 0 -0.1569759497016511 -0.14808982533941309 0 -0.14737054533773081 -0.1208951937003558 0 -0.18633417632017751 -0.14736681724080919 0 -0.16621773075288121 -0.1295318635244681 0 -0.1569759497016511 -0.14808982533941309 0 -0.18633417632017751 -0.14736681724080919 0 -0.1569759497016511 -0.14808982533941309 0 -0.16326087804426159 -0.16588359066980229 0 -0.18633417632017751 -0.14736681724080919 0 -0.1569759497016511 -0.14808982533941309 0 -0.1377523016625678 -0.25581657194563601 0 -0.15263230708737521 -0.24356194903458239 0 -0.13476861079800859 -0.2391754021203874 0 -0.15263230708737521 -0.24356194903458239 0 -0.13476861079800859 -0.2391754021203874 0 -0.14055595197029169 -0.22979662500526149 0 -0.1377523016625678 -0.25581657194563601 0 -0.1223681628105569 -0.24044891992886891 0 -0.13476861079800859 -0.2391754021203874 0 -0.1377523016625678 -0.25581657194563601 0 -0.1223681628105569 -0.24044891992886891 0 -0.1238233973506119 -0.23541481827178831 0 -0.13476861079800859 -0.2391754021203874 0 -0.13139441447274411 -0.22962184130071481 0 -0.1223681628105569 -0.24044891992886891 0 -0.1238233973506119 -0.23541481827178831 0 -0.13476861079800859 -0.2391754021203874 0 -0.13476861079800859 -0.2391754021203874 0 -0.14055595197029169 -0.22979662500526149 0 -0.13139441447274411 -0.22962184130071481 0 -0.12407830270498089 -0.22426790937284519 0 -0.1238233973506119 -0.23541481827178831 0 -0.13139441447274411 -0.22962184130071481 0 -0.12407830270498089 -0.22426790937284519 0 -0.13139441447274411 -0.22962184130071481 0 -0.13441394179160859 -0.22010184774946731 0 -0.14055595197029169 -0.22979662500526149 0 -0.13139441447274411 -0.22962184130071481 0 -0.13441394179160859 -0.22010184774946731 0 -0.14055595197029169 -0.22979662500526149 0 -0.13441394179160859 -0.22010184774946731 0 -0.14940536450650499 -0.21373664043116339 0 -0.15263230708737521 -0.24356194903458239 0 -0.14940536450650499 -0.21373664043116339 0 -0.15263230708737521 -0.24356194903458239 0 -0.14940536450650499 -0.21373664043116339 0 -0.16621803193972459 -0.22739125443424221 0 -0.15263230708737521 -0.24356194903458239 0 -0.14055595197029169 -0.22979662500526149 0 -0.14940536450650499 -0.21373664043116339 0 -0.14940536450650499 -0.21373664043116339 0 -0.13246178853905299 -0.20873151589840269 0 -0.1539685318914617 -0.1985826704271989 0 -0.13246178853905299 -0.20873151589840269 0 -0.1539685318914617 -0.1985826704271989 0 -0.13441394179160859 -0.22010184774946731 0 -0.14940536450650499 -0.21373664043116339 0 -0.13246178853905299 -0.20873151589840269 0 -0.12407830270498089 -0.22426790937284519 0 -0.13441394179160859 -0.22010184774946731 0 -0.13246178853905299 -0.20873151589840269 0 -0.1178174188303993 -0.20556040013348681 0 -0.13246178853905299 -0.20873151589840269 0 -0.1280127438194481 -0.19237656196114411 0 -0.13246178853905299 -0.20873151589840269 0 -0.1280127438194481 -0.19237656196114411 0 -0.14041115317576749 -0.19424917250638599 0 -0.1398254013782112 -0.18365029146927231 0 -0.1280127438194481 -0.19237656196114411 0 -0.14041115317576749 -0.19424917250638599 0 -0.13246178853905299 -0.20873151589840269 0 -0.14041115317576749 -0.19424917250638599 0 -0.1539685318914617 -0.1985826704271989 0 -0.14041115317576749 -0.19424917250638599 0 -0.1539685318914617 -0.1985826704271989 0 -0.1498687104188495 -0.18767128888863599 0 -0.1398254013782112 -0.18365029146927231 0 -0.14041115317576749 -0.19424917250638599 0 -0.1498687104188495 -0.18767128888863599 0 -0.1607184616130248 -0.18728683910860641 0 -0.1539685318914617 -0.1985826704271989 0 -0.1498687104188495 -0.18767128888863599 0 -0.1607184616130248 -0.18728683910860641 0 -0.1539685318914617 -0.1985826704271989 0 -0.17547527524387041 -0.1884338249559952 0 -0.1539685318914617 -0.1985826704271989 0 -0.17547527524387041 -0.1884338249559952 0 -0.16825702714884239 -0.20885775366498019 0 -0.1539685318914617 -0.1985826704271989 0 -0.17547527524387041 -0.1884338249559952 0 -0.17547527524387041 -0.1884338249559952 0 -0.18277425339256639 -0.2026996383603622 0 -0.16825702714884239 -0.20885775366498019 0 -0.17547527524387041 -0.1884338249559952 0 -0.18277425339256639 -0.2026996383603622 0 -0.1902080517791363 -0.1917922864575213 0 -0.18277425339256639 -0.2026996383603622 0 -0.16825702714884239 -0.20885775366498019 0 -0.18626938338499441 -0.22517712183416291 0 -0.14940536450650499 -0.21373664043116339 0 -0.1539685318914617 -0.1985826704271989 0 -0.16825702714884239 -0.20885775366498019 0 -0.14940536450650499 -0.21373664043116339 0 -0.16825702714884239 -0.20885775366498019 0 -0.16621803193972459 -0.22739125443424221 0 -0.16825702714884239 -0.20885775366498019 0 -0.16621803193972459 -0.22739125443424221 0 -0.18626938338499441 -0.22517712183416291 0 -0.16621803193972459 -0.22739125443424221 0 -0.18626938338499441 -0.22517712183416291 0 -0.1745260775709061 -0.24562280720632229 0 -0.18626938338499441 -0.22517712183416291 0 -0.1745260775709061 -0.24562280720632229 0 -0.19988453840298659 -0.24176205441804 0 -0.18626938338499441 -0.22517712183416291 0 -0.1745260775709061 -0.24562280720632229 0 -0.15263230708737521 -0.24356194903458239 0 -0.16621803193972459 -0.22739125443424221 0 -0.1745260775709061 -0.24562280720632229 0 -0.1689202540561075 -0.25519621835756329 0 -0.15263230708737521 -0.24356194903458239 0 -0.1745260775709061 -0.24562280720632229 0 -0.21854221021918649 -0.25236034283526498 0 -0.19988453840298659 -0.24176205441804 0 -0.21493562756427159 -0.22243862284749449 0 -0.19160736129165659 -0.25262396586623759 0 -0.1745260775709061 -0.24562280720632229 0 -0.19988453840298659 -0.24176205441804 0 -0.18626938338499441 -0.22517712183416291 0 -0.19988453840298659 -0.24176205441804 0 -0.21493562756427159 -0.22243862284749449 0 -0.21493562756427159 -0.22243862284749449 0 -0.19801268919908249 -0.2047314364620034 0 -0.21541309520260529 -0.20113031717637361 0 -0.18626938338499441 -0.22517712183416291 0 -0.19801268919908249 -0.2047314364620034 0 -0.18277425339256639 -0.2026996383603622 0 -0.18626938338499441 -0.22517712183416291 0 -0.19801268919908249 -0.2047314364620034 0 -0.18626938338499441 -0.22517712183416291 0 -0.21493562756427159 -0.22243862284749449 0 -0.19801268919908249 -0.2047314364620034 0 -0.19801268919908249 -0.2047314364620034 0 -0.1902080517791363 -0.1917922864575213 0 -0.20975599501317069 -0.18428575108984399 0 -0.18277425339256639 -0.2026996383603622 0 -0.19801268919908249 -0.2047314364620034 0 -0.1902080517791363 -0.1917922864575213 0 -0.21541309520260529 -0.20113031717637361 0 -0.20975599501317069 -0.18428575108984399 0 -0.229896455205026 -0.18225842567294781 0 -0.19801268919908249 -0.2047314364620034 0 -0.21541309520260529 -0.20113031717637361 0 -0.20975599501317069 -0.18428575108984399 0 -0.19801268919908249 -0.2047314364620034 0 -0.20975599501317069 -0.18428575108984399 0 -0.21541309520260529 -0.20113031717637361 0 -0.23384346774119599 -0.2034651679104556 0 -0.229896455205026 -0.18225842567294781 0 -0.24262172765942899 -0.19089247064050549 0 -0.25644706280453389 -0.1995927939493197 0 -0.25029992488695979 -0.1782534950292988 0 -0.24262172765942899 -0.19089247064050549 0 -0.23384346774119599 -0.2034651679104556 0 -0.25644706280453389 -0.1995927939493197 0 -0.24262172765942899 -0.19089247064050549 0 -0.23384346774119599 -0.2034651679104556 0 -0.229896455205026 -0.18225842567294781 0 -0.23384346774119599 -0.2034651679104556 0 -0.2377451423251814 -0.23136366228574551 0 -0.25674041691710447 -0.22108212323078871 0 -0.23384346774119599 -0.2034651679104556 0 -0.25674041691710447 -0.22108212323078871 0 -0.25644706280453389 -0.1995927939493197 0 -0.21493562756427159 -0.22243862284749449 0 -0.21541309520260529 -0.20113031717637361 0 -0.23384346774119599 -0.2034651679104556 0 -0.21493562756427159 -0.22243862284749449 0 -0.23384346774119599 -0.2034651679104556 0 -0.2377451423251814 -0.23136366228574551 0 -0.24465976002352091 -0.25387891845332877 0 -0.2377451423251814 -0.23136366228574551 0 -0.25992972331208369 -0.2410680052130979 0 -0.24465976002352091 -0.25387891845332877 0 -0.21854221021918649 -0.25236034283526498 0 -0.2377451423251814 -0.23136366228574551 0 -0.21854221021918649 -0.25236034283526498 0 -0.21493562756427159 -0.22243862284749449 0 -0.2377451423251814 -0.23136366228574551 0 -0.21854221021918649 -0.25236034283526498 0 -0.2377451423251814 -0.23136366228574551 0 -0.21569240293870359 -0.1466438091422006 0 -0.18947664049148261 -0.1562636999060015 0 -0.2105647825198341 -0.15627799774793921 0 -0.2105647825198341 -0.15627799774793921 0 -0.22149930082725899 -0.1638400657176845 0 -0.22047208921520459 -0.14652609931143951 0 -0.21569240293870359 -0.1466438091422006 0 -0.2105647825198341 -0.15627799774793921 0 -0.22047208921520459 -0.14652609931143951 0 -0.21569240293870359 -0.1466438091422006 0 -0.22047208921520459 -0.14652609931143951 0 -0.20228853596836749 -0.13187567246267581 0 -0.2244809527826766 -0.1321180186971766 0 -0.2129261089666101 -0.1196792574727195 0 -0.21569240293870359 -0.1466438091422006 0 -0.20228853596836749 -0.13187567246267581 0 -0.2244809527826766 -0.1321180186971766 0 -0.18633417632017751 -0.14736681724080919 0 -0.20228853596836749 -0.13187567246267581 0 -0.18400621351090571 -0.1217110611121094 0 -0.21569240293870359 -0.1466438091422006 0 -0.18947664049148261 -0.1562636999060015 0 -0.18633417632017751 -0.14736681724080919 0 -0.21569240293870359 -0.1466438091422006 0 -0.18947664049148261 -0.1562636999060015 0 -0.18633417632017751 -0.14736681724080919 0 -0.21569240293870359 -0.1466438091422006 0 -0.18633417632017751 -0.14736681724080919 0 -0.21569240293870359 -0.1466438091422006 0 -0.20228853596836749 -0.13187567246267581 0 -0.1783922457352059 -0.17293489930968209 0 -0.18947664049148261 -0.1562636999060015 0 -0.1969820185962792 -0.17828497948479149 0 -0.18947664049148261 -0.1562636999060015 0 -0.1969820185962792 -0.17828497948479149 0 -0.20568347912652049 -0.16811631466237001 0 -0.18947664049148261 -0.1562636999060015 0 -0.20568347912652049 -0.16811631466237001 0 -0.2105647825198341 -0.15627799774793921 0 -0.1902080517791363 -0.1917922864575213 0 -0.1969820185962792 -0.17828497948479149 0 -0.20975599501317069 -0.18428575108984399 0 -0.17547527524387041 -0.1884338249559952 0 -0.1902080517791363 -0.1917922864575213 0 -0.1969820185962792 -0.17828497948479149 0 -0.20975599501317069 -0.18428575108984399 0 -0.22149930082725899 -0.1638400657176845 0 -0.20975599501317069 -0.18428575108984399 0 -0.20568347912652049 -0.16811631466237001 0 -0.22149930082725899 -0.1638400657176845 0 -0.1969820185962792 -0.17828497948479149 0 -0.20975599501317069 -0.18428575108984399 0 -0.20568347912652049 -0.16811631466237001 0 -0.20568347912652049 -0.16811631466237001 0 -0.2105647825198341 -0.15627799774793921 0 -0.22149930082725899 -0.1638400657176845 0 -0.22149930082725899 -0.1638400657176845 0 -0.2402834514435094 -0.1667894474332684 0 -0.2341322288468432 -0.15422277024092529 0 -0.22149930082725899 -0.1638400657176845 0 -0.229896455205026 -0.18225842567294781 0 -0.2402834514435094 -0.1667894474332684 0 -0.20975599501317069 -0.18428575108984399 0 -0.22149930082725899 -0.1638400657176845 0 -0.229896455205026 -0.18225842567294781 0 -0.229896455205026 -0.18225842567294781 0 -0.2402834514435094 -0.1667894474332684 0 -0.25029992488695979 -0.1782534950292988 0 -0.24262172765942899 -0.19089247064050549 0 -0.229896455205026 -0.18225842567294781 0 -0.25029992488695979 -0.1782534950292988 0 -0.2402834514435094 -0.1667894474332684 0 -0.25029992488695979 -0.1782534950292988 0 -0.25761979100978533 -0.16665415002795461 0 -0.2402834514435094 -0.1667894474332684 0 -0.24825300788518309 -0.1555077779107997 0 -0.25761979100978533 -0.16665415002795461 0 -0.2402834514435094 -0.1667894474332684 0 -0.24825300788518309 -0.1555077779107997 0 -0.2341322288468432 -0.15422277024092529 0 -0.24825300788518309 -0.1555077779107997 0 -0.2405789555143194 -0.1375116727892334 0 -0.25601133851015478 -0.1487044986697981 0 -0.24825300788518309 -0.1555077779107997 0 -0.2341322288468432 -0.15422277024092529 0 -0.2405789555143194 -0.1375116727892334 0 -0.21569240293870359 -0.1466438091422006 0 -0.22047208921520459 -0.14652609931143951 0 -0.2405789555143194 -0.1375116727892334 0 -0.22149930082725899 -0.1638400657176845 0 -0.2341322288468432 -0.15422277024092529 0 -0.22047208921520459 -0.14652609931143951 0 -0.21569240293870359 -0.1466438091422006 0 -0.2405789555143194 -0.1375116727892334 0 -0.2341322288468432 -0.15422277024092529 0 -0.22047208921520459 -0.14652609931143951 0 -0.2405789555143194 -0.1375116727892334 0 -0.21569240293870359 -0.1466438091422006 0 -0.2244809527826766 -0.1321180186971766 0 -0.2405789555143194 -0.1375116727892334 0 -0.2244809527826766 -0.1321180186971766 0 -0.2405789555143194 -0.1375116727892334 0 -0.23651179230599079 -0.1199754775459997 0 -0.2405789555143194 -0.1375116727892334 0 -0.23651179230599079 -0.1199754775459997 0 -0.25054446979338107 -0.12912519928877991 0 -0.23651179230599079 -0.1199754775459997 0 -0.24959534238117709 -0.1078054475449232 0 -0.26009747564537128 -0.1202716976192799 0 -0.23651179230599079 -0.1199754775459997 0 -0.26009747564537128 -0.1202716976192799 0 -0.23651179230599079 -0.1199754775459997 0 -0.26009747564537128 -0.1202716976192799 0 -0.25054446979338107 -0.12912519928877991 0 -0.23651179230599079 -0.1199754775459997 0 -0.24959534238117709 -0.1078054475449232 0 -0.23746734258601571 -0.1067534300414448 0 -0.24098124084432149 -0.095291905336151436 0 -0.23746734258601571 -0.1067534300414448 0 -0.22473934926471251 -0.1042306158888877 0 -0.24959534238117709 -0.1078054475449232 0 -0.24098124084432149 -0.095291905336151436 0 -0.25687551172258971 -0.095275519396915032 0 -0.24959534238117709 -0.1078054475449232 0 -0.24098124084432149 -0.095291905336151436 0 -0.23746734258601571 -0.1067534300414448 0 -0.22473934926471251 -0.1042306158888877 0 -0.22774604229393439 -0.087804120453188278 0 -0.20897213189474381 -0.093424031558921927 0 -0.24098124084432149 -0.095291905336151436 0 -0.22473934926471251 -0.1042306158888877 0 -0.22774604229393439 -0.087804120453188278 0 -0.2244809527826766 -0.1321180186971766 0 -0.23651179230599079 -0.1199754775459997 0 -0.2129261089666101 -0.1196792574727195 0 -0.23651179230599079 -0.1199754775459997 0 -0.2129261089666101 -0.1196792574727195 0 -0.23651179230599079 -0.1199754775459997 0 -0.23746734258601571 -0.1067534300414448 0 -0.22473934926471251 -0.1042306158888877 0 -0.23651179230599079 -0.1199754775459997 0 -0.22473934926471251 -0.1042306158888877 0 -0.2129261089666101 -0.1196792574727195 0 -0.2466384096447127 -0.069214282175018252 0 -0.23144064811545881 -0.071679072189906365 0 -0.24006258296416741 -0.059977364163272567 0 -0.2466384096447127 -0.069214282175018252 0 -0.23867713564867771 -0.0818228939715063 0 -0.25106785873748549 -0.083001848322642804 0 -0.2466384096447127 -0.069214282175018252 0 -0.23867713564867771 -0.0818228939715063 0 -0.23144064811545881 -0.071679072189906365 0 -0.24098124084432149 -0.095291905336151436 0 -0.25106785873748549 -0.083001848322642804 0 -0.25687551172258971 -0.095275519396915032 0 -0.24098124084432149 -0.095291905336151436 0 -0.23867713564867771 -0.0818228939715063 0 -0.25106785873748549 -0.083001848322642804 0 -0.24098124084432149 -0.095291905336151436 0 -0.23867713564867771 -0.0818228939715063 0 -0.22774604229393439 -0.087804120453188278 0 -0.22048160989483939 -0.080833284582646742 0 -0.22774604229393439 -0.087804120453188278 0 -0.23144064811545881 -0.071679072189906365 0 -0.23867713564867771 -0.0818228939715063 0 -0.22774604229393439 -0.087804120453188278 0 -0.23144064811545881 -0.071679072189906365 0 -0.22048160989483939 -0.080833284582646742 0 -0.22774604229393439 -0.087804120453188278 0 -0.20897213189474381 -0.093424031558921927 0 -0.23144064811545881 -0.071679072189906365 0 -0.2137676172752207 -0.070425914128570383 0 -0.21856310265569601 -0.047427796698218422 0 -0.22048160989483939 -0.080833284582646742 0 -0.23144064811545881 -0.071679072189906365 0 -0.2137676172752207 -0.070425914128570383 0 -0.23144064811545881 -0.071679072189906365 0 -0.23092663332862359 -0.057189961691847993 0 -0.24006258296416741 -0.059977364163272567 0 -0.20335705558913081 -0.063140738221072371 0 -0.2137676172752207 -0.070425914128570383 0 -0.20224544779007569 -0.076575791796341275 0 -0.2137676172752207 -0.070425914128570383 0 -0.20897213189474381 -0.093424031558921927 0 -0.20224544779007569 -0.076575791796341275 0 -0.2137676172752207 -0.070425914128570383 0 -0.20897213189474381 -0.093424031558921927 0 -0.22048160989483939 -0.080833284582646742 0 -0.2137676172752207 -0.070425914128570383 0 -0.20897213189474381 -0.093424031558921927 0 -0.20897213189474381 -0.093424031558921927 0 -0.18864483179057751 -0.079783658531738119 0 -0.20224544779007569 -0.076575791796341275 0 -0.20897213189474381 -0.093424031558921927 0 -0.18864483179057751 -0.079783658531738119 0 -0.1843208979706715 -0.098582101900239388 0 -0.20335705558913081 -0.063140738221072371 0 -0.18864483179057751 -0.079783658531738119 0 -0.20224544779007569 -0.076575791796341275 0 -0.20335705558913081 -0.063140738221072371 0 -0.18864483179057751 -0.079783658531738119 0 -0.20335705558913081 -0.063140738221072371 0 -0.18864483179057751 -0.079783658531738119 0 -0.18476368522970901 -0.060313507398174523 0 -0.22473934926471251 -0.1042306158888877 0 -0.2129261089666101 -0.1196792574727195 0 -0.1994025973422491 -0.10829052452779669 0 -0.20228853596836749 -0.13187567246267581 0 -0.2129261089666101 -0.1196792574727195 0 -0.1994025973422491 -0.10829052452779669 0 -0.22473934926471251 -0.1042306158888877 0 -0.20897213189474381 -0.093424031558921927 0 -0.1994025973422491 -0.10829052452779669 0 -0.20897213189474381 -0.093424031558921927 0 -0.1994025973422491 -0.10829052452779669 0 -0.1843208979706715 -0.098582101900239388 0 -0.20228853596836749 -0.13187567246267581 0 -0.1994025973422491 -0.10829052452779669 0 -0.18400621351090571 -0.1217110611121094 0 -0.1994025973422491 -0.10829052452779669 0 -0.18400621351090571 -0.1217110611121094 0 -0.1843208979706715 -0.098582101900239388 0 -0.16621773075288121 -0.1295318635244681 0 -0.18400621351090571 -0.1217110611121094 0 -0.16647442841019139 -0.11035058163789351 0 -0.18400621351090571 -0.1217110611121094 0 -0.16647442841019139 -0.11035058163789351 0 -0.1843208979706715 -0.098582101900239388 0 -0.16621773075288121 -0.1295318635244681 0 -0.16647442841019139 -0.11035058163789351 0 -0.14737054533773081 -0.1208951937003558 0 -0.16647442841019139 -0.11035058163789351 0 -0.16521255597131029 -0.094363556792246006 0 -0.15171862691764881 -0.097019712797942706 0 -0.16647442841019139 -0.11035058163789351 0 -0.16521255597131029 -0.094363556792246006 0 -0.1843208979706715 -0.098582101900239388 0 -0.16521255597131029 -0.094363556792246006 0 -0.1843208979706715 -0.098582101900239388 0 -0.1718657805157274 -0.077566403117392158 0 -0.18864483179057751 -0.079783658531738119 0 -0.1843208979706715 -0.098582101900239388 0 -0.1718657805157274 -0.077566403117392158 0 -0.18864483179057751 -0.079783658531738119 0 -0.1718657805157274 -0.077566403117392158 0 -0.18476368522970901 -0.060313507398174523 0 -0.1718657805157274 -0.077566403117392158 0 -0.16766997596840549 -0.055069670457126463 0 -0.18476368522970901 -0.060313507398174523 0 -0.1718657805157274 -0.077566403117392158 0 -0.1555984100513392 -0.067553704814911478 0 -0.16766997596840549 -0.055069670457126463 0 -0.1718657805157274 -0.077566403117392158 0 -0.15451520526235171 -0.083858215916353424 0 -0.1555984100513392 -0.067553704814911478 0 -0.16521255597131029 -0.094363556792246006 0 -0.1718657805157274 -0.077566403117392158 0 -0.15451520526235171 -0.083858215916353424 0 -0.16521255597131029 -0.094363556792246006 0 -0.15451520526235171 -0.083858215916353424 0 -0.15171862691764881 -0.097019712797942706 0 -0.15451520526235171 -0.083858215916353424 0 -0.14334301715898221 -0.074859018030624863 0 -0.13903100861317999 -0.090330850909877913 0 -0.15451520526235171 -0.083858215916353424 0 -0.13903100861317999 -0.090330850909877913 0 -0.15171862691764881 -0.097019712797942706 0 -0.1377651409738101 -0.093700562061298426 0 -0.13903100861317999 -0.090330850909877913 0 -0.15171862691764881 -0.097019712797942706 0 -0.15451520526235171 -0.083858215916353424 0 -0.1555984100513392 -0.067553704814911478 0 -0.14334301715898221 -0.074859018030624863 0 -0.1555984100513392 -0.067553704814911478 0 -0.14334301715898221 -0.074859018030624863 0 -0.13945189113323761 -0.059806177835795588 0 -0.14334301715898221 -0.074859018030624863 0 -0.12930964035960699 -0.069761515268982097 0 -0.13945189113323761 -0.059806177835795588 0 -0.12930964035960699 -0.069761515268982097 0 -0.1377651409738101 -0.093700562061298426 0 -0.12930964035960699 -0.069761515268982097 0 -0.1377651409738101 -0.093700562061298426 0 -0.13903100861317999 -0.090330850909877913 0 -0.1189291253072135 -0.086669643832799348 0 -0.12930964035960699 -0.069761515268982097 0 -0.1377651409738101 -0.093700562061298426 0 -0.14334301715898221 -0.074859018030624863 0 -0.12930964035960699 -0.069761515268982097 0 -0.13903100861317999 -0.090330850909877913 0 -0.1377651409738101 -0.093700562061298426 0 -0.13903100861317999 -0.090330850909877913 0 -0.11893842975153809 -0.10446969177473921 0 -0.1377651409738101 -0.093700562061298426 0 -0.12736410167423581 -0.1213878944680517 0 -0.1377651409738101 -0.093700562061298426 0 -0.12736410167423581 -0.1213878944680517 0 -0.11893842975153809 -0.10446969177473921 0 -0.1189291253072135 -0.086669643832799348 0 -0.1377651409738101 -0.093700562061298426 0 -0.1377651409738101 -0.093700562061298426 0 -0.12736410167423581 -0.1213878944680517 0 -0.14737054533773081 -0.1208951937003558 0 -0.16647442841019139 -0.11035058163789351 0 -0.14737054533773081 -0.1208951937003558 0 -0.15171862691764881 -0.097019712797942706 0 -0.1377651409738101 -0.093700562061298426 0 -0.14737054533773081 -0.1208951937003558 0 -0.15171862691764881 -0.097019712797942706 0 -0.1377651409738101 -0.093700562061298426 0 -0.14737054533773081 -0.1208951937003558 0 -0.14925834278157041 -0.027771983247297551 0 -0.15381676672243971 -0.0048344028756085976 0 -0.16158573310271521 -0.019122381719964599 0 -0.14925834278157041 -0.027771983247297551 0 -0.15381676672243971 -0.0048344028756085976 0 -0.14925834278157041 -0.027771983247297551 0 -0.13622810944285851 -0.025664644749336048 0 -0.13728148428220571 -0.03631729474545041 0 -0.15381676672243971 -0.0048344028756085976 0 -0.13373576905839379 -0.01378162565115138 0 -0.13796817939809339 -7.5853332940862265e-05 0 -0.14925834278157041 -0.027771983247297551 0 -0.15381676672243971 -0.0048344028756085976 0 -0.13373576905839379 -0.01378162565115138 0 -0.1244522405185825 -0.00038769298458709092 0 -0.1246368416492639 -0.024787675353444869 0 -0.13373576905839379 -0.01378162565115138 0 -0.1244522405185825 -0.00038769298458709092 0 -0.13373576905839379 -0.01378162565115138 0 -0.13796817939809339 -7.5853332940862265e-05 0 -0.1244522405185825 -0.00038769298458709092 0 -0.13373576905839379 -0.01378162565115138 0 -0.1246368416492639 -0.024787675353444869 0 -0.13373576905839379 -0.01378162565115138 0 -0.13622810944285851 -0.025664644749336048 0 -0.14925834278157041 -0.027771983247297551 0 -0.13373576905839379 -0.01378162565115138 0 -0.13622810944285851 -0.025664644749336048 0 -0.1246368416492639 -0.024787675353444869 0 -0.13622810944285851 -0.025664644749336048 0 -0.13728148428220571 -0.03631729474545041 0 -0.1248214427799455 -0.0491876577223027 0 -0.1246368416492639 -0.024787675353444869 0 -0.13067566527459321 -0.039597081228004503 0 -0.1246368416492639 -0.024787675353444869 0 -0.13067566527459321 -0.039597081228004503 0 -0.13728148428220571 -0.03631729474545041 0 -0.1248214427799455 -0.0491876577223027 0 -0.13067566527459321 -0.039597081228004503 0 -0.1359628923869578 -0.048095697090820053 0 -0.13067566527459321 -0.039597081228004503 0 -0.13728148428220571 -0.03631729474545041 0 -0.1359628923869578 -0.048095697090820053 0 -0.13728148428220571 -0.03631729474545041 0 -0.1359628923869578 -0.048095697090820053 0 -0.14767594406259391 -0.049379474087132447 0 -0.1248214427799455 -0.0491876577223027 0 -0.12930964035960699 -0.069761515268982097 0 -0.13945189113323761 -0.059806177835795588 0 -0.1208541397454049 -0.045822468476665427 0 -0.12930964035960699 -0.069761515268982097 0 -0.1248214427799455 -0.0491876577223027 0 -0.1359628923869578 -0.048095697090820053 0 -0.13945189113323761 -0.059806177835795588 0 -0.1555984100513392 -0.067553704814911478 0 -0.13945189113323761 -0.059806177835795588 0 -0.14767594406259391 -0.049379474087132447 0 -0.1359628923869578 -0.048095697090820053 0 -0.13945189113323761 -0.059806177835795588 0 -0.14767594406259391 -0.049379474087132447 0 -0.14925834278157041 -0.027771983247297551 0 -0.14767594406259391 -0.049379474087132447 0 -0.16346190388351911 -0.035477368974388322 0 -0.14925834278157041 -0.027771983247297551 0 -0.13728148428220571 -0.03631729474545041 0 -0.14767594406259391 -0.049379474087132447 0 -0.14767594406259391 -0.049379474087132447 0 -0.16346190388351911 -0.035477368974388322 0 -0.16766997596840549 -0.055069670457126463 0 -0.16346190388351911 -0.035477368974388322 0 -0.16766997596840549 -0.055069670457126463 0 -0.1792130821544009 -0.041655239440509813 0 -0.1555984100513392 -0.067553704814911478 0 -0.14767594406259391 -0.049379474087132447 0 -0.16766997596840549 -0.055069670457126463 0 -0.16766997596840549 -0.055069670457126463 0 -0.18476368522970901 -0.060313507398174523 0 -0.1792130821544009 -0.041655239440509813 0 -0.18476368522970901 -0.060313507398174523 0 -0.1792130821544009 -0.041655239440509813 0 -0.19607578221694649 -0.043845816873478577 0 -0.16346190388351911 -0.035477368974388322 0 -0.1792130821544009 -0.041655239440509813 0 -0.1747539590121796 -0.02148713112583673 0 -0.1792130821544009 -0.041655239440509813 0 -0.1747539590121796 -0.02148713112583673 0 -0.18874747204970219 -0.028974905836781941 0 -0.1747539590121796 -0.02148713112583673 0 -0.18814241231787171 -0.014961103822567131 0 -0.18874747204970219 -0.028974905836781941 0 -0.14925834278157041 -0.027771983247297551 0 -0.16346190388351911 -0.035477368974388322 0 -0.16158573310271521 -0.019122381719964599 0 -0.16346190388351911 -0.035477368974388322 0 -0.1747539590121796 -0.02148713112583673 0 -0.16158573310271521 -0.019122381719964599 0 -0.1747539590121796 -0.02148713112583673 0 -0.16158573310271521 -0.019122381719964599 0 -0.1670666400728934 -0.0075955490013497832 0 -0.15381676672243971 -0.0048344028756085976 0 -0.1670666400728934 -0.0075955490013497832 0 -0.16872927738725291 0.0066655648670224509 0 -0.15381676672243971 -0.0048344028756085976 0 -0.16158573310271521 -0.019122381719964599 0 -0.1670666400728934 -0.0075955490013497832 0 -0.1670666400728934 -0.0075955490013497832 0 -0.1785064095432054 -0.0066611219507198768 0 -0.16872927738725291 0.0066655648670224509 0 -0.1747539590121796 -0.02148713112583673 0 -0.1670666400728934 -0.0075955490013497832 0 -0.1785064095432054 -0.0066611219507198768 0 -0.1747539590121796 -0.02148713112583673 0 -0.1785064095432054 -0.0066611219507198768 0 -0.18814241231787171 -0.014961103822567131 0 -0.1785064095432054 -0.0066611219507198768 0 -0.18814241231787171 -0.014961103822567131 0 -0.193034969706537 0.00064734206737222756 0 -0.20555212454711219 -0.022925237921517471 0 -0.20993853639106591 -0.0035380738047605968 0 -0.193034969706537 0.00064734206737222756 0 -0.18814241231787171 -0.014961103822567131 0 -0.20555212454711219 -0.022925237921517471 0 -0.193034969706537 0.00064734206737222756 0 -0.20555212454711219 -0.022925237921517471 0 -0.193034969706537 0.00064734206737222756 0 -0.20993853639106591 -0.0035380738047605968 0 -0.193034969706537 0.00064734206737222756 0 -0.18814241231787171 -0.014961103822567131 0 -0.18874747204970219 -0.028974905836781941 0 -0.20555212454711219 -0.022925237921517471 0 -0.20555212454711219 -0.022925237921517471 0 -0.21630961893328751 -0.01519709454307171 0 -0.22290571171937651 -0.026601576769118469 0 -0.20993853639106591 -0.0035380738047605968 0 -0.22684210307559549 -0.0077234896768903086 0 -0.21568563774484731 0.0082874278720449449 0 -0.20993853639106591 -0.0035380738047605968 0 -0.21630961893328751 -0.01519709454307171 0 -0.22684210307559549 -0.0077234896768903086 0 -0.20555212454711219 -0.022925237921517471 0 -0.20993853639106591 -0.0035380738047605968 0 -0.21630961893328751 -0.01519709454307171 0 -0.20993853639106591 -0.0035380738047605968 0 -0.22684210307559549 -0.0077234896768903086 0 -0.20335705558913081 -0.063140738221072371 0 -0.18476368522970901 -0.060313507398174523 0 -0.19607578221694649 -0.043845816873478577 0 -0.1792130821544009 -0.041655239440509813 0 -0.18874747204970219 -0.028974905836781941 0 -0.19607578221694649 -0.043845816873478577 0 -0.18874747204970219 -0.028974905836781941 0 -0.20555212454711219 -0.022925237921517471 0 -0.19607578221694649 -0.043845816873478577 0 -0.20555212454711219 -0.022925237921517471 0 -0.21856310265569601 -0.047427796698218422 0 -0.20555212454711219 -0.022925237921517471 0 -0.21856310265569601 -0.047427796698218422 0 -0.21896932036315811 -0.045479663861346789 0 -0.20555212454711219 -0.022925237921517471 0 -0.19607578221694649 -0.043845816873478577 0 -0.21856310265569601 -0.047427796698218422 0 -0.20555212454711219 -0.022925237921517471 0 -0.21896932036315811 -0.045479663861346789 0 -0.22290571171937651 -0.026601576769118469 0 -0.2137676172752207 -0.070425914128570383 0 -0.21856310265569601 -0.047427796698218422 0 -0.20335705558913081 -0.063140738221072371 0 -0.2137676172752207 -0.070425914128570383 0 -0.21856310265569601 -0.047427796698218422 0 -0.20335705558913081 -0.063140738221072371 0 -0.19607578221694649 -0.043845816873478577 0 -0.21856310265569601 -0.047427796698218422 0 -0.20335705558913081 -0.063140738221072371 0 -0.21856310265569601 -0.047427796698218422 0 -0.23144064811545881 -0.071679072189906365 0 -0.21856310265569601 -0.047427796698218422 0 -0.23092663332862359 -0.057189961691847993 0 -0.23144064811545881 -0.071679072189906365 0 -0.21856310265569601 -0.047427796698218422 0 -0.21856310265569601 -0.047427796698218422 0 -0.23092663332862359 -0.057189961691847993 0 -0.22458774444026389 -0.046948698447319907 0 -0.23092663332862359 -0.057189961691847993 0 -0.2320274706224234 -0.04981915803055513 0 -0.23892230415514151 -0.050781370399802413 0 -0.23092663332862359 -0.057189961691847993 0 -0.22458774444026389 -0.046948698447319907 0 -0.2320274706224234 -0.04981915803055513 0 -0.21896932036315811 -0.045479663861346789 0 -0.2306307955349908 -0.032287844280089482 0 -0.22290571171937651 -0.026601576769118469 0 -0.21896932036315811 -0.045479663861346789 0 -0.22290571171937651 -0.026601576769118469 0 -0.22458774444026389 -0.046948698447319907 0 -0.2320274706224234 -0.04981915803055513 0 -0.23529860714157019 -0.041169280456794459 0 -0.22458774444026389 -0.046948698447319907 0 -0.2306307955349908 -0.032287844280089482 0 -0.23529860714157019 -0.041169280456794459 0 -0.22458774444026389 -0.046948698447319907 0 -0.21896932036315811 -0.045479663861346789 0 -0.2306307955349908 -0.032287844280089482 0 -0.21856310265569601 -0.047427796698218422 0 -0.22458774444026389 -0.046948698447319907 0 -0.21896932036315811 -0.045479663861346789 0 -0.21856310265569601 -0.047427796698218422 0 -0.21896932036315811 -0.045479663861346789 0 -0.21896932036315811 -0.045479663861346789 0 -0.2306307955349908 -0.032287844280089482 0 -0.2306307955349908 -0.032287844280089482 0 -0.23529860714157019 -0.041169280456794459 0 -0.241537864008738 -0.030171217790278881 0 -0.24798951326795751 -0.035882587373858313 0 -0.23529860714157019 -0.041169280456794459 0 -0.241537864008738 -0.030171217790278881 0 -0.24798951326795751 -0.035882587373858313 0 -0.24357205858261219 -0.044359355700093257 0 -0.23529860714157019 -0.041169280456794459 0 -0.24798951326795751 -0.035882587373858313 0 -0.24357205858261219 -0.044359355700093257 0 -0.25238491957690051 -0.051022134359787842 0 -0.24357205858261219 -0.044359355700093257 0 -0.23529860714157019 -0.041169280456794459 0 -0.23892230415514151 -0.050781370399802413 0 -0.2466384096447127 -0.069214282175018252 0 -0.24006258296416741 -0.059977364163272567 0 -0.25238491957690051 -0.051022134359787842 0 -0.2320274706224234 -0.04981915803055513 0 -0.23529860714157019 -0.041169280456794459 0 -0.23892230415514151 -0.050781370399802413 0 -0.23892230415514151 -0.050781370399802413 0 -0.24006258296416741 -0.059977364163272567 0 -0.25238491957690051 -0.051022134359787842 0 -0.24357205858261219 -0.044359355700093257 0 -0.23892230415514151 -0.050781370399802413 0 -0.25238491957690051 -0.051022134359787842 0 -0.23092663332862359 -0.057189961691847993 0 -0.23892230415514151 -0.050781370399802413 0 -0.24006258296416741 -0.059977364163272567 0 -0.21630961893328751 -0.01519709454307171 0 -0.22684210307559549 -0.0077234896768903086 0 -0.22290571171937651 -0.026601576769118469 0 -0.22684210307559549 -0.0077234896768903086 0 -0.22290571171937651 -0.026601576769118469 0 -0.23226271327452069 -0.02198020745377605 0 -0.22684210307559549 -0.0077234896768903086 0 -0.22290571171937651 -0.026601576769118469 0 -0.2306307955349908 -0.032287844280089482 0 -0.22290571171937651 -0.026601576769118469 0 -0.23226271327452069 -0.02198020745377605 0 -0.22684210307559549 -0.0077234896768903086 0 -0.23226271327452069 -0.02198020745377605 0 -0.24229227070682269 -0.019096024698831499 0 -0.2306307955349908 -0.032287844280089482 0 -0.241537864008738 -0.030171217790278881 0 -0.24229227070682269 -0.019096024698831499 0 -0.2306307955349908 -0.032287844280089482 0 -0.23226271327452069 -0.02198020745377605 0 -0.24229227070682269 -0.019096024698831499 0 -0.2306307955349908 -0.032287844280089482 0 -0.24229227070682269 -0.019096024698831499 0 -0.24798951326795751 -0.035882587373858313 0 -0.241537864008738 -0.030171217790278881 0 -0.25387676547985721 -0.02452441136234379 0 -0.241537864008738 -0.030171217790278881 0 -0.24229227070682269 -0.019096024698831499 0 -0.25387676547985721 -0.02452441136234379 0 -0.24229227070682269 -0.019096024698831499 0 -0.24826461013585729 -0.013027819984466921 0 -0.25387676547985721 -0.02452441136234379 0 -0.22684210307559549 -0.0077234896768903086 0 -0.24826461013585729 -0.013027819984466921 0 -0.24598119983726671 0.0037338506766126851 0 -0.22684210307559549 -0.0077234896768903086 0 -0.24229227070682269 -0.019096024698831499 0 -0.24826461013585729 -0.013027819984466921 0 -0.22684210307559549 -0.0077234896768903086 0 -0.24826461013585729 -0.013027819984466921 0 -0.24826461013585729 -0.013027819984466921 0 -0.26003022337954462 -0.0038093911555793728 0 -0.24598119983726671 0.0037338506766126851 0 -0.24826461013585729 -0.013027819984466921 0 -0.26003022337954462 -0.0038093911555793728 0 -0.26968711719611937 -0.018332150292041979 0 -0.24826461013585729 -0.013027819984466921 0 -0.26968711719611937 -0.018332150292041979 0 -0.25387676547985721 -0.02452441136234379 0 -0.26968711719611937 -0.018332150292041979 0 -0.26155562347943467 -0.037861138146123199 0 -0.24826461013585729 -0.013027819984466921 0 -0.25387676547985721 -0.02452441136234379 0 -0.26968711719611937 -0.018332150292041979 0 -0.26968711719611937 -0.018332150292041979 0 -0.28953187906397732 -0.034281883787379987 0 -0.27524211720584768 -0.038538427260779863 0 -0.26003022337954462 -0.0038093911555793728 0 -0.26968711719611937 -0.018332150292041979 0 -0.27433688946420332 -0.0007833753365484626 0 -0.26968711719611937 -0.018332150292041979 0 -0.27433688946420332 -0.0007833753365484626 0 -0.28631392786639209 -0.0070506759659385472 0 -0.28631392786639209 -0.0070506759659385472 0 -0.29653674479957171 -0.021015146411400301 0 -0.3025805037907468 -0.0027432771802810229 0 -0.28631392786639209 -0.0070506759659385472 0 -0.3025805037907468 -0.0027432771802810229 0 -0.28842838408131971 0.0076205693905790281 0 -0.27433688946420332 -0.0007833753365484626 0 -0.28631392786639209 -0.0070506759659385472 0 -0.28842838408131971 0.0076205693905790281 0 -0.26968711719611937 -0.018332150292041979 0 -0.28631392786639209 -0.0070506759659385472 0 -0.29653674479957171 -0.021015146411400301 0 -0.26968711719611937 -0.018332150292041979 0 -0.29653674479957171 -0.021015146411400301 0 -0.28953187906397732 -0.034281883787379987 0 -0.29653674479957171 -0.021015146411400301 0 -0.28953187906397732 -0.034281883787379987 0 -0.31718310516035308 -0.038172790333745737 0 -0.29653674479957171 -0.021015146411400301 0 -0.31459326366374579 -0.01532774276474733 0 -0.31718310516035308 -0.038172790333745737 0 -0.29653674479957171 -0.021015146411400301 0 -0.3025805037907468 -0.0027432771802810229 0 -0.31459326366374579 -0.01532774276474733 0 -0.30229462048881822 -0.056161209871372138 0 -0.29850594913894141 -0.055440370537233663 0 -0.30849544073550722 -0.074776909133231664 0 -0.30229462048881822 -0.056161209871372138 0 -0.29366820665513949 -0.048519954280836622 0 -0.31370341578724742 -0.051143824177853653 0 -0.30229462048881822 -0.056161209871372138 0 -0.29850594913894141 -0.055440370537233663 0 -0.29366820665513949 -0.048519954280836622 0 -0.30229462048881822 -0.056161209871372138 0 -0.31629816603535338 -0.060261719535131632 0 -0.30229462048881822 -0.056161209871372138 0 -0.31178497446605258 -0.064623658022855565 0 -0.31629816603535338 -0.060261719535131632 0 -0.30229462048881822 -0.056161209871372138 0 -0.31370341578724742 -0.051143824177853653 0 -0.31629816603535338 -0.060261719535131632 0 -0.29366820665513949 -0.048519954280836622 0 -0.31718310516035308 -0.038172790333745737 0 -0.29366820665513949 -0.048519954280836622 0 -0.31718310516035308 -0.038172790333745737 0 -0.31370341578724742 -0.051143824177853653 0 -0.28953187906397732 -0.034281883787379987 0 -0.29366820665513949 -0.048519954280836622 0 -0.31718310516035308 -0.038172790333745737 0 -0.28953187906397732 -0.034281883787379987 0 -0.29366820665513949 -0.048519954280836622 0 -0.27524211720584768 -0.038538427260779863 0 -0.29366820665513949 -0.048519954280836622 0 -0.27015330814992611 -0.058867118227927437 0 -0.29366820665513949 -0.048519954280836622 0 -0.28660483069534037 -0.061918496488246169 0 -0.27015330814992611 -0.058867118227927437 0 -0.29850594913894141 -0.055440370537233663 0 -0.28660483069534037 -0.061918496488246169 0 -0.29557893925590151 -0.069462416794053169 0 -0.29850594913894141 -0.055440370537233663 0 -0.29366820665513949 -0.048519954280836622 0 -0.28660483069534037 -0.061918496488246169 0 -0.29366820665513949 -0.048519954280836622 0 -0.27015330814992611 -0.058867118227927437 0 -0.27524211720584768 -0.038538427260779863 0 -0.26968711719611937 -0.018332150292041979 0 -0.27524211720584768 -0.038538427260779863 0 -0.26155562347943467 -0.037861138146123199 0 -0.27015330814992611 -0.058867118227927437 0 -0.27524211720584768 -0.038538427260779863 0 -0.26155562347943467 -0.037861138146123199 0 -0.24798951326795751 -0.035882587373858313 0 -0.26155562347943467 -0.037861138146123199 0 -0.25238491957690051 -0.051022134359787842 0 -0.24798951326795751 -0.035882587373858313 0 -0.25387676547985721 -0.02452441136234379 0 -0.26155562347943467 -0.037861138146123199 0 -0.27015330814992611 -0.058867118227927437 0 -0.26155562347943467 -0.037861138146123199 0 -0.25238491957690051 -0.051022134359787842 0 -0.2466384096447127 -0.069214282175018252 0 -0.27015330814992611 -0.058867118227927437 0 -0.25238491957690051 -0.051022134359787842 0 -0.2466384096447127 -0.069214282175018252 0 -0.27015330814992611 -0.058867118227927437 0 -0.26102584033089798 -0.073534373921212107 0 -0.2466384096447127 -0.069214282175018252 0 -0.27015330814992611 -0.058867118227927437 0 -0.2466384096447127 -0.069214282175018252 0 -0.26102584033089798 -0.073534373921212107 0 -0.25106785873748549 -0.083001848322642804 0 -0.25106785873748549 -0.083001848322642804 0 -0.26431637422662529 -0.083961298504163229 0 -0.25687551172258971 -0.095275519396915032 0 -0.26431637422662529 -0.083961298504163229 0 -0.25687551172258971 -0.095275519396915032 0 -0.26922948176741379 -0.094556007429682482 0 -0.26102584033089798 -0.073534373921212107 0 -0.25106785873748549 -0.083001848322642804 0 -0.26431637422662529 -0.083961298504163229 0 -0.26431637422662529 -0.083961298504163229 0 -0.27622487875609619 -0.085738752979791055 0 -0.27411142324960069 -0.07331497732508381 0 -0.26431637422662529 -0.083961298504163229 0 -0.27622487875609619 -0.085738752979791055 0 -0.26922948176741379 -0.094556007429682482 0 -0.27622487875609619 -0.085738752979791055 0 -0.26922948176741379 -0.094556007429682482 0 -0.28208733676033698 -0.099544680508420066 0 -0.27622487875609619 -0.085738752979791055 0 -0.27411142324960069 -0.07331497732508381 0 -0.28634330733871821 -0.075869823829162894 0 -0.28660483069534037 -0.061918496488246169 0 -0.27015330814992611 -0.058867118227927437 0 -0.27411142324960069 -0.07331497732508381 0 -0.27015330814992611 -0.058867118227927437 0 -0.26102584033089798 -0.073534373921212107 0 -0.27411142324960069 -0.07331497732508381 0 -0.26102584033089798 -0.073534373921212107 0 -0.26431637422662529 -0.083961298504163229 0 -0.27411142324960069 -0.07331497732508381 0 -0.24959534238117709 -0.1078054475449232 0 -0.26009747564537128 -0.1202716976192799 0 -0.26511094786836592 -0.1069062435210571 0 -0.24959534238117709 -0.1078054475449232 0 -0.26511094786836592 -0.1069062435210571 0 -0.25687551172258971 -0.095275519396915032 0 -0.26511094786836592 -0.1069062435210571 0 -0.25687551172258971 -0.095275519396915032 0 -0.26922948176741379 -0.094556007429682482 0 -0.26511094786836592 -0.1069062435210571 0 -0.27676276389741278 -0.11052104179975 0 -0.28208733676033698 -0.099544680508420066 0 -0.26511094786836592 -0.1069062435210571 0 -0.26922948176741379 -0.094556007429682482 0 -0.28208733676033698 -0.099544680508420066 0 -0.26511094786836592 -0.1069062435210571 0 -0.28208733676033698 -0.099544680508420066 0 -0.26009747564537128 -0.1202716976192799 0 -0.28368315898475188 -0.1205679176925603 0 -0.26697405985724948 -0.1304210152969853 0 -0.26009747564537128 -0.1202716976192799 0 -0.27676276389741278 -0.11052104179975 0 -0.28368315898475188 -0.1205679176925603 0 -0.26009747564537128 -0.1202716976192799 0 -0.28368315898475188 -0.1205679176925603 0 -0.26009747564537128 -0.1202716976192799 0 -0.26511094786836592 -0.1069062435210571 0 -0.27676276389741278 -0.11052104179975 0 -0.28368315898475188 -0.1205679176925603 0 -0.30807566230962469 -0.12087427087378499 0 -0.28368315898475188 -0.1205679176925603 0 -0.29137344231852969 -0.1063755175941712 0 -0.30807566230962469 -0.12087427087378499 0 -0.27676276389741278 -0.11052104179975 0 -0.28368315898475188 -0.1205679176925603 0 -0.29137344231852969 -0.1063755175941712 0 -0.28368315898475188 -0.1205679176925603 0 -0.29137344231852969 -0.1063755175941712 0 -0.29137344231852969 -0.1063755175941712 0 -0.28208733676033698 -0.099544680508420066 0 -0.29906372565230788 -0.092183117495782341 0 -0.28208733676033698 -0.099544680508420066 0 -0.29906372565230788 -0.092183117495782341 0 -0.27676276389741278 -0.11052104179975 0 -0.29137344231852969 -0.1063755175941712 0 -0.28208733676033698 -0.099544680508420066 0 -0.29137344231852969 -0.1063755175941712 0 -0.29906372565230788 -0.092183117495782341 0 -0.30690970986333499 -0.10413412755240679 0 -0.29906372565230788 -0.092183117495782341 0 -0.31411573014289268 -0.085656035662949492 0 -0.29137344231852969 -0.1063755175941712 0 -0.30690970986333499 -0.10413412755240679 0 -0.29906372565230788 -0.092183117495782341 0 -0.28368315898475188 -0.1205679176925603 0 -0.30807566230962469 -0.12087427087378499 0 -0.30140371581860798 -0.1292511186866305 0 -0.29137344231852969 -0.1063755175941712 0 -0.30690970986333499 -0.10413412755240679 0 -0.30807566230962469 -0.12087427087378499 0 -0.29557893925590151 -0.069462416794053169 0 -0.28634330733871821 -0.075869823829162894 0 -0.29528406594296941 -0.079953964946478426 0 -0.28660483069534037 -0.061918496488246169 0 -0.29557893925590151 -0.069462416794053169 0 -0.28634330733871821 -0.075869823829162894 0 -0.28660483069534037 -0.061918496488246169 0 -0.27411142324960069 -0.07331497732508381 0 -0.28634330733871821 -0.075869823829162894 0 -0.27622487875609619 -0.085738752979791055 0 -0.28634330733871821 -0.075869823829162894 0 -0.28693891673241251 -0.08747755748016231 0 -0.28208733676033698 -0.099544680508420066 0 -0.28693891673241251 -0.08747755748016231 0 -0.29906372565230788 -0.092183117495782341 0 -0.27622487875609619 -0.085738752979791055 0 -0.28208733676033698 -0.099544680508420066 0 -0.28693891673241251 -0.08747755748016231 0 -0.28693891673241251 -0.08747755748016231 0 -0.29528406594296941 -0.079953964946478426 0 -0.29906372565230788 -0.092183117495782341 0 -0.28634330733871821 -0.075869823829162894 0 -0.28693891673241251 -0.08747755748016231 0 -0.29528406594296941 -0.079953964946478426 0 -0.29528406594296941 -0.079953964946478426 0 -0.29906372565230788 -0.092183117495782341 0 -0.30849544073550722 -0.074776909133231664 0 -0.29906372565230788 -0.092183117495782341 0 -0.30849544073550722 -0.074776909133231664 0 -0.29906372565230788 -0.092183117495782341 0 -0.30849544073550722 -0.074776909133231664 0 -0.31411573014289268 -0.085656035662949492 0 -0.29906372565230788 -0.092183117495782341 0 -0.31411573014289268 -0.085656035662949492 0 -0.30849544073550722 -0.074776909133231664 0 -0.31411573014289268 -0.085656035662949492 0 -0.30229462048881822 -0.056161209871372138 0 -0.30849544073550722 -0.074776909133231664 0 -0.31178497446605258 -0.064623658022855565 0 -0.29850594913894141 -0.055440370537233663 0 -0.29557893925590151 -0.069462416794053169 0 -0.30849544073550722 -0.074776909133231664 0 -0.30849544073550722 -0.074776909133231664 0 -0.31286059459191501 -0.066721027791507209 0 -0.29850594913894141 -0.055440370537233663 0 -0.30849544073550722 -0.074776909133231664 0 -0.29557893925590151 -0.069462416794053169 0 -0.29528406594296941 -0.079953964946478426 0 -0.30849544073550722 -0.074776909133231664 0 -0.30849544073550722 -0.074776909133231664 0 -0.31178497446605258 -0.064623658022855565 0 -0.31286059459191501 -0.066721027791507209 0 -0.31178497446605258 -0.064623658022855565 0 -0.31286059459191501 -0.066721027791507209 0 -0.31286059459191501 -0.066721027791507209 0 -0.32103296817657878 -0.082656476452658639 0 -0.31286059459191501 -0.066721027791507209 0 -0.32103296817657878 -0.082656476452658639 0 -0.32352590008436471 -0.062378140209921912 0 -0.31178497446605258 -0.064623658022855565 0 -0.31286059459191501 -0.066721027791507209 0 -0.31629816603535338 -0.060261719535131632 0 -0.30849544073550722 -0.074776909133231664 0 -0.31286059459191501 -0.066721027791507209 0 -0.32103296817657878 -0.082656476452658639 0 -0.31286059459191501 -0.066721027791507209 0 -0.31629816603535338 -0.060261719535131632 0 -0.31286059459191501 -0.066721027791507209 0 -0.31629816603535338 -0.060261719535131632 0 -0.32352590008436471 -0.062378140209921912 0 -0.32103296817657878 -0.082656476452658639 0 -0.33093834944883532 -0.101971145942244 0 -0.30849544073550722 -0.074776909133231664 0 -0.31411573014289268 -0.085656035662949492 0 -0.32103296817657878 -0.082656476452658639 0 -0.31411573014289268 -0.085656035662949492 0 -0.32103296817657878 -0.082656476452658639 0 -0.32329194788869442 -0.1034183298589804 0 -0.31411573014289268 -0.085656035662949492 0 -0.32103296817657878 -0.082656476452658639 0 -0.32103296817657878 -0.082656476452658639 0 -0.33692687914299491 -0.089632102483736459 0 -0.33093834944883532 -0.101971145942244 0 -0.32103296817657878 -0.082656476452658639 0 -0.33692687914299491 -0.089632102483736459 0 -0.3453529791357649 -0.07211045902320197 0 -0.32103296817657878 -0.082656476452658639 0 -0.3453529791357649 -0.07211045902320197 0 -0.32352590008436471 -0.062378140209921912 0 -0.34475717967991132 -0.068595070548471249 0 -0.3453529791357649 -0.07211045902320197 0 -0.32352590008436471 -0.062378140209921912 0 -0.34475717967991132 -0.068595070548471249 0 -0.32352590008436471 -0.062378140209921912 0 -0.32103296817657878 -0.082656476452658639 0 -0.3453529791357649 -0.07211045902320197 0 -0.30807566230962469 -0.12087427087378499 0 -0.32329194788869442 -0.1034183298589804 0 -0.33246816563449738 -0.1211806240550105 0 -0.30807566230962469 -0.12087427087378499 0 -0.33246816563449738 -0.1211806240550105 0 -0.30807566230962469 -0.12087427087378499 0 -0.32007374605487132 -0.12494213909402439 0 -0.33246816563449738 -0.1211806240550105 0 -0.30690970986333499 -0.10413412755240679 0 -0.30807566230962469 -0.12087427087378499 0 -0.32329194788869442 -0.1034183298589804 0 -0.32329194788869442 -0.1034183298589804 0 -0.33246816563449738 -0.1211806240550105 0 -0.32007374605487132 -0.12494213909402439 0 -0.33441303965894859 -0.1249452932850653 0 -0.30690970986333499 -0.10413412755240679 0 -0.31411573014289268 -0.085656035662949492 0 -0.32329194788869442 -0.1034183298589804 0 -0.32103296817657878 -0.082656476452658639 0 -0.32329194788869442 -0.1034183298589804 0 -0.33093834944883532 -0.101971145942244 0 -0.31411573014289268 -0.085656035662949492 0 -0.32329194788869442 -0.1034183298589804 0 -0.32329194788869442 -0.1034183298589804 0 -0.33093834944883532 -0.101971145942244 0 -0.33246816563449738 -0.1211806240550105 0 -0.33692687914299491 -0.089632102483736459 0 -0.33093834944883532 -0.101971145942244 0 -0.35038321981080389 -0.10179032851684799 0 -0.33093834944883532 -0.101971145942244 0 -0.34773438721257438 -0.1121772477149196 0 -0.35038321981080389 -0.10179032851684799 0 -0.33093834944883532 -0.101971145942244 0 -0.3408437307210912 -0.1212858154318297 0 -0.33093834944883532 -0.101971145942244 0 -0.3408437307210912 -0.1212858154318297 0 -0.33246816563449738 -0.1211806240550105 0 -0.33093834944883532 -0.101971145942244 0 -0.3408437307210912 -0.1212858154318297 0 -0.34773438721257438 -0.1121772477149196 0 -0.34272140335036932 -0.124947120862287 0 -0.3408437307210912 -0.1212858154318297 0 -0.33441303965894859 -0.1249452932850653 0 -0.3408437307210912 -0.1212858154318297 0 -0.33246816563449738 -0.1211806240550105 0 -0.34272140335036932 -0.124947120862287 0 -0.33441303965894859 -0.1249452932850653 0 -0.34272140335036932 -0.124947120862287 0 -0.3408437307210912 -0.1212858154318297 0 -0.32007374605487132 -0.12494213909402439 0 -0.33441303965894859 -0.1249452932850653 0 -0.33246816563449738 -0.1211806240550105 0 -0.3408437307210912 -0.1212858154318297 0 -0.33441303965894859 -0.1249452932850653 0 -0.33246816563449738 -0.1211806240550105 0 -0.33441303965894859 -0.1249452932850653 0 -0.33246816563449738 -0.1211806240550105 0 -0.34272140335036932 -0.124947120862287 0 -0.35433435295871402 -0.1214552484327875 0 -0.36893450279197471 -0.1249528869149899 0 -0.34272140335036932 -0.124947120862287 0 -0.36893450279197471 -0.1249528869149899 0 -0.3408437307210912 -0.1212858154318297 0 -0.35433435295871402 -0.1214552484327875 0 -0.3408437307210912 -0.1212858154318297 0 -0.35433435295871402 -0.1214552484327875 0 -0.34773438721257438 -0.1121772477149196 0 -0.34272140335036932 -0.124947120862287 0 -0.3408437307210912 -0.1212858154318297 0 -0.35433435295871402 -0.1214552484327875 0 -0.35433435295871402 -0.1214552484327875 0 -0.34773438721257438 -0.1121772477149196 0 -0.3623387343604032 -0.1125517513480446 0 -0.34773438721257438 -0.1121772477149196 0 -0.35038321981080389 -0.10179032851684799 0 -0.3623387343604032 -0.1125517513480446 0 -0.37380044498630338 -0.100392191664622 0 -0.3623387343604032 -0.1125517513480446 0 -0.3789649235099295 -0.11270856972454819 0 -0.35038321981080389 -0.10179032851684799 0 -0.37380044498630338 -0.100392191664622 0 -0.36747037526515469 -0.088210616938563927 0 -0.35038321981080389 -0.10179032851684799 0 -0.37380044498630338 -0.100392191664622 0 -0.3623387343604032 -0.1125517513480446 0 -0.3623387343604032 -0.1125517513480446 0 -0.36893450279197471 -0.1249528869149899 0 -0.3789649235099295 -0.11270856972454819 0 -0.35433435295871402 -0.1214552484327875 0 -0.3623387343604032 -0.1125517513480446 0 -0.36893450279197471 -0.1249528869149899 0 -0.34995192587724822 -0.070116192960804249 0 -0.35645509357982358 -0.081628608772215283 0 -0.36843110820579178 -0.075527255856609146 0 -0.34995192587724822 -0.070116192960804249 0 -0.36608399240098949 -0.063120758007335118 0 -0.35494834161021771 -0.06194377696909157 0 -0.34995192587724822 -0.070116192960804249 0 -0.36843110820579178 -0.075527255856609146 0 -0.34995192587724822 -0.070116192960804249 0 -0.36608399240098949 -0.063120758007335118 0 -0.34995192587724822 -0.070116192960804249 0 -0.34475717967991132 -0.068595070548471249 0 -0.35494834161021771 -0.06194377696909157 0 -0.34995192587724822 -0.070116192960804249 0 -0.34475717967991132 -0.068595070548471249 0 -0.34995192587724822 -0.070116192960804249 0 -0.34475717967991132 -0.068595070548471249 0 -0.3453529791357649 -0.07211045902320197 0 -0.34995192587724822 -0.070116192960804249 0 -0.3453529791357649 -0.07211045902320197 0 -0.34995192587724822 -0.070116192960804249 0 -0.3453529791357649 -0.07211045902320197 0 -0.35645509357982358 -0.081628608772215283 0 -0.34475717967991132 -0.068595070548471249 0 -0.3453529791357649 -0.07211045902320197 0 -0.35038321981080389 -0.10179032851684799 0 -0.35645509357982358 -0.081628608772215283 0 -0.36747037526515469 -0.088210616938563927 0 -0.35038321981080389 -0.10179032851684799 0 -0.3453529791357649 -0.07211045902320197 0 -0.35645509357982358 -0.081628608772215283 0 -0.33692687914299491 -0.089632102483736459 0 -0.35038321981080389 -0.10179032851684799 0 -0.3453529791357649 -0.07211045902320197 0 -0.35038321981080389 -0.10179032851684799 0 -0.3453529791357649 -0.07211045902320197 0 -0.36747037526515469 -0.088210616938563927 0 -0.36843110820579178 -0.075527255856609146 0 -0.38691029053433551 -0.080938318752413793 0 -0.35645509357982358 -0.081628608772215283 0 -0.36747037526515469 -0.088210616938563927 0 -0.36843110820579178 -0.075527255856609146 0 -0.34995192587724822 -0.070116192960804249 0 -0.36843110820579178 -0.075527255856609146 0 -0.36608399240098949 -0.063120758007335118 0 -0.36843110820579178 -0.075527255856609146 0 -0.36608399240098949 -0.063120758007335118 0 -0.37978412082390189 -0.068029865631836883 0 -0.36608399240098949 -0.063120758007335118 0 -0.37085155020467431 -0.050438611479832557 0 -0.38221605892473098 -0.056125323053866277 0 -0.36608399240098949 -0.063120758007335118 0 -0.38221605892473098 -0.056125323053866277 0 -0.37085155020467431 -0.050438611479832557 0 -0.36177701350261748 -0.054750595911384127 0 -0.36329546327126672 -0.041142767418341691 0 -0.36608399240098949 -0.063120758007335118 0 -0.36177701350261748 -0.054750595911384127 0 -0.35494834161021771 -0.06194377696909157 0 -0.36608399240098949 -0.063120758007335118 0 -0.37085155020467431 -0.050438611479832557 0 -0.36177701350261748 -0.054750595911384127 0 -0.36177701350261748 -0.054750595911384127 0 -0.35494834161021771 -0.06194377696909157 0 -0.35217159659032232 -0.05313626741746251 0 -0.34475717967991132 -0.068595070548471249 0 -0.35217159659032232 -0.05313626741746251 0 -0.34008173660725832 -0.04100860914713586 0 -0.36177701350261748 -0.054750595911384127 0 -0.35217159659032232 -0.05313626741746251 0 -0.36329546327126672 -0.041142767418341691 0 -0.34475717967991132 -0.068595070548471249 0 -0.35494834161021771 -0.06194377696909157 0 -0.35217159659032232 -0.05313626741746251 0 -0.35217159659032232 -0.05313626741746251 0 -0.35233090603521772 -0.034345905606361089 0 -0.36329546327126672 -0.041142767418341691 0 -0.35217159659032232 -0.05313626741746251 0 -0.35233090603521772 -0.034345905606361089 0 -0.34008173660725832 -0.04100860914713586 0 -0.35233090603521772 -0.034345905606361089 0 -0.34677261788783459 -0.022263095799622792 0 -0.34008173660725832 -0.04100860914713586 0 -0.35233090603521772 -0.034345905606361089 0 -0.36329546327126672 -0.041142767418341691 0 -0.36125368123050811 -0.029816691131076791 0 -0.36329546327126672 -0.041142767418341691 0 -0.37015544225173291 -0.03012439130571171 0 -0.36125368123050811 -0.029816691131076791 0 -0.37085155020467431 -0.050438611479832557 0 -0.36329546327126672 -0.041142767418341691 0 -0.37439980638912518 -0.038891661293645137 0 -0.36329546327126672 -0.041142767418341691 0 -0.37439980638912518 -0.038891661293645137 0 -0.37015544225173291 -0.03012439130571171 0 -0.37439980638912518 -0.038891661293645137 0 -0.37015544225173291 -0.03012439130571171 0 -0.37866743010551202 -0.02906954498465647 0 -0.37015544225173291 -0.03012439130571171 0 -0.37402384376206249 -0.023759624541515059 0 -0.37866743010551202 -0.02906954498465647 0 -0.37015544225173291 -0.03012439130571171 0 -0.37402384376206249 -0.023759624541515059 0 -0.36652472594663232 -0.022500501643346649 0 -0.37402384376206249 -0.023759624541515059 0 -0.37465439862472261 -0.016787835852634068 0 -0.36652472594663232 -0.022500501643346649 0 -0.37465439862472261 -0.016787835852634068 0 -0.36652472594663232 -0.022500501643346649 0 -0.3596530522362773 -0.017262546391789129 0 -0.36652472594663232 -0.022500501643346649 0 -0.3596530522362773 -0.017262546391789129 0 -0.35649867437881472 -0.022585523222405649 0 -0.36652472594663232 -0.022500501643346649 0 -0.36125368123050811 -0.029816691131076791 0 -0.35649867437881472 -0.022585523222405649 0 -0.37015544225173291 -0.03012439130571171 0 -0.36652472594663232 -0.022500501643346649 0 -0.36125368123050811 -0.029816691131076791 0 -0.37465439862472261 -0.016787835852634068 0 -0.3596530522362773 -0.017262546391789129 0 -0.34857824671955512 -0.007874197240844389 0 -0.37465439862472261 -0.016787835852634068 0 -0.3597652811465577 -0.0058215117475868012 0 -0.34857824671955512 -0.007874197240844389 0 -0.37465439862472261 -0.016787835852634068 0 -0.34857824671955512 -0.007874197240844389 0 -0.37126952376897032 -0.00085078512189483576 0 -0.36867541047690239 -0.006920070417115203 0 -0.36494834593608783 -0.001298186014321303 0 -0.37126952376897032 -0.00085078512189483576 0 -0.37464851222799189 -0.0076089195940836872 0 -0.37774077980655368 -0.001289555558904682 0 -0.37126952376897032 -0.00085078512189483576 0 -0.37464851222799189 -0.0076089195940836872 0 -0.36867541047690239 -0.006920070417115203 0 -0.37465439862472261 -0.016787835852634068 0 -0.36867541047690239 -0.006920070417115203 0 -0.3597652811465577 -0.0058215117475868012 0 -0.37465439862472261 -0.016787835852634068 0 -0.37464851222799189 -0.0076089195940836872 0 -0.36867541047690239 -0.006920070417115203 0 -0.36867541047690239 -0.006920070417115203 0 -0.3597652811465577 -0.0058215117475868012 0 -0.36494834593608783 -0.001298186014321303 0 -0.3597652811465577 -0.0058215117475868012 0 -0.36494834593608783 -0.001298186014321303 0 -0.35900139338342918 0.0020097317905480609 0 -0.3597652811465577 -0.0058215117475868012 0 -0.35221409618436439 -0.0049109655465913588 0 -0.34857824671955512 -0.007874197240844389 0 -0.3597652811465577 -0.0058215117475868012 0 -0.35509488683577939 -0.0004162838960613095 0 -0.35900139338342918 0.0020097317905480609 0 -0.3597652811465577 -0.0058215117475868012 0 -0.35509488683577939 -0.0004162838960613095 0 -0.35221409618436439 -0.0049109655465913588 0 -0.3596530522362773 -0.017262546391789129 0 -0.34857824671955512 -0.007874197240844389 0 -0.35200921551166209 -0.0165646739997149 0 -0.34857824671955512 -0.007874197240844389 0 -0.34618108527798752 -0.01472783018749277 0 -0.35200921551166209 -0.0165646739997149 0 -0.35233090603521772 -0.034345905606361089 0 -0.36125368123050811 -0.029816691131076791 0 -0.35649867437881472 -0.022585523222405649 0 -0.35233090603521772 -0.034345905606361089 0 -0.35649867437881472 -0.022585523222405649 0 -0.34677261788783459 -0.022263095799622792 0 -0.35649867437881472 -0.022585523222405649 0 -0.35200921551166209 -0.0165646739997149 0 -0.34677261788783459 -0.022263095799622792 0 -0.3596530522362773 -0.017262546391789129 0 -0.35649867437881472 -0.022585523222405649 0 -0.35200921551166209 -0.0165646739997149 0 -0.34618108527798752 -0.01472783018749277 0 -0.35200921551166209 -0.0165646739997149 0 -0.34677261788783459 -0.022263095799622792 0 -0.33540629353460438 -0.01342214774580049 0 -0.31718310516035308 -0.038172790333745737 0 -0.34008173660725832 -0.04100860914713586 0 -0.33540629353460438 -0.01342214774580049 0 -0.34008173660725832 -0.04100860914713586 0 -0.34677261788783459 -0.022263095799622792 0 -0.33540629353460438 -0.01342214774580049 0 -0.34008173660725832 -0.04100860914713586 0 -0.34618108527798752 -0.01472783018749277 0 -0.34677261788783459 -0.022263095799622792 0 -0.33540629353460438 -0.01342214774580049 0 -0.33540629353460438 -0.01342214774580049 0 -0.3204068892458079 -0.0014125807301150939 0 -0.33073085046195078 0.01416431365553468 0 -0.34857824671955512 -0.007874197240844389 0 -0.33540629353460438 -0.01342214774580049 0 -0.33073085046195078 0.01416431365553468 0 -0.34857824671955512 -0.007874197240844389 0 -0.34618108527798752 -0.01472783018749277 0 -0.33540629353460438 -0.01342214774580049 0 -0.3025805037907468 -0.0027432771802810229 0 -0.31459326366374579 -0.01532774276474733 0 -0.3204068892458079 -0.0014125807301150939 0 -0.33540629353460438 -0.01342214774580049 0 -0.31459326366374579 -0.01532774276474733 0 -0.3204068892458079 -0.0014125807301150939 0 -0.33540629353460438 -0.01342214774580049 0 -0.31459326366374579 -0.01532774276474733 0 -0.31718310516035308 -0.038172790333745737 0 -0.31718310516035308 -0.038172790333745737 0 -0.3268834079531176 -0.05023453433316457 0 -0.34008173660725832 -0.04100860914713586 0 -0.31718310516035308 -0.038172790333745737 0 -0.31370341578724742 -0.051143824177853653 0 -0.3268834079531176 -0.05023453433316457 0 -0.31370341578724742 -0.051143824177853653 0 -0.31629816603535338 -0.060261719535131632 0 -0.32352590008436471 -0.062378140209921912 0 -0.31629816603535338 -0.060261719535131632 0 -0.32352590008436471 -0.062378140209921912 0 -0.32352590008436471 -0.062378140209921912 0 -0.3268834079531176 -0.05023453433316457 0 -0.33381205608116321 -0.055554088559673351 0 -0.31370341578724742 -0.051143824177853653 0 -0.32352590008436471 -0.062378140209921912 0 -0.3268834079531176 -0.05023453433316457 0 -0.34475717967991132 -0.068595070548471249 0 -0.32352590008436471 -0.062378140209921912 0 -0.33381205608116321 -0.055554088559673351 0 -0.34475717967991132 -0.068595070548471249 0 -0.33381205608116321 -0.055554088559673351 0 -0.34008173660725832 -0.04100860914713586 0 -0.3268834079531176 -0.05023453433316457 0 -0.33381205608116321 -0.055554088559673351 0 -0.34008173660725832 -0.04100860914713586 0 -0.34475717967991132 -0.068595070548471249 0 -0.34008173660725832 -0.04100860914713586 0 -0.29131753467172561 -0.25675805269722002 0 -0.30769212114973271 -0.24578220261295139 0 -0.29241592956139478 -0.23974284613727589 0 -0.30769212114973271 -0.24578220261295139 0 -0.30829656048542242 -0.23127198481015249 0 -0.29241592956139478 -0.23974284613727589 0 -0.30829656048542242 -0.23127198481015249 0 -0.29279532374442052 -0.2217612167757172 0 -0.3129652712195421 -0.2114706657937139 0 -0.30829656048542242 -0.23127198481015249 0 -0.29279532374442052 -0.2217612167757172 0 -0.29241592956139478 -0.23974284613727589 0 -0.29279532374442052 -0.2217612167757172 0 -0.29241592956139478 -0.23974284613727589 0 -0.27798049023744681 -0.23352671123603991 0 -0.29279532374442052 -0.2217612167757172 0 -0.27798049023744681 -0.23352671123603991 0 -0.27449661508218531 -0.21747639879007349 0 -0.29131753467172561 -0.25675805269722002 0 -0.29241592956139478 -0.23974284613727589 0 -0.27722523139620658 -0.24922189107985179 0 -0.29241592956139478 -0.23974284613727589 0 -0.27722523139620658 -0.24922189107985179 0 -0.27798049023744681 -0.23352671123603991 0 -0.27722523139620658 -0.24922189107985179 0 -0.25992972331208369 -0.2410680052130979 0 -0.27798049023744681 -0.23352671123603991 0 -0.26398002587916253 -0.25656090854441049 0 -0.27722523139620658 -0.24922189107985179 0 -0.25992972331208369 -0.2410680052130979 0 -0.25992972331208369 -0.2410680052130979 0 -0.25674041691710447 -0.22108212323078871 0 -0.27798049023744681 -0.23352671123603991 0 -0.2377451423251814 -0.23136366228574551 0 -0.25992972331208369 -0.2410680052130979 0 -0.25674041691710447 -0.22108212323078871 0 -0.25674041691710447 -0.22108212323078871 0 -0.27798049023744681 -0.23352671123603991 0 -0.27449661508218531 -0.21747639879007349 0 -0.27449661508218531 -0.21747639879007349 0 -0.25644706280453389 -0.1995927939493197 0 -0.27817485521465529 -0.19463925610534399 0 -0.27449661508218531 -0.21747639879007349 0 -0.27817485521465529 -0.19463925610534399 0 -0.25674041691710447 -0.22108212323078871 0 -0.27449661508218531 -0.21747639879007349 0 -0.25644706280453389 -0.1995927939493197 0 -0.25644706280453389 -0.1995927939493197 0 -0.27817485521465529 -0.19463925610534399 0 -0.26629571781906192 -0.18034234132084431 0 -0.27817485521465529 -0.19463925610534399 0 -0.29367807880863189 -0.20345752952089671 0 -0.29386082525749962 -0.1848532680646672 0 -0.27449661508218531 -0.21747639879007349 0 -0.27817485521465529 -0.19463925610534399 0 -0.29367807880863189 -0.20345752952089671 0 -0.29279532374442052 -0.2217612167757172 0 -0.27449661508218531 -0.21747639879007349 0 -0.29367807880863189 -0.20345752952089671 0 -0.29279532374442052 -0.2217612167757172 0 -0.29367807880863189 -0.20345752952089671 0 -0.3129652712195421 -0.2114706657937139 0 -0.29367807880863189 -0.20345752952089671 0 -0.30717411826112789 -0.1920401195635244 0 -0.29386082525749962 -0.1848532680646672 0 -0.29367807880863189 -0.20345752952089671 0 -0.30717411826112789 -0.1920401195635244 0 -0.3129652712195421 -0.2114706657937139 0 -0.30551265723832022 -0.17938492804960809 0 -0.29677214667513702 -0.1677956617280158 0 -0.29386082525749962 -0.1848532680646672 0 -0.30717411826112789 -0.1920401195635244 0 -0.30551265723832022 -0.17938492804960809 0 -0.29386082525749962 -0.1848532680646672 0 -0.30717411826112789 -0.1920401195635244 0 -0.30551265723832022 -0.17938492804960809 0 -0.31489114071409963 -0.18333745750317351 0 -0.30551265723832022 -0.17938492804960809 0 -0.31220508881165993 -0.16846949012138551 0 -0.29677214667513702 -0.1677956617280158 0 -0.30551265723832022 -0.17938492804960809 0 -0.31220508881165993 -0.16846949012138551 0 -0.31489114071409963 -0.18333745750317351 0 -0.31220508881165993 -0.16846949012138551 0 -0.2949530938874384 -0.15245549241185349 0 -0.31498630483336881 -0.15987728715749039 0 -0.31220508881165993 -0.16846949012138551 0 -0.2949530938874384 -0.15245549241185349 0 -0.31220508881165993 -0.16846949012138551 0 -0.29677214667513702 -0.1677956617280158 0 -0.2949530938874384 -0.15245549241185349 0 -0.28185309534712533 -0.17180211342061449 0 -0.28553133547959519 -0.14896497073588499 0 -0.29677214667513702 -0.1677956617280158 0 -0.28185309534712533 -0.17180211342061449 0 -0.2949530938874384 -0.15245549241185349 0 -0.28185309534712533 -0.17180211342061449 0 -0.28553133547959519 -0.14896497073588499 0 -0.2949530938874384 -0.15245549241185349 0 -0.27817485521465529 -0.19463925610534399 0 -0.28185309534712533 -0.17180211342061449 0 -0.29386082525749962 -0.1848532680646672 0 -0.29677214667513702 -0.1677956617280158 0 -0.28185309534712533 -0.17180211342061449 0 -0.29386082525749962 -0.1848532680646672 0 -0.27817485521465529 -0.19463925610534399 0 -0.28185309534712533 -0.17180211342061449 0 -0.27817485521465529 -0.19463925610534399 0 -0.28185309534712533 -0.17180211342061449 0 -0.26629571781906192 -0.18034234132084431 0 -0.26629571781906192 -0.18034234132084431 0 -0.25029992488695979 -0.1782534950292988 0 -0.25761979100978533 -0.16665415002795461 0 -0.25644706280453389 -0.1995927939493197 0 -0.26629571781906192 -0.18034234132084431 0 -0.25029992488695979 -0.1782534950292988 0 -0.26629571781906192 -0.18034234132084431 0 -0.25761979100978533 -0.16665415002795461 0 -0.26933386928146391 -0.16300442301689841 0 -0.24825300788518309 -0.1555077779107997 0 -0.25761979100978533 -0.16665415002795461 0 -0.26108146703715113 -0.15708396540124031 0 -0.25761979100978533 -0.16665415002795461 0 -0.26108146703715113 -0.15708396540124031 0 -0.26933386928146391 -0.16300442301689841 0 -0.28185309534712533 -0.17180211342061449 0 -0.27598770130958522 -0.15333886838191951 0 -0.28553133547959519 -0.14896497073588499 0 -0.28185309534712533 -0.17180211342061449 0 -0.26629571781906192 -0.18034234132084431 0 -0.26933386928146391 -0.16300442301689841 0 -0.26108146703715113 -0.15708396540124031 0 -0.26933386928146391 -0.16300442301689841 0 -0.26726071412102442 -0.15087550168963329 0 -0.28185309534712533 -0.17180211342061449 0 -0.26933386928146391 -0.16300442301689841 0 -0.27598770130958522 -0.15333886838191951 0 -0.27598770130958522 -0.15333886838191951 0 -0.271177428866754 -0.14364721368904659 0 -0.28553133547959519 -0.14896497073588499 0 -0.271177428866754 -0.14364721368904659 0 -0.28662611268527088 -0.1421678116724244 0 -0.28553133547959519 -0.14896497073588499 0 -0.271177428866754 -0.14364721368904659 0 -0.28553133547959519 -0.14896497073588499 0 -0.271177428866754 -0.14364721368904659 0 -0.26726071412102442 -0.15087550168963329 0 -0.25891484533836889 -0.13910423861407881 0 -0.271177428866754 -0.14364721368904659 0 -0.26726071412102442 -0.15087550168963329 0 -0.27598770130958522 -0.15333886838191951 0 -0.271177428866754 -0.14364721368904659 0 -0.26726071412102442 -0.15087550168963329 0 -0.26933386928146391 -0.16300442301689841 0 -0.27598770130958522 -0.15333886838191951 0 -0.26726071412102442 -0.15087550168963329 0 -0.2405789555143194 -0.1375116727892334 0 -0.25601133851015478 -0.1487044986697981 0 -0.25891484533836889 -0.13910423861407881 0 -0.26108146703715113 -0.15708396540124031 0 -0.26726071412102442 -0.15087550168963329 0 -0.25601133851015478 -0.1487044986697981 0 -0.271177428866754 -0.14364721368904659 0 -0.25891484533836889 -0.13910423861407881 0 -0.26726071412102442 -0.15087550168963329 0 -0.25601133851015478 -0.1487044986697981 0 -0.25891484533836889 -0.13910423861407881 0 -0.24825300788518309 -0.1555077779107997 0 -0.26108146703715113 -0.15708396540124031 0 -0.25601133851015478 -0.1487044986697981 0 -0.26009747564537128 -0.1202716976192799 0 -0.25054446979338107 -0.12912519928877991 0 -0.26697405985724948 -0.1304210152969853 0 -0.25054446979338107 -0.12912519928877991 0 -0.25891484533836889 -0.13910423861407881 0 -0.26697405985724948 -0.1304210152969853 0 -0.2405789555143194 -0.1375116727892334 0 -0.25054446979338107 -0.12912519928877991 0 -0.25891484533836889 -0.13910423861407881 0 -0.28368315898475188 -0.1205679176925603 0 -0.271177428866754 -0.14364721368904659 0 -0.26697405985724948 -0.1304210152969853 0 -0.28368315898475188 -0.1205679176925603 0 -0.271177428866754 -0.14364721368904659 0 -0.28514813781506088 -0.1345929107172644 0 -0.28368315898475188 -0.1205679176925603 0 -0.271177428866754 -0.14364721368904659 0 -0.271177428866754 -0.14364721368904659 0 -0.25891484533836889 -0.13910423861407881 0 -0.26697405985724948 -0.1304210152969853 0 -0.271177428866754 -0.14364721368904659 0 -0.28514813781506088 -0.1345929107172644 0 -0.28662611268527088 -0.1421678116724244 0 -0.28368315898475188 -0.1205679176925603 0 -0.29492821592448881 -0.13453805291007029 0 -0.28514813781506088 -0.1345929107172644 0 -0.28368315898475188 -0.1205679176925603 0 -0.29492821592448881 -0.13453805291007029 0 -0.30140371581860798 -0.1292511186866305 0 -0.29492821592448881 -0.13453805291007029 0 -0.2912775948780732 -0.1389862943003273 0 -0.28514813781506088 -0.1345929107172644 0 -0.29657756063899582 -0.140013172184488 0 -0.29492821592448881 -0.13453805291007029 0 -0.2912775948780732 -0.1389862943003273 0 -0.2912775948780732 -0.1389862943003273 0 -0.28514813781506088 -0.1345929107172644 0 -0.28662611268527088 -0.1421678116724244 0 -0.28662611268527088 -0.1421678116724244 0 -0.28553133547959519 -0.14896497073588499 0 -0.28662611268527088 -0.1421678116724244 0 -0.28553133547959519 -0.14896497073588499 0 -0.28937009998544028 -0.14621975116982991 0 -0.28553133547959519 -0.14896497073588499 0 -0.2922536480049423 -0.1499497578362777 0 -0.28937009998544028 -0.14621975116982991 0 -0.28553133547959519 -0.14896497073588499 0 -0.2922536480049423 -0.1499497578362777 0 -0.2949530938874384 -0.15245549241185349 0 -0.28553133547959519 -0.14896497073588499 0 -0.2949530938874384 -0.15245549241185349 0 -0.2922536480049423 -0.1499497578362777 0 -0.2949530938874384 -0.15245549241185349 0 -0.29617843115691228 -0.14802272380236281 0 -0.2922536480049423 -0.1499497578362777 0 -0.2949530938874384 -0.15245549241185349 0 -0.2912775948780732 -0.1389862943003273 0 -0.28662611268527088 -0.1421678116724244 0 -0.29310794732654949 -0.1436195240173895 0 -0.28662611268527088 -0.1421678116724244 0 -0.28937009998544028 -0.14621975116982991 0 -0.29310794732654949 -0.1436195240173895 0 -0.2922536480049423 -0.1499497578362777 0 -0.28937009998544028 -0.14621975116982991 0 -0.29310794732654949 -0.1436195240173895 0 -0.29617843115691228 -0.14802272380236281 0 -0.29310794732654949 -0.1436195240173895 0 -0.29956135480037449 -0.14472193576336759 0 -0.2922536480049423 -0.1499497578362777 0 -0.29617843115691228 -0.14802272380236281 0 -0.29310794732654949 -0.1436195240173895 0 -0.29657756063899582 -0.140013172184488 0 -0.2912775948780732 -0.1389862943003273 0 -0.29310794732654949 -0.1436195240173895 0 -0.29657756063899582 -0.140013172184488 0 -0.29310794732654949 -0.1436195240173895 0 -0.29956135480037449 -0.14472193576336759 0 -0.29956135480037449 -0.14472193576336759 0 -0.30554397810907652 -0.146919348525368 0 -0.30456114821214081 -0.13888567554976469 0 -0.2949530938874384 -0.15245549241185349 0 -0.30620642865757891 -0.15285211384445899 0 -0.31498630483336881 -0.15987728715749039 0 -0.2949530938874384 -0.15245549241185349 0 -0.31498630483336881 -0.15987728715749039 0 -0.29657756063899582 -0.140013172184488 0 -0.29956135480037449 -0.14472193576336759 0 -0.30456114821214081 -0.13888567554976469 0 -0.29617843115691228 -0.14802272380236281 0 -0.29956135480037449 -0.14472193576336759 0 -0.30052761464898298 -0.14908162957255741 0 -0.29956135480037449 -0.14472193576336759 0 -0.30052761464898298 -0.14908162957255741 0 -0.30554397810907652 -0.146919348525368 0 -0.2949530938874384 -0.15245549241185349 0 -0.30052761464898298 -0.14908162957255741 0 -0.30620642865757891 -0.15285211384445899 0 -0.2949530938874384 -0.15245549241185349 0 -0.29617843115691228 -0.14802272380236281 0 -0.30052761464898298 -0.14908162957255741 0 -0.30052761464898298 -0.14908162957255741 0 -0.30620642865757891 -0.15285211384445899 0 -0.30554397810907652 -0.146919348525368 0 -0.30620642865757891 -0.15285211384445899 0 -0.31211863317072019 -0.1538765410016501 0 -0.31498630483336881 -0.15987728715749039 0 -0.30620642865757891 -0.15285211384445899 0 -0.31071230574427161 -0.15022116190891349 0 -0.30554397810907652 -0.146919348525368 0 -0.30620642865757891 -0.15285211384445899 0 -0.31071230574427161 -0.15022116190891349 0 -0.31211863317072019 -0.1538765410016501 0 -0.31246836027323899 -0.14497521722301901 0 -0.31246708178415561 -0.13872402753426441 0 -0.30456114821214081 -0.13888567554976469 0 -0.30554397810907652 -0.146919348525368 0 -0.31246836027323899 -0.14497521722301901 0 -0.30456114821214081 -0.13888567554976469 0 -0.31071230574427161 -0.15022116190891349 0 -0.30554397810907652 -0.146919348525368 0 -0.31246836027323899 -0.14497521722301901 0 -0.30140371581860798 -0.1292511186866305 0 -0.30456114821214081 -0.13888567554976469 0 -0.31280589771709483 -0.13181614145056869 0 -0.31246708178415561 -0.13872402753426441 0 -0.30456114821214081 -0.13888567554976469 0 -0.31280589771709483 -0.13181614145056869 0 -0.30807566230962469 -0.12087427087378499 0 -0.30140371581860798 -0.1292511186866305 0 -0.31280589771709483 -0.13181614145056869 0 -0.29657756063899582 -0.140013172184488 0 -0.29492821592448881 -0.13453805291007029 0 -0.30456114821214081 -0.13888567554976469 0 -0.29492821592448881 -0.13453805291007029 0 -0.30140371581860798 -0.1292511186866305 0 -0.30456114821214081 -0.13888567554976469 0 -0.3226930215385343 -0.13395567837890529 0 -0.31855308997834159 -0.13934265221991729 0 -0.32506280578504959 -0.14064102607364051 0 -0.3226930215385343 -0.13395567837890529 0 -0.32506280578504959 -0.14064102607364051 0 -0.33047387389575927 -0.1369340691945744 0 -0.3226930215385343 -0.13395567837890529 0 -0.32807010768985068 -0.12986880773923029 0 -0.33047387389575927 -0.1369340691945744 0 -0.32007374605487132 -0.12494213909402439 0 -0.33441303965894859 -0.1249452932850653 0 -0.32807010768985068 -0.12986880773923029 0 -0.32007374605487132 -0.12494213909402439 0 -0.3226930215385343 -0.13395567837890529 0 -0.32807010768985068 -0.12986880773923029 0 -0.32007374605487132 -0.12494213909402439 0 -0.3226930215385343 -0.13395567837890529 0 -0.31280589771709483 -0.13181614145056869 0 -0.30807566230962469 -0.12087427087378499 0 -0.32007374605487132 -0.12494213909402439 0 -0.31280589771709483 -0.13181614145056869 0 -0.3226930215385343 -0.13395567837890529 0 -0.31280589771709483 -0.13181614145056869 0 -0.31855308997834159 -0.13934265221991729 0 -0.31246708178415561 -0.13872402753426441 0 -0.31280589771709483 -0.13181614145056869 0 -0.31855308997834159 -0.13934265221991729 0 -0.31246836027323899 -0.14497521722301901 0 -0.31246708178415561 -0.13872402753426441 0 -0.31855308997834159 -0.13934265221991729 0 -0.31246836027323899 -0.14497521722301901 0 -0.31855308997834159 -0.13934265221991729 0 -0.32096396999162452 -0.14503749675666289 0 -0.31246836027323899 -0.14497521722301901 0 -0.31722412851074311 -0.15248258895007169 0 -0.32096396999162452 -0.14503749675666289 0 -0.31211863317072019 -0.1538765410016501 0 -0.31722412851074311 -0.15248258895007169 0 -0.31498630483336881 -0.15987728715749039 0 -0.31071230574427161 -0.15022116190891349 0 -0.31246836027323899 -0.14497521722301901 0 -0.31722412851074311 -0.15248258895007169 0 -0.31071230574427161 -0.15022116190891349 0 -0.31211863317072019 -0.1538765410016501 0 -0.31722412851074311 -0.15248258895007169 0 -0.32096396999162452 -0.14503749675666289 0 -0.32506280578504959 -0.14064102607364051 0 -0.33039285730051032 -0.1475567648151897 0 -0.31722412851074311 -0.15248258895007169 0 -0.32096396999162452 -0.14503749675666289 0 -0.33039285730051032 -0.1475567648151897 0 -0.31855308997834159 -0.13934265221991729 0 -0.32096396999162452 -0.14503749675666289 0 -0.32506280578504959 -0.14064102607364051 0 -0.33039285730051032 -0.1475567648151897 0 -0.33813688440009898 -0.15615522653291031 0 -0.34198145815712638 -0.1395953898376964 0 -0.32506280578504959 -0.14064102607364051 0 -0.33039285730051032 -0.1475567648151897 0 -0.33047387389575927 -0.1369340691945744 0 -0.31722412851074311 -0.15248258895007169 0 -0.33039285730051032 -0.1475567648151897 0 -0.33813688440009898 -0.15615522653291031 0 -0.33039285730051032 -0.1475567648151897 0 -0.34198145815712638 -0.1395953898376964 0 -0.33047387389575927 -0.1369340691945744 0 -0.33813688440009898 -0.15615522653291031 0 -0.34198145815712638 -0.1395953898376964 0 -0.34954987665533299 -0.15424548639031271 0 -0.34198145815712638 -0.1395953898376964 0 -0.3337346198504213 -0.1328358900141379 0 -0.33047387389575927 -0.1369340691945744 0 -0.32807010768985068 -0.12986880773923029 0 -0.3337346198504213 -0.1328358900141379 0 -0.33047387389575927 -0.1369340691945744 0 -0.33441303965894859 -0.1249452932850653 0 -0.32807010768985068 -0.12986880773923029 0 -0.3337346198504213 -0.1328358900141379 0 -0.33441303965894859 -0.1249452932850653 0 -0.34198145815712638 -0.1395953898376964 0 -0.34272140335036932 -0.124947120862287 0 -0.33441303965894859 -0.1249452932850653 0 -0.34198145815712638 -0.1395953898376964 0 -0.33441303965894859 -0.1249452932850653 0 -0.34198145815712638 -0.1395953898376964 0 -0.3337346198504213 -0.1328358900141379 0 -0.34272140335036932 -0.124947120862287 0 -0.35413341494744088 -0.14719959415449421 0 -0.34272140335036932 -0.124947120862287 0 -0.35599685079288468 -0.13305792836185981 0 -0.35413341494744088 -0.14719959415449421 0 -0.34272140335036932 -0.124947120862287 0 -0.34198145815712638 -0.1395953898376964 0 -0.35413341494744088 -0.14719959415449421 0 -0.34272140335036932 -0.124947120862287 0 -0.36893450279197471 -0.1249528869149899 0 -0.35599685079288468 -0.13305792836185981 0 -0.35599685079288468 -0.13305792836185981 0 -0.36484224068191412 -0.14157370685753851 0 -0.35413341494744088 -0.14719959415449421 0 -0.36893450279197471 -0.1249528869149899 0 -0.35599685079288468 -0.13305792836185981 0 -0.36484224068191412 -0.14157370685753851 0 -0.36893450279197471 -0.1249528869149899 0 -0.36484224068191412 -0.14157370685753851 0 -0.3777566452334315 -0.14913711856379011 0 -0.3679743334396014 -0.15408772885571331 0 -0.37696591512674532 -0.1609827341034305 0 -0.3777566452334315 -0.14913711856379011 0 -0.3679743334396014 -0.15408772885571331 0 -0.36484224068191412 -0.14157370685753851 0 -0.3777566452334315 -0.14913711856379011 0 -0.3679743334396014 -0.15408772885571331 0 -0.36484224068191412 -0.14157370685753851 0 -0.35413341494744088 -0.14719959415449421 0 -0.35413341494744088 -0.14719959415449421 0 -0.34954987665533299 -0.15424548639031271 0 -0.35445721343992059 -0.1619675590177023 0 -0.34198145815712638 -0.1395953898376964 0 -0.34954987665533299 -0.15424548639031271 0 -0.34198145815712638 -0.1395953898376964 0 -0.35413341494744088 -0.14719959415449421 0 -0.34954987665533299 -0.15424548639031271 0 -0.33813688440009898 -0.15615522653291031 0 -0.34954987665533299 -0.15424548639031271 0 -0.34648545334868369 -0.16311147615285329 0 -0.34648545334868369 -0.16311147615285329 0 -0.35788001493839611 -0.17576831496813999 0 -0.33501951577929873 -0.16729908190312789 0 -0.34954987665533299 -0.15424548639031271 0 -0.34648545334868369 -0.16311147615285329 0 -0.35445721343992059 -0.1619675590177023 0 -0.35413341494744088 -0.14719959415449421 0 -0.35445721343992059 -0.1619675590177023 0 -0.36554542654456429 -0.16945206744667471 0 -0.35788001493839611 -0.17576831496813999 0 -0.33501951577929873 -0.16729908190312789 0 -0.34648545334868369 -0.16311147615285329 0 -0.35445721343992059 -0.1619675590177023 0 -0.35788001493839611 -0.17576831496813999 0 -0.35445721343992059 -0.1619675590177023 0 -0.36554542654456429 -0.16945206744667471 0 -0.35788001493839611 -0.17576831496813999 0 -0.35413341494744088 -0.14719959415449421 0 -0.36554542654456429 -0.16945206744667471 0 -0.3679743334396014 -0.15408772885571331 0 -0.35413341494744088 -0.14719959415449421 0 -0.36554542654456429 -0.16945206744667471 0 -0.3679743334396014 -0.15408772885571331 0 -0.36554542654456429 -0.16945206744667471 0 -0.37696591512674532 -0.1609827341034305 0 -0.37016556171889331 -0.18126023377528719 0 -0.3536864721015115 -0.18284124587119119 0 -0.37235342842372432 -0.19838340983925429 0 -0.36554542654456429 -0.16945206744667471 0 -0.37016556171889331 -0.18126023377528719 0 -0.38426477739238413 -0.17192867897072969 0 -0.37016556171889331 -0.18126023377528719 0 -0.3536864721015115 -0.18284124587119119 0 -0.35788001493839611 -0.17576831496813999 0 -0.36554542654456429 -0.16945206744667471 0 -0.37016556171889331 -0.18126023377528719 0 -0.35788001493839611 -0.17576831496813999 0 -0.3536864721015115 -0.18284124587119119 0 -0.33501951577929873 -0.16729908190312789 0 -0.3536864721015115 -0.18284124587119119 0 -0.35788001493839611 -0.17576831496813999 0 -0.33501951577929873 -0.16729908190312789 0 -0.3536864721015115 -0.18284124587119119 0 -0.32945708373588178 -0.18448348783091689 0 -0.33501951577929873 -0.16729908190312789 0 -0.31722412851074311 -0.15248258895007169 0 -0.33813688440009898 -0.15615522653291031 0 -0.33501951577929873 -0.16729908190312789 0 -0.33813688440009898 -0.15615522653291031 0 -0.34648545334868369 -0.16311147615285329 0 -0.33501951577929873 -0.16729908190312789 0 -0.31722412851074311 -0.15248258895007169 0 -0.33501951577929873 -0.16729908190312789 0 -0.31722412851074311 -0.15248258895007169 0 -0.33501951577929873 -0.16729908190312789 0 -0.31498630483336881 -0.15987728715749039 0 -0.31220508881165993 -0.16846949012138551 0 -0.33501951577929873 -0.16729908190312789 0 -0.31498630483336881 -0.15987728715749039 0 -0.33501951577929873 -0.16729908190312789 0 -0.31498630483336881 -0.15987728715749039 0 -0.31220508881165993 -0.16846949012138551 0 -0.32945708373588178 -0.18448348783091689 0 -0.31489114071409963 -0.18333745750317351 0 -0.31220508881165993 -0.16846949012138551 0 -0.32945708373588178 -0.18448348783091689 0 -0.31220508881165993 -0.16846949012138551 0 -0.32945708373588178 -0.18448348783091689 0 -0.33501951577929873 -0.16729908190312789 0 -0.32945708373588178 -0.18448348783091689 0 -0.31489114071409963 -0.18333745750317351 0 -0.32010675552350842 -0.19230926195043291 0 -0.30717411826112789 -0.1920401195635244 0 -0.32010675552350842 -0.19230926195043291 0 -0.3129652712195421 -0.2114706657937139 0 -0.32945708373588178 -0.18448348783091689 0 -0.32010675552350842 -0.19230926195043291 0 -0.32566449460190838 -0.20326261146105551 0 -0.32010675552350842 -0.19230926195043291 0 -0.3129652712195421 -0.2114706657937139 0 -0.32566449460190838 -0.20326261146105551 0 -0.30717411826112789 -0.1920401195635244 0 -0.31489114071409963 -0.18333745750317351 0 -0.32010675552350842 -0.19230926195043291 0 -0.3129652712195421 -0.2114706657937139 0 -0.32566449460190838 -0.20326261146105551 0 -0.33208474862113468 -0.21873250337862821 0 -0.33208474862113468 -0.21873250337862821 0 -0.34670907866010381 -0.20049748554044841 0 -0.34896881396179619 -0.22434135344573131 0 -0.32566449460190838 -0.20326261146105551 0 -0.33208474862113468 -0.21873250337862821 0 -0.34670907866010381 -0.20049748554044841 0 -0.3536864721015115 -0.18284124587119119 0 -0.32945708373588178 -0.18448348783091689 0 -0.34670907866010381 -0.20049748554044841 0 -0.32945708373588178 -0.18448348783091689 0 -0.32566449460190838 -0.20326261146105551 0 -0.34670907866010381 -0.20049748554044841 0 -0.32945708373588178 -0.18448348783091689 0 -0.34670907866010381 -0.20049748554044841 0 -0.3536864721015115 -0.18284124587119119 0 -0.35917751319241631 -0.19955840612521841 0 -0.34670907866010381 -0.20049748554044841 0 -0.3536864721015115 -0.18284124587119119 0 -0.37235342842372432 -0.19838340983925429 0 -0.3536864721015115 -0.18284124587119119 0 -0.35917751319241631 -0.19955840612521841 0 -0.37235342842372432 -0.19838340983925429 0 -0.37235342842372432 -0.19838340983925429 0 -0.36396107358432572 -0.21651148324997979 0 -0.37772562505684643 -0.22219038377974651 0 -0.35917751319241631 -0.19955840612521841 0 -0.37235342842372432 -0.19838340983925429 0 -0.36396107358432572 -0.21651148324997979 0 -0.34670907866010381 -0.20049748554044841 0 -0.36396107358432572 -0.21651148324997979 0 -0.34896881396179619 -0.22434135344573131 0 -0.34670907866010381 -0.20049748554044841 0 -0.36396107358432572 -0.21651148324997979 0 -0.35917751319241631 -0.19955840612521841 0 -0.34670907866010381 -0.20049748554044841 0 -0.36396107358432572 -0.21651148324997979 0 -0.34896881396179619 -0.22434135344573131 0 -0.36764811873304098 -0.23322730847002751 0 -0.35305879752332059 -0.24486073726717009 0 -0.36396107358432572 -0.21651148324997979 0 -0.36764811873304098 -0.23322730847002751 0 -0.37772562505684643 -0.22219038377974651 0 -0.36396107358432572 -0.21651148324997979 0 -0.34896881396179619 -0.22434135344573131 0 -0.36764811873304098 -0.23322730847002751 0 -0.37533687834285862 -0.25417213976024849 0 -0.36764811873304098 -0.23322730847002751 0 -0.35305879752332059 -0.24486073726717009 0 -0.34896881396179619 -0.22434135344573131 0 -0.35305879752332059 -0.24486073726717009 0 -0.33568364413539042 -0.23615154195274179 0 -0.33623326073948312 -0.25365348176558788 0 -0.33568364413539042 -0.23615154195274179 0 -0.32213598881581812 -0.2442700999577708 0 -0.33623326073948312 -0.25365348176558788 0 -0.35305879752332059 -0.24486073726717009 0 -0.33568364413539042 -0.23615154195274179 0 -0.33208474862113468 -0.21873250337862821 0 -0.33568364413539042 -0.23615154195274179 0 -0.32219037366776621 -0.22897372759534659 0 -0.33208474862113468 -0.21873250337862821 0 -0.34896881396179619 -0.22434135344573131 0 -0.33568364413539042 -0.23615154195274179 0 -0.30829656048542242 -0.23127198481015249 0 -0.3129652712195421 -0.2114706657937139 0 -0.32219037366776621 -0.22897372759534659 0 -0.3129652712195421 -0.2114706657937139 0 -0.33208474862113468 -0.21873250337862821 0 -0.32219037366776621 -0.22897372759534659 0 -0.30769212114973271 -0.24578220261295139 0 -0.30829656048542242 -0.23127198481015249 0 -0.32213598881581812 -0.2442700999577708 0 -0.30829656048542242 -0.23127198481015249 0 -0.32219037366776621 -0.22897372759534659 0 -0.32213598881581812 -0.2442700999577708 0 -0.31968345090478489 -0.25798973640781447 0 -0.30769212114973271 -0.24578220261295139 0 -0.32213598881581812 -0.2442700999577708 0 -0.33568364413539042 -0.23615154195274179 0 -0.32219037366776621 -0.22897372759534659 0 -0.32213598881581812 -0.2442700999577708 0 -0.43598079583492633 -0.24721882136819351 0 -0.42311134176242837 -0.2304528026464861 0 -0.41615383063077721 -0.2466412503256647 0 -0.43598079583492633 -0.24721882136819351 0 -0.42311134176242837 -0.2304528026464861 0 -0.43908324849522451 -0.2287046610080686 0 -0.42311134176242837 -0.2304528026464861 0 -0.41411505562058892 -0.2091502018577929 0 -0.42948217154750851 -0.21815887616964899 0 -0.42311134176242837 -0.2304528026464861 0 -0.42948217154750851 -0.21815887616964899 0 -0.43908324849522451 -0.2287046610080686 0 -0.42948217154750851 -0.21815887616964899 0 -0.43955036875351089 -0.21658504913102711 0 -0.43908324849522451 -0.2287046610080686 0 -0.40619246279161347 -0.2313797712556602 0 -0.41411505562058892 -0.2091502018577929 0 -0.42311134176242837 -0.2304528026464861 0 -0.40619246279161347 -0.2313797712556602 0 -0.41411505562058892 -0.2091502018577929 0 -0.39826986996263802 -0.25360934065352753 0 -0.41615383063077721 -0.2466412503256647 0 -0.40619246279161347 -0.2313797712556602 0 -0.42311134176242837 -0.2304528026464861 0 -0.41615383063077721 -0.2466412503256647 0 -0.40619246279161347 -0.2313797712556602 0 -0.39826986996263802 -0.25360934065352753 0 -0.38632210934187061 -0.2364082567837591 0 -0.40619246279161347 -0.2313797712556602 0 -0.39826986996263802 -0.25360934065352753 0 -0.40619246279161347 -0.2313797712556602 0 -0.37533687834285862 -0.25417213976024849 0 -0.36764811873304098 -0.23322730847002751 0 -0.38632210934187061 -0.2364082567837591 0 -0.37533687834285862 -0.25417213976024849 0 -0.39826986996263802 -0.25360934065352753 0 -0.38632210934187061 -0.2364082567837591 0 -0.36764811873304098 -0.23322730847002751 0 -0.38632210934187061 -0.2364082567837591 0 -0.37772562505684643 -0.22219038377974651 0 -0.38632210934187061 -0.2364082567837591 0 -0.37772562505684643 -0.22219038377974651 0 -0.39102038474593709 -0.2139255738073175 0 -0.38632210934187061 -0.2364082567837591 0 -0.40619246279161347 -0.2313797712556602 0 -0.39102038474593709 -0.2139255738073175 0 -0.39102038474593709 -0.2139255738073175 0 -0.40351751052996843 -0.1957217498792192 0 -0.41411505562058892 -0.2091502018577929 0 -0.40619246279161347 -0.2313797712556602 0 -0.39102038474593709 -0.2139255738073175 0 -0.41411505562058892 -0.2091502018577929 0 -0.37235342842372432 -0.19838340983925429 0 -0.39102038474593709 -0.2139255738073175 0 -0.37235342842372432 -0.19838340983925429 0 -0.37772562505684643 -0.22219038377974651 0 -0.39102038474593709 -0.2139255738073175 0 -0.37016556171889331 -0.18126023377528719 0 -0.37235342842372432 -0.19838340983925429 0 -0.38726325091278008 -0.18918768555573329 0 -0.37235342842372432 -0.19838340983925429 0 -0.39102038474593709 -0.2139255738073175 0 -0.38726325091278008 -0.18918768555573329 0 -0.38726325091278008 -0.18918768555573329 0 -0.40351751052996843 -0.1957217498792192 0 -0.40315121292097328 -0.17942465571532731 0 -0.39102038474593709 -0.2139255738073175 0 -0.38726325091278008 -0.18918768555573329 0 -0.40351751052996843 -0.1957217498792192 0 -0.41411505562058892 -0.2091502018577929 0 -0.42203764844956237 -0.18692063245992491 0 -0.40351751052996843 -0.1957217498792192 0 -0.41411505562058892 -0.2091502018577929 0 -0.42203764844956237 -0.18692063245992491 0 -0.41411505562058892 -0.2091502018577929 0 -0.42948217154750851 -0.21815887616964899 0 -0.43155084310578928 -0.2059016662048701 0 -0.42948217154750851 -0.21815887616964899 0 -0.43155084310578928 -0.2059016662048701 0 -0.43955036875351089 -0.21658504913102711 0 -0.42203764844956237 -0.18692063245992491 0 -0.44484374680150301 -0.19597231310248839 0 -0.41411505562058892 -0.2091502018577929 0 -0.43155084310578928 -0.2059016662048701 0 -0.42203764844956237 -0.18692063245992491 0 -0.43155084310578928 -0.2059016662048701 0 -0.42203764844956237 -0.18692063245992491 0 -0.44484374680150301 -0.19597231310248839 0 -0.42203764844956237 -0.18692063245992491 0 -0.44134853753678083 -0.18159229851429221 0 -0.44484374680150301 -0.19597231310248839 0 -0.42203764844956237 -0.18692063245992491 0 -0.42880774722037651 -0.1679247830322266 0 -0.42203764844956237 -0.18692063245992491 0 -0.42880774722037651 -0.1679247830322266 0 -0.44134853753678083 -0.18159229851429221 0 -0.42880774722037651 -0.1679247830322266 0 -0.43557784599118871 -0.14892893360452769 0 -0.44631139980808621 -0.1631836851414229 0 -0.42880774722037651 -0.1679247830322266 0 -0.43557784599118871 -0.14892893360452769 0 -0.42880774722037651 -0.1679247830322266 0 -0.41236960909879722 -0.16540507401591409 0 -0.42079860369606048 -0.15043713941075901 0 -0.42203764844956237 -0.18692063245992491 0 -0.42880774722037651 -0.1679247830322266 0 -0.41236960909879722 -0.16540507401591409 0 -0.40351751052996843 -0.1957217498792192 0 -0.42203764844956237 -0.18692063245992491 0 -0.40315121292097328 -0.17942465571532731 0 -0.42203764844956237 -0.18692063245992491 0 -0.40315121292097328 -0.17942465571532731 0 -0.42203764844956237 -0.18692063245992491 0 -0.41236960909879722 -0.16540507401591409 0 -0.40315121292097328 -0.17942465571532731 0 -0.38726325091278008 -0.18918768555573329 0 -0.40315121292097328 -0.17942465571532731 0 -0.38426477739238413 -0.17192867897072969 0 -0.40315121292097328 -0.17942465571532731 0 -0.38426477739238413 -0.17192867897072969 0 -0.37016556171889331 -0.18126023377528719 0 -0.38726325091278008 -0.18918768555573329 0 -0.38426477739238413 -0.17192867897072969 0 -0.36554542654456429 -0.16945206744667471 0 -0.38426477739238413 -0.17192867897072969 0 -0.37696591512674532 -0.1609827341034305 0 -0.38426477739238413 -0.17192867897072969 0 -0.37696591512674532 -0.1609827341034305 0 -0.39230106084837368 -0.15838844905994759 0 -0.40315121292097328 -0.17942465571532731 0 -0.38426477739238413 -0.17192867897072969 0 -0.39230106084837368 -0.15838844905994759 0 -0.41236960909879722 -0.16540507401591409 0 -0.39230106084837368 -0.15838844905994759 0 -0.40587711449475489 -0.1449624873806776 0 -0.41236960909879722 -0.16540507401591409 0 -0.40315121292097328 -0.17942465571532731 0 -0.39230106084837368 -0.15838844905994759 0 -0.39230106084837368 -0.15838844905994759 0 -0.39162863389564362 -0.14105630786861159 0 -0.40587711449475489 -0.1449624873806776 0 -0.39230106084837368 -0.15838844905994759 0 -0.39162863389564362 -0.14105630786861159 0 -0.3777566452334315 -0.14913711856379011 0 -0.37696591512674532 -0.1609827341034305 0 -0.39230106084837368 -0.15838844905994759 0 -0.3777566452334315 -0.14913711856379011 0 -0.36893450279197471 -0.1249528869149899 0 -0.39162863389564362 -0.14105630786861159 0 -0.3777566452334315 -0.14913711856379011 0 -0.36893450279197471 -0.1249528869149899 0 -0.39162863389564362 -0.14105630786861159 0 -0.39514760223357998 -0.1249586529677193 0 -0.39162863389564362 -0.14105630786861159 0 -0.40587711449475489 -0.1449624873806776 0 -0.39514760223357998 -0.1249586529677193 0 -0.40587711449475489 -0.1449624873806776 0 -0.39514760223357998 -0.1249586529677193 0 -0.42136070167518519 -0.1249644190204488 0 -0.40587711449475489 -0.1449624873806776 0 -0.42079860369606048 -0.15043713941075901 0 -0.42136070167518519 -0.1249644190204488 0 -0.41236960909879722 -0.16540507401591409 0 -0.40587711449475489 -0.1449624873806776 0 -0.42079860369606048 -0.15043713941075901 0 -0.42079860369606048 -0.15043713941075901 0 -0.43557784599118871 -0.14892893360452769 0 -0.42136070167518519 -0.1249644190204488 0 -0.42880774722037651 -0.1679247830322266 0 -0.42079860369606048 -0.15043713941075901 0 -0.43557784599118871 -0.14892893360452769 0 -0.43557784599118871 -0.14892893360452769 0 -0.42136070167518519 -0.1249644190204488 0 -0.44757380111679052 -0.12497018507317829 0 -0.43557784599118871 -0.14892893360452769 0 -0.45596445488588 -0.14427568033770541 0 -0.44757380111679052 -0.12497018507317829 0 -0.43557784599118871 -0.14892893360452769 0 -0.45596445488588 -0.14427568033770541 0 -0.44631139980808621 -0.1631836851414229 0 -0.45596445488588 -0.14427568033770541 0 -0.46278066629215481 -0.1610158872753634 0 -0.44631139980808621 -0.1631836851414229 0 -0.45596445488588 -0.14427568033770541 0 -0.47930750267908417 -0.1480635854121114 0 -0.46278066629215481 -0.1610158872753634 0 -0.45596445488588 -0.14427568033770541 0 -0.44757380111679052 -0.12497018507317829 0 -0.47378690055839578 -0.1249759511259078 0 -0.48827360080937021 -0.13531742911399189 0 -0.47930750267908417 -0.1480635854121114 0 -0.47378690055839578 -0.1249759511259078 0 -0.45596445488588 -0.14427568033770541 0 -0.47930750267908417 -0.1480635854121114 0 -0.47378690055839578 -0.1249759511259078 0 -0.48827360080937021 -0.13531742911399189 0 -0.5 -0.14324846273931111 0 -0.50000000000000111 -0.12498171717863731 0 -0.48827360080937021 -0.13531742911399189 0 -0.47378690055839578 -0.1249759511259078 0 -0.50000000000000111 -0.12498171717863731 0 -0.5 -0.14324846273931111 0 -0.47930750267908417 -0.1480635854121114 0 -0.49999999999999961 -0.161515208299985 0 -0.48827360080937021 -0.13531742911399189 0 -0.5 -0.14324846273931111 0 -0.47930750267908417 -0.1480635854121114 0 -0.47930750267908417 -0.1480635854121114 0 -0.47738728335761421 -0.1682509267597351 0 -0.46278066629215481 -0.1610158872753634 0 -0.47738728335761421 -0.1682509267597351 0 -0.49999999999999961 -0.161515208299985 0 -0.48839409620634278 -0.18039624849769001 0 -0.49999999999999961 -0.161515208299985 0 -0.48839409620634278 -0.18039624849769001 0 -0.47930750267908417 -0.1480635854121114 0 -0.47738728335761421 -0.1682509267597351 0 -0.49999999999999961 -0.161515208299985 0 -0.49999999999999961 -0.161515208299985 0 -0.5 -0.18618779176616679 0 -0.48839409620634278 -0.18039624849769001 0 -0.5 -0.18618779176616679 0 -0.48839409620634278 -0.18039624849769001 0 -0.48957789370491162 -0.19386933705848941 0 -0.47738728335761421 -0.1682509267597351 0 -0.48839409620634278 -0.18039624849769001 0 -0.47328693949397721 -0.18411760774338479 0 -0.47738728335761421 -0.1682509267597351 0 -0.47328693949397721 -0.18411760774338479 0 -0.45860677246597031 -0.17520894370368309 0 -0.47328693949397721 -0.18411760774338479 0 -0.45860677246597031 -0.17520894370368309 0 -0.45906836497473352 -0.19043479360484361 0 -0.47738728335761421 -0.1682509267597351 0 -0.45860677246597031 -0.17520894370368309 0 -0.46278066629215481 -0.1610158872753634 0 -0.45860677246597031 -0.17520894370368309 0 -0.46278066629215481 -0.1610158872753634 0 -0.44631139980808621 -0.1631836851414229 0 -0.42880774722037651 -0.1679247830322266 0 -0.44631139980808621 -0.1631836851414229 0 -0.44134853753678083 -0.18159229851429221 0 -0.45860677246597031 -0.17520894370368309 0 -0.44631139980808621 -0.1631836851414229 0 -0.44134853753678083 -0.18159229851429221 0 -0.45860677246597031 -0.17520894370368309 0 -0.44134853753678083 -0.18159229851429221 0 -0.45906836497473352 -0.19043479360484361 0 -0.44134853753678083 -0.18159229851429221 0 -0.45906836497473352 -0.19043479360484361 0 -0.44134853753678083 -0.18159229851429221 0 -0.44484374680150301 -0.19597231310248839 0 -0.45906836497473352 -0.19043479360484361 0 -0.43155084310578928 -0.2059016662048701 0 -0.44484374680150301 -0.19597231310248839 0 -0.44343463088850471 -0.20721188330797369 0 -0.43155084310578928 -0.2059016662048701 0 -0.44343463088850471 -0.20721188330797369 0 -0.43955036875351089 -0.21658504913102711 0 -0.44343463088850471 -0.20721188330797369 0 -0.43955036875351089 -0.21658504913102711 0 -0.44966782191270221 -0.21345696714665749 0 -0.44966782191270221 -0.21345696714665749 0 -0.45691127413918359 -0.218140336649912 0 -0.44903912237987481 -0.22310222333220869 0 -0.43955036875351089 -0.21658504913102711 0 -0.44966782191270221 -0.21345696714665749 0 -0.44903912237987481 -0.22310222333220869 0 -0.44484374680150301 -0.19597231310248839 0 -0.44343463088850471 -0.20721188330797369 0 -0.45285363365211462 -0.2065344908709397 0 -0.44343463088850471 -0.20721188330797369 0 -0.44966782191270221 -0.21345696714665749 0 -0.45285363365211462 -0.2065344908709397 0 -0.45285363365211462 -0.2065344908709397 0 -0.4586721235044201 -0.2110072970525271 0 -0.46764984515344349 -0.20502399374505181 0 -0.44966782191270221 -0.21345696714665749 0 -0.45285363365211462 -0.2065344908709397 0 -0.4586721235044201 -0.2110072970525271 0 -0.44966782191270221 -0.21345696714665749 0 -0.4586721235044201 -0.2110072970525271 0 -0.45691127413918359 -0.218140336649912 0 -0.4586721235044201 -0.2110072970525271 0 -0.45691127413918359 -0.218140336649912 0 -0.46757130244775341 -0.21427176676618889 0 -0.4586721235044201 -0.2110072970525271 0 -0.46757130244775341 -0.21427176676618889 0 -0.46764984515344349 -0.20502399374505181 0 -0.44484374680150301 -0.19597231310248839 0 -0.46764984515344349 -0.20502399374505181 0 -0.45906836497473352 -0.19043479360484361 0 -0.44484374680150301 -0.19597231310248839 0 -0.45285363365211462 -0.2065344908709397 0 -0.46764984515344349 -0.20502399374505181 0 -0.45906836497473352 -0.19043479360484361 0 -0.47678819241268611 -0.1992772886953951 0 -0.44484374680150301 -0.19597231310248839 0 -0.46764984515344349 -0.20502399374505181 0 -0.46764984515344349 -0.20502399374505181 0 -0.45906836497473352 -0.19043479360484361 0 -0.47678819241268611 -0.1992772886953951 0 -0.47328693949397721 -0.18411760774338479 0 -0.45906836497473352 -0.19043479360484361 0 -0.47678819241268611 -0.1992772886953951 0 -0.48839409620634278 -0.18039624849769001 0 -0.47328693949397721 -0.18411760774338479 0 -0.47678819241268611 -0.1992772886953951 0 -0.48839409620634278 -0.18039624849769001 0 -0.47678819241268611 -0.1992772886953951 0 -0.47678819241268611 -0.1992772886953951 0 -0.48957789370491162 -0.19386933705848941 0 -0.50000000000000222 -0.21086037523234849 0 -0.48839409620634278 -0.18039624849769001 0 -0.47678819241268611 -0.1992772886953951 0 -0.48957789370491162 -0.19386933705848941 0 -0.5 -0.18618779176616679 0 -0.48957789370491162 -0.19386933705848941 0 -0.50000000000000222 -0.21086037523234849 0 -0.50000000000000222 -0.21086037523234849 0 -0.48101414991814051 -0.21220490785157131 0 -0.4775447229854059 -0.22535576830415929 0 -0.47678819241268611 -0.1992772886953951 0 -0.50000000000000222 -0.21086037523234849 0 -0.47678819241268611 -0.1992772886953951 0 -0.50000000000000222 -0.21086037523234849 0 -0.48101414991814051 -0.21220490785157131 0 -0.46757130244775341 -0.21427176676618889 0 -0.47678819241268611 -0.1992772886953951 0 -0.48101414991814051 -0.21220490785157131 0 -0.46757130244775341 -0.21427176676618889 0 -0.47678819241268611 -0.1992772886953951 0 -0.46757130244775341 -0.21427176676618889 0 -0.46764984515344349 -0.20502399374505181 0 -0.47678819241268611 -0.1992772886953951 0 -0.46757130244775341 -0.21427176676618889 0 -0.48101414991814051 -0.21220490785157131 0 -0.4775447229854059 -0.22535576830415929 0 -0.46757130244775341 -0.21427176676618889 0 -0.4775447229854059 -0.22535576830415929 0 -0.46571952953094348 -0.22577651025912229 0 -0.4775447229854059 -0.22535576830415929 0 -0.4726071657750785 -0.240360200228666 0 -0.45676275941016609 -0.23628729483617639 0 -0.50000000000000222 -0.21086037523234849 0 -0.4775447229854059 -0.22535576830415929 0 -0.48548116721245049 -0.23774912910784329 0 -0.50000000000000222 -0.21086037523234849 0 -0.5 -0.2401545466321974 0 -0.48548116721245049 -0.23774912910784329 0 -0.48050148842732221 -0.25523221810557922 0 -0.5 -0.2401545466321974 0 -0.48548116721245049 -0.23774912910784329 0 -0.48050148842732221 -0.25523221810557922 0 -0.4726071657750785 -0.240360200228666 0 -0.46267023581878858 -0.24817136713935201 0 -0.48050148842732221 -0.25523221810557922 0 -0.48548116721245049 -0.23774912910784329 0 -0.4726071657750785 -0.240360200228666 0 -0.4775447229854059 -0.22535576830415929 0 -0.48548116721245049 -0.23774912910784329 0 -0.4726071657750785 -0.240360200228666 0 -0.4726071657750785 -0.240360200228666 0 -0.46267023581878858 -0.24817136713935201 0 -0.45676275941016609 -0.23628729483617639 0 -0.46267023581878858 -0.24817136713935201 0 -0.45676275941016609 -0.23628729483617639 0 -0.45139902778349827 -0.24711062934306771 0 -0.4775447229854059 -0.22535576830415929 0 -0.45676275941016609 -0.23628729483617639 0 -0.46571952953094348 -0.22577651025912229 0 -0.4775447229854059 -0.22535576830415929 0 -0.45676275941016609 -0.23628729483617639 0 -0.46757130244775341 -0.21427176676618889 0 -0.45835441248282049 -0.22926624483698249 0 -0.45691127413918359 -0.218140336649912 0 -0.46757130244775341 -0.21427176676618889 0 -0.45835441248282049 -0.22926624483698249 0 -0.46757130244775341 -0.21427176676618889 0 -0.46571952953094348 -0.22577651025912229 0 -0.45835441248282049 -0.22926624483698249 0 -0.45691127413918359 -0.218140336649912 0 -0.45835441248282049 -0.22926624483698249 0 -0.44903912237987481 -0.22310222333220869 0 -0.45676275941016609 -0.23628729483617639 0 -0.46571952953094348 -0.22577651025912229 0 -0.45835441248282049 -0.22926624483698249 0 -0.45676275941016609 -0.23628729483617639 0 -0.45835441248282049 -0.22926624483698249 0 -0.44784406772060242 -0.23291584907632601 0 -0.45835441248282049 -0.22926624483698249 0 -0.44784406772060242 -0.23291584907632601 0 -0.44903912237987481 -0.22310222333220869 0 -0.44784406772060242 -0.23291584907632601 0 -0.44903912237987481 -0.22310222333220869 0 -0.43908324849522451 -0.2287046610080686 0 -0.43955036875351089 -0.21658504913102711 0 -0.44903912237987481 -0.22310222333220869 0 -0.43908324849522451 -0.2287046610080686 0 -0.43598079583492633 -0.24721882136819351 0 -0.44784406772060242 -0.23291584907632601 0 -0.43908324849522451 -0.2287046610080686 0 -0.43598079583492633 -0.24721882136819351 0 -0.45676275941016609 -0.23628729483617639 0 -0.45139902778349827 -0.24711062934306771 0 -0.43598079583492633 -0.24721882136819351 0 -0.45676275941016609 -0.23628729483617639 0 -0.44784406772060242 -0.23291584907632601 0 -0.43598079583492633 -0.24721882136819351 0 -0.45676275941016609 -0.23628729483617639 0 -0.41513049604948221 -0.033942569896895612 0 -0.42680670243505803 -0.034615113076212713 0 -0.40073055052989021 -0.025701474464423758 0 -0.41513049604948221 -0.033942569896895612 0 -0.42462943043776058 -0.041038039404546971 0 -0.40237332615973681 -0.030676944162886681 0 -0.42462943043776058 -0.041038039404546971 0 -0.40237332615973681 -0.030676944162886681 0 -0.41105872637709778 -0.041104419315527559 0 -0.42462943043776058 -0.041038039404546971 0 -0.40237332615973681 -0.030676944162886681 0 -0.41795689190558921 -0.046390941043723911 0 -0.41105872637709778 -0.041104419315527559 0 -0.42462943043776058 -0.041038039404546971 0 -0.41513049604948221 -0.033942569896895612 0 -0.42462943043776058 -0.041038039404546971 0 -0.4243569293735685 -0.037306081984415762 0 -0.41105872637709778 -0.041104419315527559 0 -0.4050251302254127 -0.045922345921936697 0 -0.40306291723554027 -0.039039715031688543 0 -0.41795689190558921 -0.046390941043723911 0 -0.41105872637709778 -0.041104419315527559 0 -0.41174405323292163 -0.047949206462353358 0 -0.41105872637709778 -0.041104419315527559 0 -0.41174405323292163 -0.047949206462353358 0 -0.4050251302254127 -0.045922345921936697 0 -0.41174405323292163 -0.047949206462353358 0 -0.4050251302254127 -0.045922345921936697 0 -0.40603099279739802 -0.054788986838451827 0 -0.41174405323292163 -0.047949206462353358 0 -0.4187470457232762 -0.053937065845881961 0 -0.40603099279739802 -0.054788986838451827 0 -0.4187470457232762 -0.053937065845881961 0 -0.40603099279739802 -0.054788986838451827 0 -0.41284572228237681 -0.064006668923108523 0 -0.4187470457232762 -0.053937065845881961 0 -0.41284572228237681 -0.064006668923108523 0 -0.42746868386642678 -0.066478460468227696 0 -0.41795689190558921 -0.046390941043723911 0 -0.41174405323292163 -0.047949206462353358 0 -0.4187470457232762 -0.053937065845881961 0 -0.41795689190558921 -0.046390941043723911 0 -0.4187470457232762 -0.053937065845881961 0 -0.42320145590089769 -0.048540393412862697 0 -0.42320145590089769 -0.048540393412862697 0 -0.43147245553696489 -0.05279552735729795 0 -0.42462943043776058 -0.041038039404546971 0 -0.4187470457232762 -0.053937065845881961 0 -0.42320145590089769 -0.048540393412862697 0 -0.43147245553696489 -0.05279552735729795 0 -0.43147245553696489 -0.05279552735729795 0 -0.42462943043776058 -0.041038039404546971 0 -0.44688553471578463 -0.051399134646207288 0 -0.4187470457232762 -0.053937065845881961 0 -0.43147245553696489 -0.05279552735729795 0 -0.42746868386642678 -0.066478460468227696 0 -0.43147245553696489 -0.05279552735729795 0 -0.42746868386642678 -0.066478460468227696 0 -0.43950717444435422 -0.063784996514660589 0 -0.42818951741271921 -0.038310772776573528 0 -0.43628267576141971 -0.035329403205585218 0 -0.44688553471578463 -0.051399134646207288 0 -0.42462943043776058 -0.041038039404546971 0 -0.42818951741271921 -0.038310772776573528 0 -0.44688553471578463 -0.051399134646207288 0 -0.42462943043776058 -0.041038039404546971 0 -0.44688553471578463 -0.051399134646207288 0 -0.41795689190558921 -0.046390941043723911 0 -0.42320145590089769 -0.048540393412862697 0 -0.42462943043776058 -0.041038039404546971 0 -0.41513049604948221 -0.033942569896895612 0 -0.4243569293735685 -0.037306081984415762 0 -0.42680670243505803 -0.034615113076212713 0 -0.42462943043776058 -0.041038039404546971 0 -0.4243569293735685 -0.037306081984415762 0 -0.42818951741271921 -0.038310772776573528 0 -0.42818951741271921 -0.038310772776573528 0 -0.42680670243505803 -0.034615113076212713 0 -0.4243569293735685 -0.037306081984415762 0 -0.42818951741271921 -0.038310772776573528 0 -0.42680670243505803 -0.034615113076212713 0 -0.42818951741271921 -0.038310772776573528 0 -0.42680670243505803 -0.034615113076212713 0 -0.42995577540377822 -0.032900560567165532 0 -0.42818951741271921 -0.038310772776573528 0 -0.42995577540377822 -0.032900560567165532 0 -0.43628267576141971 -0.035329403205585218 0 -0.42995577540377822 -0.032900560567165532 0 -0.43628267576141971 -0.035329403205585218 0 -0.4327931004709421 -0.029092843067932112 0 -0.42680670243505803 -0.034615113076212713 0 -0.4285090787839364 -0.025262373234060161 0 -0.41794895562780338 -0.01094222954485795 0 -0.42680670243505803 -0.034615113076212713 0 -0.41794895562780338 -0.01094222954485795 0 -0.43628267576141971 -0.035329403205585218 0 -0.4327931004709421 -0.029092843067932112 0 -0.43710875721387199 -0.026668229939385779 0 -0.42995577540377822 -0.032900560567165532 0 -0.4327931004709421 -0.029092843067932112 0 -0.4285090787839364 -0.025262373234060161 0 -0.43210921519170409 -0.025303648393463829 0 -0.43710875721387199 -0.026668229939385779 0 -0.43108579893039811 -0.01948839847471974 0 -0.4327931004709421 -0.029092843067932112 0 -0.43210921519170409 -0.025303648393463829 0 -0.4285090787839364 -0.025262373234060161 0 -0.4327931004709421 -0.029092843067932112 0 -0.43210921519170409 -0.025303648393463829 0 -0.43710875721387199 -0.026668229939385779 0 -0.43108579893039811 -0.01948839847471974 0 -0.43397544616601241 -0.014244232554068349 0 -0.43928417642389239 -0.017661557407765791 0 -0.43710875721387199 -0.026668229939385779 0 -0.43108579893039811 -0.01948839847471974 0 -0.43928417642389239 -0.017661557407765791 0 -0.43210921519170409 -0.025303648393463829 0 -0.43108579893039811 -0.01948839847471974 0 -0.4285090787839364 -0.025262373234060161 0 -0.43108579893039811 -0.01948839847471974 0 -0.4285090787839364 -0.025262373234060161 0 -0.41794895562780338 -0.01094222954485795 0 -0.42680670243505803 -0.034615113076212713 0 -0.42995577540377822 -0.032900560567165532 0 -0.4285090787839364 -0.025262373234060161 0 -0.43591977417237449 -0.008065469867085449 0 -0.42907061680018699 -0.010664914002041091 0 -0.42583279771702431 0.00046528033667210148 0 -0.43108579893039811 -0.01948839847471974 0 -0.43397544616601241 -0.014244232554068349 0 -0.42907061680018699 -0.010664914002041091 0 -0.43591977417237449 -0.008065469867085449 0 -0.43397544616601241 -0.014244232554068349 0 -0.43928417642389239 -0.017661557407765791 0 -0.43591977417237449 -0.008065469867085449 0 -0.43397544616601241 -0.014244232554068349 0 -0.42907061680018699 -0.010664914002041091 0 -0.43108579893039811 -0.01948839847471974 0 -0.42907061680018699 -0.010664914002041091 0 -0.41794895562780338 -0.01094222954485795 0 -0.42907061680018699 -0.010664914002041091 0 -0.41794895562780338 -0.01094222954485795 0 -0.42583279771702431 0.00046528033667210148 0 -0.41794895562780338 -0.01094222954485795 0 -0.4102220184461346 -0.019351118920435541 0 -0.40021295305484711 -0.013852611056198059 0 -0.41794895562780338 -0.01094222954485795 0 -0.40352261506359649 -0.001038070178381474 0 -0.40021295305484711 -0.013852611056198059 0 -0.42680670243505803 -0.034615113076212713 0 -0.41794895562780338 -0.01094222954485795 0 -0.4102220184461346 -0.019351118920435541 0 -0.42680670243505803 -0.034615113076212713 0 -0.4102220184461346 -0.019351118920435541 0 -0.40073055052989021 -0.025701474464423758 0 -0.42680670243505803 -0.034615113076212713 0 -0.40073055052989021 -0.025701474464423758 0 -0.41513049604948221 -0.033942569896895612 0 -0.40073055052989021 -0.025701474464423758 0 -0.40237332615973681 -0.030676944162886681 0 -0.40073055052989021 -0.025701474464423758 0 -0.40237332615973681 -0.030676944162886681 0 -0.38011722188171299 -0.020315848921226409 0 -0.40237332615973681 -0.030676944162886681 0 -0.38011722188171299 -0.020315848921226409 0 -0.4102220184461346 -0.019351118920435541 0 -0.40073055052989021 -0.025701474464423758 0 -0.40021295305484711 -0.013852611056198059 0 -0.40073055052989021 -0.025701474464423758 0 -0.40021295305484711 -0.013852611056198059 0 -0.38745402304870558 -0.01483805838738575 0 -0.40352261506359649 -0.001038070178381474 0 -0.40021295305484711 -0.013852611056198059 0 -0.39408165103759368 -0.0019794594859314238 0 -0.40021295305484711 -0.013852611056198059 0 -0.39408165103759368 -0.0019794594859314238 0 -0.39005949432245718 -0.0085411321607220259 0 -0.40021295305484711 -0.013852611056198059 0 -0.39005949432245718 -0.0085411321607220259 0 -0.38745402304870558 -0.01483805838738575 0 -0.39408165103759368 -0.0019794594859314238 0 -0.3848191179490616 -0.0027051675553946518 0 -0.39005949432245718 -0.0085411321607220259 0 -0.3848191179490616 -0.0027051675553946518 0 -0.38372972652207787 -0.0093303643187002475 0 -0.39005949432245718 -0.0085411321607220259 0 -0.38372972652207787 -0.0093303643187002475 0 -0.38745402304870558 -0.01483805838738575 0 -0.3791207175096093 -0.01135650732177081 0 -0.38372972652207787 -0.0093303643187002475 0 -0.39005949432245718 -0.0085411321607220259 0 -0.38745402304870558 -0.01483805838738575 0 -0.37465439862472261 -0.016787835852634068 0 -0.37464851222799189 -0.0076089195940836872 0 -0.3791207175096093 -0.01135650732177081 0 -0.37465439862472261 -0.016787835852634068 0 -0.38745402304870558 -0.01483805838738575 0 -0.3791207175096093 -0.01135650732177081 0 -0.37464851222799189 -0.0076089195940836872 0 -0.3791207175096093 -0.01135650732177081 0 -0.37960876280762101 -0.0064231604720931881 0 -0.38372972652207787 -0.0093303643187002475 0 -0.3791207175096093 -0.01135650732177081 0 -0.37960876280762101 -0.0064231604720931881 0 -0.3848191179490616 -0.0027051675553946518 0 -0.38372972652207787 -0.0093303643187002475 0 -0.37960876280762101 -0.0064231604720931881 0 -0.37464851222799189 -0.0076089195940836872 0 -0.37960876280762101 -0.0064231604720931881 0 -0.37774077980655368 -0.001289555558904682 0 -0.3848191179490616 -0.0027051675553946518 0 -0.37960876280762101 -0.0064231604720931881 0 -0.37774077980655368 -0.001289555558904682 0 -0.37465439862472261 -0.016787835852634068 0 -0.40073055052989021 -0.025701474464423758 0 -0.38745402304870558 -0.01483805838738575 0 -0.40237332615973681 -0.030676944162886681 0 -0.38781453024876661 -0.02996800237218563 0 -0.38011722188171299 -0.020315848921226409 0 -0.37465439862472261 -0.016787835852634068 0 -0.40073055052989021 -0.025701474464423758 0 -0.38011722188171299 -0.020315848921226409 0 -0.37465439862472261 -0.016787835852634068 0 -0.40073055052989021 -0.025701474464423758 0 -0.37402384376206249 -0.023759624541515059 0 -0.37465439862472261 -0.016787835852634068 0 -0.38011722188171299 -0.020315848921226409 0 -0.37402384376206249 -0.023759624541515059 0 -0.38011722188171299 -0.020315848921226409 0 -0.37866743010551202 -0.02906954498465647 0 -0.38781453024876661 -0.02996800237218563 0 -0.38011722188171299 -0.020315848921226409 0 -0.37866743010551202 -0.02906954498465647 0 -0.37439980638912518 -0.038891661293645137 0 -0.37866743010551202 -0.02906954498465647 0 -0.38394575501216083 -0.036535335565972972 0 -0.37439980638912518 -0.038891661293645137 0 -0.37993408630244868 -0.045501240077299353 0 -0.38394575501216083 -0.036535335565972972 0 -0.37085155020467431 -0.050438611479832557 0 -0.37439980638912518 -0.038891661293645137 0 -0.37993408630244868 -0.045501240077299353 0 -0.37993408630244868 -0.045501240077299353 0 -0.38895054345211377 -0.045335196083553769 0 -0.38394575501216083 -0.036535335565972972 0 -0.38895054345211377 -0.045335196083553769 0 -0.38394575501216083 -0.036535335565972972 0 -0.39396365166307989 -0.03445798481758762 0 -0.38781453024876661 -0.02996800237218563 0 -0.38394575501216083 -0.036535335565972972 0 -0.39396365166307989 -0.03445798481758762 0 -0.38781453024876661 -0.02996800237218563 0 -0.37866743010551202 -0.02906954498465647 0 -0.38394575501216083 -0.036535335565972972 0 -0.40237332615973681 -0.030676944162886681 0 -0.38781453024876661 -0.02996800237218563 0 -0.39396365166307989 -0.03445798481758762 0 -0.39396365166307989 -0.03445798481758762 0 -0.39750411751227832 -0.042292212187568533 0 -0.39928834571923882 -0.035924112998793431 0 -0.38895054345211377 -0.045335196083553769 0 -0.39396365166307989 -0.03445798481758762 0 -0.39750411751227832 -0.042292212187568533 0 -0.39750411751227832 -0.042292212187568533 0 -0.4050251302254127 -0.045922345921936697 0 -0.40306291723554027 -0.039039715031688543 0 -0.39750411751227832 -0.042292212187568533 0 -0.40306291723554027 -0.039039715031688543 0 -0.39928834571923882 -0.035924112998793431 0 -0.40237332615973681 -0.030676944162886681 0 -0.39396365166307989 -0.03445798481758762 0 -0.39928834571923882 -0.035924112998793431 0 -0.41105872637709778 -0.041104419315527559 0 -0.40237332615973681 -0.030676944162886681 0 -0.40306291723554027 -0.039039715031688543 0 -0.40237332615973681 -0.030676944162886681 0 -0.40306291723554027 -0.039039715031688543 0 -0.39928834571923882 -0.035924112998793431 0 -0.40603099279739802 -0.054788986838451827 0 -0.39527915405366182 -0.064437672488960096 0 -0.41284572228237681 -0.064006668923108523 0 -0.40603099279739802 -0.054788986838451827 0 -0.39443592701229091 -0.053019652188425637 0 -0.39527915405366182 -0.064437672488960096 0 -0.4050251302254127 -0.045922345921936697 0 -0.40603099279739802 -0.054788986838451827 0 -0.39443592701229091 -0.053019652188425637 0 -0.39750411751227832 -0.042292212187568533 0 -0.4050251302254127 -0.045922345921936697 0 -0.39443592701229091 -0.053019652188425637 0 -0.38895054345211377 -0.045335196083553769 0 -0.39750411751227832 -0.042292212187568533 0 -0.39443592701229091 -0.053019652188425637 0 -0.39443592701229091 -0.053019652188425637 0 -0.38221605892473098 -0.056125323053866277 0 -0.39527915405366182 -0.064437672488960096 0 -0.36608399240098949 -0.063120758007335118 0 -0.38221605892473098 -0.056125323053866277 0 -0.37978412082390189 -0.068029865631836883 0 -0.38895054345211377 -0.045335196083553769 0 -0.39443592701229091 -0.053019652188425637 0 -0.38221605892473098 -0.056125323053866277 0 -0.37993408630244868 -0.045501240077299353 0 -0.38895054345211377 -0.045335196083553769 0 -0.38221605892473098 -0.056125323053866277 0 -0.37085155020467431 -0.050438611479832557 0 -0.37993408630244868 -0.045501240077299353 0 -0.38221605892473098 -0.056125323053866277 0 -0.36843110820579178 -0.075527255856609146 0 -0.37978412082390189 -0.068029865631836883 0 -0.38691029053433551 -0.080938318752413793 0 -0.37978412082390189 -0.068029865631836883 0 -0.38691029053433551 -0.080938318752413793 0 -0.39527915405366182 -0.064437672488960096 0 -0.38221605892473098 -0.056125323053866277 0 -0.37978412082390189 -0.068029865631836883 0 -0.39527915405366182 -0.064437672488960096 0 -0.37380044498630338 -0.100392191664622 0 -0.36747037526515469 -0.088210616938563927 0 -0.38691029053433551 -0.080938318752413793 0 -0.36843110820579178 -0.075527255856609146 0 -0.38691029053433551 -0.080938318752413793 0 -0.40007542381043809 -0.086939242353532731 0 -0.39460333317738627 -0.1006873657273652 0 -0.41352047356827321 -0.0909948847898496 0 -0.38691029053433551 -0.080938318752413793 0 -0.40007542381043809 -0.086939242353532731 0 -0.40767355229219521 -0.074626636544090755 0 -0.38691029053433551 -0.080938318752413793 0 -0.40007542381043809 -0.086939242353532731 0 -0.39460333317738627 -0.1006873657273652 0 -0.38691029053433551 -0.080938318752413793 0 -0.39527915405366182 -0.064437672488960096 0 -0.40767355229219521 -0.074626636544090755 0 -0.39527915405366182 -0.064437672488960096 0 -0.41284572228237681 -0.064006668923108523 0 -0.40767355229219521 -0.074626636544090755 0 -0.36893450279197471 -0.1249528869149899 0 -0.3789649235099295 -0.11270856972454819 0 -0.39514760223357998 -0.1249586529677193 0 -0.36893450279197471 -0.1249528869149899 0 -0.39514760223357998 -0.1249586529677193 0 -0.3789649235099295 -0.11270856972454819 0 -0.39460333317738627 -0.1006873657273652 0 -0.39514760223357998 -0.1249586529677193 0 -0.37380044498630338 -0.100392191664622 0 -0.38691029053433551 -0.080938318752413793 0 -0.39460333317738627 -0.1006873657273652 0 -0.37380044498630338 -0.100392191664622 0 -0.3789649235099295 -0.11270856972454819 0 -0.39460333317738627 -0.1006873657273652 0 -0.39460333317738627 -0.1006873657273652 0 -0.39514760223357998 -0.1249586529677193 0 -0.4114708495464785 -0.1093321351213095 0 -0.42136070167518519 -0.1249644190204488 0 -0.4114708495464785 -0.1093321351213095 0 -0.43272213707796769 -0.1050553531011644 0 -0.39514760223357998 -0.1249586529677193 0 -0.42136070167518519 -0.1249644190204488 0 -0.39514760223357998 -0.1249586529677193 0 -0.42136070167518519 -0.1249644190204488 0 -0.4114708495464785 -0.1093321351213095 0 -0.39460333317738627 -0.1006873657273652 0 -0.4114708495464785 -0.1093321351213095 0 -0.41352047356827321 -0.0909948847898496 0 -0.4114708495464785 -0.1093321351213095 0 -0.43272213707796769 -0.1050553531011644 0 -0.41352047356827321 -0.0909948847898496 0 -0.42136070167518519 -0.1249644190204488 0 -0.43272213707796769 -0.1050553531011644 0 -0.44757380111679052 -0.12497018507317829 0 -0.42136070167518519 -0.1249644190204488 0 -0.44757380111679052 -0.12497018507317829 0 -0.42023793718526542 -0.076451056482049876 0 -0.41284572228237681 -0.064006668923108523 0 -0.42746868386642678 -0.066478460468227696 0 -0.42023793718526542 -0.076451056482049876 0 -0.41284572228237681 -0.064006668923108523 0 -0.40767355229219521 -0.074626636544090755 0 -0.42023793718526542 -0.076451056482049876 0 -0.40767355229219521 -0.074626636544090755 0 -0.41352047356827321 -0.0909948847898496 0 -0.40007542381043809 -0.086939242353532731 0 -0.40767355229219521 -0.074626636544090755 0 -0.41352047356827321 -0.0909948847898496 0 -0.42023793718526542 -0.076451056482049876 0 -0.41352047356827321 -0.0909948847898496 0 -0.43051036701793649 -0.083964229305721505 0 -0.43272213707796769 -0.1050553531011644 0 -0.41352047356827321 -0.0909948847898496 0 -0.43051036701793649 -0.083964229305721505 0 -0.43272213707796769 -0.1050553531011644 0 -0.43051036701793649 -0.083964229305721505 0 -0.44869793539396702 -0.090613631575090198 0 -0.43051036701793649 -0.083964229305721505 0 -0.42746868386642678 -0.066478460468227696 0 -0.43938561630945938 -0.075374003134316428 0 -0.42023793718526542 -0.076451056482049876 0 -0.43051036701793649 -0.083964229305721505 0 -0.42746868386642678 -0.066478460468227696 0 -0.42746868386642678 -0.066478460468227696 0 -0.43950717444435422 -0.063784996514660589 0 -0.43938561630945938 -0.075374003134316428 0 -0.43950717444435422 -0.063784996514660589 0 -0.45074392082461212 -0.072028697807882153 0 -0.43938561630945938 -0.075374003134316428 0 -0.43051036701793649 -0.083964229305721505 0 -0.43938561630945938 -0.075374003134316428 0 -0.44869793539396702 -0.090613631575090198 0 -0.45074392082461212 -0.072028697807882153 0 -0.43938561630945938 -0.075374003134316428 0 -0.44869793539396702 -0.090613631575090198 0 -0.45074392082461212 -0.072028697807882153 0 -0.44869793539396702 -0.090613631575090198 0 -0.4647336852437608 -0.080388630180202481 0 -0.44869793539396702 -0.090613631575090198 0 -0.4647336852437608 -0.080388630180202481 0 -0.47380622041468068 -0.096022360055862885 0 -0.4647336852437608 -0.080388630180202481 0 -0.46264955769922828 -0.069236149835977229 0 -0.47254815090776853 -0.069469283055039688 0 -0.45074392082461212 -0.072028697807882153 0 -0.46264955769922828 -0.069236149835977229 0 -0.44688553471578463 -0.051399134646207288 0 -0.46264955769922828 -0.069236149835977229 0 -0.47254815090776853 -0.069469283055039688 0 -0.46914163899380801 -0.061760229887868598 0 -0.45074392082461212 -0.072028697807882153 0 -0.4647336852437608 -0.080388630180202481 0 -0.46264955769922828 -0.069236149835977229 0 -0.43272213707796769 -0.1050553531011644 0 -0.44757380111679052 -0.12497018507317829 0 -0.46022938895027038 -0.10869066194517669 0 -0.43272213707796769 -0.1050553531011644 0 -0.44869793539396702 -0.090613631575090198 0 -0.46022938895027038 -0.10869066194517669 0 -0.44869793539396702 -0.090613631575090198 0 -0.46022938895027038 -0.10869066194517669 0 -0.47380622041468068 -0.096022360055862885 0 -0.44757380111679052 -0.12497018507317829 0 -0.47378690055839578 -0.1249759511259078 0 -0.44757380111679052 -0.12497018507317829 0 -0.46022938895027038 -0.10869066194517669 0 -0.47378690055839578 -0.1249759511259078 0 -0.46022938895027038 -0.10869066194517669 0 -0.47378690055839578 -0.1249759511259078 0 -0.48374478807960558 -0.1092121363906397 0 -0.46022938895027038 -0.10869066194517669 0 -0.48374478807960558 -0.1092121363906397 0 -0.47380622041468068 -0.096022360055862885 0 -0.48374478807960558 -0.1092121363906397 0 -0.47380622041468068 -0.096022360055862885 0 -0.48832582805197727 -0.092109142267116931 0 -0.48374478807960558 -0.1092121363906397 0 -0.5 -0.10055386622176241 0 -0.48832582805197727 -0.092109142267116931 0 -0.47378690055839578 -0.1249759511259078 0 -0.48374478807960558 -0.1092121363906397 0 -0.50000000000000111 -0.12498171717863731 0 -0.48374478807960558 -0.1092121363906397 0 -0.5 -0.10055386622176241 0 -0.50000000000000111 -0.12498171717863731 0 -0.47378690055839578 -0.1249759511259078 0 -0.50000000000000111 -0.12498171717863731 0 -0.47254815090776853 -0.069469283055039688 0 -0.47913967023945842 -0.082463322467565006 0 -0.48457081949690362 -0.068943122576377761 0 -0.47913967023945842 -0.082463322467565006 0 -0.48808502354595151 -0.080031310268457945 0 -0.48457081949690362 -0.068943122576377761 0 -0.48457081949690362 -0.068943122576377761 0 -0.46914163899380801 -0.061760229887868598 0 -0.48457081949690362 -0.068943122576377761 0 -0.48230491698392047 -0.057318093012348498 0 -0.46914163899380801 -0.061760229887868598 0 -0.47254815090776853 -0.069469283055039688 0 -0.48457081949690362 -0.068943122576377761 0 -0.46914163899380801 -0.061760229887868598 0 -0.47254815090776853 -0.069469283055039688 0 -0.46914163899380801 -0.061760229887868598 0 -0.4647336852437608 -0.080388630180202481 0 -0.47254815090776853 -0.069469283055039688 0 -0.47913967023945842 -0.082463322467565006 0 -0.4647336852437608 -0.080388630180202481 0 -0.47380622041468068 -0.096022360055862885 0 -0.47913967023945842 -0.082463322467565006 0 -0.47380622041468068 -0.096022360055862885 0 -0.47913967023945842 -0.082463322467565006 0 -0.48832582805197727 -0.092109142267116931 0 -0.5 -0.10055386622176241 0 -0.48832582805197727 -0.092109142267116931 0 -0.499999999999999 -0.07612601526488752 0 -0.48808502354595151 -0.080031310268457945 0 -0.48832582805197727 -0.092109142267116931 0 -0.499999999999999 -0.07612601526488752 0 -0.47913967023945842 -0.082463322467565006 0 -0.48808502354595151 -0.080031310268457945 0 -0.48832582805197727 -0.092109142267116931 0 -0.499999999999999 -0.07612601526488752 0 -0.48457081949690362 -0.068943122576377761 0 -0.499999999999999 -0.07612601526488752 0 -0.48457081949690362 -0.068943122576377761 0 -0.5 -0.055081012739928707 0 -0.48808502354595151 -0.080031310268457945 0 -0.499999999999999 -0.07612601526488752 0 -0.48457081949690362 -0.068943122576377761 0 -0.48457081949690362 -0.068943122576377761 0 -0.5 -0.055081012739928707 0 -0.48230491698392047 -0.057318093012348498 0 -0.5 -0.055081012739928707 0 -0.48157039955536241 -0.044558511477442143 0 -0.48230491698392047 -0.057318093012348498 0 -0.5 -0.055081012739928707 0 -0.500000000000004 -0.034036010214970061 0 -0.48157039955536241 -0.044558511477442143 0 -0.500000000000004 -0.034036010214970061 0 -0.48157039955536241 -0.044558511477442143 0 -0.48148290990478199 -0.029591545163434652 0 -0.48157039955536241 -0.044558511477442143 0 -0.45768975774058179 -0.035844230274481748 0 -0.48148290990478199 -0.029591545163434652 0 -0.48157039955536241 -0.044558511477442143 0 -0.46914163899380801 -0.061760229887868598 0 -0.45768975774058179 -0.035844230274481748 0 -0.48157039955536241 -0.044558511477442143 0 -0.48230491698392047 -0.057318093012348498 0 -0.46914163899380801 -0.061760229887868598 0 -0.46914163899380801 -0.061760229887868598 0 -0.45768975774058179 -0.035844230274481748 0 -0.44688553471578463 -0.051399134646207288 0 -0.46914163899380801 -0.061760229887868598 0 -0.45768975774058179 -0.035844230274481748 0 -0.46264955769922828 -0.069236149835977229 0 -0.46914163899380801 -0.061760229887868598 0 -0.44688553471578463 -0.051399134646207288 0 -0.46914163899380801 -0.061760229887868598 0 -0.44688553471578463 -0.051399134646207288 0 -0.43628267576141971 -0.035329403205585218 0 -0.44354830351403418 -0.034418653902415733 0 -0.44688553471578463 -0.051399134646207288 0 -0.45768975774058179 -0.035844230274481748 0 -0.44354830351403418 -0.034418653902415733 0 -0.44688553471578463 -0.051399134646207288 0 -0.45768975774058179 -0.035844230274481748 0 -0.44354830351403418 -0.034418653902415733 0 -0.44312252706978628 -0.024928407146411868 0 -0.43628267576141971 -0.035329403205585218 0 -0.43710875721387199 -0.026668229939385779 0 -0.44354830351403418 -0.034418653902415733 0 -0.43950717444435422 -0.063784996514660589 0 -0.45074392082461212 -0.072028697807882153 0 -0.44688553471578463 -0.051399134646207288 0 -0.43147245553696489 -0.05279552735729795 0 -0.43950717444435422 -0.063784996514660589 0 -0.44688553471578463 -0.051399134646207288 0 -0.43591977417237449 -0.008065469867085449 0 -0.44623787648735791 -0.0099282306610938807 0 -0.43740981058492812 0.01004998492246997 0 -0.43591977417237449 -0.008065469867085449 0 -0.44623787648735791 -0.0099282306610938807 0 -0.43928417642389239 -0.017661557407765791 0 -0.43591977417237449 -0.008065469867085449 0 -0.44623787648735791 -0.0099282306610938807 0 -0.43710875721387199 -0.026668229939385779 0 -0.43928417642389239 -0.017661557407765791 0 -0.44312252706978628 -0.024928407146411868 0 -0.45768975774058179 -0.035844230274481748 0 -0.44623787648735791 -0.0099282306610938807 0 -0.44312252706978628 -0.024928407146411868 0 -0.45768975774058179 -0.035844230274481748 0 -0.44623787648735791 -0.0099282306610938807 0 -0.44623787648735791 -0.0099282306610938807 0 -0.43928417642389239 -0.017661557407765791 0 -0.44312252706978628 -0.024928407146411868 0 -0.43710875721387199 -0.026668229939385779 0 -0.44354830351403418 -0.034418653902415733 0 -0.44312252706978628 -0.024928407146411868 0 -0.45768975774058179 -0.035844230274481748 0 -0.44623787648735791 -0.0099282306610938807 0 -0.47146408957177099 -0.01448240150379307 0 -0.44623787648735791 -0.0099282306610938807 0 -0.47146408957177099 -0.01448240150379307 0 -0.44623787648735791 -0.0099282306610938807 0 -0.47146408957177099 -0.01448240150379307 0 -0.46048772545436639 0.0043098071123656434 0 -0.47146408957177099 -0.01448240150379307 0 -0.47882554305316488 -0.0018417715126103191 0 -0.46048772545436639 0.0043098071123656434 0 -0.47146408957177099 -0.01448240150379307 0 -0.47882554305316488 -0.0018417715126103191 0 -0.49669030265618502 -0.01903657234648758 0 -0.47146408957177099 -0.01448240150379307 0 -0.49669030265618502 -0.01903657234648758 0 -0.47146408957177099 -0.01448240150379307 0 -0.48148290990478199 -0.029591545163434652 0 -0.49669030265618502 -0.01903657234648758 0 -0.45768975774058179 -0.035844230274481748 0 -0.47146408957177099 -0.01448240150379307 0 -0.48148290990478199 -0.029591545163434652 0 -0.500000000000004 -0.034036010214970061 0 -0.48148290990478199 -0.029591545163434652 0 -0.49669030265618502 -0.01903657234648758 0 -0.49669030265618502 -0.01903657234648758 0 -0.50000000000000056 -0.019634082844440681 0 -0.500000000000004 -0.034036010214970061 0 -0.49669030265618502 -0.01903657234648758 0 -0.500000000000004 -0.034036010214970061 0 -0.49669030265618502 -0.01903657234648758 0 -0.50000000000000056 -0.019634082844440681 0 -0.47882554305316488 -0.0018417715126103191 0 -0.49669030265618502 -0.01903657234648758 0 -0.49160980924365538 0.0039880541876541054 0 -0.49669030265618502 -0.01903657234648758 0 -0.49160980924365538 0.0039880541876541054 0 -0.49669030265618502 -0.01903657234648758 0 -0.50000000000000056 -0.019634082844440681 0 -0.49160980924365538 0.0039880541876541054 0 -0.50000000000000056 -0.019634082844440681 0 -0.49160980924365538 0.0039880541876541054 0 -0.50000000000000033 0.009303662189531537 0 -0.49160980924365538 0.0039880541876541054 0 -0.48652931583112352 0.027012680721795381 0 -0.49160980924365538 0.0039880541876541054 0 -0.50000000000000033 0.009303662189531537 0 -0.48652931583112352 0.027012680721795381 0 -0.50000000000000033 0.009303662189531537 0 -0.5 0.03611151152349279 0 -0.49175907743105379 0.031398254416965428 0 -0.50000000000000033 0.009303662189531537 0 -0.49175907743105379 0.031398254416965428 0 -0.50000000000000033 0.009303662189531537 0 -0.48652931583112352 0.027012680721795381 0 -0.49175907743105379 0.031398254416965428 0 -0.48652931583112352 0.027012680721795381 0 -0.47387578833984401 0.016012254987208822 0 -0.46815351836101687 0.031449839152918539 0 -0.49160980924365538 0.0039880541876541054 0 -0.48652931583112352 0.027012680721795381 0 -0.47387578833984401 0.016012254987208822 0 -0.47882554305316488 -0.0018417715126103191 0 -0.49160980924365538 0.0039880541876541054 0 -0.47387578833984401 0.016012254987208822 0 -0.47882554305316488 -0.0018417715126103191 0 -0.47387578833984401 0.016012254987208822 0 -0.46048772545436639 0.0043098071123656434 0 -0.49282352307895688 0.045257754500502748 0 -0.5 0.03611151152349279 0 -0.5 0.062919360857453976 0 -0.49282352307895688 0.045257754500502748 0 -0.48351815486210709 0.053492846644399093 0 -0.5 0.062919360857453976 0 -0.49175907743105379 0.031398254416965428 0 -0.48144882241859149 0.050037307255936581 0 -0.48351815486210709 0.053492846644399093 0 -0.48652931583112352 0.027012680721795381 0 -0.49175907743105379 0.031398254416965428 0 -0.48144882241859149 0.050037307255936581 0 -0.49175907743105379 0.031398254416965428 0 -0.48351815486210709 0.053492846644399093 0 -0.49282352307895688 0.045257754500502748 0 -0.49175907743105379 0.031398254416965428 0 -0.48351815486210709 0.053492846644399093 0 -0.49282352307895688 0.045257754500502748 0 -0.5 0.03611151152349279 0 -0.49175907743105379 0.031398254416965428 0 -0.48144882241859149 0.050037307255936581 0 -0.4639696453013944 0.043374392403556838 0 -0.46815351836101687 0.031449839152918539 0 -0.48652931583112352 0.027012680721795381 0 -0.48144882241859149 0.050037307255936581 0 -0.48652931583112352 0.027012680721795381 0 -0.48144882241859149 0.050037307255936581 0 -0.46815351836101687 0.031449839152918539 0 -0.48144882241859149 0.050037307255936581 0 -0.45709786057011947 0.055708105081253657 0 -0.47636832900606041 0.073061933790077832 0 -0.48144882241859149 0.050037307255936581 0 -0.48351815486210709 0.053492846644399093 0 -0.47636832900606041 0.073061933790077832 0 -0.48144882241859149 0.050037307255936581 0 -0.47636832900606041 0.073061933790077832 0 -0.48144882241859149 0.050037307255936581 0 -0.45709786057011947 0.055708105081253657 0 -0.4639696453013944 0.043374392403556838 0 -0.45709786057011947 0.055708105081253657 0 -0.4639696453013944 0.043374392403556838 0 -0.45299045524759751 0.034902057762674861 0 -0.4639696453013944 0.043374392403556838 0 -0.46815351836101687 0.031449839152918539 0 -0.45299045524759751 0.034902057762674861 0 -0.46815351836101687 0.031449839152918539 0 -0.45299045524759751 0.034902057762674861 0 -0.45709786057011947 0.055708105081253657 0 -0.45299045524759751 0.034902057762674861 0 -0.43782739213417787 0.038354276372430232 0 -0.45299045524759751 0.034902057762674861 0 -0.43782739213417787 0.038354276372430232 0 -0.45299045524759751 0.034902057762674861 0 -0.43782739213417787 0.038354276372430232 0 -0.44297011017848281 0.02707887027054981 0 -0.45709786057011947 0.055708105081253657 0 -0.43782739213417787 0.038354276372430232 0 -0.43187248081207541 0.055496176207803817 0 -0.45709786057011947 0.055708105081253657 0 -0.43782739213417787 0.038354276372430232 0 -0.45709786057011947 0.055708105081253657 0 -0.43187248081207541 0.055496176207803817 0 -0.43763284036668942 0.072255399145110422 0 -0.47387578833984401 0.016012254987208822 0 -0.46048772545436639 0.0043098071123656434 0 -0.45598123469437257 0.020633802368031268 0 -0.47387578833984401 0.016012254987208822 0 -0.46815351836101687 0.031449839152918539 0 -0.45598123469437257 0.020633802368031268 0 -0.46815351836101687 0.031449839152918539 0 -0.45299045524759751 0.034902057762674861 0 -0.45598123469437257 0.020633802368031268 0 -0.45598123469437257 0.020633802368031268 0 -0.44297011017848281 0.02707887027054981 0 -0.43740981058492812 0.01004998492246997 0 -0.45299045524759751 0.034902057762674861 0 -0.45598123469437257 0.020633802368031268 0 -0.44297011017848281 0.02707887027054981 0 -0.46048772545436639 0.0043098071123656434 0 -0.45598123469437257 0.020633802368031268 0 -0.43740981058492812 0.01004998492246997 0 -0.44623787648735791 -0.0099282306610938807 0 -0.46048772545436639 0.0043098071123656434 0 -0.43740981058492812 0.01004998492246997 0 -0.44623787648735791 -0.0099282306610938807 0 -0.43740981058492812 0.01004998492246997 0 -0.43591977417237449 -0.008065469867085449 0 -0.43740981058492812 0.01004998492246997 0 -0.42583279771702431 0.00046528033667210148 0 -0.43740981058492812 0.01004998492246997 0 -0.42292027786463471 0.01349413118407828 0 -0.42583279771702431 0.00046528033667210148 0 -0.41794895562780338 -0.01094222954485795 0 -0.40909120882054839 0.01273065398649661 0 -0.41794895562780338 -0.01094222954485795 0 -0.40352261506359649 -0.001038070178381474 0 -0.40909120882054839 0.01273065398649661 0 -0.42292027786463471 0.01349413118407828 0 -0.42583279771702431 0.00046528033667210148 0 -0.40909120882054839 0.01273065398649661 0 -0.41794895562780338 -0.01094222954485795 0 -0.42583279771702431 0.00046528033667210148 0 -0.40909120882054839 0.01273065398649661 0 -0.40909120882054839 0.01273065398649661 0 -0.41494363987246979 0.023236645495722939 0 -0.40023346201329341 0.036403537517851137 0 -0.41494363987246979 0.023236645495722939 0 -0.41436175989852531 0.033604495869393458 0 -0.40023346201329341 0.036403537517851137 0 -0.42292027786463471 0.01349413118407828 0 -0.41494363987246979 0.023236645495722939 0 -0.424969395700869 0.026775135554755129 0 -0.42292027786463471 0.01349413118407828 0 -0.40909120882054839 0.01273065398649661 0 -0.41494363987246979 0.023236645495722939 0 -0.41494363987246979 0.023236645495722939 0 -0.41896391809246269 0.029132761591660509 0 -0.41436175989852531 0.033604495869393458 0 -0.41494363987246979 0.023236645495722939 0 -0.41896391809246269 0.029132761591660509 0 -0.424969395700869 0.026775135554755129 0 -0.41896391809246269 0.029132761591660509 0 -0.424969395700869 0.026775135554755129 0 -0.42158087689798668 0.032914769446770492 0 -0.424969395700869 0.026775135554755129 0 -0.42858174468249838 0.030028200506033911 0 -0.42158087689798668 0.032914769446770492 0 -0.44297011017848281 0.02707887027054981 0 -0.43740981058492812 0.01004998492246997 0 -0.42858174468249838 0.030028200506033911 0 -0.43740981058492812 0.01004998492246997 0 -0.42292027786463471 0.01349413118407828 0 -0.424969395700869 0.026775135554755129 0 -0.43740981058492812 0.01004998492246997 0 -0.42858174468249838 0.030028200506033911 0 -0.43740981058492812 0.01004998492246997 0 -0.424969395700869 0.026775135554755129 0 -0.42858174468249838 0.030028200506033911 0 -0.424969395700869 0.026775135554755129 0 -0.42858174468249838 0.030028200506033911 0 -0.43782739213417787 0.038354276372430232 0 -0.44297011017848281 0.02707887027054981 0 -0.42858174468249838 0.030028200506033911 0 -0.43782739213417787 0.038354276372430232 0 -0.42858174468249838 0.030028200506033911 0 -0.42345682706553001 0.041626064651069543 0 -0.43782739213417787 0.038354276372430232 0 -0.42345682706553001 0.041626064651069543 0 -0.43187248081207541 0.055496176207803817 0 -0.43782739213417787 0.038354276372430232 0 -0.42858174468249838 0.030028200506033911 0 -0.43782739213417787 0.038354276372430232 0 -0.42345682706553001 0.041626064651069543 0 -0.42858174468249838 0.030028200506033911 0 -0.42345682706553001 0.041626064651069543 0 -0.42158087689798668 0.032914769446770492 0 -0.42858174468249838 0.030028200506033911 0 -0.42345682706553001 0.041626064651069543 0 -0.42345682706553001 0.041626064651069543 0 -0.43187248081207541 0.055496176207803817 0 -0.4177568865966339 0.054525225210098782 0 -0.43187248081207541 0.055496176207803817 0 -0.4177568865966339 0.054525225210098782 0 -0.41753301535116211 0.067129086497859855 0 -0.42345682706553001 0.041626064651069543 0 -0.4177568865966339 0.054525225210098782 0 -0.40276573021624068 0.046336866753853997 0 -0.4177568865966339 0.054525225210098782 0 -0.40750332447406851 0.057375884956624552 0 -0.41753301535116211 0.067129086497859855 0 -0.42345682706553001 0.041626064651069543 0 -0.4177568865966339 0.054525225210098782 0 -0.4177568865966339 0.054525225210098782 0 -0.40750332447406851 0.057375884956624552 0 -0.40276573021624068 0.046336866753853997 0 -0.42345682706553001 0.041626064651069543 0 -0.40276573021624068 0.046336866753853997 0 -0.42345682706553001 0.041626064651069543 0 -0.41020444479839763 0.039492741198042178 0 -0.40276573021624068 0.046336866753853997 0 -0.42345682706553001 0.041626064651069543 0 -0.41436175989852531 0.033604495869393458 0 -0.42158087689798668 0.032914769446770492 0 -0.42345682706553001 0.041626064651069543 0 -0.41436175989852531 0.033604495869393458 0 -0.41020444479839763 0.039492741198042178 0 -0.41896391809246269 0.029132761591660509 0 -0.41436175989852531 0.033604495869393458 0 -0.42158087689798668 0.032914769446770492 0 -0.41436175989852531 0.033604495869393458 0 -0.41020444479839763 0.039492741198042178 0 -0.40023346201329341 0.036403537517851137 0 -0.40276573021624068 0.046336866753853997 0 -0.38207463336695202 0.051047668856640811 0 -0.38772007791329738 0.03985096685417347 0 -0.41020444479839763 0.039492741198042178 0 -0.40023346201329341 0.036403537517851137 0 -0.40276573021624068 0.046336866753853997 0 -0.40023346201329341 0.036403537517851137 0 -0.40276573021624068 0.046336866753853997 0 -0.38772007791329738 0.03985096685417347 0 -0.40023346201329341 0.036403537517851137 0 -0.38772007791329738 0.03985096685417347 0 -0.38925836826538629 0.030805614435688099 0 -0.40276573021624068 0.046336866753853997 0 -0.38207463336695202 0.051047668856640811 0 -0.40276573021624068 0.046336866753853997 0 -0.39689466156197101 0.057407184083191301 0 -0.38207463336695202 0.051047668856640811 0 -0.40750332447406851 0.057375884956624552 0 -0.39689466156197101 0.057407184083191301 0 -0.40210564328563447 0.066115584712721373 0 -0.40750332447406851 0.057375884956624552 0 -0.40276573021624068 0.046336866753853997 0 -0.39689466156197101 0.057407184083191301 0 -0.38207463336695202 0.051047668856640811 0 -0.38848633305814179 0.065600711414542545 0 -0.36891219827968119 0.060077996683558232 0 -0.39689466156197101 0.057407184083191301 0 -0.38207463336695202 0.051047668856640811 0 -0.38848633305814179 0.065600711414542545 0 -0.38772007791329738 0.03985096685417347 0 -0.37937813184432773 0.031366277704107569 0 -0.38925836826538629 0.030805614435688099 0 -0.38207463336695202 0.051047668856640811 0 -0.38772007791329738 0.03985096685417347 0 -0.37261014177358448 0.043145835856899219 0 -0.38772007791329738 0.03985096685417347 0 -0.37937813184432773 0.031366277704107569 0 -0.37261014177358448 0.043145835856899219 0 -0.37937813184432773 0.031366277704107569 0 -0.38391758338059062 0.022870450659759161 0 -0.37479293228070759 0.022502646493578662 0 -0.37937813184432773 0.031366277704107569 0 -0.38925836826538629 0.030805614435688099 0 -0.38391758338059062 0.022870450659759161 0 -0.38925836826538629 0.030805614435688099 0 -0.38391758338059062 0.022870450659759161 0 -0.3946160130735708 0.021551959563878339 0 -0.38391758338059062 0.022870450659759161 0 -0.38667067902898572 0.013842153393714489 0 -0.3946160130735708 0.021551959563878339 0 -0.38391758338059062 0.022870450659759161 0 -0.3778438638662554 0.014761087644765769 0 -0.38667067902898572 0.013842153393714489 0 -0.38391758338059062 0.022870450659759161 0 -0.3778438638662554 0.014761087644765769 0 -0.37479293228070759 0.022502646493578662 0 -0.3778438638662554 0.014761087644765769 0 -0.38165634421242611 0.0056742618597281089 0 -0.38667067902898572 0.013842153393714489 0 -0.3778438638662554 0.014761087644765769 0 -0.38165634421242611 0.0056742618597281089 0 -0.37464316483836829 0.0066416053135349984 0 -0.37774077980655368 -0.001289555558904682 0 -0.38165634421242611 0.0056742618597281089 0 -0.37464316483836829 0.0066416053135349984 0 -0.3848191179490616 -0.0027051675553946518 0 -0.37774077980655368 -0.001289555558904682 0 -0.38165634421242611 0.0056742618597281089 0 -0.3848191179490616 -0.0027051675553946518 0 -0.38165634421242611 0.0056742618597281089 0 -0.38845980705381639 0.0057813395070211177 0 -0.39408165103759368 -0.0019794594859314238 0 -0.3848191179490616 -0.0027051675553946518 0 -0.38845980705381639 0.0057813395070211177 0 -0.38845980705381639 0.0057813395070211177 0 -0.38667067902898572 0.013842153393714489 0 -0.39627830677719 0.008853295208583448 0 -0.38165634421242611 0.0056742618597281089 0 -0.38845980705381639 0.0057813395070211177 0 -0.38667067902898572 0.013842153393714489 0 -0.38667067902898572 0.013842153393714489 0 -0.39627830677719 0.008853295208583448 0 -0.3946160130735708 0.021551959563878339 0 -0.39408165103759368 -0.0019794594859314238 0 -0.38845980705381639 0.0057813395070211177 0 -0.39627830677719 0.008853295208583448 0 -0.40352261506359649 -0.001038070178381474 0 -0.39408165103759368 -0.0019794594859314238 0 -0.39627830677719 0.008853295208583448 0 -0.40352261506359649 -0.001038070178381474 0 -0.40909120882054839 0.01273065398649661 0 -0.39627830677719 0.008853295208583448 0 -0.40909120882054839 0.01273065398649661 0 -0.39627830677719 0.008853295208583448 0 -0.3946160130735708 0.021551959563878339 0 -0.40909120882054839 0.01273065398649661 0 -0.40023346201329341 0.036403537517851137 0 -0.3946160130735708 0.021551959563878339 0 -0.40909120882054839 0.01273065398649661 0 -0.40023346201329341 0.036403537517851137 0 -0.40023346201329341 0.036403537517851137 0 -0.38925836826538629 0.030805614435688099 0 -0.3946160130735708 0.021551959563878339 0 -0.38696142946532958 0.1003701901717608 0 -0.40164011277457379 0.081352107660276216 0 -0.40864304721671202 0.1107171055473533 0 -0.38750957741872682 0.11885909540365321 0 -0.40864304721671202 0.1107171055473533 0 -0.39401402549175851 0.1361747599337243 0 -0.38750957741872682 0.11885909540365321 0 -0.38696142946532958 0.1003701901717608 0 -0.40864304721671202 0.1107171055473533 0 -0.38750957741872682 0.11885909540365321 0 -0.38696142946532958 0.1003701901717608 0 -0.36904533532088801 0.1177582563576956 0 -0.38696142946532958 0.1003701901717608 0 -0.37090825683648998 0.098456277756480637 0 -0.36904533532088801 0.1177582563576956 0 -0.37929074908003868 0.077603726490867345 0 -0.40164011277457379 0.081352107660276216 0 -0.38696142946532958 0.1003701901717608 0 -0.37929074908003868 0.077603726490867345 0 -0.40164011277457379 0.081352107660276216 0 -0.38696142946532958 0.1003701901717608 0 -0.37929074908003868 0.077603726490867345 0 -0.37090825683648998 0.098456277756480637 0 -0.37929074908003868 0.077603726490867345 0 -0.38848633305814179 0.065600711414542545 0 -0.36891219827968119 0.060077996683558232 0 -0.37929074908003868 0.077603726490867345 0 -0.38848633305814179 0.065600711414542545 0 -0.40164011277457379 0.081352107660276216 0 -0.38848633305814179 0.065600711414542545 0 -0.40210564328563447 0.066115584712721373 0 -0.40164011277457379 0.081352107660276216 0 -0.39689466156197101 0.057407184083191301 0 -0.38848633305814179 0.065600711414542545 0 -0.40210564328563447 0.066115584712721373 0 -0.40164011277457379 0.081352107660276216 0 -0.42398947646910912 0.085100488829685086 0 -0.40164011277457379 0.081352107660276216 0 -0.42398947646910912 0.085100488829685086 0 -0.40864304721671202 0.1107171055473533 0 -0.40210564328563447 0.066115584712721373 0 -0.40164011277457379 0.081352107660276216 0 -0.41753301535116211 0.067129086497859855 0 -0.40164011277457379 0.081352107660276216 0 -0.41753301535116211 0.067129086497859855 0 -0.42398947646910912 0.085100488829685086 0 -0.40750332447406851 0.057375884956624552 0 -0.40210564328563447 0.066115584712721373 0 -0.41753301535116211 0.067129086497859855 0 -0.41753301535116211 0.067129086497859855 0 -0.42398947646910912 0.085100488829685086 0 -0.43763284036668942 0.072255399145110422 0 -0.43187248081207541 0.055496176207803817 0 -0.41753301535116211 0.067129086497859855 0 -0.43763284036668942 0.072255399145110422 0 -0.42398947646910912 0.085100488829685086 0 -0.44633884016364428 0.088848869999093971 0 -0.42398947646910912 0.085100488829685086 0 -0.43763284036668942 0.072255399145110422 0 -0.44633884016364428 0.088848869999093971 0 -0.42398947646910912 0.085100488829685086 0 -0.42906186480059683 0.10519001099972999 0 -0.44633884016364428 0.088848869999093971 0 -0.42398947646910912 0.085100488829685086 0 -0.42906186480059683 0.10519001099972999 0 -0.40864304721671202 0.1107171055473533 0 -0.40864304721671202 0.1107171055473533 0 -0.43267942878230348 0.12559175737704789 0 -0.42906186480059683 0.10519001099972999 0 -0.40864304721671202 0.1107171055473533 0 -0.43267942878230348 0.12559175737704789 0 -0.42906186480059683 0.10519001099972999 0 -0.4489383204882843 0.11104189391905871 0 -0.43267942878230348 0.12559175737704789 0 -0.4489383204882843 0.11104189391905871 0 -0.45289828098281221 0.1241297055338681 0 -0.43267942878230348 0.12559175737704789 0 -0.4489383204882843 0.11104189391905871 0 -0.43267942878230348 0.12559175737704789 0 -0.42906186480059683 0.10519001099972999 0 -0.4489383204882843 0.11104189391905871 0 -0.44633884016364428 0.088848869999093971 0 -0.4489383204882843 0.11104189391905871 0 -0.44633884016364428 0.088848869999093971 0 -0.47121921728662652 0.096397536200283296 0 -0.46607010556719342 0.11973313861048911 0 -0.47121921728662652 0.096397536200283296 0 -0.4489383204882843 0.11104189391905871 0 -0.46607010556719342 0.11973313861048911 0 -0.47121921728662652 0.096397536200283296 0 -0.4489383204882843 0.11104189391905871 0 -0.45289828098281221 0.1241297055338681 0 -0.46607010556719342 0.11973313861048911 0 -0.45709786057011947 0.055708105081253657 0 -0.43763284036668942 0.072255399145110422 0 -0.45544766770060358 0.07348919590478746 0 -0.43763284036668942 0.072255399145110422 0 -0.44633884016364428 0.088848869999093971 0 -0.45544766770060358 0.07348919590478746 0 -0.44633884016364428 0.088848869999093971 0 -0.45544766770060358 0.07348919590478746 0 -0.47121921728662652 0.096397536200283296 0 -0.45544766770060358 0.07348919590478746 0 -0.47636832900606041 0.073061933790077832 0 -0.47121921728662652 0.096397536200283296 0 -0.45709786057011947 0.055708105081253657 0 -0.47636832900606041 0.073061933790077832 0 -0.45709786057011947 0.055708105081253657 0 -0.45544766770060358 0.07348919590478746 0 -0.47636832900606041 0.073061933790077832 0 -0.48351815486210709 0.053492846644399093 0 -0.47636832900606041 0.073061933790077832 0 -0.49140909277123612 0.074197219851226057 0 -0.47636832900606041 0.073061933790077832 0 -0.48274454235378189 0.091705374172880549 0 -0.47121921728662652 0.096397536200283296 0 -0.47636832900606041 0.073061933790077832 0 -0.47121921728662652 0.096397536200283296 0 -0.47636832900606041 0.073061933790077832 0 -0.49715897998801373 0.091784747772784503 0 -0.5 0.089727210191415163 0 -0.49715897998801373 0.091784747772784503 0 -0.49140909277123612 0.074197219851226057 0 -0.47636832900606041 0.073061933790077832 0 -0.48274454235378189 0.091705374172880549 0 -0.49715897998801373 0.091784747772784503 0 -0.47636832900606041 0.073061933790077832 0 -0.49715897998801373 0.091784747772784503 0 -0.49140909277123612 0.074197219851226057 0 -0.5 0.089727210191415163 0 -0.5 0.062919360857453976 0 -0.49140909277123612 0.074197219851226057 0 -0.48351815486210709 0.053492846644399093 0 -0.5 0.062919360857453976 0 -0.49140909277123612 0.074197219851226057 0 -0.46607010556719342 0.11973313861048911 0 -0.48623164313442779 0.1055772789283768 0 -0.48453668432005692 0.123143207324586 0 -0.46607010556719342 0.11973313861048911 0 -0.47121921728662652 0.096397536200283296 0 -0.48623164313442779 0.1055772789283768 0 -0.48274454235378189 0.091705374172880549 0 -0.47121921728662652 0.096397536200283296 0 -0.48623164313442779 0.1055772789283768 0 -0.5 0.089727210191415163 0 -0.49715897998801373 0.091784747772784503 0 -0.5 0.1165350595253765 0 -0.49715897998801373 0.091784747772784503 0 -0.48623164313442779 0.1055772789283768 0 -0.5 0.1165350595253765 0 -0.48274454235378189 0.091705374172880549 0 -0.49715897998801373 0.091784747772784503 0 -0.48623164313442779 0.1055772789283768 0 -0.48623164313442779 0.1055772789283768 0 -0.5 0.1165350595253765 0 -0.48453668432005692 0.123143207324586 0 -0.5 0.1165350595253765 0 -0.48453668432005692 0.123143207324586 0 -0.5 0.1433429088593379 0 -0.48453668432005692 0.123143207324586 0 -0.48049738108946538 0.1379484740379 0 -0.5 0.1433429088593379 0 -0.46607010556719342 0.11973313861048911 0 -0.48453668432005692 0.123143207324586 0 -0.48049738108946538 0.1379484740379 0 -0.46607010556719342 0.11973313861048911 0 -0.48049738108946538 0.1379484740379 0 -0.46092099384776192 0.14306874102069511 0 -0.48464943840857888 0.15775282940309851 0 -0.46990863904630059 0.1670362475492525 0 -0.46092099384776192 0.14306874102069511 0 -0.48464943840857888 0.15775282940309851 0 -0.46092099384776192 0.14306874102069511 0 -0.48049738108946538 0.1379484740379 0 -0.48464943840857888 0.15775282940309851 0 -0.46092099384776192 0.14306874102069511 0 -0.48049738108946538 0.1379484740379 0 -0.5 0.1433429088593379 0 -0.48464943840857888 0.15775282940309851 0 -0.48464943840857888 0.15775282940309851 0 -0.5 0.17015075819329931 0 -0.4898809761324775 0.17912292006808481 0 -0.5 0.1433429088593379 0 -0.48464943840857888 0.15775282940309851 0 -0.5 0.17015075819329931 0 -0.48464943840857888 0.15775282940309851 0 -0.4898809761324775 0.17912292006808481 0 -0.47865635922375932 0.17909963177513319 0 -0.5 0.17015075819329931 0 -0.4898809761324775 0.17912292006808481 0 -0.5 0.19695860752726069 0 -0.4898809761324775 0.17912292006808481 0 -0.47865635922375932 0.17909963177513319 0 -0.48609908303004917 0.1916527734416324 0 -0.47865635922375932 0.17909963177513319 0 -0.47279817792341111 0.1948006201282925 0 -0.47865635922375932 0.17909963177513319 0 -0.46589335310649882 0.18744802338852329 0 -0.47279817792341111 0.1948006201282925 0 -0.47865635922375932 0.17909963177513319 0 -0.46927870962167312 0.17493875400548389 0 -0.46990863904630059 0.1670362475492525 0 -0.47865635922375932 0.17909963177513319 0 -0.46927870962167312 0.17493875400548389 0 -0.46555461593459269 0.18128722400797501 0 -0.47865635922375932 0.17909963177513319 0 -0.46589335310649882 0.18744802338852329 0 -0.46555461593459269 0.18128722400797501 0 -0.48464943840857888 0.15775282940309851 0 -0.47865635922375932 0.17909963177513319 0 -0.46990863904630059 0.1670362475492525 0 -0.45742932361540911 0.15889287394486271 0 -0.45393765338305497 0.17471700686903011 0 -0.46990863904630059 0.1670362475492525 0 -0.45742932361540911 0.15889287394486271 0 -0.46092099384776192 0.14306874102069511 0 -0.45742932361540911 0.15889287394486271 0 -0.46299522428203971 0.17233191268957501 0 -0.45393765338305497 0.17471700686903011 0 -0.46927870962167312 0.17493875400548389 0 -0.46990863904630059 0.1670362475492525 0 -0.46299522428203971 0.17233191268957501 0 -0.46990863904630059 0.1670362475492525 0 -0.45742932361540911 0.15889287394486271 0 -0.46299522428203971 0.17233191268957501 0 -0.46589335310649882 0.18744802338852329 0 -0.46555461593459269 0.18128722400797501 0 -0.45393765338305497 0.17471700686903011 0 -0.46589335310649882 0.18744802338852329 0 -0.46555461593459269 0.18128722400797501 0 -0.46927870962167312 0.17493875400548389 0 -0.46555461593459269 0.18128722400797501 0 -0.46299522428203971 0.17233191268957501 0 -0.46555461593459269 0.18128722400797501 0 -0.46299522428203971 0.17233191268957501 0 -0.45393765338305497 0.17471700686903011 0 -0.46589335310649882 0.18744802338852329 0 -0.45393765338305497 0.17471700686903011 0 -0.45393765338305497 0.17471700686903011 0 -0.44047241453070329 0.18324079402305421 0 -0.44820564853932793 0.20069426145875721 0 -0.45393765338305497 0.17471700686903011 0 -0.44047241453070329 0.18324079402305421 0 -0.44174290600336708 0.16173144065936321 0 -0.45742932361540911 0.15889287394486271 0 -0.44174290600336708 0.16173144065936321 0 -0.44616928685712581 0.1494742970518641 0 -0.45742932361540911 0.15889287394486271 0 -0.45393765338305497 0.17471700686903011 0 -0.44174290600336708 0.16173144065936321 0 -0.45393765338305497 0.17471700686903011 0 -0.44174290600336708 0.16173144065936321 0 -0.44174290600336708 0.16173144065936321 0 -0.44616928685712581 0.1494742970518641 0 -0.43187713239064979 0.1573343508491826 0 -0.44616928685712581 0.1494742970518641 0 -0.43700896048386301 0.14249666109927989 0 -0.43187713239064979 0.1573343508491826 0 -0.44616928685712581 0.1494742970518641 0 -0.44680021131503311 0.13433024919887079 0 -0.46092099384776192 0.14306874102069511 0 -0.44616928685712581 0.1494742970518641 0 -0.44680021131503311 0.13433024919887079 0 -0.43700896048386301 0.14249666109927989 0 -0.45289828098281221 0.1241297055338681 0 -0.44680021131503311 0.13433024919887079 0 -0.43267942878230348 0.12559175737704789 0 -0.44680021131503311 0.13433024919887079 0 -0.43267942878230348 0.12559175737704789 0 -0.43700896048386301 0.14249666109927989 0 -0.44680021131503311 0.13433024919887079 0 -0.43267942878230348 0.12559175737704789 0 -0.45289828098281221 0.1241297055338681 0 -0.44680021131503311 0.13433024919887079 0 -0.46092099384776192 0.14306874102069511 0 -0.46607010556719342 0.11973313861048911 0 -0.46092099384776192 0.14306874102069511 0 -0.45289828098281221 0.1241297055338681 0 -0.46607010556719342 0.11973313861048911 0 -0.46092099384776192 0.14306874102069511 0 -0.44680021131503311 0.13433024919887079 0 -0.46092099384776192 0.14306874102069511 0 -0.45742932361540911 0.15889287394486271 0 -0.46092099384776192 0.14306874102069511 0 -0.45742932361540911 0.15889287394486271 0 -0.44616928685712581 0.1494742970518641 0 -0.46092099384776192 0.14306874102069511 0 -0.46853242371352971 0.23544625301742969 0 -0.46993231893463527 0.26090691788180947 0 -0.48177750529808522 0.24619974485466931 0 -0.46853242371352971 0.23544625301742969 0 -0.46993231893463527 0.26090691788180947 0 -0.48177750529808522 0.24619974485466931 0 -0.48375626182904402 0.22755154475287301 0 -0.46853242371352971 0.23544625301742969 0 -0.48177750529808522 0.24619974485466931 0 -0.5 0.2461359573144368 0 -0.48375626182904402 0.22755154475287301 0 -0.5 0.2461359573144368 0 -0.48375626182904402 0.22755154475287301 0 -0.49999999999999978 0.22376645686122221 0 -0.48375626182904402 0.22755154475287301 0 -0.48639908896170481 0.20928353849475789 0 -0.5 0.2461359573144368 0 -0.49999999999999978 0.22376645686122221 0 -0.48375626182904402 0.22755154475287301 0 -0.47173343442327142 0.22048762952866541 0 -0.46713252849242448 0.20998558815304991 0 -0.46853242371352971 0.23544625301742969 0 -0.48375626182904402 0.22755154475287301 0 -0.47173343442327142 0.22048762952866541 0 -0.4670472636537164 0.20843482960316059 0 -0.48375626182904402 0.22755154475287301 0 -0.47173343442327142 0.22048762952866541 0 -0.46853242371352971 0.23544625301742969 0 -0.48375626182904402 0.22755154475287301 0 -0.4670472636537164 0.20843482960316059 0 -0.48639908896170481 0.20928353849475789 0 -0.47279817792341111 0.1948006201282925 0 -0.4670472636537164 0.20843482960316059 0 -0.48375626182904402 0.22755154475287301 0 -0.48639908896170481 0.20928353849475789 0 -0.4670472636537164 0.20843482960316059 0 -0.49999999999999978 0.22376645686122221 0 -0.48639908896170481 0.20928353849475789 0 -0.5 0.19695860752726069 0 -0.49999999999999978 0.22376645686122221 0 -0.48639908896170481 0.20928353849475789 0 -0.48639908896170481 0.20928353849475789 0 -0.5 0.19695860752726069 0 -0.48609908303004917 0.1916527734416324 0 -0.4898809761324775 0.17912292006808481 0 -0.5 0.19695860752726069 0 -0.48609908303004917 0.1916527734416324 0 -0.48639908896170481 0.20928353849475789 0 -0.48609908303004917 0.1916527734416324 0 -0.47279817792341111 0.1948006201282925 0 -0.47865635922375932 0.17909963177513319 0 -0.48609908303004917 0.1916527734416324 0 -0.47279817792341111 0.1948006201282925 0 -0.48639908896170481 0.20928353849475789 0 -0.47279817792341111 0.1948006201282925 0 -0.47279817792341111 0.1948006201282925 0 -0.4670472636537164 0.20843482960316059 0 -0.46589335310649882 0.18744802338852329 0 -0.47279817792341111 0.1948006201282925 0 -0.46589335310649882 0.18744802338852329 0 -0.4603250720810298 0.20074399020462361 0 -0.4670472636537164 0.20843482960316059 0 -0.46589335310649882 0.18744802338852329 0 -0.45393765338305497 0.17471700686903011 0 -0.44820564853932793 0.20069426145875721 0 -0.46589335310649882 0.18744802338852329 0 -0.4603250720810298 0.20074399020462361 0 -0.44820564853932793 0.20069426145875721 0 -0.46589335310649882 0.18744802338852329 0 -0.47279817792341111 0.1948006201282925 0 -0.4670472636537164 0.20843482960316059 0 -0.46589335310649882 0.18744802338852329 0 -0.4670472636537164 0.20843482960316059 0 -0.45393765338305497 0.17471700686903011 0 -0.44820564853932793 0.20069426145875721 0 -0.44820564853932793 0.20069426145875721 0 -0.45427794118362658 0.21265328965042851 0 -0.44247364369559788 0.22667151604848371 0 -0.44820564853932793 0.20069426145875721 0 -0.44247364369559788 0.22667151604848371 0 -0.44820564853932793 0.20069426145875721 0 -0.44247364369559788 0.22667151604848371 0 -0.42336320141575168 0.21609666274764849 0 -0.45880341375183131 0.2186303689721085 0 -0.45427794118362658 0.21265328965042851 0 -0.46188137931700068 0.21002659871962689 0 -0.45880341375183131 0.2186303689721085 0 -0.45427794118362658 0.21265328965042851 0 -0.4536201791639074 0.2236252940046442 0 -0.4603250720810298 0.20074399020462361 0 -0.45427794118362658 0.21265328965042851 0 -0.46188137931700068 0.21002659871962689 0 -0.4603250720810298 0.20074399020462361 0 -0.44820564853932793 0.20069426145875721 0 -0.45427794118362658 0.21265328965042851 0 -0.4603250720810298 0.20074399020462361 0 -0.46188137931700068 0.21002659871962689 0 -0.4670472636537164 0.20843482960316059 0 -0.4603250720810298 0.20074399020462361 0 -0.4670472636537164 0.20843482960316059 0 -0.46188137931700068 0.21002659871962689 0 -0.4670472636537164 0.20843482960316059 0 -0.46713252849242448 0.20998558815304991 0 -0.4670472636537164 0.20843482960316059 0 -0.46713252849242448 0.20998558815304991 0 -0.47173343442327142 0.22048762952866541 0 -0.4670472636537164 0.20843482960316059 0 -0.46713252849242448 0.20998558815304991 0 -0.45880341375183131 0.2186303689721085 0 -0.46188137931700068 0.21002659871962689 0 -0.46713252849242448 0.20998558815304991 0 -0.46713252849242448 0.20998558815304991 0 -0.45710504060219709 0.23686107433279269 0 -0.46713252849242448 0.20998558815304991 0 -0.45710504060219709 0.23686107433279269 0 -0.46853242371352971 0.23544625301742969 0 -0.45880341375183131 0.2186303689721085 0 -0.46713252849242448 0.20998558815304991 0 -0.45710504060219709 0.23686107433279269 0 -0.45880341375183131 0.2186303689721085 0 -0.4536201791639074 0.2236252940046442 0 -0.45710504060219709 0.23686107433279269 0 -0.46713252849242448 0.20998558815304991 0 -0.46853242371352971 0.23544625301742969 0 -0.45427794118362658 0.21265328965042851 0 -0.4536201791639074 0.2236252940046442 0 -0.44247364369559788 0.22667151604848371 0 -0.4536201791639074 0.2236252940046442 0 -0.44247364369559788 0.22667151604848371 0 -0.45710504060219709 0.23686107433279269 0 -0.44247364369559788 0.22667151604848371 0 -0.4367416388518679 0.25264877063821017 0 -0.44247364369559788 0.22667151604848371 0 -0.45710504060219709 0.23686107433279269 0 -0.4367416388518679 0.25264877063821017 0 -0.45710504060219709 0.23686107433279269 0 -0.46853242371352971 0.23544625301742969 0 -0.46993231893463527 0.26090691788180947 0 -0.41931835140954682 0.23739665832436521 0 -0.40367044579520373 0.24132688110038639 0 -0.41175872593851298 0.2549478601346914 0 -0.41931835140954682 0.23739665832436521 0 -0.40790513800462019 0.22799805468035339 0 -0.40367044579520373 0.24132688110038639 0 -0.41931835140954682 0.23739665832436521 0 -0.4367416388518679 0.25264877063821017 0 -0.41175872593851298 0.2549478601346914 0 -0.44247364369559788 0.22667151604848371 0 -0.41931835140954682 0.23739665832436521 0 -0.4367416388518679 0.25264877063821017 0 -0.44247364369559788 0.22667151604848371 0 -0.41931835140954682 0.23739665832436521 0 -0.42336320141575168 0.21609666274764849 0 -0.41931835140954682 0.23739665832436521 0 -0.40790513800462019 0.22799805468035339 0 -0.42336320141575168 0.21609666274764849 0 -0.40790513800462019 0.22799805468035339 0 -0.42336320141575168 0.21609666274764849 0 -0.40538393777915788 0.2123952851453417 0 -0.42336320141575168 0.21609666274764849 0 -0.42071240458675369 0.1920614743917832 0 -0.40538393777915788 0.2123952851453417 0 -0.44820564853932793 0.20069426145875721 0 -0.42336320141575168 0.21609666274764849 0 -0.42071240458675369 0.1920614743917832 0 -0.44047241453070329 0.18324079402305421 0 -0.44820564853932793 0.20069426145875721 0 -0.42071240458675369 0.1920614743917832 0 -0.42071240458675369 0.1920614743917832 0 -0.40538393777915788 0.2123952851453417 0 -0.42071240458675369 0.1920614743917832 0 -0.4022878927449296 0.1970928012265635 0 -0.40298680868332198 0.18508216307238631 0 -0.42071240458675369 0.1920614743917832 0 -0.4022878927449296 0.1970928012265635 0 -0.40538393777915788 0.2123952851453417 0 -0.4022878927449296 0.1970928012265635 0 -0.39286614404695941 0.1920732104686422 0 -0.40298680868332198 0.18508216307238631 0 -0.4022878927449296 0.1970928012265635 0 -0.39286614404695941 0.1920732104686422 0 -0.39380007669083689 0.206464460861051 0 -0.38422654444444693 0.2008322729754812 0 -0.38088029112643113 0.1825210369279657 0 -0.38422654444444693 0.2008322729754812 0 -0.38088029112643113 0.1825210369279657 0 -0.36802074197771562 0.19700904511440151 0 -0.38422654444444693 0.2008322729754812 0 -0.37368745339656201 0.20924711939208951 0 -0.36802074197771562 0.19700904511440151 0 -0.39286614404695941 0.1920732104686422 0 -0.38422654444444693 0.2008322729754812 0 -0.38088029112643113 0.1825210369279657 0 -0.39286614404695941 0.1920732104686422 0 -0.38422654444444693 0.2008322729754812 0 -0.39380007669083689 0.206464460861051 0 -0.38422654444444693 0.2008322729754812 0 -0.38757279776246373 0.21914350902299659 0 -0.38757279776246373 0.21914350902299659 0 -0.36800338097472479 0.22147713987588341 0 -0.37368745339656201 0.20924711939208951 0 -0.38422654444444693 0.2008322729754812 0 -0.39380007669083689 0.206464460861051 0 -0.38757279776246373 0.21914350902299659 0 -0.38422654444444693 0.2008322729754812 0 -0.38757279776246373 0.21914350902299659 0 -0.37368745339656201 0.20924711939208951 0 -0.39141353052387118 0.2186855059784025 0 -0.39380007669083689 0.206464460861051 0 -0.38757279776246373 0.21914350902299659 0 -0.39141353052387118 0.2186855059784025 0 -0.39380007669083689 0.206464460861051 0 -0.40538393777915788 0.2123952851453417 0 -0.4022878927449296 0.1970928012265635 0 -0.39380007669083689 0.206464460861051 0 -0.40538393777915788 0.2123952851453417 0 -0.40790513800462019 0.22799805468035339 0 -0.39005547097156312 0.23272909589890109 0 -0.40367044579520373 0.24132688110038639 0 -0.39141353052387118 0.2186855059784025 0 -0.40538393777915788 0.2123952851453417 0 -0.39005547097156312 0.23272909589890109 0 -0.40790513800462019 0.22799805468035339 0 -0.40538393777915788 0.2123952851453417 0 -0.39005547097156312 0.23272909589890109 0 -0.40538393777915788 0.2123952851453417 0 -0.39005547097156312 0.23272909589890109 0 -0.38757279776246373 0.21914350902299659 0 -0.39005547097156312 0.23272909589890109 0 -0.38757279776246373 0.21914350902299659 0 -0.36800338097472479 0.22147713987588341 0 -0.39141353052387118 0.2186855059784025 0 -0.38757279776246373 0.21914350902299659 0 -0.39005547097156312 0.23272909589890109 0 -0.38757279776246373 0.21914350902299659 0 -0.37939186114838758 0.22424627805714001 0 -0.36800338097472479 0.22147713987588341 0 -0.38757279776246373 0.21914350902299659 0 -0.37939186114838758 0.22424627805714001 0 -0.39005547097156312 0.23272909589890109 0 -0.39141353052387118 0.2186855059784025 0 -0.38757279776246373 0.21914350902299659 0 -0.37939186114838758 0.22424627805714001 0 -0.37477717689163992 0.25299635056682518 0 -0.39005547097156312 0.23272909589890109 0 -0.39384597734802013 0.25347135609337229 0 -0.37477717689163992 0.25299635056682518 0 -0.37939186114838758 0.22424627805714001 0 -0.39005547097156312 0.23272909589890109 0 -0.37477717689163992 0.25299635056682518 0 -0.39005547097156312 0.23272909589890109 0 -0.37477717689163992 0.25299635056682518 0 -0.40367044579520373 0.24132688110038639 0 -0.41175872593851298 0.2549478601346914 0 -0.39384597734802013 0.25347135609337229 0 -0.39005547097156312 0.23272909589890109 0 -0.39384597734802013 0.25347135609337229 0 -0.39005547097156312 0.23272909589890109 0 -0.40367044579520373 0.24132688110038639 0 -0.39384597734802013 0.25347135609337229 0 -0.41485942150404181 0.14153864215909739 0 -0.41553858058260518 0.15317901213210369 0 -0.42574561826610652 0.14613969243370301 0 -0.41553858058260518 0.15317901213210369 0 -0.42574561826610652 0.14613969243370301 0 -0.42127399236650492 0.15770626544657529 0 -0.41485942150404181 0.14153864215909739 0 -0.41553858058260518 0.15317901213210369 0 -0.4044664398419977 0.15594807455379561 0 -0.40864304721671202 0.1107171055473533 0 -0.41485942150404181 0.14153864215909739 0 -0.43267942878230348 0.12559175737704789 0 -0.41485942150404181 0.14153864215909739 0 -0.43267942878230348 0.12559175737704789 0 -0.42574561826610652 0.14613969243370301 0 -0.43267942878230348 0.12559175737704789 0 -0.43700896048386301 0.14249666109927989 0 -0.42574561826610652 0.14613969243370301 0 -0.41485942150404181 0.14153864215909739 0 -0.43267942878230348 0.12559175737704789 0 -0.42574561826610652 0.14613969243370301 0 -0.43187713239064979 0.1573343508491826 0 -0.42127399236650492 0.15770626544657529 0 -0.43700896048386301 0.14249666109927989 0 -0.42574561826610652 0.14613969243370301 0 -0.43187713239064979 0.1573343508491826 0 -0.43187713239064979 0.1573343508491826 0 -0.42946357341586749 0.17496324995209989 0 -0.4216380035134229 0.16659483191912641 0 -0.44174290600336708 0.16173144065936321 0 -0.43187713239064979 0.1573343508491826 0 -0.42946357341586749 0.17496324995209989 0 -0.43187713239064979 0.1573343508491826 0 -0.42127399236650492 0.15770626544657529 0 -0.4216380035134229 0.16659483191912641 0 -0.44047241453070329 0.18324079402305421 0 -0.44174290600336708 0.16173144065936321 0 -0.42946357341586749 0.17496324995209989 0 -0.44047241453070329 0.18324079402305421 0 -0.42071240458675369 0.1920614743917832 0 -0.42946357341586749 0.17496324995209989 0 -0.42071240458675369 0.1920614743917832 0 -0.42946357341586749 0.17496324995209989 0 -0.41235879422937732 0.17543682721938669 0 -0.42071240458675369 0.1920614743917832 0 -0.41235879422937732 0.17543682721938669 0 -0.40298680868332198 0.18508216307238631 0 -0.42946357341586749 0.17496324995209989 0 -0.41235879422937732 0.17543682721938669 0 -0.4216380035134229 0.16659483191912641 0 -0.41553858058260518 0.15317901213210369 0 -0.42127399236650492 0.15770626544657529 0 -0.41302135350813218 0.1630654313638546 0 -0.42127399236650492 0.15770626544657529 0 -0.4216380035134229 0.16659483191912641 0 -0.41302135350813218 0.1630654313638546 0 -0.41235879422937732 0.17543682721938669 0 -0.4216380035134229 0.16659483191912641 0 -0.41302135350813218 0.1630654313638546 0 -0.41235879422937732 0.17543682721938669 0 -0.41302135350813218 0.1630654313638546 0 -0.40449990094882532 0.16792382984329149 0 -0.41302135350813218 0.1630654313638546 0 -0.40449990094882532 0.16792382984329149 0 -0.4044664398419977 0.15594807455379561 0 -0.41553858058260518 0.15317901213210369 0 -0.41302135350813218 0.1630654313638546 0 -0.4044664398419977 0.15594807455379561 0 -0.3926733654842145 0.1692345557408807 0 -0.4044664398419977 0.15594807455379561 0 -0.40449990094882532 0.16792382984329149 0 -0.3926733654842145 0.1692345557408807 0 -0.40078474618547688 0.17571320347163299 0 -0.40449990094882532 0.16792382984329149 0 -0.3926733654842145 0.1692345557408807 0 -0.4044664398419977 0.15594807455379561 0 -0.3926733654842145 0.1692345557408807 0 -0.39703941422577987 0.15748552694114659 0 -0.4044664398419977 0.15594807455379561 0 -0.40298680868332198 0.18508216307238631 0 -0.40078474618547688 0.17571320347163299 0 -0.39301525059178999 0.18044652774840561 0 -0.41235879422937732 0.17543682721938669 0 -0.40298680868332198 0.18508216307238631 0 -0.40078474618547688 0.17571320347163299 0 -0.41235879422937732 0.17543682721938669 0 -0.40449990094882532 0.16792382984329149 0 -0.40078474618547688 0.17571320347163299 0 -0.3926733654842145 0.1692345557408807 0 -0.40078474618547688 0.17571320347163299 0 -0.39301525059178999 0.18044652774840561 0 -0.39286614404695941 0.1920732104686422 0 -0.40298680868332198 0.18508216307238631 0 -0.39301525059178999 0.18044652774840561 0 -0.39286614404695941 0.1920732104686422 0 -0.39301525059178999 0.18044652774840561 0 -0.38088029112643113 0.1825210369279657 0 -0.3926733654842145 0.1692345557408807 0 -0.38088029112643113 0.1825210369279657 0 -0.3926733654842145 0.1692345557408807 0 -0.39301525059178999 0.18044652774840561 0 -0.38088029112643113 0.1825210369279657 0 -0.3926733654842145 0.1692345557408807 0 -0.37921940694751782 0.17343241172319571 0 -0.38088029112643113 0.1825210369279657 0 -0.37921940694751782 0.17343241172319571 0 -0.38088029112643113 0.1825210369279657 0 -0.37921940694751782 0.17343241172319571 0 -0.38088029112643113 0.1825210369279657 0 -0.37283571032282492 0.1791450959532255 0 -0.3784015845151173 0.16895715591276281 0 -0.37283571032282492 0.1791450959532255 0 -0.37921940694751782 0.17343241172319571 0 -0.3784015845151173 0.16895715591276281 0 -0.37283571032282492 0.1791450959532255 0 -0.37921940694751782 0.17343241172319571 0 -0.37283571032282492 0.1791450959532255 0 -0.39703941422577987 0.15748552694114659 0 -0.37921940694751782 0.17343241172319571 0 -0.38193020105096481 0.16249827228531991 0 -0.3784015845151173 0.16895715591276281 0 -0.38193020105096481 0.16249827228531991 0 -0.37372345991800282 0.14335770613522919 0 -0.39703941422577987 0.15748552694114659 0 -0.37921940694751782 0.17343241172319571 0 -0.3926733654842145 0.1692345557408807 0 -0.39703941422577987 0.15748552694114659 0 -0.37921940694751782 0.17343241172319571 0 -0.39703941422577987 0.15748552694114659 0 -0.38193020105096481 0.16249827228531991 0 -0.38598126975628672 0.1494316781992327 0 -0.37921940694751782 0.17343241172319571 0 -0.3784015845151173 0.16895715591276281 0 -0.38193020105096481 0.16249827228531991 0 -0.3784015845151173 0.16895715591276281 0 -0.38193020105096481 0.16249827228531991 0 -0.37921940694751782 0.17343241172319571 0 -0.3784015845151173 0.16895715591276281 0 -0.38598126975628672 0.1494316781992327 0 -0.39401402549175851 0.1361747599337243 0 -0.37372345991800282 0.14335770613522919 0 -0.38193020105096481 0.16249827228531991 0 -0.38598126975628672 0.1494316781992327 0 -0.37372345991800282 0.14335770613522919 0 -0.3784015845151173 0.16895715591276281 0 -0.37372345991800282 0.14335770613522919 0 -0.39703941422577987 0.15748552694114659 0 -0.38598126975628672 0.1494316781992327 0 -0.39401402549175851 0.1361747599337243 0 -0.41485942150404181 0.14153864215909739 0 -0.39703941422577987 0.15748552694114659 0 -0.39401402549175851 0.1361747599337243 0 -0.41485942150404181 0.14153864215909739 0 -0.39703941422577987 0.15748552694114659 0 -0.4044664398419977 0.15594807455379561 0 -0.41485942150404181 0.14153864215909739 0 -0.39703941422577987 0.15748552694114659 0 -0.40864304721671202 0.1107171055473533 0 -0.41485942150404181 0.14153864215909739 0 -0.39401402549175851 0.1361747599337243 0 -0.38750957741872682 0.11885909540365321 0 -0.37372345991800282 0.14335770613522919 0 -0.36904533532088801 0.1177582563576956 0 -0.38750957741872682 0.11885909540365321 0 -0.39401402549175851 0.1361747599337243 0 -0.37372345991800282 0.14335770613522919 0 -0.35823941519022368 0.13573745574644491 0 -0.37372345991800282 0.14335770613522919 0 -0.36904533532088801 0.1177582563576956 0 -0.37372345991800282 0.14335770613522919 0 -0.36904533532088801 0.1177582563576956 0 -0.35823941519022368 0.13573745574644491 0 -0.34455851703438989 0.13305210298766909 0 -0.35158166360451942 0.11704707172714621 0 -0.35823941519022368 0.13573745574644491 0 -0.34455851703438989 0.13305210298766909 0 -0.34873147585397152 0.15030858297792049 0 -0.35823941519022368 0.13573745574644491 0 -0.34873147585397152 0.15030858297792049 0 -0.36179603940957061 0.15290101429300901 0 -0.34873147585397152 0.15030858297792049 0 -0.34720568730415252 0.1616956217090188 0 -0.33647431770126862 0.14798842126345041 0 -0.34873147585397152 0.15030858297792049 0 -0.36179603940957061 0.15290101429300901 0 -0.35552330674067661 0.16014073544654131 0 -0.35823941519022368 0.13573745574644491 0 -0.36179603940957061 0.15290101429300901 0 -0.37372345991800282 0.14335770613522919 0 -0.3784015845151173 0.16895715591276281 0 -0.36179603940957061 0.15290101429300901 0 -0.37372345991800282 0.14335770613522919 0 -0.3784015845151173 0.16895715591276281 0 -0.36179603940957061 0.15290101429300901 0 -0.3628088848288224 0.16705289795690309 0 -0.3784015845151173 0.16895715591276281 0 -0.3628088848288224 0.16705289795690309 0 -0.36959790597703868 0.17377317275203899 0 -0.36179603940957061 0.15290101429300901 0 -0.3628088848288224 0.16705289795690309 0 -0.35552330674067661 0.16014073544654131 0 -0.38088029112643113 0.1825210369279657 0 -0.37283571032282492 0.1791450959532255 0 -0.36802074197771562 0.19700904511440151 0 -0.37283571032282492 0.1791450959532255 0 -0.36399845157591232 0.19532107462703119 0 -0.37283571032282492 0.1791450959532255 0 -0.36261880381503758 0.18828806813974089 0 -0.3784015845151173 0.16895715591276281 0 -0.36959790597703868 0.17377317275203899 0 -0.37283571032282492 0.1791450959532255 0 -0.36959790597703868 0.17377317275203899 0 -0.37283571032282492 0.1791450959532255 0 -0.36409588864576692 0.17933358541092431 0 -0.3628088848288224 0.16705289795690309 0 -0.36959790597703868 0.17377317275203899 0 -0.36409588864576692 0.17933358541092431 0 -0.3628088848288224 0.16705289795690309 0 -0.36409588864576692 0.17933358541092431 0 -0.35614161380151321 0.17761165346375071 0 -0.36409588864576692 0.17933358541092431 0 -0.35797279878738592 0.18411861580098379 0 -0.35614161380151321 0.17761165346375071 0 -0.36409588864576692 0.17933358541092431 0 -0.35797279878738592 0.18411861580098379 0 -0.36261880381503758 0.18828806813974089 0 -0.37283571032282492 0.1791450959532255 0 -0.36409588864576692 0.17933358541092431 0 -0.36261880381503758 0.18828806813974089 0 -0.35797279878738592 0.18411861580098379 0 -0.35614161380151321 0.17761165346375071 0 -0.35065229879255438 0.18593262723135329 0 -0.35797279878738592 0.18411861580098379 0 -0.35065229879255438 0.18593262723135329 0 -0.35645772166264922 0.19211102842263869 0 -0.35614161380151321 0.17761165346375071 0 -0.34811061985946878 0.17434540014992381 0 -0.35436851446084039 0.1683048517912053 0 -0.35614161380151321 0.17761165346375071 0 -0.34811061985946878 0.17434540014992381 0 -0.35065229879255438 0.18593262723135329 0 -0.35065229879255438 0.18593262723135329 0 -0.34227569468909552 0.1811403169530669 0 -0.33993633525554889 0.19055096072852831 0 -0.34811061985946878 0.17434540014992381 0 -0.35065229879255438 0.18593262723135329 0 -0.34227569468909552 0.1811403169530669 0 -0.35552330674067661 0.16014073544654131 0 -0.35436851446084039 0.1683048517912053 0 -0.34720568730415252 0.1616956217090188 0 -0.3628088848288224 0.16705289795690309 0 -0.35614161380151321 0.17761165346375071 0 -0.35436851446084039 0.1683048517912053 0 -0.3628088848288224 0.16705289795690309 0 -0.35552330674067661 0.16014073544654131 0 -0.35436851446084039 0.1683048517912053 0 -0.34811061985946878 0.17434540014992381 0 -0.34720568730415252 0.1616956217090188 0 -0.33801991010865667 0.17138732975114751 0 -0.34811061985946878 0.17434540014992381 0 -0.35436851446084039 0.1683048517912053 0 -0.34720568730415252 0.1616956217090188 0 -0.34873147585397152 0.15030858297792049 0 -0.35552330674067661 0.16014073544654131 0 -0.34720568730415252 0.1616956217090188 0 -0.34720568730415252 0.1616956217090188 0 -0.33801991010865667 0.17138732975114751 0 -0.33092539158612982 0.1609515407851054 0 -0.34720568730415252 0.1616956217090188 0 -0.33092539158612982 0.1609515407851054 0 -0.33647431770126862 0.14798842126345041 0 -0.33801991010865667 0.17138732975114751 0 -0.33092539158612982 0.1609515407851054 0 -0.3265778886375873 0.17202186172735501 0 -0.34227569468909552 0.1811403169530669 0 -0.33183788287013261 0.1831818366374682 0 -0.33993633525554889 0.19055096072852831 0 -0.34811061985946878 0.17434540014992381 0 -0.33801991010865667 0.17138732975114751 0 -0.34227569468909552 0.1811403169530669 0 -0.33801991010865667 0.17138732975114751 0 -0.34227569468909552 0.1811403169530669 0 -0.33183788287013261 0.1831818366374682 0 -0.33801991010865667 0.17138732975114751 0 -0.33183788287013261 0.1831818366374682 0 -0.3265778886375873 0.17202186172735501 0 -0.3265778886375873 0.17202186172735501 0 -0.31632076704925127 0.18575639557221951 0 -0.3167678101826048 0.16359462978275929 0 -0.33183788287013261 0.1831818366374682 0 -0.3265778886375873 0.17202186172735501 0 -0.31632076704925127 0.18575639557221951 0 -0.33092539158612982 0.1609515407851054 0 -0.3167678101826048 0.16359462978275929 0 -0.32050673558250908 0.1490213804769015 0 -0.33092539158612982 0.1609515407851054 0 -0.3265778886375873 0.17202186172735501 0 -0.3167678101826048 0.16359462978275929 0 -0.32050673558250908 0.1490213804769015 0 -0.30739524272803709 0.15185112365938391 0 -0.31211500736378339 0.1240031522641292 0 -0.3167678101826048 0.16359462978275929 0 -0.32050673558250908 0.1490213804769015 0 -0.30739524272803709 0.15185112365938391 0 -0.32050673558250908 0.1490213804769015 0 -0.30739524272803709 0.15185112365938391 0 -0.32919359534549508 0.13424827028365749 0 -0.31211500736378339 0.1240031522641292 0 -0.33231339904552459 0.1171762944261375 0 -0.32050673558250908 0.1490213804769015 0 -0.32919359534549508 0.13424827028365749 0 -0.31211500736378339 0.1240031522641292 0 -0.34455851703438989 0.13305210298766909 0 -0.32919359534549508 0.13424827028365749 0 -0.33231339904552459 0.1171762944261375 0 -0.34455851703438989 0.13305210298766909 0 -0.32919359534549508 0.13424827028365749 0 -0.33647431770126862 0.14798842126345041 0 -0.32050673558250908 0.1490213804769015 0 -0.32919359534549508 0.13424827028365749 0 -0.33647431770126862 0.14798842126345041 0 -0.33092539158612982 0.1609515407851054 0 -0.32050673558250908 0.1490213804769015 0 -0.33647431770126862 0.14798842126345041 0 -0.34455851703438989 0.13305210298766909 0 -0.34873147585397152 0.15030858297792049 0 -0.33647431770126862 0.14798842126345041 0 -0.35416421148584648 0.23888623464626721 0 -0.34843396418698602 0.22381077072877051 0 -0.33845336435013867 0.242079554605789 0 -0.35416421148584648 0.23888623464626721 0 -0.33845336435013867 0.242079554605789 0 -0.35464358931248319 0.25491115920099722 0 -0.37939186114838758 0.22424627805714001 0 -0.37013679196984273 0.23750613219799629 0 -0.37477717689163992 0.25299635056682518 0 -0.37013679196984273 0.23750613219799629 0 -0.35464358931248319 0.25491115920099722 0 -0.37477717689163992 0.25299635056682518 0 -0.35416421148584648 0.23888623464626721 0 -0.37013679196984273 0.23750613219799629 0 -0.35464358931248319 0.25491115920099722 0 -0.35416421148584648 0.23888623464626721 0 -0.37013679196984273 0.23750613219799629 0 -0.36148561266771267 0.2305011068434443 0 -0.36148561266771267 0.2305011068434443 0 -0.36975441169016687 0.228432664243616 0 -0.36800338097472479 0.22147713987588341 0 -0.37013679196984273 0.23750613219799629 0 -0.36148561266771267 0.2305011068434443 0 -0.36975441169016687 0.228432664243616 0 -0.37939186114838758 0.22424627805714001 0 -0.37013679196984273 0.23750613219799629 0 -0.36975441169016687 0.228432664243616 0 -0.37939186114838758 0.22424627805714001 0 -0.36975441169016687 0.228432664243616 0 -0.36800338097472479 0.22147713987588341 0 -0.36800338097472479 0.22147713987588341 0 -0.34843396418698602 0.22381077072877051 0 -0.35516119282899983 0.21149705330083701 0 -0.36148561266771267 0.2305011068434443 0 -0.36800338097472479 0.22147713987588341 0 -0.34843396418698602 0.22381077072877051 0 -0.36800338097472479 0.22147713987588341 0 -0.34843396418698602 0.22381077072877051 0 -0.35416421148584648 0.23888623464626721 0 -0.36148561266771267 0.2305011068434443 0 -0.34843396418698602 0.22381077072877051 0 -0.34843396418698602 0.22381077072877051 0 -0.34802604401402371 0.21953575615482759 0 -0.33982416592956399 0.21665757569738961 0 -0.34802604401402371 0.21953575615482759 0 -0.34581283434165899 0.20861347152532789 0 -0.33982416592956399 0.21665757569738961 0 -0.34802604401402371 0.21953575615482759 0 -0.34581283434165899 0.20861347152532789 0 -0.35516119282899983 0.21149705330083701 0 -0.34843396418698602 0.22381077072877051 0 -0.34802604401402371 0.21953575615482759 0 -0.35516119282899983 0.21149705330083701 0 -0.34581283434165899 0.20861347152532789 0 -0.35516119282899983 0.21149705330083701 0 -0.35389383475621161 0.20092716755479181 0 -0.34802604401402371 0.21953575615482759 0 -0.35516119282899983 0.21149705330083701 0 -0.34843396418698602 0.22381077072877051 0 -0.35516119282899983 0.21149705330083701 0 -0.36800338097472479 0.22147713987588341 0 -0.35516119282899983 0.21149705330083701 0 -0.37368745339656201 0.20924711939208951 0 -0.35516119282899983 0.21149705330083701 0 -0.37368745339656201 0.20924711939208951 0 -0.36802074197771562 0.19700904511440151 0 -0.35516119282899983 0.21149705330083701 0 -0.36399845157591232 0.19532107462703119 0 -0.35516119282899983 0.21149705330083701 0 -0.36802074197771562 0.19700904511440151 0 -0.37283571032282492 0.1791450959532255 0 -0.36399845157591232 0.19532107462703119 0 -0.36261880381503758 0.18828806813974089 0 -0.37283571032282492 0.1791450959532255 0 -0.36399845157591232 0.19532107462703119 0 -0.36802074197771562 0.19700904511440151 0 -0.35516119282899983 0.21149705330083701 0 -0.36399845157591232 0.19532107462703119 0 -0.36802074197771562 0.19700904511440151 0 -0.38088029112643113 0.1825210369279657 0 -0.36802074197771562 0.19700904511440151 0 -0.36399845157591232 0.19532107462703119 0 -0.36261880381503758 0.18828806813974089 0 -0.35645772166264922 0.19211102842263869 0 -0.35797279878738592 0.18411861580098379 0 -0.36261880381503758 0.18828806813974089 0 -0.35645772166264922 0.19211102842263869 0 -0.35065229879255438 0.18593262723135329 0 -0.35645772166264922 0.19211102842263869 0 -0.34803897337183792 0.19709320989812409 0 -0.35516119282899983 0.21149705330083701 0 -0.36399845157591232 0.19532107462703119 0 -0.35389383475621161 0.20092716755479181 0 -0.35645772166264922 0.19211102842263869 0 -0.35389383475621161 0.20092716755479181 0 -0.34803897337183792 0.19709320989812409 0 -0.36399845157591232 0.19532107462703119 0 -0.35645772166264922 0.19211102842263869 0 -0.35389383475621161 0.20092716755479181 0 -0.34581283434165899 0.20861347152532789 0 -0.35389383475621161 0.20092716755479181 0 -0.34803897337183792 0.19709320989812409 0 -0.34581283434165899 0.20861347152532789 0 -0.34803897337183792 0.19709320989812409 0 -0.33933674095816863 0.19971543786353729 0 -0.35065229879255438 0.18593262723135329 0 -0.34803897337183792 0.19709320989812409 0 -0.33993633525554889 0.19055096072852831 0 -0.33993633525554889 0.19055096072852831 0 -0.33933674095816863 0.19971543786353729 0 -0.33069942903629101 0.19625725860753851 0 -0.34803897337183792 0.19709320989812409 0 -0.33993633525554889 0.19055096072852831 0 -0.33933674095816863 0.19971543786353729 0 -0.33933674095816863 0.19971543786353729 0 -0.33069942903629101 0.19625725860753851 0 -0.33422481296465362 0.2080963853910347 0 -0.33183788287013261 0.1831818366374682 0 -0.33993633525554889 0.19055096072852831 0 -0.33069942903629101 0.19625725860753851 0 -0.31632076704925127 0.18575639557221951 0 -0.33069942903629101 0.19625725860753851 0 -0.32036655352850157 0.2095523693350691 0 -0.33183788287013261 0.1831818366374682 0 -0.31632076704925127 0.18575639557221951 0 -0.33069942903629101 0.19625725860753851 0 -0.32036655352850157 0.2095523693350691 0 -0.32458589997660492 0.2266546254550818 0 -0.30779163400160159 0.21927945841494459 0 -0.32036655352850157 0.2095523693350691 0 -0.32934906837639222 0.21536895119528529 0 -0.32458589997660492 0.2266546254550818 0 -0.32036655352850157 0.2095523693350691 0 -0.32934906837639222 0.21536895119528529 0 -0.33422481296465362 0.2080963853910347 0 -0.32934906837639222 0.21536895119528529 0 -0.33422481296465362 0.2080963853910347 0 -0.33982416592956399 0.21665757569738961 0 -0.33069942903629101 0.19625725860753851 0 -0.32036655352850157 0.2095523693350691 0 -0.33422481296465362 0.2080963853910347 0 -0.34581283434165899 0.20861347152532789 0 -0.33933674095816863 0.19971543786353729 0 -0.33422481296465362 0.2080963853910347 0 -0.34581283434165899 0.20861347152532789 0 -0.33422481296465362 0.2080963853910347 0 -0.33982416592956399 0.21665757569738961 0 -0.34843396418698602 0.22381077072877051 0 -0.33982416592956399 0.21665757569738961 0 -0.32458589997660492 0.2266546254550818 0 -0.34843396418698602 0.22381077072877051 0 -0.32458589997660492 0.2266546254550818 0 -0.34843396418698602 0.22381077072877051 0 -0.32458589997660492 0.2266546254550818 0 -0.33845336435013867 0.242079554605789 0 -0.34843396418698602 0.22381077072877051 0 -0.33845336435013867 0.242079554605789 0 -0.32934906837639222 0.21536895119528529 0 -0.33982416592956399 0.21665757569738961 0 -0.32458589997660492 0.2266546254550818 0 -0.32458589997660492 0.2266546254550818 0 -0.30073783576622393 0.22949848018139329 0 -0.32458589997660492 0.2266546254550818 0 -0.32455092720978362 0.24357057421839101 0 -0.31122576982003303 0.23714335435801151 0 -0.32455092720978362 0.24357057421839101 0 -0.311575650220281 0.24878047680599949 0 -0.31122576982003303 0.23714335435801151 0 -0.32458589997660492 0.2266546254550818 0 -0.32455092720978362 0.24357057421839101 0 -0.33845336435013867 0.242079554605789 0 -0.32455092720978362 0.24357057421839101 0 -0.33845336435013867 0.242079554605789 0 -0.32847276451329022 0.26034833848280681 0 -0.29310990672191722 0.23613872254877591 0 -0.29467853592727078 0.23721261512919359 0 -0.28985028671148488 0.25537141990030859 0 -0.29310990672191722 0.23613872254877591 0 -0.27131573767068418 0.22826101281380451 0 -0.28058301219108422 0.24181621635705669 0 -0.29310990672191722 0.23613872254877591 0 -0.28985028671148488 0.25537141990030859 0 -0.29310990672191722 0.23613872254877591 0 -0.28058301219108422 0.24181621635705669 0 -0.28985028671148488 0.25537141990030859 0 -0.28058301219108422 0.24181621635705669 0 -0.28985028671148488 0.25537141990030859 0 -0.29310990672191722 0.23613872254877591 0 -0.29467853592727078 0.23721261512919359 0 -0.29467853592727078 0.23721261512919359 0 -0.31122576982003303 0.23714335435801151 0 -0.30073783576622393 0.22949848018139329 0 -0.29467853592727078 0.23721261512919359 0 -0.311575650220281 0.24878047680599949 0 -0.31122576982003303 0.23714335435801151 0 -0.29467853592727078 0.23721261512919359 0 -0.311575650220281 0.24878047680599949 0 -0.29467853592727078 0.23721261512919359 0 -0.311575650220281 0.24878047680599949 0 -0.29523766041035199 0.26325150879709891 0 -0.32458589997660492 0.2266546254550818 0 -0.30073783576622393 0.22949848018139329 0 -0.30779163400160159 0.21927945841494459 0 -0.32458589997660492 0.2266546254550818 0 -0.31122576982003303 0.23714335435801151 0 -0.30073783576622393 0.22949848018139329 0 -0.30073783576622393 0.22949848018139329 0 -0.30779163400160159 0.21927945841494459 0 -0.29448167989639912 0.22804486553003031 0 -0.29310990672191722 0.23613872254877591 0 -0.29448167989639912 0.22804486553003031 0 -0.27369133376421262 0.22284465576077489 0 -0.29448167989639912 0.22804486553003031 0 -0.2838712618875629 0.21479465795795599 0 -0.27369133376421262 0.22284465576077489 0 -0.29448167989639912 0.22804486553003031 0 -0.29413635243235581 0.21196267741475219 0 -0.29310990672191722 0.23613872254877591 0 -0.27369133376421262 0.22284465576077489 0 -0.29467853592727078 0.23721261512919359 0 -0.30073783576622393 0.22949848018139329 0 -0.29448167989639912 0.22804486553003031 0 -0.29310990672191722 0.23613872254877591 0 -0.29467853592727078 0.23721261512919359 0 -0.29448167989639912 0.22804486553003031 0 -0.29467853592727078 0.23721261512919359 0 -0.29448167989639912 0.22804486553003031 0 -0.29310990672191722 0.23613872254877591 0 -0.29448167989639912 0.22804486553003031 0 -0.29413635243235581 0.21196267741475219 0 -0.29878620084027852 0.20264695157314819 0 -0.29379102496831272 0.19588048929947419 0 -0.29448167989639912 0.22804486553003031 0 -0.29413635243235581 0.21196267741475219 0 -0.29878620084027852 0.20264695157314819 0 -0.29448167989639912 0.22804486553003031 0 -0.29878620084027852 0.20264695157314819 0 -0.29413635243235581 0.21196267741475219 0 -0.29379102496831272 0.19588048929947419 0 -0.28522308967114912 0.20452327137286261 0 -0.29413635243235581 0.21196267741475219 0 -0.29379102496831272 0.19588048929947419 0 -0.29448167989639912 0.22804486553003031 0 -0.2838712618875629 0.21479465795795599 0 -0.29413635243235581 0.21196267741475219 0 -0.2838712618875629 0.21479465795795599 0 -0.28522308967114912 0.20452327137286261 0 -0.29413635243235581 0.21196267741475219 0 -0.32036655352850157 0.2095523693350691 0 -0.30779163400160159 0.21927945841494459 0 -0.29878620084027852 0.20264695157314819 0 -0.30779163400160159 0.21927945841494459 0 -0.29448167989639912 0.22804486553003031 0 -0.29878620084027852 0.20264695157314819 0 -0.29878620084027852 0.20264695157314819 0 -0.29379102496831272 0.19588048929947419 0 -0.30309072178415769 0.17724903761626601 0 -0.31632076704925127 0.18575639557221951 0 -0.29878620084027852 0.20264695157314819 0 -0.30309072178415769 0.17724903761626601 0 -0.31632076704925127 0.18575639557221951 0 -0.32036655352850157 0.2095523693350691 0 -0.29878620084027852 0.20264695157314819 0 -0.29878620084027852 0.20264695157314819 0 -0.30309072178415769 0.17724903761626601 0 -0.28522308967114912 0.20452327137286261 0 -0.29379102496831272 0.19588048929947419 0 -0.28124953787461371 0.1935735916895788 0 -0.29379102496831272 0.19588048929947419 0 -0.28124953787461371 0.1935735916895788 0 -0.28752446549241689 0.1832489647230989 0 -0.28124953787461371 0.1935735916895788 0 -0.2659766044530758 0.19238405035351089 0 -0.27494974420821611 0.1793112011395637 0 -0.28522308967114912 0.20452327137286261 0 -0.28124953787461371 0.1935735916895788 0 -0.27431068871210279 0.20621206129374381 0 -0.28124953787461371 0.1935735916895788 0 -0.2659766044530758 0.19238405035351089 0 -0.27431068871210279 0.20621206129374381 0 -0.25427276080650663 0.20955058897277601 0 -0.24947341468037071 0.1874691479585941 0 -0.2659766044530758 0.19238405035351089 0 -0.25427276080650663 0.20955058897277601 0 -0.24947341468037071 0.1874691479585941 0 -0.2659766044530758 0.19238405035351089 0 -0.25427276080650663 0.20955058897277601 0 -0.27431068871210279 0.20621206129374381 0 -0.25427276080650663 0.20955058897277601 0 -0.27369133376421262 0.22284465576077489 0 -0.25427276080650663 0.20955058897277601 0 -0.25977281016601761 0.2185578892770178 0 -0.27369133376421262 0.22284465576077489 0 -0.25427276080650663 0.20955058897277601 0 -0.25561524088587501 0.21572724177218369 0 -0.25977281016601761 0.2185578892770178 0 -0.25427276080650663 0.20955058897277601 0 -0.25561524088587501 0.21572724177218369 0 -0.24333230173327219 0.21221501244476959 0 -0.25427276080650663 0.20955058897277601 0 -0.25561524088587501 0.21572724177218369 0 -0.25427276080650663 0.20955058897277601 0 -0.27431068871210279 0.20621206129374381 0 -0.27369133376421262 0.22284465576077489 0 -0.2838712618875629 0.21479465795795599 0 -0.27431068871210279 0.20621206129374381 0 -0.27369133376421262 0.22284465576077489 0 -0.2838712618875629 0.21479465795795599 0 -0.28522308967114912 0.20452327137286261 0 -0.27431068871210279 0.20621206129374381 0 -0.29310990672191722 0.23613872254877591 0 -0.27369133376421262 0.22284465576077489 0 -0.27131573767068418 0.22826101281380451 0 -0.27131573767068418 0.22826101281380451 0 -0.26439065681250729 0.2289784260688752 0 -0.26819560602517328 0.23507842756581021 0 -0.27131573767068418 0.22826101281380451 0 -0.26675876456119929 0.22568570462696191 0 -0.26439065681250729 0.2289784260688752 0 -0.27369133376421262 0.22284465576077489 0 -0.26675876456119929 0.22568570462696191 0 -0.26371349664181459 0.22286429712754721 0 -0.25977281016601761 0.2185578892770178 0 -0.27369133376421262 0.22284465576077489 0 -0.26371349664181459 0.22286429712754721 0 -0.27369133376421262 0.22284465576077489 0 -0.27131573767068418 0.22826101281380451 0 -0.26675876456119929 0.22568570462696191 0 -0.26675876456119929 0.22568570462696191 0 -0.26371349664181459 0.22286429712754721 0 -0.26068259791677789 0.22548013136380779 0 -0.26068259791677789 0.22548013136380779 0 -0.25678634991227811 0.22260498734460241 0 -0.2574101570832959 0.22971939663687391 0 -0.26371349664181459 0.22286429712754721 0 -0.26068259791677789 0.22548013136380779 0 -0.25678634991227811 0.22260498734460241 0 -0.25977281016601761 0.2185578892770178 0 -0.26371349664181459 0.22286429712754721 0 -0.25678634991227811 0.22260498734460241 0 -0.25561524088587501 0.21572724177218369 0 -0.25977281016601761 0.2185578892770178 0 -0.25678634991227811 0.22260498734460241 0 -0.25678634991227811 0.22260498734460241 0 -0.249817319625419 0.2274340479663062 0 -0.24904636230289101 0.22050689045355901 0 -0.25561524088587501 0.21572724177218369 0 -0.25678634991227811 0.22260498734460241 0 -0.24904636230289101 0.22050689045355901 0 -0.25109603964961891 0.234366577265785 0 -0.2574101570832959 0.22971939663687391 0 -0.249817319625419 0.2274340479663062 0 -0.25678634991227811 0.22260498734460241 0 -0.2574101570832959 0.22971939663687391 0 -0.249817319625419 0.2274340479663062 0 -0.2574101570832959 0.22971939663687391 0 -0.26439065681250729 0.2289784260688752 0 -0.26193406046231932 0.2344272911270443 0 -0.26068259791677789 0.22548013136380779 0 -0.2574101570832959 0.22971939663687391 0 -0.26439065681250729 0.2289784260688752 0 -0.26675876456119929 0.22568570462696191 0 -0.26068259791677789 0.22548013136380779 0 -0.26439065681250729 0.2289784260688752 0 -0.26439065681250729 0.2289784260688752 0 -0.26193406046231932 0.2344272911270443 0 -0.26819560602517328 0.23507842756581021 0 -0.26193406046231932 0.2344272911270443 0 -0.26614348890836192 0.24293385421211869 0 -0.26819560602517328 0.23507842756581021 0 -0.2574101570832959 0.22971939663687391 0 -0.26193406046231932 0.2344272911270443 0 -0.25699538715464082 0.23905233796863981 0 -0.26193406046231932 0.2344272911270443 0 -0.25699538715464082 0.23905233796863981 0 -0.26614348890836192 0.24293385421211869 0 -0.25109603964961891 0.234366577265785 0 -0.25699538715464082 0.23905233796863981 0 -0.2470081454867771 0.2422065880623451 0 -0.25109603964961891 0.234366577265785 0 -0.2574101570832959 0.22971939663687391 0 -0.25699538715464082 0.23905233796863981 0 -0.25699538715464082 0.23905233796863981 0 -0.25693865295534157 0.25278860643768353 0 -0.2470081454867771 0.2422065880623451 0 -0.25699538715464082 0.23905233796863981 0 -0.26614348890836192 0.24293385421211869 0 -0.25693865295534157 0.25278860643768353 0 -0.26614348890836192 0.24293385421211869 0 -0.2724296921133022 0.25217156250687062 0 -0.25693865295534157 0.25278860643768353 0 -0.26614348890836192 0.24293385421211869 0 -0.28058301219108422 0.24181621635705669 0 -0.2724296921133022 0.25217156250687062 0 -0.28058301219108422 0.24181621635705669 0 -0.28985028671148488 0.25537141990030859 0 -0.2724296921133022 0.25217156250687062 0 -0.26614348890836192 0.24293385421211869 0 -0.26819560602517328 0.23507842756581021 0 -0.28058301219108422 0.24181621635705669 0 -0.27131573767068418 0.22826101281380451 0 -0.26819560602517328 0.23507842756581021 0 -0.28058301219108422 0.24181621635705669 0 -0.27131573767068418 0.22826101281380451 0 -0.28058301219108422 0.24181621635705669 0 -0.29326612220823411 0.13512644163735801 0 -0.28648818467010168 0.15636331808772699 0 -0.27141175194646833 0.1445184244171912 0 -0.29326612220823411 0.13512644163735801 0 -0.30739524272803709 0.15185112365938391 0 -0.28648818467010168 0.15636331808772699 0 -0.30739524272803709 0.15185112365938391 0 -0.31211500736378339 0.1240031522641292 0 -0.29326612220823411 0.13512644163735801 0 -0.30739524272803709 0.15185112365938391 0 -0.31211500736378339 0.1240031522641292 0 -0.30739524272803709 0.15185112365938391 0 -0.28648818467010168 0.15636331808772699 0 -0.30739524272803709 0.15185112365938391 0 -0.30309072178415769 0.17724903761626601 0 -0.3167678101826048 0.16359462978275929 0 -0.30739524272803709 0.15185112365938391 0 -0.30309072178415769 0.17724903761626601 0 -0.30739524272803709 0.15185112365938391 0 -0.30309072178415769 0.17724903761626601 0 -0.28648818467010168 0.15636331808772699 0 -0.31632076704925127 0.18575639557221951 0 -0.3167678101826048 0.16359462978275929 0 -0.30309072178415769 0.17724903761626601 0 -0.30309072178415769 0.17724903761626601 0 -0.28752446549241689 0.1832489647230989 0 -0.28381669143151822 0.17107272026056419 0 -0.29379102496831272 0.19588048929947419 0 -0.30309072178415769 0.17724903761626601 0 -0.28752446549241689 0.1832489647230989 0 -0.28752446549241689 0.1832489647230989 0 -0.28381669143151822 0.17107272026056419 0 -0.27494974420821611 0.1793112011395637 0 -0.30309072178415769 0.17724903761626601 0 -0.28648818467010168 0.15636331808772699 0 -0.28381669143151822 0.17107272026056419 0 -0.28648818467010168 0.15636331808772699 0 -0.28381669143151822 0.17107272026056419 0 -0.26558112661216632 0.16087551251606999 0 -0.28381669143151822 0.17107272026056419 0 -0.27494974420821611 0.1793112011395637 0 -0.26558112661216632 0.16087551251606999 0 -0.28648818467010168 0.15636331808772699 0 -0.26558112661216632 0.16087551251606999 0 -0.27494974420821611 0.1793112011395637 0 -0.26084394980388648 0.17618123618614701 0 -0.26558112661216632 0.16087551251606999 0 -0.2659766044530758 0.19238405035351089 0 -0.27494974420821611 0.1793112011395637 0 -0.26084394980388648 0.17618123618614701 0 -0.28124953787461371 0.1935735916895788 0 -0.28752446549241689 0.1832489647230989 0 -0.27494974420821611 0.1793112011395637 0 -0.2659766044530758 0.19238405035351089 0 -0.26084394980388648 0.17618123618614701 0 -0.24947341468037071 0.1874691479585941 0 -0.26084394980388648 0.17618123618614701 0 -0.24467406855423091 0.1653877069444131 0 -0.24947341468037071 0.1874691479585941 0 -0.26558112661216632 0.16087551251606999 0 -0.24467406855423091 0.1653877069444131 0 -0.26558112661216632 0.16087551251606999 0 -0.2543915534089356 0.15018751405662761 0 -0.24467406855423091 0.1653877069444131 0 -0.26084394980388648 0.17618123618614701 0 -0.26558112661216632 0.16087551251606999 0 -0.24467406855423091 0.1653877069444131 0 -0.26558112661216632 0.16087551251606999 0 -0.2543915534089356 0.15018751405662761 0 -0.27141175194646833 0.1445184244171912 0 -0.2543915534089356 0.15018751405662761 0 -0.27141175194646833 0.1445184244171912 0 -0.25477231595188199 0.13792181725732239 0 -0.28648818467010168 0.15636331808772699 0 -0.26558112661216632 0.16087551251606999 0 -0.27141175194646833 0.1445184244171912 0 -0.29326612220823411 0.13512644163735801 0 -0.27141175194646833 0.1445184244171912 0 -0.27545980130109921 0.1239996051278405 0 -0.27141175194646833 0.1445184244171912 0 -0.25477231595188199 0.13792181725732239 0 -0.27545980130109921 0.1239996051278405 0 -0.25477231595188199 0.13792181725732239 0 -0.27545980130109921 0.1239996051278405 0 -0.25477231595188199 0.13792181725732239 0 -0.27545980130109921 0.1239996051278405 0 -0.2495823492922267 0.12121763785839371 0 -0.25610310449345419 0.1041046972302731 0 -0.27545980130109921 0.1239996051278405 0 -0.2495823492922267 0.12121763785839371 0 -0.25610310449345419 0.1041046972302731 0 -0.25413031243694739 0.089521027236778197 0 -0.2427234934652894 0.090762762990284518 0 -0.25610310449345419 0.1041046972302731 0 -0.26471001572300679 0.091779207982481292 0 -0.25413031243694739 0.089521027236778197 0 -0.25610310449345419 0.1041046972302731 0 -0.27632390472144541 0.10600366135062909 0 -0.26471001572300679 0.091779207982481292 0 -0.27632390472144541 0.10600366135062909 0 -0.27815219556391091 0.091433986845849968 0 -0.26471001572300679 0.091779207982481292 0 -0.27632390472144541 0.10600366135062909 0 -0.28783094919658059 0.096999283795453681 0 -0.27815219556391091 0.091433986845849968 0 -0.25610310449345419 0.1041046972302731 0 -0.27632390472144541 0.10600366135062909 0 -0.27545980130109921 0.1239996051278405 0 -0.27545980130109921 0.1239996051278405 0 -0.29614728665031642 0.1100773929983587 0 -0.29326612220823411 0.13512644163735801 0 -0.27545980130109921 0.1239996051278405 0 -0.29614728665031642 0.1100773929983587 0 -0.27632390472144541 0.10600366135062909 0 -0.27545980130109921 0.1239996051278405 0 -0.29614728665031642 0.1100773929983587 0 -0.27632390472144541 0.10600366135062909 0 -0.29614728665031642 0.1100773929983587 0 -0.28783094919658059 0.096999283795453681 0 -0.29614728665031642 0.1100773929983587 0 -0.28783094919658059 0.096999283795453681 0 -0.29903425758953422 0.090155638130954882 0 -0.29614728665031642 0.1100773929983587 0 -0.29903425758953422 0.090155638130954882 0 -0.31683477199953253 0.096155180868875256 0 -0.29614728665031642 0.1100773929983587 0 -0.31683477199953253 0.096155180868875256 0 -0.29614728665031642 0.1100773929983587 0 -0.31211500736378339 0.1240031522641292 0 -0.31683477199953253 0.096155180868875256 0 -0.29326612220823411 0.13512644163735801 0 -0.29614728665031642 0.1100773929983587 0 -0.31211500736378339 0.1240031522641292 0 -0.30635830999651792 0.07761242167179265 0 -0.30189037325813839 0.060543452134012458 0 -0.32146679815367007 0.068824891797761426 0 -0.30635830999651792 0.07761242167179265 0 -0.29256534898171721 0.072382945427359638 0 -0.30189037325813839 0.060543452134012458 0 -0.30635830999651792 0.07761242167179265 0 -0.29903425758953422 0.090155638130954882 0 -0.29256534898171721 0.072382945427359638 0 -0.30635830999651792 0.07761242167179265 0 -0.29903425758953422 0.090155638130954882 0 -0.31683477199953253 0.096155180868875256 0 -0.29903425758953422 0.090155638130954882 0 -0.28572263353681682 0.08337299634339973 0 -0.29256534898171721 0.072382945427359638 0 -0.28783094919658059 0.096999283795453681 0 -0.29903425758953422 0.090155638130954882 0 -0.28572263353681682 0.08337299634339973 0 -0.28783094919658059 0.096999283795453681 0 -0.28572263353681682 0.08337299634339973 0 -0.27815219556391091 0.091433986845849968 0 -0.28572263353681682 0.08337299634339973 0 -0.29256534898171721 0.072382945427359638 0 -0.28059357561043269 0.073644623599786935 0 -0.29256534898171721 0.072382945427359638 0 -0.29088471103165969 0.062671374321780771 0 -0.30189037325813839 0.060543452134012458 0 -0.29256534898171721 0.072382945427359638 0 -0.29088471103165969 0.062671374321780771 0 -0.28261649390190829 0.064291953838756216 0 -0.29256534898171721 0.072382945427359638 0 -0.28261649390190829 0.064291953838756216 0 -0.28059357561043269 0.073644623599786935 0 -0.28261649390190829 0.064291953838756216 0 -0.27678196032587499 0.069585006034529676 0 -0.27195195811963518 0.06635492754641531 0 -0.26855373331756138 0.063547936276670339 0 -0.27195195811963518 0.06635492754641531 0 -0.25743728825439521 0.07924270920583569 0 -0.28261649390190829 0.064291953838756216 0 -0.27678196032587499 0.069585006034529676 0 -0.28059357561043269 0.073644623599786935 0 -0.27678196032587499 0.069585006034529676 0 -0.27196581367152378 0.074048519153160283 0 -0.27195195811963518 0.06635492754641531 0 -0.27678196032587499 0.069585006034529676 0 -0.28059357561043269 0.073644623599786935 0 -0.27196581367152378 0.074048519153160283 0 -0.28059357561043269 0.073644623599786935 0 -0.27196581367152378 0.074048519153160283 0 -0.27303575277029413 0.081855029780232597 0 -0.27196581367152378 0.074048519153160283 0 -0.27195195811963518 0.06635492754641531 0 -0.25743728825439521 0.07924270920583569 0 -0.28572263353681682 0.08337299634339973 0 -0.27815219556391091 0.091433986845849968 0 -0.27303575277029413 0.081855029780232597 0 -0.28572263353681682 0.08337299634339973 0 -0.28059357561043269 0.073644623599786935 0 -0.27303575277029413 0.081855029780232597 0 -0.27196581367152378 0.074048519153160283 0 -0.27303575277029413 0.081855029780232597 0 -0.25743728825439521 0.07924270920583569 0 -0.27815219556391091 0.091433986845849968 0 -0.27303575277029413 0.081855029780232597 0 -0.26471001572300679 0.091779207982481292 0 -0.26471001572300679 0.091779207982481292 0 -0.25743728825439521 0.07924270920583569 0 -0.25413031243694739 0.089521027236778197 0 -0.27303575277029413 0.081855029780232597 0 -0.26471001572300679 0.091779207982481292 0 -0.25743728825439521 0.07924270920583569 0 -0.25743728825439521 0.07924270920583569 0 -0.25064083865024739 0.073628726666345984 0 -0.24857020570659841 0.081659589420377987 0 -0.25743728825439521 0.07924270920583569 0 -0.25413031243694739 0.089521027236778197 0 -0.24857020570659841 0.081659589420377987 0 -0.26855373331756138 0.063547936276670339 0 -0.25743728825439521 0.07924270920583569 0 -0.25064083865024739 0.073628726666345984 0 -0.26855373331756138 0.063547936276670339 0 -0.25064083865024739 0.073628726666345984 0 -0.2562734301216873 0.062061687155910393 0 -0.26855373331756138 0.063547936276670339 0 -0.25064083865024739 0.073628726666345984 0 -0.27195195811963518 0.06635492754641531 0 -0.25743728825439521 0.07924270920583569 0 -0.25064083865024739 0.073628726666345984 0 -0.2562734301216873 0.062061687155910393 0 -0.24829977196364941 0.065213336215906109 0 -0.2623477931936597 0.053657636987073307 0 -0.25116276906762952 0.054241108780248931 0 -0.26153642505613889 0.036367366133998442 0 -0.2562734301216873 0.062061687155910393 0 -0.2623477931936597 0.053657636987073307 0 -0.25116276906762952 0.054241108780248931 0 -0.2562734301216873 0.062061687155910393 0 -0.25116276906762952 0.054241108780248931 0 -0.24829977196364941 0.065213336215906109 0 -0.26855373331756138 0.063547936276670339 0 -0.2562734301216873 0.062061687155910393 0 -0.2623477931936597 0.053657636987073307 0 -0.25116276906762952 0.054241108780248931 0 -0.26153642505613889 0.036367366133998442 0 -0.239388393447095 0.04766651035075449 0 -0.2623477931936597 0.053657636987073307 0 -0.26153642505613889 0.036367366133998442 0 -0.27323710809808138 0.049716314049096537 0 -0.26153642505613889 0.036367366133998442 0 -0.28732673365434691 0.040933413293477772 0 -0.26153642505613889 0.036367366133998442 0 -0.2825074511423824 0.030310297232740709 0 -0.28732673365434691 0.040933413293477772 0 -0.26153642505613889 0.036367366133998442 0 -0.27323710809808138 0.049716314049096537 0 -0.28732673365434691 0.040933413293477772 0 -0.26855373331756138 0.063547936276670339 0 -0.27195195811963518 0.06635492754641531 0 -0.28646662798487532 0.053467145886994819 0 -0.26855373331756138 0.063547936276670339 0 -0.28646662798487532 0.053467145886994819 0 -0.26855373331756138 0.063547936276670339 0 -0.27323710809808138 0.049716314049096537 0 -0.28646662798487532 0.053467145886994819 0 -0.27195195811963518 0.06635492754641531 0 -0.28646662798487532 0.053467145886994819 0 -0.28261649390190829 0.064291953838756216 0 -0.27195195811963518 0.06635492754641531 0 -0.28646662798487532 0.053467145886994819 0 -0.26855373331756138 0.063547936276670339 0 -0.2623477931936597 0.053657636987073307 0 -0.27323710809808138 0.049716314049096537 0 -0.26176261374782622 0.0098260211376069873 0 -0.24854849079604721 0.020569936005881421 0 -0.24598119983726671 0.0037338506766126851 0 -0.26003022337954462 -0.0038093911555793728 0 -0.26176261374782622 0.0098260211376069873 0 -0.24598119983726671 0.0037338506766126851 0 -0.26003022337954462 -0.0038093911555793728 0 -0.27433688946420332 -0.0007833753365484626 0 -0.26176261374782622 0.0098260211376069873 0 -0.26153642505613889 0.036367366133998442 0 -0.26176261374782622 0.0098260211376069873 0 -0.24854849079604721 0.020569936005881421 0 -0.26153642505613889 0.036367366133998442 0 -0.26176261374782622 0.0098260211376069873 0 -0.27684491432135683 0.017453585025194441 0 -0.26153642505613889 0.036367366133998442 0 -0.27684491432135683 0.017453585025194441 0 -0.2825074511423824 0.030310297232740709 0 -0.27433688946420332 -0.0007833753365484626 0 -0.26176261374782622 0.0098260211376069873 0 -0.27684491432135683 0.017453585025194441 0 -0.27433688946420332 -0.0007833753365484626 0 -0.27684491432135683 0.017453585025194441 0 -0.28842838408131971 0.0076205693905790281 0 -0.28842838408131971 0.0076205693905790281 0 -0.29131927560690712 0.022062190579302341 0 -0.29989828236451899 0.011495108916467369 0 -0.27684491432135683 0.017453585025194441 0 -0.29131927560690712 0.022062190579302341 0 -0.2825074511423824 0.030310297232740709 0 -0.27684491432135683 0.017453585025194441 0 -0.28842838408131971 0.0076205693905790281 0 -0.29131927560690712 0.022062190579302341 0 -0.29131927560690712 0.022062190579302341 0 -0.2825074511423824 0.030310297232740709 0 -0.29550990707316249 0.034734931131730561 0 -0.29131927560690712 0.022062190579302341 0 -0.30587597075389272 0.02137954460474218 0 -0.29550990707316249 0.034734931131730561 0 -0.30587597075389272 0.02137954460474218 0 -0.29550990707316249 0.034734931131730561 0 -0.30859873922341308 0.03381572977126493 0 -0.29131927560690712 0.022062190579302341 0 -0.30587597075389272 0.02137954460474218 0 -0.29989828236451899 0.011495108916467369 0 -0.3025805037907468 -0.0027432771802810229 0 -0.3204068892458079 -0.0014125807301150939 0 -0.31128727758972891 0.0091565171879943417 0 -0.30587597075389272 0.02137954460474218 0 -0.29989828236451899 0.011495108916467369 0 -0.31128727758972891 0.0091565171879943417 0 -0.3025805037907468 -0.0027432771802810229 0 -0.29989828236451899 0.011495108916467369 0 -0.31128727758972891 0.0091565171879943417 0 -0.3025805037907468 -0.0027432771802810229 0 -0.28842838408131971 0.0076205693905790281 0 -0.29989828236451899 0.011495108916467369 0 -0.28646662798487532 0.053467145886994819 0 -0.304010183261538 0.043594207608826187 0 -0.29088471103165969 0.062671374321780771 0 -0.28646662798487532 0.053467145886994819 0 -0.30189037325813839 0.060543452134012458 0 -0.29088471103165969 0.062671374321780771 0 -0.28261649390190829 0.064291953838756216 0 -0.28646662798487532 0.053467145886994819 0 -0.27323710809808138 0.049716314049096537 0 -0.28646662798487532 0.053467145886994819 0 -0.28732673365434691 0.040933413293477772 0 -0.28646662798487532 0.053467145886994819 0 -0.29550990707316249 0.034734931131730561 0 -0.30859873922341308 0.03381572977126493 0 -0.28646662798487532 0.053467145886994819 0 -0.28732673365434691 0.040933413293477772 0 -0.29550990707316249 0.034734931131730561 0 -0.2825074511423824 0.030310297232740709 0 -0.28732673365434691 0.040933413293477772 0 -0.29550990707316249 0.034734931131730561 0 -0.28646662798487532 0.053467145886994819 0 -0.30859873922341308 0.03381572977126493 0 -0.28646662798487532 0.053467145886994819 0 -0.304010183261538 0.043594207608826187 0 -0.30859873922341308 0.03381572977126493 0 -0.304010183261538 0.043594207608826187 0 -0.30859873922341308 0.03381572977126493 0 -0.32155373853820057 0.033721269330657687 0 -0.304010183261538 0.043594207608826187 0 -0.3137915997446068 0.051476736654279882 0 -0.31549181974187701 0.042926529004151233 0 -0.28646662798487532 0.053467145886994819 0 -0.304010183261538 0.043594207608826187 0 -0.30189037325813839 0.060543452134012458 0 -0.30189037325813839 0.060543452134012458 0 -0.3137915997446068 0.051476736654279882 0 -0.32146679815367007 0.068824891797761426 0 -0.304010183261538 0.043594207608826187 0 -0.30189037325813839 0.060543452134012458 0 -0.3137915997446068 0.051476736654279882 0 -0.3137915997446068 0.051476736654279882 0 -0.32609882430781029 0.041494602726648067 0 -0.32146679815367007 0.068824891797761426 0 -0.32609882430781029 0.041494602726648067 0 -0.32146679815367007 0.068824891797761426 0 -0.3137915997446068 0.051476736654279882 0 -0.31549181974187701 0.042926529004151233 0 -0.32609882430781029 0.041494602726648067 0 -0.304010183261538 0.043594207608826187 0 -0.31549181974187701 0.042926529004151233 0 -0.32155373853820057 0.033721269330657687 0 -0.304010183261538 0.043594207608826187 0 -0.32155373853820057 0.033721269330657687 0 -0.31549181974187701 0.042926529004151233 0 -0.32155373853820057 0.033721269330657687 0 -0.32609882430781029 0.041494602726648067 0 -0.32609882430781029 0.041494602726648067 0 -0.34385517732675519 0.031131612817745031 0 -0.35163198926140088 0.046228739452983239 0 -0.32609882430781029 0.041494602726648067 0 -0.338272543408071 0.060603673933957783 0 -0.32146679815367007 0.068824891797761426 0 -0.32609882430781029 0.041494602726648067 0 -0.338272543408071 0.060603673933957783 0 -0.35163198926140088 0.046228739452983239 0 -0.3204068892458079 -0.0014125807301150939 0 -0.31128727758972891 0.0091565171879943417 0 -0.33073085046195078 0.01416431365553468 0 -0.30587597075389272 0.02137954460474218 0 -0.31128727758972891 0.0091565171879943417 0 -0.33073085046195078 0.01416431365553468 0 -0.30859873922341308 0.03381572977126493 0 -0.33073085046195078 0.01416431365553468 0 -0.30587597075389272 0.02137954460474218 0 -0.30859873922341308 0.03381572977126493 0 -0.33073085046195078 0.01416431365553468 0 -0.32155373853820057 0.033721269330657687 0 -0.32609882430781029 0.041494602726648067 0 -0.33073085046195078 0.01416431365553468 0 -0.30859873922341308 0.03381572977126493 0 -0.32155373853820057 0.033721269330657687 0 -0.33073085046195078 0.01416431365553468 0 -0.32609882430781029 0.041494602726648067 0 -0.33073085046195078 0.01416431365553468 0 -0.33073085046195078 0.01416431365553468 0 -0.34385517732675519 0.031131612817745031 0 -0.35381837275022032 0.01853105722209741 0 -0.32609882430781029 0.041494602726648067 0 -0.33073085046195078 0.01416431365553468 0 -0.34385517732675519 0.031131612817745031 0 -0.33540629353460438 -0.01342214774580049 0 -0.33073085046195078 0.01416431365553468 0 -0.35221409618436439 -0.0049109655465913588 0 -0.33073085046195078 0.01416431365553468 0 -0.35221409618436439 -0.0049109655465913588 0 -0.34857824671955512 -0.007874197240844389 0 -0.33073085046195078 0.01416431365553468 0 -0.35221409618436439 -0.0049109655465913588 0 -0.33073085046195078 0.01416431365553468 0 -0.34939877662876639 0.0070576099193848619 0 -0.33073085046195078 0.01416431365553468 0 -0.34939877662876639 0.0070576099193848619 0 -0.35381837275022032 0.01853105722209741 0 -0.35900139338342918 0.0020097317905480609 0 -0.34939877662876639 0.0070576099193848619 0 -0.35834074471334648 0.0096788928264882005 0 -0.35509488683577939 -0.0004162838960613095 0 -0.35900139338342918 0.0020097317905480609 0 -0.34939877662876639 0.0070576099193848619 0 -0.35509488683577939 -0.0004162838960613095 0 -0.35221409618436439 -0.0049109655465913588 0 -0.34939877662876639 0.0070576099193848619 0 -0.34939877662876639 0.0070576099193848619 0 -0.35834074471334648 0.0096788928264882005 0 -0.35381837275022032 0.01853105722209741 0 -0.34385517732675519 0.031131612817745031 0 -0.35381837275022032 0.01853105722209741 0 -0.36551724687399623 0.028318485711261141 0 -0.37937813184432773 0.031366277704107569 0 -0.36551724687399623 0.028318485711261141 0 -0.37479293228070759 0.022502646493578662 0 -0.36551724687399623 0.028318485711261141 0 -0.37479293228070759 0.022502646493578662 0 -0.36730783543836809 0.01519693074799966 0 -0.3778438638662554 0.014761087644765769 0 -0.37479293228070759 0.022502646493578662 0 -0.36730783543836809 0.01519693074799966 0 -0.35381837275022032 0.01853105722209741 0 -0.36551724687399623 0.028318485711261141 0 -0.36730783543836809 0.01519693074799966 0 -0.35834074471334648 0.0096788928264882005 0 -0.36730783543836809 0.01519693074799966 0 -0.36603012090457948 0.0050917054244422654 0 -0.35834074471334648 0.0096788928264882005 0 -0.35381837275022032 0.01853105722209741 0 -0.36730783543836809 0.01519693074799966 0 -0.36730783543836809 0.01519693074799966 0 -0.37464316483836829 0.0066416053135349984 0 -0.36603012090457948 0.0050917054244422654 0 -0.3778438638662554 0.014761087644765769 0 -0.36730783543836809 0.01519693074799966 0 -0.37464316483836829 0.0066416053135349984 0 -0.37126952376897032 -0.00085078512189483576 0 -0.37774077980655368 -0.001289555558904682 0 -0.37464316483836829 0.0066416053135349984 0 -0.37126952376897032 -0.00085078512189483576 0 -0.37464316483836829 0.0066416053135349984 0 -0.36603012090457948 0.0050917054244422654 0 -0.37126952376897032 -0.00085078512189483576 0 -0.36494834593608783 -0.001298186014321303 0 -0.36603012090457948 0.0050917054244422654 0 -0.36494834593608783 -0.001298186014321303 0 -0.35900139338342918 0.0020097317905480609 0 -0.36603012090457948 0.0050917054244422654 0 -0.35900139338342918 0.0020097317905480609 0 -0.35834074471334648 0.0096788928264882005 0 -0.36603012090457948 0.0050917054244422654 0 -0.35163198926140088 0.046228739452983239 0 -0.36891219827968119 0.060077996683558232 0 -0.35298131256760962 0.063034912088641357 0 -0.338272543408071 0.060603673933957783 0 -0.35163198926140088 0.046228739452983239 0 -0.35298131256760962 0.063034912088641357 0 -0.34385517732675519 0.031131612817745031 0 -0.36551724687399623 0.028318485711261141 0 -0.35163198926140088 0.046228739452983239 0 -0.36551724687399623 0.028318485711261141 0 -0.35163198926140088 0.046228739452983239 0 -0.37261014177358448 0.043145835856899219 0 -0.37937813184432773 0.031366277704107569 0 -0.36551724687399623 0.028318485711261141 0 -0.37261014177358448 0.043145835856899219 0 -0.35163198926140088 0.046228739452983239 0 -0.37261014177358448 0.043145835856899219 0 -0.36891219827968119 0.060077996683558232 0 -0.38207463336695202 0.051047668856640811 0 -0.37261014177358448 0.043145835856899219 0 -0.36891219827968119 0.060077996683558232 0 -0.37929074908003868 0.077603726490867345 0 -0.35694138538550352 0.073855345321458488 0 -0.37929074908003868 0.077603726490867345 0 -0.36891219827968119 0.060077996683558232 0 -0.35694138538550352 0.073855345321458488 0 -0.36891219827968119 0.060077996683558232 0 -0.35298131256760962 0.063034912088641357 0 -0.35694138538550352 0.073855345321458488 0 -0.35298131256760962 0.063034912088641357 0 -0.35694138538550352 0.073855345321458488 0 -0.34914844650339177 0.074408805051249083 0 -0.35694138538550352 0.073855345321458488 0 -0.34914844650339177 0.074408805051249083 0 -0.35387282561504041 0.085789381247760657 0 -0.338272543408071 0.060603673933957783 0 -0.35298131256760962 0.063034912088641357 0 -0.34914844650339177 0.074408805051249083 0 -0.34914844650339177 0.074408805051249083 0 -0.35387282561504041 0.085789381247760657 0 -0.33299160925146271 0.085281992960062933 0 -0.35694138538550352 0.073855345321458488 0 -0.35387282561504041 0.085789381247760657 0 -0.36438159895332511 0.085691586513687634 0 -0.35387282561504041 0.085789381247760657 0 -0.36438159895332511 0.085691586513687634 0 -0.35579278546844412 0.098564625017930646 0 -0.37929074908003868 0.077603726490867345 0 -0.35694138538550352 0.073855345321458488 0 -0.36438159895332511 0.085691586513687634 0 -0.37929074908003868 0.077603726490867345 0 -0.36438159895332511 0.085691586513687634 0 -0.37090825683648998 0.098456277756480637 0 -0.37090825683648998 0.098456277756480637 0 -0.36904533532088801 0.1177582563576956 0 -0.35579278546844412 0.098564625017930646 0 -0.36438159895332511 0.085691586513687634 0 -0.37090825683648998 0.098456277756480637 0 -0.35579278546844412 0.098564625017930646 0 -0.35823941519022368 0.13573745574644491 0 -0.36904533532088801 0.1177582563576956 0 -0.35158166360451942 0.11704707172714621 0 -0.36904533532088801 0.1177582563576956 0 -0.35158166360451942 0.11704707172714621 0 -0.35579278546844412 0.098564625017930646 0 -0.35158166360451942 0.11704707172714621 0 -0.35579278546844412 0.098564625017930646 0 -0.34047962299512569 0.099373871294989508 0 -0.35387282561504041 0.085789381247760657 0 -0.35579278546844412 0.098564625017930646 0 -0.34047962299512569 0.099373871294989508 0 -0.34047962299512569 0.099373871294989508 0 -0.33231339904552459 0.1171762944261375 0 -0.31683477199953253 0.096155180868875256 0 -0.34455851703438989 0.13305210298766909 0 -0.35158166360451942 0.11704707172714621 0 -0.33231339904552459 0.1171762944261375 0 -0.35158166360451942 0.11704707172714621 0 -0.34047962299512569 0.099373871294989508 0 -0.33231339904552459 0.1171762944261375 0 -0.31211500736378339 0.1240031522641292 0 -0.31683477199953253 0.096155180868875256 0 -0.31211500736378339 0.1240031522641292 0 -0.33231339904552459 0.1171762944261375 0 -0.31683477199953253 0.096155180868875256 0 -0.30635830999651792 0.07761242167179265 0 -0.31683477199953253 0.096155180868875256 0 -0.32146679815367007 0.068824891797761426 0 -0.31683477199953253 0.096155180868875256 0 -0.32146679815367007 0.068824891797761426 0 -0.33299160925146271 0.085281992960062933 0 -0.31683477199953253 0.096155180868875256 0 -0.32146679815367007 0.068824891797761426 0 -0.31683477199953253 0.096155180868875256 0 -0.33299160925146271 0.085281992960062933 0 -0.338272543408071 0.060603673933957783 0 -0.32146679815367007 0.068824891797761426 0 -0.33576809196089219 0.072507027900731907 0 -0.32146679815367007 0.068824891797761426 0 -0.33576809196089219 0.072507027900731907 0 -0.33299160925146271 0.085281992960062933 0 -0.34914844650339177 0.074408805051249083 0 -0.33576809196089219 0.072507027900731907 0 -0.33299160925146271 0.085281992960062933 0 -0.338272543408071 0.060603673933957783 0 -0.34914844650339177 0.074408805051249083 0 -0.33576809196089219 0.072507027900731907 0 -0.35387282561504041 0.085789381247760657 0 -0.34047962299512569 0.099373871294989508 0 -0.33299160925146271 0.085281992960062933 0 -0.34914844650339177 0.074408805051249083 0 -0.33299160925146271 0.085281992960062933 0 -0.34047962299512569 0.099373871294989508 0 -0.31683477199953253 0.096155180868875256 0 -0.33299160925146271 0.085281992960062933 0 -0.3938434845513461 0.48000301234504228 0 -0.4154786193197833 0.47000451851756458 0 -0.40908183102320411 0.4845696213484928 0 -0.3938434845513461 0.48000301234504228 0 -0.40110135887996978 0.47332954189399812 0 -0.4154786193197833 0.47000451851756458 0 -0.3938434845513461 0.48000301234504228 0 -0.4154786193197833 0.47000451851756458 0 -0.3938434845513461 0.48000301234504228 0 -0.40110135887996978 0.47332954189399812 0 -0.38930270813857232 0.46778113184491188 0 -0.3938434845513461 0.48000301234504228 0 -0.39546946259238258 0.49128185561313598 0 -0.40908183102320411 0.4845696213484928 0 -0.40521342881326272 0.5 0 -0.39546946259238258 0.49128185561313598 0 -0.37789332191386737 0.5 0 -0.40521342881326272 0.5 0 -0.39546946259238258 0.49128185561313598 0 -0.40908183102320411 0.4845696213484928 0 -0.3938434845513461 0.48000301234504228 0 -0.39546946259238258 0.49128185561313598 0 -0.38517353549973538 0.49039659604947999 0 -0.3938434845513461 0.48000301234504228 0 -0.37220834978290879 0.49000150617251997 0 -0.39546946259238258 0.49128185561313598 0 -0.38517353549973538 0.49039659604947999 0 -0.37789332191386737 0.5 0 -0.3938434845513461 0.48000301234504228 0 -0.38517353549973538 0.49039659604947999 0 -0.37220834978290879 0.49000150617251997 0 -0.38517353549973538 0.49039659604947999 0 -0.37789332191386737 0.5 0 -0.37220834978290879 0.49000150617251997 0 -0.3938434845513461 0.48000301234504228 0 -0.37805640255927542 0.47903421333972468 0 -0.3842367001720054 0.47454362448235632 0 -0.3938434845513461 0.48000301234504228 0 -0.37805640255927542 0.47903421333972468 0 -0.37220834978290879 0.49000150617251997 0 -0.3842367001720054 0.47454362448235632 0 -0.37701653082709469 0.46900635458093531 0 -0.38930270813857232 0.46778113184491188 0 -0.3938434845513461 0.48000301234504228 0 -0.3842367001720054 0.47454362448235632 0 -0.38930270813857232 0.46778113184491188 0 -0.37805640255927542 0.47903421333972468 0 -0.3842367001720054 0.47454362448235632 0 -0.37701653082709469 0.46900635458093531 0 -0.37701653082709469 0.46900635458093531 0 -0.38677844954541418 0.45747132953460651 0 -0.37376195539900242 0.45249759326054367 0 -0.37701653082709469 0.46900635458093531 0 -0.38677844954541418 0.45747132953460651 0 -0.38930270813857232 0.46778113184491188 0 -0.38473584783684761 0.44354080077547992 0 -0.36778315087773072 0.43214877602771662 0 -0.37376195539900242 0.45249759326054367 0 -0.38677844954541418 0.45747132953460651 0 -0.38473584783684761 0.44354080077547992 0 -0.37376195539900242 0.45249759326054367 0 -0.38677844954541418 0.45747132953460651 0 -0.38473584783684761 0.44354080077547992 0 -0.39843898125590987 0.45231631840454728 0 -0.39843898125590987 0.45231631840454728 0 -0.4072920944712265 0.44499890251068641 0 -0.39856520721893041 0.43647578570475237 0 -0.38473584783684761 0.44354080077547992 0 -0.39843898125590987 0.45231631840454728 0 -0.39856520721893041 0.43647578570475237 0 -0.39843898125590987 0.45231631840454728 0 -0.39841490533913748 0.46178879282826651 0 -0.41709791082295028 0.45456801136960878 0 -0.40110135887996978 0.47332954189399812 0 -0.39841490533913748 0.46178879282826651 0 -0.41709791082295028 0.45456801136960878 0 -0.38677844954541418 0.45747132953460651 0 -0.38930270813857232 0.46778113184491188 0 -0.39841490533913748 0.46178879282826651 0 -0.40110135887996978 0.47332954189399812 0 -0.38930270813857232 0.46778113184491188 0 -0.39841490533913748 0.46178879282826651 0 -0.38677844954541418 0.45747132953460651 0 -0.39843898125590987 0.45231631840454728 0 -0.39841490533913748 0.46178879282826651 0 -0.40110135887996978 0.47332954189399812 0 -0.41709791082295028 0.45456801136960878 0 -0.4154786193197833 0.47000451851756458 0 -0.40110135887996978 0.47332954189399812 0 -0.41709791082295028 0.45456801136960878 0 -0.41709791082295028 0.45456801136960878 0 -0.42692569345801529 0.46340213249295897 0 -0.4154786193197833 0.47000451851756458 0 -0.41709791082295028 0.45456801136960878 0 -0.43309446276593089 0.43580648084521972 0 -0.41506627858711548 0.4366354945638371 0 -0.39843898125590987 0.45231631840454728 0 -0.41709791082295028 0.45456801136960878 0 -0.4072920944712265 0.44499890251068641 0 -0.4072920944712265 0.44499890251068641 0 -0.41506627858711548 0.4366354945638371 0 -0.39856520721893041 0.43647578570475237 0 -0.41709791082295028 0.45456801136960878 0 -0.4072920944712265 0.44499890251068641 0 -0.41506627858711548 0.4366354945638371 0 -0.41709791082295028 0.45456801136960878 0 -0.43251943231727258 0.45189802077753072 0 -0.43309446276593089 0.43580648084521972 0 -0.41709791082295028 0.45456801136960878 0 -0.43309446276593089 0.43580648084521972 0 -0.43251943231727258 0.45189802077753072 0 -0.44285055445462801 0.44408738363144917 0 -0.43309446276593089 0.43580648084521972 0 -0.43251943231727258 0.45189802077753072 0 -0.42692569345801529 0.46340213249295897 0 -0.44262854008483871 0.46162609554841733 0 -0.42692569345801529 0.46340213249295897 0 -0.43014133963940671 0.47900644757454591 0 -0.44262854008483871 0.46162609554841733 0 -0.41709791082295028 0.45456801136960878 0 -0.43251943231727258 0.45189802077753072 0 -0.42692569345801529 0.46340213249295897 0 -0.42692569345801529 0.46340213249295897 0 -0.43014133963940671 0.47900644757454591 0 -0.4154786193197833 0.47000451851756458 0 -0.43014133963940671 0.47900644757454591 0 -0.4154786193197833 0.47000451851756458 0 -0.40908183102320411 0.4845696213484928 0 -0.40521342881326272 0.5 0 -0.40908183102320411 0.4845696213484928 0 -0.43253353571265801 0.5 0 -0.43014133963940671 0.47900644757454591 0 -0.40908183102320411 0.4845696213484928 0 -0.43253353571265801 0.5 0 -0.43014133963940671 0.47900644757454591 0 -0.43253353571265801 0.5 0 -0.44984012809851409 0.48033494727474779 0 -0.43253353571265801 0.5 0 -0.44984012809851409 0.48033494727474779 0 -0.45985364261205308 0.50000000000000111 0 -0.43014133963940671 0.47900644757454591 0 -0.44984012809851409 0.48033494727474779 0 -0.44262854008483871 0.46162609554841733 0 -0.44984012809851409 0.48033494727474779 0 -0.47312811744354261 0.47395110078869013 0 -0.45820768181792781 0.46325373185340701 0 -0.45985364261205308 0.50000000000000111 0 -0.47312811744354261 0.47395110078869013 0 -0.44984012809851409 0.48033494727474779 0 -0.45985364261205308 0.50000000000000111 0 -0.47312811744354261 0.47395110078869013 0 -0.5 0.5 0 -0.47312811744354261 0.47395110078869013 0 -0.49999999999999972 0.44664233614409321 0 -0.45985364261205308 0.50000000000000111 0 -0.5 0.5 0 -0.47312811744354261 0.47395110078869013 0 -0.48640259227503152 0.44790220157737892 0 -0.49999999999999972 0.44664233614409321 0 -0.47883616718389621 0.43347798499105172 0 -0.49999999999999972 0.44664233614409321 0 -0.47883616718389621 0.43347798499105172 0 -0.47312811744354261 0.47395110078869013 0 -0.48640259227503152 0.44790220157737892 0 -0.49999999999999972 0.44664233614409321 0 -0.47312811744354261 0.47395110078869013 0 -0.48640259227503152 0.44790220157737892 0 -0.47312811744354261 0.47395110078869013 0 -0.48640259227503152 0.44790220157737892 0 -0.46932328621444303 0.45009797021529852 0 -0.46932328621444303 0.45009797021529852 0 -0.46288197751253979 0.435741310408158 0 -0.47883616718389621 0.43347798499105172 0 -0.48640259227503152 0.44790220157737892 0 -0.46932328621444303 0.45009797021529852 0 -0.47883616718389621 0.43347798499105172 0 -0.46932328621444303 0.45009797021529852 0 -0.45653044061400749 0.44574373859450739 0 -0.46288197751253979 0.435741310408158 0 -0.46932328621444303 0.45009797021529852 0 -0.45653044061400749 0.44574373859450739 0 -0.45820768181792781 0.46325373185340701 0 -0.45653044061400749 0.44574373859450739 0 -0.44988321330808601 0.43264183945635343 0 -0.46288197751253979 0.435741310408158 0 -0.47312811744354261 0.47395110078869013 0 -0.46932328621444303 0.45009797021529852 0 -0.45820768181792781 0.46325373185340701 0 -0.45653044061400749 0.44574373859450739 0 -0.45820768181792781 0.46325373185340701 0 -0.44262854008483871 0.46162609554841733 0 -0.44984012809851409 0.48033494727474779 0 -0.45820768181792781 0.46325373185340701 0 -0.44262854008483871 0.46162609554841733 0 -0.43251943231727258 0.45189802077753072 0 -0.44262854008483871 0.46162609554841733 0 -0.44285055445462801 0.44408738363144917 0 -0.45653044061400749 0.44574373859450739 0 -0.44262854008483871 0.46162609554841733 0 -0.44285055445462801 0.44408738363144917 0 -0.44285055445462801 0.44408738363144917 0 -0.44988321330808601 0.43264183945635343 0 -0.43309446276593089 0.43580648084521972 0 -0.45653044061400749 0.44574373859450739 0 -0.44285055445462801 0.44408738363144917 0 -0.44988321330808601 0.43264183945635343 0 -0.44909101470891138 0.41704495032083061 0 -0.43309446276593089 0.43580648084521972 0 -0.44988321330808601 0.43264183945635343 0 -0.44909101470891138 0.41704495032083061 0 -0.43309446276593089 0.43580648084521972 0 -0.44988321330808601 0.43264183945635343 0 -0.44909101470891138 0.41704495032083061 0 -0.45767233436779298 0.42031363383801013 0 -0.44909101470891138 0.41704495032083061 0 -0.43642708593841462 0.41129790334070748 0 -0.43309446276593089 0.43580648084521972 0 -0.44909101470891138 0.41704495032083061 0 -0.44923652684218601 0.40651161443480333 0 -0.43642708593841462 0.41129790334070748 0 -0.44909101470891138 0.41704495032083061 0 -0.46310762304278369 0.4136785712167641 0 -0.46508756665189233 0.39828341979644161 0 -0.44909101470891138 0.41704495032083061 0 -0.46508756665189233 0.39828341979644161 0 -0.44909101470891138 0.41704495032083061 0 -0.44923652684218601 0.40651161443480333 0 -0.46508756665189233 0.39828341979644161 0 -0.44909101470891138 0.41704495032083061 0 -0.45767233436779298 0.42031363383801013 0 -0.46310762304278369 0.4136785712167641 0 -0.45767233436779298 0.42031363383801013 0 -0.46310762304278369 0.4136785712167641 0 -0.4689935185142321 0.42014913325858988 0 -0.46310762304278369 0.4136785712167641 0 -0.47635794946245552 0.41312634298853379 0 -0.46508756665189233 0.39828341979644161 0 -0.45767233436779298 0.42031363383801013 0 -0.47883616718389621 0.43347798499105172 0 -0.4689935185142321 0.42014913325858988 0 -0.45767233436779298 0.42031363383801013 0 -0.46288197751253979 0.435741310408158 0 -0.47883616718389621 0.43347798499105172 0 -0.45767233436779298 0.42031363383801013 0 -0.47883616718389621 0.43347798499105172 0 -0.44988321330808601 0.43264183945635343 0 -0.45767233436779298 0.42031363383801013 0 -0.46288197751253979 0.435741310408158 0 -0.47883616718389621 0.43347798499105172 0 -0.47635794946245552 0.41312634298853379 0 -0.48714440641974271 0.42351608680749347 0 -0.47883616718389621 0.43347798499105172 0 -0.4689935185142321 0.42014913325858988 0 -0.47635794946245552 0.41312634298853379 0 -0.46310762304278369 0.4136785712167641 0 -0.4689935185142321 0.42014913325858988 0 -0.47635794946245552 0.41312634298853379 0 -0.47635794946245552 0.41312634298853379 0 -0.48901457958177968 0.41012265573874179 0 -0.48254378332594611 0.39722493186941499 0 -0.47635794946245552 0.41312634298853379 0 -0.48901457958177968 0.41012265573874179 0 -0.48714440641974271 0.42351608680749347 0 -0.48901457958177968 0.41012265573874179 0 -0.5 0.42140439004324071 0 -0.49999999999999978 0.39616644394238798 0 -0.48901457958177968 0.41012265573874179 0 -0.5 0.42140439004324071 0 -0.48714440641974271 0.42351608680749347 0 -0.49999999999999972 0.44664233614409321 0 -0.47883616718389621 0.43347798499105172 0 -0.48714440641974271 0.42351608680749347 0 -0.49999999999999972 0.44664233614409321 0 -0.5 0.42140439004324071 0 -0.48714440641974271 0.42351608680749347 0 -0.49007778645481631 0.38142997617552599 0 -0.49999999999999978 0.39616644394238798 0 -0.50000000000000311 0.3685517992903854 0 -0.49007778645481631 0.38142997617552599 0 -0.47611467569506138 0.38535029247959018 0 -0.48714178473823078 0.37241716516273898 0 -0.49999999999999978 0.39616644394238798 0 -0.48254378332594611 0.39722493186941499 0 -0.48901457958177968 0.41012265573874179 0 -0.49999999999999978 0.39616644394238798 0 -0.48254378332594611 0.39722493186941499 0 -0.49007778645481631 0.38142997617552599 0 -0.49999999999999978 0.39616644394238798 0 -0.48254378332594611 0.39722493186941499 0 -0.48254378332594611 0.39722493186941499 0 -0.46508756665189233 0.39828341979644161 0 -0.47635794946245552 0.41312634298853379 0 -0.48254378332594611 0.39722493186941499 0 -0.46508756665189233 0.39828341979644161 0 -0.48254378332594611 0.39722493186941499 0 -0.47611467569506138 0.38535029247959018 0 -0.46508756665189233 0.39828341979644161 0 -0.47611467569506138 0.38535029247959018 0 -0.46508756665189233 0.39828341979644161 0 -0.49007778645481631 0.38142997617552599 0 -0.48254378332594611 0.39722493186941499 0 -0.47611467569506138 0.38535029247959018 0 -0.47611467569506138 0.38535029247959018 0 -0.47397397291215421 0.37493689296344251 0 -0.48714178473823078 0.37241716516273898 0 -0.47611467569506138 0.38535029247959018 0 -0.48714178473823078 0.37241716516273898 0 -0.46871814716203669 0.37906981455344119 0 -0.46360543106569913 0.37231654924431878 0 -0.47397397291215421 0.37493689296344251 0 -0.47611467569506138 0.38535029247959018 0 -0.46871814716203669 0.37906981455344119 0 -0.47397397291215421 0.37493689296344251 0 -0.46871814716203669 0.37906981455344119 0 -0.46117850897523233 0.38367552352641338 0 -0.46360543106569913 0.37231654924431878 0 -0.47611467569506138 0.38535029247959018 0 -0.46871814716203669 0.37906981455344119 0 -0.46117850897523233 0.38367552352641338 0 -0.47611467569506138 0.38535029247959018 0 -0.46117850897523233 0.38367552352641338 0 -0.46508756665189233 0.39828341979644161 0 -0.46117850897523233 0.38367552352641338 0 -0.45400385251667602 0.39093091030285698 0 -0.45110956684876158 0.38402681738971201 0 -0.46117850897523233 0.38367552352641338 0 -0.45110956684876158 0.38402681738971201 0 -0.44813402172652672 0.37354371539476261 0 -0.46117850897523233 0.38367552352641338 0 -0.44813402172652672 0.37354371539476261 0 -0.46360543106569913 0.37231654924431878 0 -0.44923652684218601 0.40651161443480333 0 -0.46508756665189233 0.39828341979644161 0 -0.44634044006952572 0.39942018428123321 0 -0.46508756665189233 0.39828341979644161 0 -0.45400385251667602 0.39093091030285698 0 -0.44634044006952572 0.39942018428123321 0 -0.46508756665189233 0.39828341979644161 0 -0.44634044006952572 0.39942018428123321 0 -0.46117850897523233 0.38367552352641338 0 -0.46508756665189233 0.39828341979644161 0 -0.45400385251667602 0.39093091030285698 0 -0.45400385251667602 0.39093091030285698 0 -0.44634044006952572 0.39942018428123321 0 -0.44518347515021223 0.38837251913440451 0 -0.44634044006952572 0.39942018428123321 0 -0.44518347515021223 0.38837251913440451 0 -0.43728617553129168 0.39370672697544878 0 -0.44923652684218601 0.40651161443480333 0 -0.44634044006952572 0.39942018428123321 0 -0.43642708593841462 0.41129790334070748 0 -0.45110956684876158 0.38402681738971201 0 -0.44480856609964842 0.38185924381796288 0 -0.44813402172652672 0.37354371539476261 0 -0.45400385251667602 0.39093091030285698 0 -0.45110956684876158 0.38402681738971201 0 -0.44518347515021223 0.38837251913440451 0 -0.45110956684876158 0.38402681738971201 0 -0.44518347515021223 0.38837251913440451 0 -0.44480856609964842 0.38185924381796288 0 -0.44518347515021223 0.38837251913440451 0 -0.43913693036841173 0.38484964203092692 0 -0.43002747341826991 0.3864772557201327 0 -0.44518347515021223 0.38837251913440451 0 -0.43002747341826991 0.3864772557201327 0 -0.44518347515021223 0.38837251913440451 0 -0.43913693036841173 0.38484964203092692 0 -0.44480856609964842 0.38185924381796288 0 -0.44480856609964842 0.38185924381796288 0 -0.4393591315165738 0.37762743775392832 0 -0.44813402172652672 0.37354371539476261 0 -0.43913693036841173 0.38484964203092692 0 -0.44480856609964842 0.38185924381796288 0 -0.4393591315165738 0.37762743775392832 0 -0.43913693036841173 0.38484964203092692 0 -0.43173797726570751 0.37658334167695551 0 -0.43913693036841173 0.38484964203092692 0 -0.43173797726570751 0.37658334167695551 0 -0.43002747341826991 0.3864772557201327 0 -0.43913693036841173 0.38484964203092692 0 -0.4393591315165738 0.37762743775392832 0 -0.43173797726570751 0.37658334167695551 0 -0.4393591315165738 0.37762743775392832 0 -0.43173797726570751 0.37658334167695551 0 -0.4325639091043616 0.37180597819459837 0 -0.43173797726570751 0.37658334167695551 0 -0.43002747341826991 0.3864772557201327 0 -0.44518347515021223 0.38837251913440451 0 -0.43002747341826991 0.3864772557201327 0 -0.43728617553129168 0.39370672697544878 0 -0.43002747341826991 0.3864772557201327 0 -0.41472776448615789 0.38456402166930481 0 -0.42117367656598032 0.39254991666010941 0 -0.43002747341826991 0.3864772557201327 0 -0.41472776448615789 0.38456402166930481 0 -0.43002747341826991 0.3864772557201327 0 -0.42328890360694349 0.38021744503538613 0 -0.41472776448615789 0.38456402166930481 0 -0.43173797726570751 0.37658334167695551 0 -0.43002747341826991 0.3864772557201327 0 -0.42328890360694349 0.38021744503538613 0 -0.43173797726570751 0.37658334167695551 0 -0.42328890360694349 0.38021744503538613 0 -0.42689564018809201 0.37117335838025439 0 -0.40881671944059661 0.37920357314115732 0 -0.42689564018809201 0.37117335838025439 0 -0.42328890360694349 0.38021744503538613 0 -0.40881671944059661 0.37920357314115732 0 -0.42689564018809201 0.37117335838025439 0 -0.42328890360694349 0.38021744503538613 0 -0.41472776448615789 0.38456402166930481 0 -0.40881671944059661 0.37920357314115732 0 -0.41472776448615789 0.38456402166930481 0 -0.40724106840129259 0.39428871981441299 0 -0.42117367656598032 0.39254991666010941 0 -0.41472776448615789 0.38456402166930481 0 -0.40826438028753348 0.3817067557430866 0 -0.39942805555404642 0.38265078761847338 0 -0.41472776448615789 0.38456402166930481 0 -0.40724106840129259 0.39428871981441299 0 -0.39942805555404642 0.38265078761847338 0 -0.41472776448615789 0.38456402166930481 0 -0.39942805555404642 0.38265078761847338 0 -0.40881671944059661 0.37920357314115732 0 -0.39942805555404642 0.38265078761847338 0 -0.41098055992701871 0.3693971202961519 0 -0.40826438028753348 0.3817067557430866 0 -0.40881671944059661 0.37920357314115732 0 -0.41472776448615789 0.38456402166930481 0 -0.40826438028753348 0.3817067557430866 0 -0.40881671944059661 0.37920357314115732 0 -0.40724106840129259 0.39428871981441299 0 -0.4157685575788832 0.40127396331749671 0 -0.40157856791931718 0.40704460823596672 0 -0.42117367656598032 0.39254991666010941 0 -0.4157685575788832 0.40127396331749671 0 -0.42759331348715912 0.40055694876602499 0 -0.40724106840129259 0.39428871981441299 0 -0.42117367656598032 0.39254991666010941 0 -0.4157685575788832 0.40127396331749671 0 -0.4157685575788832 0.40127396331749671 0 -0.42759331348715912 0.40055694876602499 0 -0.44634044006952572 0.39942018428123321 0 -0.42759331348715912 0.40055694876602499 0 -0.44634044006952572 0.39942018428123321 0 -0.42759331348715912 0.40055694876602499 0 -0.43728617553129168 0.39370672697544878 0 -0.44634044006952572 0.39942018428123321 0 -0.42759331348715912 0.40055694876602499 0 -0.43642708593841462 0.41129790334070748 0 -0.43002747341826991 0.3864772557201327 0 -0.42117367656598032 0.39254991666010941 0 -0.42759331348715912 0.40055694876602499 0 -0.43002747341826991 0.3864772557201327 0 -0.42759331348715912 0.40055694876602499 0 -0.43002747341826991 0.3864772557201327 0 -0.42759331348715912 0.40055694876602499 0 -0.43728617553129168 0.39370672697544878 0 -0.43642708593841462 0.41129790334070748 0 -0.42449994900394461 0.41844961959922572 0 -0.43309446276593089 0.43580648084521972 0 -0.42759331348715912 0.40055694876602499 0 -0.43642708593841462 0.41129790334070748 0 -0.42449994900394461 0.41844961959922572 0 -0.4157685575788832 0.40127396331749671 0 -0.42759331348715912 0.40055694876602499 0 -0.42449994900394461 0.41844961959922572 0 -0.42759331348715912 0.40055694876602499 0 -0.42449994900394461 0.41844961959922572 0 -0.42449994900394461 0.41844961959922572 0 -0.43309446276593089 0.43580648084521972 0 -0.41506627858711548 0.4366354945638371 0 -0.42449994900394461 0.41844961959922572 0 -0.41506627858711548 0.4366354945638371 0 -0.40746949035714619 0.42222882353716701 0 -0.41506627858711548 0.4366354945638371 0 -0.40746949035714619 0.42222882353716701 0 -0.39856520721893041 0.43647578570475237 0 -0.42449994900394461 0.41844961959922572 0 -0.40746949035714619 0.42222882353716701 0 -0.41232914121482278 0.41224925367246401 0 -0.4157685575788832 0.40127396331749671 0 -0.42449994900394461 0.41844961959922572 0 -0.41232914121482278 0.41224925367246401 0 -0.4157685575788832 0.40127396331749671 0 -0.41232914121482278 0.41224925367246401 0 -0.40157856791931718 0.40704460823596672 0 -0.40746949035714619 0.42222882353716701 0 -0.41232914121482278 0.41224925367246401 0 -0.40157856791931718 0.40704460823596672 0 -0.40746949035714619 0.42222882353716701 0 -0.40157856791931718 0.40704460823596672 0 -0.39298749241221759 0.42119507937603923 0 -0.40746949035714619 0.42222882353716701 0 -0.39298749241221759 0.42119507937603923 0 -0.39856520721893041 0.43647578570475237 0 -0.39298749241221759 0.42119507937603923 0 -0.39856520721893041 0.43647578570475237 0 -0.38373994498284608 0.43043669407259588 0 -0.38373994498284608 0.43043669407259588 0 -0.37668454372729859 0.41206883315114529 0 -0.36778315087773072 0.43214877602771662 0 -0.38473584783684761 0.44354080077547992 0 -0.38373994498284608 0.43043669407259588 0 -0.36778315087773072 0.43214877602771662 0 -0.38473584783684761 0.44354080077547992 0 -0.39856520721893041 0.43647578570475237 0 -0.38373994498284608 0.43043669407259588 0 -0.40157856791931718 0.40704460823596672 0 -0.39298749241221759 0.42119507937603923 0 -0.37668454372729859 0.41206883315114529 0 -0.39298749241221759 0.42119507937603923 0 -0.38373994498284608 0.43043669407259588 0 -0.37668454372729859 0.41206883315114529 0 -0.40157856791931718 0.40704460823596672 0 -0.37668454372729859 0.41206883315114529 0 -0.37668454372729859 0.41206883315114529 0 -0.37844474563582792 0.390355182046278 0 -0.39076978830337122 0.39764902138512792 0 -0.40157856791931718 0.40704460823596672 0 -0.37668454372729859 0.41206883315114529 0 -0.39076978830337122 0.39764902138512792 0 -0.38141148745950948 0.38039780936179463 0 -0.39942805555404642 0.38265078761847338 0 -0.37844474563582792 0.390355182046278 0 -0.39942805555404642 0.38265078761847338 0 -0.38141148745950948 0.38039780936179463 0 -0.37844474563582792 0.390355182046278 0 -0.39942805555404642 0.38265078761847338 0 -0.37844474563582792 0.390355182046278 0 -0.39942805555404642 0.38265078761847338 0 -0.39076978830337122 0.39764902138512792 0 -0.38141148745950948 0.38039780936179463 0 -0.39942805555404642 0.38265078761847338 0 -0.39128338495032239 0.36719877308275878 0 -0.40826438028753348 0.3817067557430866 0 -0.40881671944059661 0.37920357314115732 0 -0.39942805555404642 0.38265078761847338 0 -0.40881671944059661 0.37920357314115732 0 -0.39942805555404642 0.38265078761847338 0 -0.40724106840129259 0.39428871981441299 0 -0.40157856791931718 0.40704460823596672 0 -0.39076978830337122 0.39764902138512792 0 -0.40724106840129259 0.39428871981441299 0 -0.39942805555404642 0.38265078761847338 0 -0.39076978830337122 0.39764902138512792 0 -0.39259889148010241 0.34864188780489069 0 -0.39999637464883392 0.35559476271013252 0 -0.38966798311544332 0.35610238881872369 0 -0.39259889148010241 0.34864188780489069 0 -0.39999637464883392 0.35559476271013252 0 -0.40046159691170069 0.34164056661102238 0 -0.39999637464883392 0.35559476271013252 0 -0.40046159691170069 0.34164056661102238 0 -0.41381361947694889 0.35655778899711688 0 -0.39999637464883392 0.35559476271013252 0 -0.40397412088998857 0.3623881668075713 0 -0.41381361947694889 0.35655778899711688 0 -0.39128338495032239 0.36719877308275878 0 -0.41098055992701871 0.3693971202961519 0 -0.40397412088998857 0.3623881668075713 0 -0.39128338495032239 0.36719877308275878 0 -0.41098055992701871 0.3693971202961519 0 -0.39942805555404642 0.38265078761847338 0 -0.39128338495032239 0.36719877308275878 0 -0.41098055992701871 0.3693971202961519 0 -0.39999637464883392 0.35559476271013252 0 -0.39128338495032239 0.36719877308275878 0 -0.38966798311544332 0.35610238881872369 0 -0.39999637464883392 0.35559476271013252 0 -0.40397412088998857 0.3623881668075713 0 -0.39128338495032239 0.36719877308275878 0 -0.39128338495032239 0.36719877308275878 0 -0.38070440212728118 0.35956436367519867 0 -0.38966798311544332 0.35610238881872369 0 -0.39128338495032239 0.36719877308275878 0 -0.38070440212728118 0.35956436367519867 0 -0.37158620997362618 0.36500042586936587 0 -0.39128338495032239 0.36719877308275878 0 -0.37158620997362618 0.36500042586936587 0 -0.38141148745950948 0.38039780936179463 0 -0.39128338495032239 0.36719877308275878 0 -0.37158620997362618 0.36500042586936587 0 -0.38070440212728118 0.35956436367519867 0 -0.38259242285128608 0.34975193996759602 0 -0.36960199921418602 0.35731180584905542 0 -0.38259242285128608 0.34975193996759602 0 -0.37580907906339922 0.33647878059299557 0 -0.36960199921418602 0.35731180584905542 0 -0.38070440212728118 0.35956436367519867 0 -0.38966798311544332 0.35610238881872369 0 -0.38259242285128608 0.34975193996759602 0 -0.39259889148010241 0.34864188780489069 0 -0.38966798311544332 0.35610238881872369 0 -0.38259242285128608 0.34975193996759602 0 -0.39259889148010241 0.34864188780489069 0 -0.38259242285128608 0.34975193996759602 0 -0.38794720083446621 0.34059934721089508 0 -0.38259242285128608 0.34975193996759602 0 -0.37580907906339922 0.33647878059299557 0 -0.38794720083446621 0.34059934721089508 0 -0.37580907906339922 0.33647878059299557 0 -0.38794720083446621 0.34059934721089508 0 -0.38710957434645199 0.32672334422492838 0 -0.37580907906339922 0.33647878059299557 0 -0.38201615891261242 0.31564575533693578 0 -0.38201615891261242 0.31564575533693578 0 -0.38336946241093189 0.30974931290420182 0 -0.36531193472093021 0.32454274932608829 0 -0.37580907906339922 0.33647878059299557 0 -0.38201615891261242 0.31564575533693578 0 -0.38710957434645199 0.32672334422492838 0 -0.38201615891261242 0.31564575533693578 0 -0.39350880394476312 0.31593875705230262 0 -0.38336946241093189 0.30974931290420182 0 -0.38201615891261242 0.31564575533693578 0 -0.38710957434645199 0.32672334422492838 0 -0.39350880394476312 0.31593875705230262 0 -0.38710957434645199 0.32672334422492838 0 -0.39350880394476312 0.31593875705230262 0 -0.39921774374196328 0.327754485124091 0 -0.39350880394476312 0.31593875705230262 0 -0.39921774374196328 0.327754485124091 0 -0.40602554896887638 0.32011992980008452 0 -0.39921774374196328 0.327754485124091 0 -0.40602554896887638 0.32011992980008452 0 -0.40814721749945931 0.33505042297199122 0 -0.38794720083446621 0.34059934721089508 0 -0.38710957434645199 0.32672334422492838 0 -0.40046159691170069 0.34164056661102238 0 -0.39259889148010241 0.34864188780489069 0 -0.38794720083446621 0.34059934721089508 0 -0.40046159691170069 0.34164056661102238 0 -0.38710957434645199 0.32672334422492838 0 -0.39921774374196328 0.327754485124091 0 -0.40046159691170069 0.34164056661102238 0 -0.38710957434645199 0.32672334422492838 0 -0.40046159691170069 0.34164056661102238 0 -0.39921774374196328 0.327754485124091 0 -0.40046159691170069 0.34164056661102238 0 -0.40814721749945931 0.33505042297199122 0 -0.40814721749945931 0.33505042297199122 0 -0.41954562432067788 0.33058053440738988 0 -0.41381361947694889 0.35655778899711688 0 -0.41954562432067788 0.33058053440738988 0 -0.41381361947694889 0.35655778899711688 0 -0.40602554896887638 0.32011992980008452 0 -0.40814721749945931 0.33505042297199122 0 -0.41954562432067788 0.33058053440738988 0 -0.40602554896887638 0.32011992980008452 0 -0.41954562432067788 0.33058053440738988 0 -0.42527762916440792 0.30460327981766322 0 -0.41954562432067788 0.33058053440738988 0 -0.42527762916440792 0.30460327981766322 0 -0.41954562432067788 0.33058053440738988 0 -0.44001701522470671 0.31606260091672289 0 -0.42527762916440792 0.30460327981766322 0 -0.41954562432067788 0.33058053440738988 0 -0.42420657124029282 0.3485159257420361 0 -0.43843079740841773 0.33787066219507811 0 -0.41954562432067788 0.33058053440738988 0 -0.43843079740841773 0.33787066219507811 0 -0.44001701522470671 0.31606260091672289 0 -0.42420657124029282 0.3485159257420361 0 -0.43459164588172849 0.36007712215754689 0 -0.43843079740841773 0.33787066219507811 0 -0.42420657124029282 0.3485159257420361 0 -0.41381361947694889 0.35655778899711688 0 -0.43459164588172849 0.36007712215754689 0 -0.41381361947694889 0.35655778899711688 0 -0.43459164588172849 0.36007712215754689 0 -0.43459164588172849 0.36007712215754689 0 -0.43843079740841773 0.33787066219507811 0 -0.40046159691170069 0.34164056661102238 0 -0.40814721749945931 0.33505042297199122 0 -0.41381361947694889 0.35655778899711688 0 -0.41954562432067788 0.33058053440738988 0 -0.42420657124029282 0.3485159257420361 0 -0.41381361947694889 0.35655778899711688 0 -0.39999637464883392 0.35559476271013252 0 -0.41381361947694889 0.35655778899711688 0 -0.40046159691170069 0.34164056661102238 0 -0.41381361947694889 0.35655778899711688 0 -0.41381361947694889 0.35655778899711688 0 -0.41098055992701871 0.3693971202961519 0 -0.42689564018809201 0.37117335838025439 0 -0.41098055992701871 0.3693971202961519 0 -0.42689564018809201 0.37117335838025439 0 -0.40881671944059661 0.37920357314115732 0 -0.41098055992701871 0.3693971202961519 0 -0.42689564018809201 0.37117335838025439 0 -0.40881671944059661 0.37920357314115732 0 -0.41098055992701871 0.3693971202961519 0 -0.40397412088998857 0.3623881668075713 0 -0.41381361947694889 0.35655778899711688 0 -0.41098055992701871 0.3693971202961519 0 -0.41381361947694889 0.35655778899711688 0 -0.41098055992701871 0.3693971202961519 0 -0.41381361947694889 0.35655778899711688 0 -0.42689564018809201 0.37117335838025439 0 -0.41381361947694889 0.35655778899711688 0 -0.42907199843085347 0.36486274908666949 0 -0.43459164588172849 0.36007712215754689 0 -0.42689564018809201 0.37117335838025439 0 -0.42907199843085347 0.36486274908666949 0 -0.42980351636605002 0.37149789839679431 0 -0.43173797726570751 0.37658334167695551 0 -0.42689564018809201 0.37117335838025439 0 -0.43173797726570751 0.37658334167695551 0 -0.42689564018809201 0.37117335838025439 0 -0.42980351636605002 0.37149789839679431 0 -0.42689564018809201 0.37117335838025439 0 -0.42980351636605002 0.37149789839679431 0 -0.41381361947694889 0.35655778899711688 0 -0.42689564018809201 0.37117335838025439 0 -0.42907199843085347 0.36486274908666949 0 -0.43459164588172849 0.36007712215754689 0 -0.4325639091043616 0.37180597819459837 0 -0.42907199843085347 0.36486274908666949 0 -0.43459164588172849 0.36007712215754689 0 -0.4325639091043616 0.37180597819459837 0 -0.43173797726570751 0.37658334167695551 0 -0.4325639091043616 0.37180597819459837 0 -0.43173797726570751 0.37658334167695551 0 -0.4325639091043616 0.37180597819459837 0 -0.42980351636605002 0.37149789839679431 0 -0.4325639091043616 0.37180597819459837 0 -0.42980351636605002 0.37149789839679431 0 -0.42907199843085347 0.36486274908666949 0 -0.4325639091043616 0.37180597819459837 0 -0.42980351636605002 0.37149789839679431 0 -0.4393591315165738 0.37762743775392832 0 -0.4325639091043616 0.37180597819459837 0 -0.44813402172652672 0.37354371539476261 0 -0.4325639091043616 0.37180597819459837 0 -0.44813402172652672 0.37354371539476261 0 -0.4325639091043616 0.37180597819459837 0 -0.44813402172652672 0.37354371539476261 0 -0.45404419213644692 0.3625975043188554 0 -0.43459164588172849 0.36007712215754689 0 -0.45404419213644692 0.3625975043188554 0 -0.43459164588172849 0.36007712215754689 0 -0.4325639091043616 0.37180597819459837 0 -0.45404419213644692 0.3625975043188554 0 -0.4325639091043616 0.37180597819459837 0 -0.45404419213644692 0.3625975043188554 0 -0.43459164588172849 0.36007712215754689 0 -0.44549025602952702 0.35300777224981977 0 -0.45404419213644692 0.3625975043188554 0 -0.44549025602952702 0.35300777224981977 0 -0.45575207180717081 0.34762579988211101 0 -0.43843079740841773 0.33787066219507811 0 -0.43459164588172849 0.36007712215754689 0 -0.44549025602952702 0.35300777224981977 0 -0.43843079740841773 0.33787066219507811 0 -0.44549025602952702 0.35300777224981977 0 -0.45575207180717081 0.34762579988211101 0 -0.45404419213644692 0.3625975043188554 0 -0.45575207180717081 0.34762579988211101 0 -0.46674234051517471 0.35793515390827568 0 -0.45404419213644692 0.3625975043188554 0 -0.45575207180717081 0.34762579988211101 0 -0.46674234051517471 0.35793515390827568 0 -0.46933267881425472 0.34565439271282838 0 -0.45404419213644692 0.3625975043188554 0 -0.47441064506165659 0.36523629740895902 0 -0.46674234051517471 0.35793515390827568 0 -0.45404419213644692 0.3625975043188554 0 -0.47441064506165659 0.36523629740895902 0 -0.45404419213644692 0.3625975043188554 0 -0.46360543106569913 0.37231654924431878 0 -0.47441064506165659 0.36523629740895902 0 -0.44813402172652672 0.37354371539476261 0 -0.45404419213644692 0.3625975043188554 0 -0.46360543106569913 0.37231654924431878 0 -0.46674234051517471 0.35793515390827568 0 -0.45404419213644692 0.3625975043188554 0 -0.46360543106569913 0.37231654924431878 0 -0.47397397291215421 0.37493689296344251 0 -0.47441064506165659 0.36523629740895902 0 -0.47441064506165659 0.36523629740895902 0 -0.48058358620238051 0.35168401037216412 0 -0.49477709798686631 0.36787509049906381 0 -0.47397397291215421 0.37493689296344251 0 -0.47441064506165659 0.36523629740895902 0 -0.48714178473823078 0.37241716516273898 0 -0.46674234051517471 0.35793515390827568 0 -0.47441064506165659 0.36523629740895902 0 -0.48058358620238051 0.35168401037216412 0 -0.46674234051517471 0.35793515390827568 0 -0.46933267881425472 0.34565439271282838 0 -0.48058358620238051 0.35168401037216412 0 -0.46933267881425472 0.34565439271282838 0 -0.48058358620238051 0.35168401037216412 0 -0.48121002056386808 0.3369363626790518 0 -0.48058358620238051 0.35168401037216412 0 -0.49703354506598713 0.34759711953555122 0 -0.48121002056386808 0.3369363626790518 0 -0.49703354506598713 0.34759711953555122 0 -0.5 0.34812631329607491 0 -0.49477709798686631 0.36787509049906381 0 -0.48058358620238051 0.35168401037216412 0 -0.49703354506598713 0.34759711953555122 0 -0.49477709798686631 0.36787509049906381 0 -0.49703354506598713 0.34759711953555122 0 -0.49477709798686631 0.36787509049906381 0 -0.5 0.34812631329607491 0 -0.50000000000000311 0.3685517992903854 0 -0.49477709798686631 0.36787509049906381 0 -0.47441064506165659 0.36523629740895902 0 -0.49477709798686631 0.36787509049906381 0 -0.48714178473823078 0.37241716516273898 0 -0.47441064506165659 0.36523629740895902 0 -0.49477709798686631 0.36787509049906381 0 -0.49007778645481631 0.38142997617552599 0 -0.50000000000000311 0.3685517992903854 0 -0.49477709798686631 0.36787509049906381 0 -0.50000000000000311 0.3685517992903854 0 -0.49477709798686631 0.36787509049906381 0 -0.49007778645481631 0.38142997617552599 0 -0.49477709798686631 0.36787509049906381 0 -0.48714178473823078 0.37241716516273898 0 -0.4992899921451075 0.32731914857203848 0 -0.47890896772952718 0.31636292681222472 0 -0.4992899921451075 0.32731914857203848 0 -0.48121002056386808 0.3369363626790518 0 -0.47890896772952718 0.31636292681222472 0 -0.49999999999999989 0.32093853419885771 0 -0.47890896772952718 0.31636292681222472 0 -0.48920120729889771 0.30786362236022019 0 -0.49999999999999989 0.32093853419885771 0 -0.4992899921451075 0.32731914857203848 0 -0.47890896772952718 0.31636292681222472 0 -0.49999999999999989 0.32093853419885771 0 -0.4992899921451075 0.32731914857203848 0 -0.49703354506598713 0.34759711953555122 0 -0.4992899921451075 0.32731914857203848 0 -0.49703354506598713 0.34759711953555122 0 -0.4992899921451075 0.32731914857203848 0 -0.48121002056386808 0.3369363626790518 0 -0.49703354506598713 0.34759711953555122 0 -0.5 0.34812631329607491 0 -0.4992899921451075 0.32731914857203848 0 -0.46933267881425472 0.34565439271282838 0 -0.48121002056386808 0.3369363626790518 0 -0.46237537498267961 0.3340906367225393 0 -0.48121002056386808 0.3369363626790518 0 -0.47890896772952718 0.31636292681222472 0 -0.46237537498267961 0.3340906367225393 0 -0.47890896772952718 0.31636292681222472 0 -0.45636509730576869 0.32029680939338251 0 -0.45852794331394758 0.30540670505240958 0 -0.47890896772952718 0.31636292681222472 0 -0.45636509730576869 0.32029680939338251 0 -0.46237537498267961 0.3340906367225393 0 -0.45575207180717081 0.34762579988211101 0 -0.46933267881425472 0.34565439271282838 0 -0.46237537498267961 0.3340906367225393 0 -0.45575207180717081 0.34762579988211101 0 -0.46237537498267961 0.3340906367225393 0 -0.43843079740841773 0.33787066219507811 0 -0.45636509730576869 0.32029680939338251 0 -0.46237537498267961 0.3340906367225393 0 -0.43843079740841773 0.33787066219507811 0 -0.45636509730576869 0.32029680939338251 0 -0.43843079740841773 0.33787066219507811 0 -0.44001701522470671 0.31606260091672289 0 -0.45636509730576869 0.32029680939338251 0 -0.44001701522470671 0.31606260091672289 0 -0.45852794331394758 0.30540670505240958 0 -0.4381469188983681 0.2944504832925946 0 -0.45852794331394758 0.30540670505240958 0 -0.44001701522470671 0.31606260091672289 0 -0.4381469188983681 0.2944504832925946 0 -0.45852794331394758 0.30540670505240958 0 -0.4381469188983681 0.2944504832925946 0 -0.4447805513699985 0.27737231294201392 0 -0.43100963400813791 0.27862602522793672 0 -0.4381469188983681 0.2944504832925946 0 -0.45724976864254441 0.28334965182257721 0 -0.4447805513699985 0.27737231294201392 0 -0.4381469188983681 0.2944504832925946 0 -0.45724976864254441 0.28334965182257721 0 -0.45852794331394758 0.30540670505240958 0 -0.45724976864254441 0.28334965182257721 0 -0.45852794331394758 0.30540670505240958 0 -0.47789586146606378 0.29814868652574811 0 -0.47890896772952718 0.31636292681222472 0 -0.45852794331394758 0.30540670505240958 0 -0.47890896772952718 0.31636292681222472 0 -0.47789586146606378 0.29814868652574811 0 -0.48920120729889771 0.30786362236022019 0 -0.47890896772952718 0.31636292681222472 0 -0.45852794331394758 0.30540670505240958 0 -0.47789586146606378 0.29814868652574811 0 -0.45724976864254441 0.28334965182257721 0 -0.47789586146606378 0.29814868652574811 0 -0.48102565218130672 0.27929705551177292 0 -0.5 0.29600434190405073 0 -0.5 0.27107014960924369 0 -0.48102565218130672 0.27929705551177292 0 -0.47789586146606378 0.29814868652574811 0 -0.5 0.29600434190405073 0 -0.48102565218130672 0.27929705551177292 0 -0.47789586146606378 0.29814868652574811 0 -0.5 0.29600434190405073 0 -0.48920120729889771 0.30786362236022019 0 -0.49999999999999989 0.32093853419885771 0 -0.5 0.29600434190405073 0 -0.48920120729889771 0.30786362236022019 0 -0.48177750529808522 0.24619974485466931 0 -0.5 0.2461359573144368 0 -0.48654709528280549 0.26072196503438649 0 -0.5 0.2461359573144368 0 -0.48654709528280549 0.26072196503438649 0 -0.5 0.27107014960924369 0 -0.48654709528280549 0.26072196503438649 0 -0.5 0.27107014960924369 0 -0.48102565218130672 0.27929705551177292 0 -0.48654709528280549 0.26072196503438649 0 -0.48102565218130672 0.27929705551177292 0 -0.46993231893463527 0.26090691788180947 0 -0.45724976864254441 0.28334965182257721 0 -0.48102565218130672 0.27929705551177292 0 -0.46993231893463527 0.26090691788180947 0 -0.48177750529808522 0.24619974485466931 0 -0.48654709528280549 0.26072196503438649 0 -0.46993231893463527 0.26090691788180947 0 -0.45710504060219709 0.23686107433279269 0 -0.46993231893463527 0.26090691788180947 0 -0.44707755271196942 0.2637365605125353 0 -0.45724976864254441 0.28334965182257721 0 -0.46993231893463527 0.26090691788180947 0 -0.44707755271196942 0.2637365605125353 0 -0.45724976864254441 0.28334965182257721 0 -0.4447805513699985 0.27737231294201392 0 -0.44707755271196942 0.2637365605125353 0 -0.4447805513699985 0.27737231294201392 0 -0.44707755271196942 0.2637365605125353 0 -0.43100963400813791 0.27862602522793672 0 -0.45710504060219709 0.23686107433279269 0 -0.44707755271196942 0.2637365605125353 0 -0.44707755271196942 0.2637365605125353 0 -0.4367416388518679 0.25264877063821017 0 -0.43100963400813791 0.27862602522793672 0 -0.45710504060219709 0.23686107433279269 0 -0.44707755271196942 0.2637365605125353 0 -0.4367416388518679 0.25264877063821017 0 -0.4367416388518679 0.25264877063821017 0 -0.41175872593851298 0.2549478601346914 0 -0.41885046316002428 0.26850948483906401 0 -0.41175872593851298 0.2549478601346914 0 -0.41885046316002428 0.26850948483906401 0 -0.3976364837244763 0.27421361628784369 0 -0.41885046316002428 0.26850948483906401 0 -0.41710583327712653 0.28211115190663788 0 -0.3976364837244763 0.27421361628784369 0 -0.41885046316002428 0.26850948483906401 0 -0.43100963400813791 0.27862602522793672 0 -0.41710583327712653 0.28211115190663788 0 -0.4367416388518679 0.25264877063821017 0 -0.43100963400813791 0.27862602522793672 0 -0.4367416388518679 0.25264877063821017 0 -0.41885046316002428 0.26850948483906401 0 -0.43100963400813791 0.27862602522793672 0 -0.4381469188983681 0.2944504832925946 0 -0.43100963400813791 0.27862602522793672 0 -0.42527762916440792 0.30460327981766322 0 -0.43100963400813791 0.27862602522793672 0 -0.42527762916440792 0.30460327981766322 0 -0.41710583327712653 0.28211115190663788 0 -0.43100963400813791 0.27862602522793672 0 -0.42527762916440792 0.30460327981766322 0 -0.44001701522470671 0.31606260091672289 0 -0.4381469188983681 0.2944504832925946 0 -0.42527762916440792 0.30460327981766322 0 -0.40602554896887638 0.32011992980008452 0 -0.42527762916440792 0.30460327981766322 0 -0.4014269901009333 0.29495587648231503 0 -0.41710583327712653 0.28211115190663788 0 -0.4014269901009333 0.29495587648231503 0 -0.42527762916440792 0.30460327981766322 0 -0.41710583327712653 0.28211115190663788 0 -0.4014269901009333 0.29495587648231503 0 -0.41710583327712653 0.28211115190663788 0 -0.4014269901009333 0.29495587648231503 0 -0.3976364837244763 0.27421361628784369 0 -0.4014269901009333 0.29495587648231503 0 -0.38389766901197209 0.2919764357376447 0 -0.3976364837244763 0.27421361628784369 0 -0.4014269901009333 0.29495587648231503 0 -0.3976364837244763 0.27421361628784369 0 -0.39350880394476312 0.31593875705230262 0 -0.40602554896887638 0.32011992980008452 0 -0.4014269901009333 0.29495587648231503 0 -0.4014269901009333 0.29495587648231503 0 -0.38336946241093189 0.30974931290420182 0 -0.40602554896887638 0.32011992980008452 0 -0.4014269901009333 0.29495587648231503 0 -0.39350880394476312 0.31593875705230262 0 -0.4014269901009333 0.29495587648231503 0 -0.38336946241093189 0.30974931290420182 0 -0.38336946241093189 0.30974931290420182 0 -0.38389766901197209 0.2919764357376447 0 -0.36596935852520629 0.30787018431111951 0 -0.4014269901009333 0.29495587648231503 0 -0.38336946241093189 0.30974931290420182 0 -0.38389766901197209 0.2919764357376447 0 -0.38389766901197209 0.2919764357376447 0 -0.3839238193794226 0.27871888045260418 0 -0.3976364837244763 0.27421361628784369 0 -0.38389766901197209 0.2919764357376447 0 -0.3839238193794226 0.27871888045260418 0 -0.3703732677084236 0.2804332674389724 0 -0.3839238193794226 0.27871888045260418 0 -0.38378785707281859 0.2682522023459562 0 -0.3703732677084236 0.2804332674389724 0 -0.38378785707281859 0.2682522023459562 0 -0.37477717689163992 0.25299635056682518 0 -0.3703732677084236 0.2804332674389724 0 -0.3839238193794226 0.27871888045260418 0 -0.38378785707281859 0.2682522023459562 0 -0.3976364837244763 0.27421361628784369 0 -0.38378785707281859 0.2682522023459562 0 -0.39384597734802013 0.25347135609337229 0 -0.37477717689163992 0.25299635056682518 0 -0.39384597734802013 0.25347135609337229 0 -0.3976364837244763 0.27421361628784369 0 -0.41175872593851298 0.2549478601346914 0 -0.39384597734802013 0.25347135609337229 0 -0.3976364837244763 0.27421361628784369 0 -0.38378785707281859 0.2682522023459562 0 -0.39384597734802013 0.25347135609337229 0 -0.3976364837244763 0.27421361628784369 0 -0.35834524103505527 0.27479395617319979 0 -0.34490227433735798 0.27909378963084902 0 -0.35045174428906722 0.28677843618767362 0 -0.35834524103505527 0.27479395617319979 0 -0.34490227433735798 0.27909378963084902 0 -0.34728570068091402 0.2661688508290645 0 -0.34728570068091402 0.2661688508290645 0 -0.35464358931248319 0.25491115920099722 0 -0.34150965816976359 0.25817059719828012 0 -0.33845336435013867 0.242079554605789 0 -0.35464358931248319 0.25491115920099722 0 -0.34150965816976359 0.25817059719828012 0 -0.35834524103505527 0.27479395617319979 0 -0.34728570068091402 0.2661688508290645 0 -0.35464358931248319 0.25491115920099722 0 -0.35834524103505527 0.27479395617319979 0 -0.37477717689163992 0.25299635056682518 0 -0.35834524103505527 0.27479395617319979 0 -0.35464358931248319 0.25491115920099722 0 -0.37477717689163992 0.25299635056682518 0 -0.37477717689163992 0.25299635056682518 0 -0.3703732677084236 0.2804332674389724 0 -0.35834524103505527 0.27479395617319979 0 -0.37477717689163992 0.25299635056682518 0 -0.3703732677084236 0.2804332674389724 0 -0.3703732677084236 0.2804332674389724 0 -0.36596935852520629 0.30787018431111951 0 -0.38389766901197209 0.2919764357376447 0 -0.3703732677084236 0.2804332674389724 0 -0.36596935852520629 0.30787018431111951 0 -0.35834524103505527 0.27479395617319979 0 -0.3703732677084236 0.2804332674389724 0 -0.35925388220638338 0.290827281626163 0 -0.3703732677084236 0.2804332674389724 0 -0.36596935852520629 0.30787018431111951 0 -0.35925388220638338 0.290827281626163 0 -0.36596935852520629 0.30787018431111951 0 -0.35645499353340299 0.30154574554434233 0 -0.35925388220638338 0.290827281626163 0 -0.36596935852520629 0.30787018431111951 0 -0.35645499353340299 0.30154574554434233 0 -0.35774913989266272 0.31391262040183171 0 -0.35645499353340299 0.30154574554434233 0 -0.35013945535461871 0.3105838988596446 0 -0.35774913989266272 0.31391262040183171 0 -0.35645499353340299 0.30154574554434233 0 -0.34780240298166087 0.30288468022079579 0 -0.35285886900803182 0.29452238055293539 0 -0.34780240298166087 0.30288468022079579 0 -0.34622635383862083 0.29383585221412489 0 -0.33932813284697128 0.29730713825443927 0 -0.34780240298166087 0.30288468022079579 0 -0.35285886900803182 0.29452238055293539 0 -0.34622635383862083 0.29383585221412489 0 -0.34780240298166087 0.30288468022079579 0 -0.34514961405368982 0.30758965292055213 0 -0.33997231501418312 0.30473657218964828 0 -0.35645499353340299 0.30154574554434233 0 -0.34780240298166087 0.30288468022079579 0 -0.35013945535461871 0.3105838988596446 0 -0.34780240298166087 0.30288468022079579 0 -0.34514961405368982 0.30758965292055213 0 -0.35013945535461871 0.3105838988596446 0 -0.34514961405368982 0.30758965292055213 0 -0.35013945535461871 0.3105838988596446 0 -0.34268428286429659 0.31215346041211978 0 -0.35834524103505527 0.27479395617319979 0 -0.35925388220638338 0.290827281626163 0 -0.35045174428906722 0.28677843618767362 0 -0.35645499353340299 0.30154574554434233 0 -0.35925388220638338 0.290827281626163 0 -0.35285886900803182 0.29452238055293539 0 -0.35925388220638338 0.290827281626163 0 -0.35285886900803182 0.29452238055293539 0 -0.35045174428906722 0.28677843618767362 0 -0.35285886900803182 0.29452238055293539 0 -0.34622635383862083 0.29383585221412489 0 -0.35045174428906722 0.28677843618767362 0 -0.34622635383862083 0.29383585221412489 0 -0.35045174428906722 0.28677843618767362 0 -0.34088660642111013 0.2879281286912172 0 -0.34490227433735798 0.27909378963084902 0 -0.35045174428906722 0.28677843618767362 0 -0.34088660642111013 0.2879281286912172 0 -0.34490227433735798 0.27909378963084902 0 -0.34088660642111013 0.2879281286912172 0 -0.33262910378125132 0.278293493462413 0 -0.34088660642111013 0.2879281286912172 0 -0.33227483086849752 0.29261385498347509 0 -0.33932813284697128 0.29730713825443927 0 -0.34622635383862083 0.29383585221412489 0 -0.34088660642111013 0.2879281286912172 0 -0.33932813284697128 0.29730713825443927 0 -0.33227483086849752 0.29261385498347509 0 -0.32398535199451511 0.28524421774589648 0 -0.33262910378125132 0.278293493462413 0 -0.34088660642111013 0.2879281286912172 0 -0.33227483086849752 0.29261385498347509 0 -0.33262910378125132 0.278293493462413 0 -0.33718535734333338 0.30882123026638569 0 -0.34268428286429659 0.31215346041211978 0 -0.33477104767585758 0.31524888829805342 0 -0.33718535734333338 0.30882123026638569 0 -0.34268428286429659 0.31215346041211978 0 -0.33997231501418312 0.30473657218964828 0 -0.34514961405368982 0.30758965292055213 0 -0.34268428286429659 0.31215346041211978 0 -0.33997231501418312 0.30473657218964828 0 -0.33718535734333338 0.30882123026638569 0 -0.33997231501418312 0.30473657218964828 0 -0.33396296217470239 0.30554582684384218 0 -0.33997231501418312 0.30473657218964828 0 -0.33932813284697128 0.29730713825443927 0 -0.33396296217470239 0.30554582684384218 0 -0.34780240298166087 0.30288468022079579 0 -0.33997231501418312 0.30473657218964828 0 -0.33932813284697128 0.29730713825443927 0 -0.33227483086849752 0.29261385498347509 0 -0.33396296217470239 0.30554582684384218 0 -0.32251037119006698 0.3031431883822347 0 -0.33227483086849752 0.29261385498347509 0 -0.33932813284697128 0.29730713825443927 0 -0.33396296217470239 0.30554582684384218 0 -0.33718535734333338 0.30882123026638569 0 -0.33396296217470239 0.30554582684384218 0 -0.33477104767585758 0.31524888829805342 0 -0.33396296217470239 0.30554582684384218 0 -0.32251037119006698 0.3031431883822347 0 -0.33219148171911272 0.31730370811833031 0 -0.32251037119006698 0.3031431883822347 0 -0.31456388983813333 0.31636814557902659 0 -0.33219148171911272 0.31730370811833031 0 -0.32251037119006698 0.3031431883822347 0 -0.31282926066102218 0.28898266864613842 0 -0.30402337591517081 0.3051012194244167 0 -0.32251037119006698 0.3031431883822347 0 -0.30402337591517081 0.3051012194244167 0 -0.31456388983813333 0.31636814557902659 0 -0.32251037119006698 0.3031431883822347 0 -0.33219148171911272 0.31730370811833031 0 -0.33227483086849752 0.29261385498347509 0 -0.32251037119006698 0.3031431883822347 0 -0.32398535199451511 0.28524421774589648 0 -0.32251037119006698 0.3031431883822347 0 -0.32398535199451511 0.28524421774589648 0 -0.31282926066102218 0.28898266864613842 0 -0.32251037119006698 0.3031431883822347 0 -0.31282926066102218 0.28898266864613842 0 -0.31282926066102218 0.28898266864613842 0 -0.32065101258715689 0.274665503564473 0 -0.32398535199451511 0.28524421774589648 0 -0.31282926066102218 0.28898266864613842 0 -0.32065101258715689 0.274665503564473 0 -0.32065101258715689 0.274665503564473 0 -0.32847276451329022 0.26034833848280681 0 -0.31199410965335322 0.26463258327439948 0 -0.32065101258715689 0.274665503564473 0 -0.33262910378125132 0.278293493462413 0 -0.32847276451329022 0.26034833848280681 0 -0.31282926066102218 0.28898266864613842 0 -0.32065101258715689 0.274665503564473 0 -0.30403346053568642 0.27611708872161922 0 -0.32065101258715689 0.274665503564473 0 -0.32847276451329022 0.26034833848280681 0 -0.32398535199451511 0.28524421774589648 0 -0.32065101258715689 0.274665503564473 0 -0.33262910378125132 0.278293493462413 0 -0.33262910378125132 0.278293493462413 0 -0.33869287199199061 0.26734508287274228 0 -0.32847276451329022 0.26034833848280681 0 -0.34490227433735798 0.27909378963084902 0 -0.34728570068091402 0.2661688508290645 0 -0.33869287199199061 0.26734508287274228 0 -0.34490227433735798 0.27909378963084902 0 -0.33262910378125132 0.278293493462413 0 -0.33869287199199061 0.26734508287274228 0 -0.33845336435013867 0.242079554605789 0 -0.34150965816976359 0.25817059719828012 0 -0.32847276451329022 0.26034833848280681 0 -0.33845336435013867 0.242079554605789 0 -0.32847276451329022 0.26034833848280681 0 -0.34728570068091402 0.2661688508290645 0 -0.33869287199199061 0.26734508287274228 0 -0.34150965816976359 0.25817059719828012 0 -0.33869287199199061 0.26734508287274228 0 -0.34150965816976359 0.25817059719828012 0 -0.32847276451329022 0.26034833848280681 0 -0.33869287199199061 0.26734508287274228 0 -0.32847276451329022 0.26034833848280681 0 -0.311575650220281 0.24878047680599949 0 -0.32847276451329022 0.26034833848280681 0 -0.311575650220281 0.24878047680599949 0 -0.32847276451329022 0.26034833848280681 0 -0.31199410965335322 0.26463258327439948 0 -0.32455092720978362 0.24357057421839101 0 -0.311575650220281 0.24878047680599949 0 -0.32847276451329022 0.26034833848280681 0 -0.311575650220281 0.24878047680599949 0 -0.31199410965335322 0.26463258327439948 0 -0.29523766041035199 0.26325150879709891 0 -0.30403346053568642 0.27611708872161922 0 -0.29523766041035199 0.26325150879709891 0 -0.29574151564778611 0.28671646758259889 0 -0.31199410965335322 0.26463258327439948 0 -0.30403346053568642 0.27611708872161922 0 -0.29523766041035199 0.26325150879709891 0 -0.32065101258715689 0.274665503564473 0 -0.31199410965335322 0.26463258327439948 0 -0.30403346053568642 0.27611708872161922 0 -0.30403346053568642 0.27611708872161922 0 -0.29523766041035199 0.26325150879709891 0 -0.28985028671148488 0.25537141990030859 0 -0.26863301980023729 0.26794771562718522 0 -0.28534189936007232 0.28197220440765719 0 -0.29523766041035199 0.26325150879709891 0 -0.29574151564778611 0.28671646758259889 0 -0.29523766041035199 0.26325150879709891 0 -0.29574151564778611 0.28671646758259889 0 -0.28534189936007232 0.28197220440765719 0 -0.28985028671148488 0.25537141990030859 0 -0.29523766041035199 0.26325150879709891 0 -0.28534189936007232 0.28197220440765719 0 -0.28985028671148488 0.25537141990030859 0 -0.28534189936007232 0.28197220440765719 0 -0.29467853592727078 0.23721261512919359 0 -0.29523766041035199 0.26325150879709891 0 -0.29467853592727078 0.23721261512919359 0 -0.28985028671148488 0.25537141990030859 0 -0.29523766041035199 0.26325150879709891 0 -0.28985028671148488 0.25537141990030859 0 -0.29523766041035199 0.26325150879709891 0 -0.28985028671148488 0.25537141990030859 0 -0.2724296921133022 0.25217156250687062 0 -0.26863301980023729 0.26794771562718522 0 -0.2724296921133022 0.25217156250687062 0 -0.26863301980023729 0.26794771562718522 0 -0.25693865295534157 0.25278860643768353 0 -0.26863301980023729 0.26794771562718522 0 -0.26277913973510902 0.29023342414179659 0 -0.28534189936007232 0.28197220440765719 0 -0.26277913973510902 0.29023342414179659 0 -0.2447247674615598 0.2718938593685879 0 -0.26863301980023729 0.26794771562718522 0 -0.26277913973510902 0.29023342414179659 0 -0.2447247674615598 0.2718938593685879 0 -0.26863301980023729 0.26794771562718522 0 -0.25693865295534157 0.25278860643768353 0 -0.2447247674615598 0.2718938593685879 0 -0.26277913973510902 0.29023342414179659 0 -0.25757488899104952 0.31786411623381933 0 -0.2366570207200871 0.30010935915934539 0 -0.26277913973510902 0.29023342414179659 0 -0.28083351200865853 0.30857298891500562 0 -0.28534189936007232 0.28197220440765719 0 -0.26277913973510902 0.29023342414179659 0 -0.28083351200865853 0.30857298891500562 0 -0.26277913973510902 0.29023342414179659 0 -0.28083351200865853 0.30857298891500562 0 -0.25757488899104952 0.31786411623381933 0 -0.28083351200865853 0.30857298891500562 0 -0.29574151564778611 0.28671646758259889 0 -0.30402337591517081 0.3051012194244167 0 -0.28083351200865853 0.30857298891500562 0 -0.29574151564778611 0.28671646758259889 0 -0.28534189936007232 0.28197220440765719 0 -0.28083351200865853 0.30857298891500562 0 -0.28534189936007232 0.28197220440765719 0 -0.31282926066102218 0.28898266864613842 0 -0.29574151564778611 0.28671646758259889 0 -0.30402337591517081 0.3051012194244167 0 -0.31282926066102218 0.28898266864613842 0 -0.30403346053568642 0.27611708872161922 0 -0.29574151564778611 0.28671646758259889 0 -0.31282926066102218 0.28898266864613842 0 -0.30403346053568642 0.27611708872161922 0 -0.31282926066102218 0.28898266864613842 0 -0.30402337591517081 0.3051012194244167 0 -0.30402337591517081 0.3051012194244167 0 -0.29932851783868691 0.32736014762988469 0 -0.31456388983813333 0.31636814557902659 0 -0.29932851783868691 0.32736014762988469 0 -0.31400963374603508 0.33178692824556621 0 -0.31456388983813333 0.31636814557902659 0 -0.29582778577295937 0.3462701483728044 0 -0.31354931950312093 0.34747342072874071 0 -0.31400963374603508 0.33178692824556621 0 -0.29582778577295937 0.3462701483728044 0 -0.31400963374603508 0.33178692824556621 0 -0.29932851783868691 0.32736014762988469 0 -0.29582778577295937 0.3462701483728044 0 -0.31400963374603508 0.33178692824556621 0 -0.29932851783868691 0.32736014762988469 0 -0.27670802547122531 0.33291454828341721 0 -0.29582778577295937 0.3462701483728044 0 -0.27670802547122531 0.33291454828341721 0 -0.29582778577295937 0.3462701483728044 0 -0.28186865011063378 0.34863084123191301 0 -0.28083351200865853 0.30857298891500562 0 -0.30402337591517081 0.3051012194244167 0 -0.29932851783868691 0.32736014762988469 0 -0.28083351200865853 0.30857298891500562 0 -0.29932851783868691 0.32736014762988469 0 -0.28083351200865853 0.30857298891500562 0 -0.29932851783868691 0.32736014762988469 0 -0.27670802547122531 0.33291454828341721 0 -0.28083351200865853 0.30857298891500562 0 -0.27670802547122531 0.33291454828341721 0 -0.25757488899104952 0.31786411623381933 0 -0.28083351200865853 0.30857298891500562 0 -0.27670802547122531 0.33291454828341721 0 -0.27670802547122531 0.33291454828341721 0 -0.25757488899104952 0.31786411623381933 0 -0.25368472498167011 0.34420349485172652 0 -0.2613799420943046 0.36179346951182628 0 -0.25453646971320443 0.37462232419521813 0 -0.26689531734350652 0.36931705260985792 0 -0.2613799420943046 0.36179346951182628 0 -0.25453646971320443 0.37462232419521813 0 -0.24822911175635759 0.36217347122335058 0 -0.25368472498167011 0.34420349485172652 0 -0.27258253893379292 0.35725610765182902 0 -0.2613799420943046 0.36179346951182628 0 -0.25368472498167011 0.34420349485172652 0 -0.24822911175635759 0.36217347122335058 0 -0.2613799420943046 0.36179346951182628 0 -0.25368472498167011 0.34420349485172652 0 -0.27258253893379292 0.35725610765182902 0 -0.27670802547122531 0.33291454828341721 0 -0.27258253893379292 0.35725610765182902 0 -0.27670802547122531 0.33291454828341721 0 -0.27258253893379292 0.35725610765182902 0 -0.28186865011063378 0.34863084123191301 0 -0.27670802547122531 0.33291454828341721 0 -0.25368472498167011 0.34420349485172652 0 -0.27258253893379292 0.35725610765182902 0 -0.27258253893379292 0.35725610765182902 0 -0.27764593779988228 0.36075336850004069 0 -0.28186865011063378 0.34863084123191301 0 -0.27258253893379292 0.35725610765182902 0 -0.27764593779988228 0.36075336850004069 0 -0.27764593779988228 0.36075336850004069 0 -0.27110701654299552 0.36596211494311248 0 -0.28943519450698252 0.3688961411714532 0 -0.27110701654299552 0.36596211494311248 0 -0.28943519450698252 0.3688961411714532 0 -0.27110701654299552 0.36596211494311248 0 -0.28943519450698252 0.3688961411714532 0 -0.28084635904778937 0.37544065550995409 0 -0.27258253893379292 0.35725610765182902 0 -0.27764593779988228 0.36075336850004069 0 -0.27110701654299552 0.36596211494311248 0 -0.27764593779988228 0.36075336850004069 0 -0.27110701654299552 0.36596211494311248 0 -0.2613799420943046 0.36179346951182628 0 -0.27258253893379292 0.35725610765182902 0 -0.27110701654299552 0.36596211494311248 0 -0.2613799420943046 0.36179346951182628 0 -0.27110701654299552 0.36596211494311248 0 -0.26689531734350652 0.36931705260985792 0 -0.27258253893379292 0.35725610765182902 0 -0.27110701654299552 0.36596211494311248 0 -0.27110701654299552 0.36596211494311248 0 -0.26689531734350652 0.36931705260985792 0 -0.27110701654299552 0.36596211494311248 0 -0.28084635904778937 0.37544065550995409 0 -0.27663284499009211 0.37939207802828528 0 -0.28943519450698252 0.3688961411714532 0 -0.28685204816290072 0.37621819500323123 0 -0.28084635904778937 0.37544065550995409 0 -0.27764593779988228 0.36075336850004069 0 -0.28943519450698252 0.3688961411714532 0 -0.29551252006441958 0.37309371542857861 0 -0.28943519450698252 0.3688961411714532 0 -0.28685204816290072 0.37621819500323123 0 -0.29551252006441958 0.37309371542857861 0 -0.28943519450698252 0.3688961411714532 0 -0.27764593779988228 0.36075336850004069 0 -0.29582778577295937 0.3462701483728044 0 -0.27764593779988228 0.36075336850004069 0 -0.29582778577295937 0.3462701483728044 0 -0.28186865011063378 0.34863084123191301 0 -0.28943519450698252 0.3688961411714532 0 -0.29582778577295937 0.3462701483728044 0 -0.30300283950081008 0.36051339397403093 0 -0.27764593779988228 0.36075336850004069 0 -0.28943519450698252 0.3688961411714532 0 -0.29582778577295937 0.3462701483728044 0 -0.29582778577295937 0.3462701483728044 0 -0.30300283950081008 0.36051339397403093 0 -0.31354931950312093 0.34747342072874071 0 -0.28943519450698252 0.3688961411714532 0 -0.31408843612631249 0.37197903781600761 0 -0.28943519450698252 0.3688961411714532 0 -0.30300283950081008 0.36051339397403093 0 -0.31408843612631249 0.37197903781600761 0 -0.29551252006441958 0.37309371542857861 0 -0.28943519450698252 0.3688961411714532 0 -0.31408843612631249 0.37197903781600761 0 -0.30300283950081008 0.36051339397403093 0 -0.31408843612631249 0.37197903781600761 0 -0.32472866683278162 0.35786931268145811 0 -0.31408843612631249 0.37197903781600761 0 -0.32472866683278162 0.35786931268145811 0 -0.33874167774564268 0.3750619344605613 0 -0.31408843612631249 0.37197903781600761 0 -0.33874167774564268 0.3750619344605613 0 -0.33942470910854639 0.36092010030626542 0 -0.32472866683278162 0.35786931268145811 0 -0.33874167774564268 0.3750619344605613 0 -0.33942470910854639 0.36092010030626542 0 -0.3497530714632448 0.36534695126967459 0 -0.33874167774564268 0.3750619344605613 0 -0.33815763529499693 0.35089104021064632 0 -0.32472866683278162 0.35786931268145811 0 -0.33017767166301859 0.34092732036984391 0 -0.33815763529499693 0.35089104021064632 0 -0.33017767166301859 0.34092732036984391 0 -0.34251680356524339 0.34321741671518669 0 -0.33815763529499693 0.35089104021064632 0 -0.3460879504978186 0.35511096805544279 0 -0.34556584107983002 0.34849125976349993 0 -0.33815763529499693 0.35089104021064632 0 -0.34251680356524339 0.34321741671518669 0 -0.34556584107983002 0.34849125976349993 0 -0.33942470910854639 0.36092010030626542 0 -0.33815763529499693 0.35089104021064632 0 -0.3460879504978186 0.35511096805544279 0 -0.33942470910854639 0.36092010030626542 0 -0.33815763529499693 0.35089104021064632 0 -0.32472866683278162 0.35786931268145811 0 -0.31354931950312093 0.34747342072874071 0 -0.32472866683278162 0.35786931268145811 0 -0.33017767166301859 0.34092732036984391 0 -0.30300283950081008 0.36051339397403093 0 -0.31354931950312093 0.34747342072874071 0 -0.32472866683278162 0.35786931268145811 0 -0.31400963374603508 0.33178692824556621 0 -0.33219148171911272 0.31730370811833031 0 -0.33017767166301859 0.34092732036984391 0 -0.31354931950312093 0.34747342072874071 0 -0.31400963374603508 0.33178692824556621 0 -0.33017767166301859 0.34092732036984391 0 -0.31400963374603508 0.33178692824556621 0 -0.33219148171911272 0.31730370811833031 0 -0.31400963374603508 0.33178692824556621 0 -0.31456388983813333 0.31636814557902659 0 -0.33219148171911272 0.31730370811833031 0 -0.33477104767585758 0.31524888829805342 0 -0.33219148171911272 0.31730370811833031 0 -0.34795343649956839 0.3209401758966518 0 -0.33219148171911272 0.31730370811833031 0 -0.34725440703092858 0.33933618574797492 0 -0.34795343649956839 0.3209401758966518 0 -0.33396296217470239 0.30554582684384218 0 -0.33477104767585758 0.31524888829805342 0 -0.33219148171911272 0.31730370811833031 0 -0.33477104767585758 0.31524888829805342 0 -0.33219148171911272 0.31730370811833031 0 -0.34268428286429659 0.31215346041211978 0 -0.33477104767585758 0.31524888829805342 0 -0.34795343649956839 0.3209401758966518 0 -0.33219148171911272 0.31730370811833031 0 -0.34725440703092858 0.33933618574797492 0 -0.33219148171911272 0.31730370811833031 0 -0.33017767166301859 0.34092732036984391 0 -0.34725440703092858 0.33933618574797492 0 -0.33017767166301859 0.34092732036984391 0 -0.34251680356524339 0.34321741671518669 0 -0.34725440703092858 0.33933618574797492 0 -0.34725440703092858 0.33933618574797492 0 -0.34795343649956839 0.3209401758966518 0 -0.36531193472093021 0.32454274932608829 0 -0.34251680356524339 0.34321741671518669 0 -0.35002774160894051 0.34339273059465159 0 -0.34725440703092858 0.33933618574797492 0 -0.34725440703092858 0.33933618574797492 0 -0.35848812135385522 0.33902175933596412 0 -0.36531193472093021 0.32454274932608829 0 -0.34725440703092858 0.33933618574797492 0 -0.36531193472093021 0.32454274932608829 0 -0.34251680356524339 0.34321741671518669 0 -0.34725440703092858 0.33933618574797492 0 -0.35002774160894051 0.34339273059465159 0 -0.34725440703092858 0.33933618574797492 0 -0.35002774160894051 0.34339273059465159 0 -0.35848812135385522 0.33902175933596412 0 -0.35712059876301439 0.34740413424876382 0 -0.35002774160894051 0.34339273059465159 0 -0.34725440703092858 0.33933618574797492 0 -0.35848812135385522 0.33902175933596412 0 -0.34795343649956839 0.3209401758966518 0 -0.35774913989266272 0.31391262040183171 0 -0.36531193472093021 0.32454274932608829 0 -0.35013945535461871 0.3105838988596446 0 -0.34268428286429659 0.31215346041211978 0 -0.34795343649956839 0.3209401758966518 0 -0.35013945535461871 0.3105838988596446 0 -0.34795343649956839 0.3209401758966518 0 -0.35774913989266272 0.31391262040183171 0 -0.38336946241093189 0.30974931290420182 0 -0.36596935852520629 0.30787018431111951 0 -0.36531193472093021 0.32454274932608829 0 -0.36596935852520629 0.30787018431111951 0 -0.35774913989266272 0.31391262040183171 0 -0.36531193472093021 0.32454274932608829 0 -0.37580907906339922 0.33647878059299557 0 -0.38201615891261242 0.31564575533693578 0 -0.36531193472093021 0.32454274932608829 0 -0.38336946241093189 0.30974931290420182 0 -0.36531193472093021 0.32454274932608829 0 -0.35848812135385522 0.33902175933596412 0 -0.36629538785756799 0.33494858662202331 0 -0.36491865814174967 0.34450616947628299 0 -0.35848812135385522 0.33902175933596412 0 -0.36491865814174967 0.34450616947628299 0 -0.35712059876301439 0.34740413424876382 0 -0.35848812135385522 0.33902175933596412 0 -0.36531193472093021 0.32454274932608829 0 -0.36629538785756799 0.33494858662202331 0 -0.37580907906339922 0.33647878059299557 0 -0.36531193472093021 0.32454274932608829 0 -0.36629538785756799 0.33494858662202331 0 -0.37580907906339922 0.33647878059299557 0 -0.36629538785756799 0.33494858662202331 0 -0.36491865814174967 0.34450616947628299 0 -0.37580907906339922 0.33647878059299557 0 -0.36491865814174967 0.34450616947628299 0 -0.36960199921418602 0.35731180584905542 0 -0.37580907906339922 0.33647878059299557 0 -0.36960199921418602 0.35731180584905542 0 -0.36491865814174967 0.34450616947628299 0 -0.36204010283369881 0.35293053614415609 0 -0.35712059876301439 0.34740413424876382 0 -0.36491865814174967 0.34450616947628299 0 -0.36204010283369881 0.35293053614415609 0 -0.36960199921418602 0.35731180584905542 0 -0.36231373349064938 0.3583368008115923 0 -0.36204010283369881 0.35293053614415609 0 -0.35577634304253192 0.35617190760009498 0 -0.36231373349064938 0.3583368008115923 0 -0.36204010283369881 0.35293053614415609 0 -0.36960199921418602 0.35731180584905542 0 -0.36960199921418602 0.35731180584905542 0 -0.36339491936497281 0.37814483110511521 0 -0.36960199921418602 0.35731180584905542 0 -0.37158620997362618 0.36500042586936587 0 -0.36339491936497281 0.37814483110511521 0 -0.36960199921418602 0.35731180584905542 0 -0.36108579844600058 0.36545797327707619 0 -0.36339491936497281 0.37814483110511521 0 -0.38141148745950948 0.38039780936179463 0 -0.37158620997362618 0.36500042586936587 0 -0.36339491936497281 0.37814483110511521 0 -0.38070440212728118 0.35956436367519867 0 -0.36960199921418602 0.35731180584905542 0 -0.37158620997362618 0.36500042586936587 0 -0.36231373349064938 0.3583368008115923 0 -0.36108579844600058 0.36545797327707619 0 -0.35577634304253192 0.35617190760009498 0 -0.36231373349064938 0.3583368008115923 0 -0.36960199921418602 0.35731180584905542 0 -0.36108579844600058 0.36545797327707619 0 -0.36108579844600058 0.36545797327707619 0 -0.3497530714632448 0.36534695126967459 0 -0.35577634304253192 0.35617190760009498 0 -0.3497530714632448 0.36534695126967459 0 -0.36339491936497281 0.37814483110511521 0 -0.33874167774564268 0.3750619344605613 0 -0.36108579844600058 0.36545797327707619 0 -0.3497530714632448 0.36534695126967459 0 -0.36339491936497281 0.37814483110511521 0 -0.33942470910854639 0.36092010030626542 0 -0.3497530714632448 0.36534695126967459 0 -0.3460879504978186 0.35511096805544279 0 -0.3497530714632448 0.36534695126967459 0 -0.3460879504978186 0.35511096805544279 0 -0.35577634304253192 0.35617190760009498 0 -0.3460879504978186 0.35511096805544279 0 -0.35103907443215082 0.34984414324157243 0 -0.35577634304253192 0.35617190760009498 0 -0.3460879504978186 0.35511096805544279 0 -0.34556584107983002 0.34849125976349993 0 -0.35103907443215082 0.34984414324157243 0 -0.34251680356524339 0.34321741671518669 0 -0.35002774160894051 0.34339273059465159 0 -0.34556584107983002 0.34849125976349993 0 -0.35002774160894051 0.34339273059465159 0 -0.34556584107983002 0.34849125976349993 0 -0.35103907443215082 0.34984414324157243 0 -0.35103907443215082 0.34984414324157243 0 -0.35712059876301439 0.34740413424876382 0 -0.35577634304253192 0.35617190760009498 0 -0.35002774160894051 0.34339273059465159 0 -0.35103907443215082 0.34984414324157243 0 -0.35712059876301439 0.34740413424876382 0 -0.36204010283369881 0.35293053614415609 0 -0.35712059876301439 0.34740413424876382 0 -0.35577634304253192 0.35617190760009498 0 -0.35746143571760969 0.39805957647408341 0 -0.33700984602307921 0.4055687403903776 0 -0.35746143571760969 0.39805957647408341 0 -0.36339491936497281 0.37814483110511521 0 -0.33874167774564268 0.3750619344605613 0 -0.36339491936497281 0.37814483110511521 0 -0.33874167774564268 0.3750619344605613 0 -0.38141148745950948 0.38039780936179463 0 -0.37844474563582792 0.390355182046278 0 -0.36339491936497281 0.37814483110511521 0 -0.37844474563582792 0.390355182046278 0 -0.35746143571760969 0.39805957647408341 0 -0.36339491936497281 0.37814483110511521 0 -0.35746143571760969 0.39805957647408341 0 -0.36339491936497281 0.37814483110511521 0 -0.38141148745950948 0.38039780936179463 0 -0.36339491936497281 0.37814483110511521 0 -0.37668454372729859 0.41206883315114529 0 -0.37844474563582792 0.390355182046278 0 -0.35746143571760969 0.39805957647408341 0 -0.37844474563582792 0.390355182046278 0 -0.35746143571760969 0.39805957647408341 0 -0.37668454372729859 0.41206883315114529 0 -0.36778315087773072 0.43214877602771662 0 -0.35179051953527918 0.41709305806631919 0 -0.37668454372729859 0.41206883315114529 0 -0.35746143571760969 0.39805957647408341 0 -0.35179051953527918 0.41709305806631919 0 -0.37668454372729859 0.41206883315114529 0 -0.35179051953527918 0.41709305806631919 0 -0.36778315087773072 0.43214877602771662 0 -0.35179051953527918 0.41709305806631919 0 -0.34355933144160938 0.44471966407244162 0 -0.35179051953527918 0.41709305806631919 0 -0.34355933144160938 0.44471966407244162 0 -0.35746143571760969 0.39805957647408341 0 -0.35179051953527918 0.41709305806631919 0 -0.33700984602307921 0.4055687403903776 0 -0.35746143571760969 0.39805957647408341 0 -0.35179051953527918 0.41709305806631919 0 -0.35179051953527918 0.41709305806631919 0 -0.33092261172728182 0.42130471390500562 0 -0.33700984602307921 0.4055687403903776 0 -0.35179051953527918 0.41709305806631919 0 -0.33092261172728182 0.42130471390500562 0 -0.33092261172728182 0.42130471390500562 0 -0.31655825632854873 0.41307790430667191 0 -0.33700984602307921 0.4055687403903776 0 -0.35179051953527918 0.41709305806631919 0 -0.33092261172728182 0.42130471390500562 0 -0.34355933144160938 0.44471966407244162 0 -0.33092261172728182 0.42130471390500562 0 -0.32304151796324199 0.43794530689545591 0 -0.34355933144160938 0.44471966407244162 0 -0.33092261172728182 0.42130471390500562 0 -0.31005470391928353 0.42551636974368717 0 -0.32304151796324199 0.43794530689545591 0 -0.33092261172728182 0.42130471390500562 0 -0.31005470391928353 0.42551636974368717 0 -0.31005470391928353 0.42551636974368717 0 -0.30636015846579262 0.44081646755455739 0 -0.32304151796324199 0.43794530689545591 0 -0.31655825632854873 0.41307790430667191 0 -0.32178824989383492 0.40044082628072353 0 -0.33700984602307921 0.4055687403903776 0 -0.33092261172728182 0.42130471390500562 0 -0.31655825632854873 0.41307790430667191 0 -0.31005470391928353 0.42551636974368717 0 -0.31655825632854873 0.41307790430667191 0 -0.33700984602307921 0.4055687403903776 0 -0.31655825632854873 0.41307790430667191 0 -0.32178824989383492 0.40044082628072353 0 -0.30820761894760612 0.40180007281058999 0 -0.31589124725359768 0.39098578459502642 0 -0.32178824989383492 0.40044082628072353 0 -0.30820761894760612 0.40180007281058999 0 -0.31589124725359768 0.39098578459502642 0 -0.32178824989383492 0.40044082628072353 0 -0.33127428091634248 0.39077162930095188 0 -0.35746143571760969 0.39805957647408341 0 -0.33127428091634248 0.39077162930095188 0 -0.33700984602307921 0.4055687403903776 0 -0.32178824989383492 0.40044082628072353 0 -0.33127428091634248 0.39077162930095188 0 -0.33700984602307921 0.4055687403903776 0 -0.35746143571760969 0.39805957647408341 0 -0.33127428091634248 0.39077162930095188 0 -0.33874167774564268 0.3750619344605613 0 -0.31408843612631249 0.37197903781600761 0 -0.33127428091634248 0.39077162930095188 0 -0.33874167774564268 0.3750619344605613 0 -0.31408843612631249 0.37197903781600761 0 -0.31589124725359768 0.39098578459502642 0 -0.33127428091634248 0.39077162930095188 0 -0.29551252006441958 0.37309371542857861 0 -0.31408843612631249 0.37197903781600761 0 -0.30568017353146049 0.38157918508743732 0 -0.31408843612631249 0.37197903781600761 0 -0.31589124725359768 0.39098578459502642 0 -0.30568017353146049 0.38157918508743732 0 -0.31589124725359768 0.39098578459502642 0 -0.30568017353146049 0.38157918508743732 0 -0.30603649680964828 0.39194203915736708 0 -0.30568017353146049 0.38157918508743732 0 -0.29743858983336929 0.38628170497916159 0 -0.30603649680964828 0.39194203915736708 0 -0.29551252006441958 0.37309371542857861 0 -0.30568017353146049 0.38157918508743732 0 -0.29743858983336929 0.38628170497916159 0 -0.31589124725359768 0.39098578459502642 0 -0.30820761894760612 0.40180007281058999 0 -0.30603649680964828 0.39194203915736708 0 -0.30820761894760612 0.40180007281058999 0 -0.30603649680964828 0.39194203915736708 0 -0.29604813782321171 0.40003827384795049 0 -0.29743858983336929 0.38628170497916159 0 -0.30603649680964828 0.39194203915736708 0 -0.29604813782321171 0.40003827384795049 0 -0.30820761894760612 0.40180007281058999 0 -0.29604813782321171 0.40003827384795049 0 -0.2987408814332651 0.40933989620534528 0 -0.29604813782321171 0.40003827384795049 0 -0.28905057763704689 0.40562835892549581 0 -0.28392778011776681 0.39892722844600809 0 -0.29604813782321171 0.40003827384795049 0 -0.28905057763704689 0.40562835892549581 0 -0.2987408814332651 0.40933989620534528 0 -0.29604813782321171 0.40003827384795049 0 -0.28980128107673031 0.39400368344191522 0 -0.28392778011776681 0.39892722844600809 0 -0.29743858983336929 0.38628170497916159 0 -0.29604813782321171 0.40003827384795049 0 -0.28980128107673031 0.39400368344191522 0 -0.28980128107673031 0.39400368344191522 0 -0.28179061653257348 0.3907675264945405 0 -0.28392778011776681 0.39892722844600809 0 -0.28905057763704689 0.40562835892549581 0 -0.28392778011776681 0.39892722844600809 0 -0.27817781655911977 0.40726136879628272 0 -0.29743858983336929 0.38628170497916159 0 -0.28980128107673031 0.39400368344191522 0 -0.28179061653257348 0.3907675264945405 0 -0.29743858983336929 0.38628170497916159 0 -0.28179061653257348 0.3907675264945405 0 -0.28819376848868639 0.38228739672622841 0 -0.29743858983336929 0.38628170497916159 0 -0.28179061653257348 0.3907675264945405 0 -0.29551252006441958 0.37309371542857861 0 -0.29743858983336929 0.38628170497916159 0 -0.28819376848868639 0.38228739672622841 0 -0.29551252006441958 0.37309371542857861 0 -0.28819376848868639 0.38228739672622841 0 -0.28685204816290072 0.37621819500323123 0 -0.28179061653257348 0.3907675264945405 0 -0.28158428542699082 0.38279668863870758 0 -0.28819376848868639 0.38228739672622841 0 -0.28158428542699082 0.38279668863870758 0 -0.28819376848868639 0.38228739672622841 0 -0.28685204816290072 0.37621819500323123 0 -0.28158428542699082 0.38279668863870758 0 -0.28685204816290072 0.37621819500323123 0 -0.28084635904778937 0.37544065550995409 0 -0.27110701654299552 0.36596211494311248 0 -0.26614264323177789 0.39525334800991979 0 -0.27110701654299552 0.36596211494311248 0 -0.27663284499009211 0.37939207802828528 0 -0.27229768174870289 0.38438446135480281 0 -0.27110701654299552 0.36596211494311248 0 -0.27229768174870289 0.38438446135480281 0 -0.26614264323177789 0.39525334800991979 0 -0.27110701654299552 0.36596211494311248 0 -0.26689531734350652 0.36931705260985792 0 -0.26614264323177789 0.39525334800991979 0 -0.28158428542699082 0.38279668863870758 0 -0.28084635904778937 0.37544065550995409 0 -0.27663284499009211 0.37939207802828528 0 -0.27229768174870289 0.38438446135480281 0 -0.27641046434025379 0.38710393959788297 0 -0.26614264323177789 0.39525334800991979 0 -0.28179061653257348 0.3907675264945405 0 -0.28158428542699082 0.38279668863870758 0 -0.27641046434025379 0.38710393959788297 0 -0.27663284499009211 0.37939207802828528 0 -0.27229768174870289 0.38438446135480281 0 -0.27641046434025379 0.38710393959788297 0 -0.28158428542699082 0.38279668863870758 0 -0.27663284499009211 0.37939207802828528 0 -0.27641046434025379 0.38710393959788297 0 -0.28179061653257348 0.3907675264945405 0 -0.27641046434025379 0.38710393959788297 0 -0.26614264323177789 0.39525334800991979 0 -0.28179061653257348 0.3907675264945405 0 -0.27661435207820328 0.39472461325581981 0 -0.26614264323177789 0.39525334800991979 0 -0.28179061653257348 0.3907675264945405 0 -0.28392778011776681 0.39892722844600809 0 -0.27661435207820328 0.39472461325581981 0 -0.28179061653257348 0.3907675264945405 0 -0.26614264323177789 0.39525334800991979 0 -0.28392778011776681 0.39892722844600809 0 -0.27661435207820328 0.39472461325581981 0 -0.27572094251528112 0.40196054452149499 0 -0.28392778011776681 0.39892722844600809 0 -0.27572094251528112 0.40196054452149499 0 -0.27817781655911977 0.40726136879628272 0 -0.27572094251528112 0.40196054452149499 0 -0.26416382130603389 0.40692896758786917 0 -0.27817781655911977 0.40726136879628272 0 -0.27661435207820328 0.39472461325581981 0 -0.27572094251528112 0.40196054452149499 0 -0.26416382130603389 0.40692896758786917 0 -0.27661435207820328 0.39472461325581981 0 -0.26614264323177789 0.39525334800991979 0 -0.26416382130603389 0.40692896758786917 0 -0.27661435207820328 0.39472461325581981 0 -0.26416382130603389 0.40692896758786917 0 -0.26614264323177789 0.39525334800991979 0 -0.24781733580734391 0.38604582424895789 0 -0.24388213391773941 0.40163479241199579 0 -0.26614264323177789 0.39525334800991979 0 -0.25157066981256843 0.40894445920752592 0 -0.24388213391773941 0.40163479241199579 0 -0.26614264323177789 0.39525334800991979 0 -0.24388213391773941 0.40163479241199579 0 -0.26614264323177789 0.39525334800991979 0 -0.26416382130603389 0.40692896758786917 0 -0.26614264323177789 0.39525334800991979 0 -0.25157066981256843 0.40894445920752592 0 -0.26416382130603389 0.40692896758786917 0 -0.25453646971320443 0.37462232419521813 0 -0.26614264323177789 0.39525334800991979 0 -0.24781733580734391 0.38604582424895789 0 -0.25453646971320443 0.37462232419521813 0 -0.26689531734350652 0.36931705260985792 0 -0.26614264323177789 0.39525334800991979 0 -0.26107936510946472 0.42512814796255138 0 -0.25799490891289278 0.4433273283372331 0 -0.26107936510946472 0.42512814796255138 0 -0.27138668263498972 0.43431468825499642 0 -0.25799490891289278 0.4433273283372331 0 -0.26107936510946472 0.42512814796255138 0 -0.25799490891289278 0.4433273283372331 0 -0.24263019791012411 0.42803682032005991 0 -0.25799490891289278 0.4433273283372331 0 -0.24263019791012411 0.42803682032005991 0 -0.26107936510946472 0.42512814796255138 0 -0.26416382130603389 0.40692896758786917 0 -0.26107936510946472 0.42512814796255138 0 -0.26416382130603389 0.40692896758786917 0 -0.24263019791012411 0.42803682032005991 0 -0.26416382130603389 0.40692896758786917 0 -0.24263019791012411 0.42803682032005991 0 -0.25157066981256843 0.40894445920752592 0 -0.26416382130603389 0.40692896758786917 0 -0.24263019791012411 0.42803682032005991 0 -0.26107936510946472 0.42512814796255138 0 -0.26416382130603389 0.40692896758786917 0 -0.27370875903762831 0.41905129137381081 0 -0.26416382130603389 0.40692896758786917 0 -0.27817781655911977 0.40726136879628272 0 -0.27370875903762831 0.41905129137381081 0 -0.27817781655911977 0.40726136879628272 0 -0.27370875903762831 0.41905129137381081 0 -0.28647403122915938 0.41490769911839809 0 -0.27370875903762831 0.41905129137381081 0 -0.27138668263498972 0.43431468825499642 0 -0.28359142860916292 0.42646623900898489 0 -0.26107936510946472 0.42512814796255138 0 -0.27370875903762831 0.41905129137381081 0 -0.27138668263498972 0.43431468825499642 0 -0.27138668263498972 0.43431468825499642 0 -0.28359142860916292 0.42646623900898489 0 -0.28426041238301858 0.43930471826406531 0 -0.28359142860916292 0.42646623900898489 0 -0.29576073289665422 0.43347565529899762 0 -0.28426041238301858 0.43930471826406531 0 -0.28359142860916292 0.42646623900898489 0 -0.29576073289665422 0.43347565529899762 0 -0.29610666663401819 0.4205870682229661 0 -0.28905057763704689 0.40562835892549581 0 -0.27817781655911977 0.40726136879628272 0 -0.28647403122915938 0.41490769911839809 0 -0.27370875903762831 0.41905129137381081 0 -0.28359142860916292 0.42646623900898489 0 -0.28647403122915938 0.41490769911839809 0 -0.28359142860916292 0.42646623900898489 0 -0.28647403122915938 0.41490769911839809 0 -0.29610666663401819 0.4205870682229661 0 -0.28647403122915938 0.41490769911839809 0 -0.29610666663401819 0.4205870682229661 0 -0.2987408814332651 0.40933989620534528 0 -0.28905057763704689 0.40562835892549581 0 -0.28647403122915938 0.41490769911839809 0 -0.2987408814332651 0.40933989620534528 0 -0.31655825632854873 0.41307790430667191 0 -0.29610666663401819 0.4205870682229661 0 -0.2987408814332651 0.40933989620534528 0 -0.31655825632854873 0.41307790430667191 0 -0.29610666663401819 0.4205870682229661 0 -0.31005470391928353 0.42551636974368717 0 -0.31655825632854873 0.41307790430667191 0 -0.29610666663401819 0.4205870682229661 0 -0.31655825632854873 0.41307790430667191 0 -0.30820761894760612 0.40180007281058999 0 -0.2987408814332651 0.40933989620534528 0 -0.29576073289665422 0.43347565529899762 0 -0.31005470391928353 0.42551636974368717 0 -0.30636015846579262 0.44081646755455739 0 -0.29576073289665422 0.43347565529899762 0 -0.29610666663401819 0.4205870682229661 0 -0.31005470391928353 0.42551636974368717 0 -0.29576073289665422 0.43347565529899762 0 -0.30636015846579262 0.44081646755455739 0 -0.2944743431310044 0.45228094752776682 0 -0.30636015846579262 0.44081646755455739 0 -0.30512100021830008 0.46490456032657962 0 -0.30636015846579262 0.44081646755455739 0 -0.30512100021830008 0.46490456032657962 0 -0.2944743431310044 0.45228094752776682 0 -0.30636015846579262 0.44081646755455739 0 -0.30512100021830008 0.46490456032657962 0 -0.32381548421637429 0.45642326981327008 0 -0.30512100021830008 0.46490456032657962 0 -0.2944743431310044 0.45228094752776682 0 -0.28858619761816889 0.47377087817814589 0 -0.2944743431310044 0.45228094752776682 0 -0.27329055326553048 0.45854910325768988 0 -0.28858619761816889 0.47377087817814589 0 -0.2944743431310044 0.45228094752776682 0 -0.28426041238301858 0.43930471826406531 0 -0.27329055326553048 0.45854910325768988 0 -0.29576073289665422 0.43347565529899762 0 -0.2944743431310044 0.45228094752776682 0 -0.28426041238301858 0.43930471826406531 0 -0.27138668263498972 0.43431468825499642 0 -0.28426041238301858 0.43930471826406531 0 -0.27329055326553048 0.45854910325768988 0 -0.27138668263498972 0.43431468825499642 0 -0.27329055326553048 0.45854910325768988 0 -0.25799490891289278 0.4433273283372331 0 -0.27329055326553048 0.45854910325768988 0 -0.25799490891289278 0.4433273283372331 0 -0.27329055326553048 0.45854910325768988 0 -0.28858619761816889 0.47377087817814589 0 -0.27329055326553048 0.45854910325768988 0 -0.25438198006151169 0.46464464965965441 0 -0.25799490891289278 0.4433273283372331 0 -0.27329055326553048 0.45854910325768988 0 -0.25438198006151169 0.46464464965965441 0 -0.26859377699614329 0.4811575177290362 0 -0.25438198006151169 0.46464464965965441 0 -0.25799490891289278 0.4433273283372331 0 -0.25438198006151169 0.46464464965965441 0 -0.25799490891289278 0.4433273283372331 0 -0.24356894722331929 0.44821508210096461 0 -0.25080144613104921 0.5 0 -0.26859377699614329 0.4811575177290362 0 -0.2467553297522557 0.48147402383551691 0 -0.25080144613104921 0.5 0 -0.26859377699614329 0.4811575177290362 0 -0.27705851983630159 0.5 0 -0.25438198006151169 0.46464464965965441 0 -0.26859377699614329 0.4811575177290362 0 -0.2467553297522557 0.48147402383551691 0 -0.27329055326553048 0.45854910325768988 0 -0.26859377699614329 0.4811575177290362 0 -0.28858619761816889 0.47377087817814589 0 -0.26859377699614329 0.4811575177290362 0 -0.27705851983630159 0.5 0 -0.28830299895955541 0.48893487857068268 0 -0.27705851983630159 0.5 0 -0.28830299895955541 0.48893487857068268 0 -0.30331559354155391 0.49999999999999939 0 -0.26859377699614329 0.4811575177290362 0 -0.28830299895955541 0.48893487857068268 0 -0.28858619761816889 0.47377087817814589 0 -0.28830299895955541 0.48893487857068268 0 -0.28858619761816889 0.47377087817814589 0 -0.30388184197080759 0.48899265309860168 0 -0.28858619761816889 0.47377087817814589 0 -0.30388184197080759 0.48899265309860168 0 -0.30512100021830008 0.46490456032657962 0 -0.30388184197080759 0.48899265309860168 0 -0.30512100021830008 0.46490456032657962 0 -0.30388184197080759 0.48899265309860168 0 -0.31654611508668351 0.48621885406126381 0 -0.30512100021830008 0.46490456032657962 0 -0.28858619761816889 0.47377087817814589 0 -0.30388184197080759 0.48899265309860168 0 -0.30331559354155391 0.49999999999999939 0 -0.30388184197080759 0.48899265309860168 0 -0.28830299895955541 0.48893487857068268 0 -0.30331559354155391 0.49999999999999939 0 -0.30388184197080759 0.48899265309860168 0 -0.30388184197080759 0.48899265309860168 0 -0.31494260619507058 0.500000000000002 0 -0.31654611508668351 0.48621885406126381 0 -0.30331559354155391 0.49999999999999939 0 -0.30388184197080759 0.48899265309860168 0 -0.31494260619507058 0.500000000000002 0 -0.30388184197080759 0.48899265309860168 0 -0.31494260619507058 0.500000000000002 0 -0.31654611508668351 0.48621885406126381 0 -0.33275791060477139 0.5 0 -0.32602721644446891 0.47719705688113462 0 -0.31494260619507058 0.500000000000002 0 -0.31654611508668351 0.48621885406126381 0 -0.33275791060477139 0.5 0 -0.33275791060477139 0.5 0 -0.34200011506365208 0.48331572161184322 0 -0.32602721644446891 0.47719705688113462 0 -0.33275791060477139 0.5 0 -0.34200011506365208 0.48331572161184322 0 -0.35057321501447208 0.49999999999999872 0 -0.34200011506365208 0.48331572161184322 0 -0.32602721644446891 0.47719705688113462 0 -0.33593075250063148 0.46750731867274542 0 -0.34200011506365208 0.48331572161184322 0 -0.33593075250063148 0.46750731867274542 0 -0.35201810675435108 0.4676562019538536 0 -0.30512100021830008 0.46490456032657962 0 -0.31654611508668351 0.48621885406126381 0 -0.32602721644446891 0.47719705688113462 0 -0.30512100021830008 0.46490456032657962 0 -0.32602721644446891 0.47719705688113462 0 -0.32381548421637429 0.45642326981327008 0 -0.30636015846579262 0.44081646755455739 0 -0.32381548421637429 0.45642326981327008 0 -0.32304151796324199 0.43794530689545591 0 -0.32381548421637429 0.45642326981327008 0 -0.32304151796324199 0.43794530689545591 0 -0.34355933144160938 0.44471966407244162 0 -0.32381548421637429 0.45642326981327008 0 -0.34355933144160938 0.44471966407244162 0 -0.33593075250063148 0.46750731867274542 0 -0.32602721644446891 0.47719705688113462 0 -0.32381548421637429 0.45642326981327008 0 -0.33593075250063148 0.46750731867274542 0 -0.35201810675435108 0.4676562019538536 0 -0.36028404822733179 0.44939908513577981 0 -0.36566353784044697 0.46257036423753561 0 -0.34355933144160938 0.44471966407244162 0 -0.35201810675435108 0.4676562019538536 0 -0.36028404822733179 0.44939908513577981 0 -0.34355933144160938 0.44471966407244162 0 -0.33593075250063148 0.46750731867274542 0 -0.35201810675435108 0.4676562019538536 0 -0.36778315087773072 0.43214877602771662 0 -0.34355933144160938 0.44471966407244162 0 -0.36028404822733179 0.44939908513577981 0 -0.36778315087773072 0.43214877602771662 0 -0.36028404822733179 0.44939908513577981 0 -0.37376195539900242 0.45249759326054367 0 -0.37701653082709469 0.46900635458093531 0 -0.37376195539900242 0.45249759326054367 0 -0.36566353784044697 0.46257036423753561 0 -0.36028404822733179 0.44939908513577981 0 -0.37376195539900242 0.45249759326054367 0 -0.36566353784044697 0.46257036423753561 0 -0.36552159823955549 0.47691699748014749 0 -0.37220834978290879 0.49000150617251997 0 -0.35595833756876799 0.48470827593500232 0 -0.37701653082709469 0.46900635458093531 0 -0.36566353784044697 0.46257036423753561 0 -0.36552159823955549 0.47691699748014749 0 -0.37805640255927542 0.47903421333972468 0 -0.37701653082709469 0.46900635458093531 0 -0.36552159823955549 0.47691699748014749 0 -0.35201810675435108 0.4676562019538536 0 -0.36566353784044697 0.46257036423753561 0 -0.36552159823955549 0.47691699748014749 0 -0.37805640255927542 0.47903421333972468 0 -0.36552159823955549 0.47691699748014749 0 -0.37220834978290879 0.49000150617251997 0 -0.37220834978290879 0.49000150617251997 0 -0.35057321501447208 0.49999999999999872 0 -0.35595833756876799 0.48470827593500232 0 -0.37789332191386737 0.5 0 -0.37220834978290879 0.49000150617251997 0 -0.35057321501447208 0.49999999999999872 0 -0.37220834978290879 0.49000150617251997 0 -0.35057321501447208 0.49999999999999872 0 -0.34200011506365208 0.48331572161184322 0 -0.35057321501447208 0.49999999999999872 0 -0.35595833756876799 0.48470827593500232 0 -0.34200011506365208 0.48331572161184322 0 -0.35201810675435108 0.4676562019538536 0 -0.35595833756876799 0.48470827593500232 0 -0.35201810675435108 0.4676562019538536 0 -0.36552159823955549 0.47691699748014749 0 -0.35595833756876799 0.48470827593500232 0 -0.142080771754234 0.48212662116497451 0 -0.14744519938683801 0.47523243684594829 0 -0.1380962150490555 0.47248515407185221 0 -0.142080771754234 0.48212662116497451 0 -0.14744519938683801 0.47523243684594829 0 -0.15313912830386001 0.48632871978955722 0 -0.14744519938683801 0.47523243684594829 0 -0.1380962150490555 0.47248515407185221 0 -0.1446941887002707 0.46454185114692792 0 -0.14744519938683801 0.47523243684594829 0 -0.1446941887002707 0.46454185114692792 0 -0.15815775643206659 0.473198332503178 0 -0.14744519938683801 0.47523243684594829 0 -0.15313912830386001 0.48632871978955722 0 -0.15815775643206659 0.473198332503178 0 -0.142080771754234 0.48212662116497451 0 -0.15313912830386001 0.48632871978955722 0 -0.13803845513632401 0.5 0 -0.15313912830386001 0.48632871978955722 0 -0.13803845513632401 0.5 0 -0.1663114266205577 0.50000000000000011 0 -0.142080771754234 0.48212662116497451 0 -0.13803845513632401 0.5 0 -0.12908554574303099 0.47755934496718438 0 -0.13803845513632401 0.5 0 -0.12908554574303099 0.47755934496718438 0 -0.1160402402672886 0.48503019582547341 0 -0.142080771754234 0.48212662116497451 0 -0.12908554574303099 0.47755934496718438 0 -0.1380962150490555 0.47248515407185221 0 -0.12908554574303099 0.47755934496718438 0 -0.1380962150490555 0.47248515407185221 0 -0.13097929143795109 0.46459511115351071 0 -0.12908554574303099 0.47755934496718438 0 -0.13097929143795109 0.46459511115351071 0 -0.1176294132596279 0.46872710166108278 0 -0.13097929143795109 0.46459511115351071 0 -0.1351896940807357 0.45304119368279389 0 -0.1204057133641486 0.45504160574272429 0 -0.13097929143795109 0.46459511115351071 0 -0.1351896940807357 0.45304119368279389 0 -0.1446941887002707 0.46454185114692792 0 -0.1380962150490555 0.47248515407185221 0 -0.13097929143795109 0.46459511115351071 0 -0.1446941887002707 0.46454185114692792 0 -0.1351896940807357 0.45304119368279389 0 -0.13889501351409689 0.43598263237980822 0 -0.1242648033483075 0.43981492828754482 0 -0.1351896940807357 0.45304119368279389 0 -0.1242648033483075 0.43981492828754482 0 -0.1204057133641486 0.45504160574272429 0 -0.15017718620881049 0.45777983735391498 0 -0.13889501351409689 0.43598263237980822 0 -0.1351896940807357 0.45304119368279389 0 -0.15017718620881049 0.45777983735391498 0 -0.13889501351409689 0.43598263237980822 0 -0.15995177900170021 0.44572512983606088 0 -0.15376963845050121 0.4328235067909087 0 -0.13889501351409689 0.43598263237980822 0 -0.15017718620881049 0.45777983735391498 0 -0.15995177900170021 0.44572512983606088 0 -0.13889501351409689 0.43598263237980822 0 -0.15017718620881049 0.45777983735391498 0 -0.15995177900170021 0.44572512983606088 0 -0.1446941887002707 0.46454185114692792 0 -0.15017718620881049 0.45777983735391498 0 -0.1351896940807357 0.45304119368279389 0 -0.1446941887002707 0.46454185114692792 0 -0.15017718620881049 0.45777983735391498 0 -0.1446941887002707 0.46454185114692792 0 -0.15017718620881049 0.45777983735391498 0 -0.15815775643206659 0.473198332503178 0 -0.15017718620881049 0.45777983735391498 0 -0.15868634814382429 0.46531473325554851 0 -0.15815775643206659 0.473198332503178 0 -0.15017718620881049 0.45777983735391498 0 -0.15815775643206659 0.473198332503178 0 -0.160558198289461 0.46047642425523388 0 -0.1655661766345953 0.45099185016729298 0 -0.16585225164495951 0.46980433890986678 0 -0.1655661766345953 0.45099185016729298 0 -0.17867327812258871 0.46114583139567922 0 -0.16585225164495951 0.46980433890986678 0 -0.1655661766345953 0.45099185016729298 0 -0.16585225164495951 0.46980433890986678 0 -0.15868634814382429 0.46531473325554851 0 -0.160558198289461 0.46047642425523388 0 -0.16585225164495951 0.46980433890986678 0 -0.15017718620881049 0.45777983735391498 0 -0.15868634814382429 0.46531473325554851 0 -0.160558198289461 0.46047642425523388 0 -0.15017718620881049 0.45777983735391498 0 -0.160558198289461 0.46047642425523388 0 -0.15995177900170021 0.44572512983606088 0 -0.15995177900170021 0.44572512983606088 0 -0.1655661766345953 0.45099185016729298 0 -0.1697263717945888 0.43367042231820602 0 -0.160558198289461 0.46047642425523388 0 -0.15995177900170021 0.44572512983606088 0 -0.1655661766345953 0.45099185016729298 0 -0.15995177900170021 0.44572512983606088 0 -0.1697263717945888 0.43367042231820602 0 -0.1655661766345953 0.45099185016729298 0 -0.1926513277646352 0.45119866261047992 0 -0.1697263717945888 0.43367042231820602 0 -0.1926513277646352 0.45119866261047992 0 -0.1697263717945888 0.43367042231820602 0 -0.1926513277646352 0.45119866261047992 0 -0.18693863061853061 0.43491447939059907 0 -0.1697263717945888 0.43367042231820602 0 -0.1655661766345953 0.45099185016729298 0 -0.17867327812258871 0.46114583139567922 0 -0.1926513277646352 0.45119866261047992 0 -0.17867327812258871 0.46114583139567922 0 -0.17876854714149509 0.47093865696285842 0 -0.16585225164495951 0.46980433890986678 0 -0.17867327812258871 0.46114583139567922 0 -0.1899884502156329 0.46461586120334353 0 -0.1926513277646352 0.45119866261047992 0 -0.17867327812258871 0.46114583139567922 0 -0.17876854714149509 0.47093865696285842 0 -0.1899884502156329 0.46461586120334353 0 -0.17876854714149509 0.47093865696285842 0 -0.19138341924764241 0.47827032896460842 0 -0.1899884502156329 0.46461586120334353 0 -0.1757986315986971 0.48088398659212228 0 -0.17876854714149509 0.47093865696285842 0 -0.19138341924764241 0.47827032896460842 0 -0.1757986315986971 0.48088398659212228 0 -0.17876854714149509 0.47093865696285842 0 -0.16585225164495951 0.46980433890986678 0 -0.16585225164495951 0.46980433890986678 0 -0.16613832665532341 0.48861682765244069 0 -0.16585225164495951 0.46980433890986678 0 -0.15815775643206659 0.473198332503178 0 -0.16613832665532341 0.48861682765244069 0 -0.1757986315986971 0.48088398659212228 0 -0.16585225164495951 0.46980433890986678 0 -0.16613832665532341 0.48861682765244069 0 -0.15313912830386001 0.48632871978955722 0 -0.15815775643206659 0.473198332503178 0 -0.16613832665532341 0.48861682765244069 0 -0.15815775643206659 0.473198332503178 0 -0.16613832665532341 0.48861682765244069 0 -0.15868634814382429 0.46531473325554851 0 -0.16585225164495951 0.46980433890986678 0 -0.15815775643206659 0.473198332503178 0 -0.15313912830386001 0.48632871978955722 0 -0.16613832665532341 0.48861682765244069 0 -0.1663114266205577 0.50000000000000011 0 -0.16613832665532341 0.48861682765244069 0 -0.1720302250152923 0.50000000000000022 0 -0.16613832665532341 0.48861682765244069 0 -0.1663114266205577 0.50000000000000011 0 -0.1720302250152923 0.50000000000000022 0 -0.16613832665532341 0.48861682765244069 0 -0.1663114266205577 0.50000000000000011 0 -0.16613832665532341 0.48861682765244069 0 -0.17430115969348189 0.49501483184612438 0 -0.1720302250152923 0.50000000000000022 0 -0.17430115969348189 0.49501483184612438 0 -0.1720302250152923 0.50000000000000022 0 -0.1982872987205446 0.5 0 -0.1757986315986971 0.48088398659212228 0 -0.17430115969348189 0.49501483184612438 0 -0.19138341924764241 0.47827032896460842 0 -0.17430115969348189 0.49501483184612438 0 -0.19138341924764241 0.47827032896460842 0 -0.1757986315986971 0.48088398659212228 0 -0.16613832665532341 0.48861682765244069 0 -0.17430115969348189 0.49501483184612438 0 -0.17430115969348189 0.49501483184612438 0 -0.1982872987205446 0.5 0 -0.19138341924764241 0.47827032896460842 0 -0.1982872987205446 0.5 0 -0.19138341924764241 0.47827032896460842 0 -0.21217809917650449 0.48030286392854288 0 -0.19138341924764241 0.47827032896460842 0 -0.208465678801803 0.46152582608309223 0 -0.19138341924764241 0.47827032896460842 0 -0.21217809917650449 0.48030286392854288 0 -0.208465678801803 0.46152582608309223 0 -0.1982872987205446 0.5 0 -0.21217809917650449 0.48030286392854288 0 -0.22454437242579681 0.5 0 -0.22454437242579681 0.5 0 -0.2288960980978284 0.47674808914996208 0 -0.2467553297522557 0.48147402383551691 0 -0.21217809917650449 0.48030286392854288 0 -0.22454437242579681 0.5 0 -0.2288960980978284 0.47674808914996208 0 -0.21217809917650449 0.48030286392854288 0 -0.2288960980978284 0.47674808914996208 0 -0.22325063631842021 0.46203708915627778 0 -0.25438198006151169 0.46464464965965441 0 -0.2467553297522557 0.48147402383551691 0 -0.2372897108761052 0.46028528898629889 0 -0.2288960980978284 0.47674808914996208 0 -0.2467553297522557 0.48147402383551691 0 -0.2372897108761052 0.46028528898629889 0 -0.25080144613104921 0.5 0 -0.22454437242579681 0.5 0 -0.2467553297522557 0.48147402383551691 0 -0.24356894722331929 0.44821508210096461 0 -0.22554793835596351 0.44478132320157598 0 -0.24263019791012411 0.42803682032005991 0 -0.24356894722331929 0.44821508210096461 0 -0.2372897108761052 0.46028528898629889 0 -0.22554793835596351 0.44478132320157598 0 -0.25799490891289278 0.4433273283372331 0 -0.24356894722331929 0.44821508210096461 0 -0.24263019791012411 0.42803682032005991 0 -0.25438198006151169 0.46464464965965441 0 -0.24356894722331929 0.44821508210096461 0 -0.2372897108761052 0.46028528898629889 0 -0.2288960980978284 0.47674808914996208 0 -0.2372897108761052 0.46028528898629889 0 -0.22325063631842021 0.46203708915627778 0 -0.2372897108761052 0.46028528898629889 0 -0.22325063631842021 0.46203708915627778 0 -0.22554793835596351 0.44478132320157598 0 -0.22325063631842021 0.46203708915627778 0 -0.22554793835596351 0.44478132320157598 0 -0.208465678801803 0.46152582608309223 0 -0.22554793835596351 0.44478132320157598 0 -0.20785557032720109 0.44518798724498809 0 -0.21437917226951189 0.43588067273166847 0 -0.22554793835596351 0.44478132320157598 0 -0.20785557032720109 0.44518798724498809 0 -0.208465678801803 0.46152582608309223 0 -0.22554793835596351 0.44478132320157598 0 -0.208465678801803 0.46152582608309223 0 -0.21217809917650449 0.48030286392854288 0 -0.22325063631842021 0.46203708915627778 0 -0.208465678801803 0.46152582608309223 0 -0.19138341924764241 0.47827032896460842 0 -0.208465678801803 0.46152582608309223 0 -0.1899884502156329 0.46461586120334353 0 -0.208465678801803 0.46152582608309223 0 -0.1899884502156329 0.46461586120334353 0 -0.1926513277646352 0.45119866261047992 0 -0.20785557032720109 0.44518798724498809 0 -0.1926513277646352 0.45119866261047992 0 -0.18693863061853061 0.43491447939059907 0 -0.20785557032720109 0.44518798724498809 0 -0.208465678801803 0.46152582608309223 0 -0.1926513277646352 0.45119866261047992 0 -0.19176926968858449 0.42488004754311998 0 -0.20430089696141959 0.42856004989685992 0 -0.18693863061853061 0.43491447939059907 0 -0.20785557032720109 0.44518798724498809 0 -0.20430089696141959 0.42856004989685992 0 -0.18693863061853061 0.43491447939059907 0 -0.19176926968858449 0.42488004754311998 0 -0.19667758679306771 0.41738623802377928 0 -0.20430089696141959 0.42856004989685992 0 -0.19667758679306771 0.41738623802377928 0 -0.19460267291041519 0.40299123798476227 0 -0.182164522352502 0.41833083015148409 0 -0.19460267291041519 0.40299123798476227 0 -0.182164522352502 0.41833083015148409 0 -0.19176926968858449 0.42488004754311998 0 -0.19667758679306771 0.41738623802377928 0 -0.182164522352502 0.41833083015148409 0 -0.19667758679306771 0.41738623802377928 0 -0.2074030129404133 0.4163894186605448 0 -0.20430089696141959 0.42856004989685992 0 -0.19667758679306771 0.41738623802377928 0 -0.2074030129404133 0.4163894186605448 0 -0.19460267291041519 0.40299123798476227 0 -0.2074030129404133 0.4163894186605448 0 -0.21981228343346321 0.42499333058324978 0 -0.22162162460370111 0.40801623681407218 0 -0.2074030129404133 0.4163894186605448 0 -0.22162162460370111 0.40801623681407218 0 -0.19460267291041519 0.40299123798476227 0 -0.20785557032720109 0.44518798724498809 0 -0.20430089696141959 0.42856004989685992 0 -0.21437917226951189 0.43588067273166847 0 -0.2074030129404133 0.4163894186605448 0 -0.20430089696141959 0.42856004989685992 0 -0.21981228343346321 0.42499333058324978 0 -0.20430089696141959 0.42856004989685992 0 -0.21437917226951189 0.43588067273166847 0 -0.21981228343346321 0.42499333058324978 0 -0.22554793835596351 0.44478132320157598 0 -0.24263019791012411 0.42803682032005991 0 -0.22554793835596351 0.44478132320157598 0 -0.2313941741476824 0.42795323546389102 0 -0.24263019791012411 0.42803682032005991 0 -0.22554793835596351 0.44478132320157598 0 -0.21437917226951189 0.43588067273166847 0 -0.21981228343346321 0.42499333058324978 0 -0.22554793835596351 0.44478132320157598 0 -0.2313941741476824 0.42795323546389102 0 -0.21981228343346321 0.42499333058324978 0 -0.2313941741476824 0.42795323546389102 0 -0.21981228343346321 0.42499333058324978 0 -0.2301621318308705 0.41771135234831969 0 -0.2313941741476824 0.42795323546389102 0 -0.2301621318308705 0.41771135234831969 0 -0.23881831920799079 0.42424335086624981 0 -0.21981228343346321 0.42499333058324978 0 -0.22162162460370111 0.40801623681407218 0 -0.2301621318308705 0.41771135234831969 0 -0.22162162460370111 0.40801623681407218 0 -0.2301621318308705 0.41771135234831969 0 -0.241034552697166 0.41286836770778501 0 -0.25157066981256843 0.40894445920752592 0 -0.241034552697166 0.41286836770778501 0 -0.24263019791012411 0.42803682032005991 0 -0.241034552697166 0.41286836770778501 0 -0.24263019791012411 0.42803682032005991 0 -0.23881831920799079 0.42424335086624981 0 -0.22162162460370111 0.40801623681407218 0 -0.241034552697166 0.41286836770778501 0 -0.24388213391773941 0.40163479241199579 0 -0.2301621318308705 0.41771135234831969 0 -0.241034552697166 0.41286836770778501 0 -0.23881831920799079 0.42424335086624981 0 -0.25157066981256843 0.40894445920752592 0 -0.241034552697166 0.41286836770778501 0 -0.24388213391773941 0.40163479241199579 0 -0.2313941741476824 0.42795323546389102 0 -0.24263019791012411 0.42803682032005991 0 -0.23881831920799079 0.42424335086624981 0 -0.24263019791012411 0.42803682032005991 0 -0.23881831920799079 0.42424335086624981 0 -0.25453646971320443 0.37462232419521813 0 -0.24781733580734391 0.38604582424895789 0 -0.23735930512057779 0.37349779701461089 0 -0.2365264908337599 0.38834162546439549 0 -0.24781733580734391 0.38604582424895789 0 -0.23735930512057779 0.37349779701461089 0 -0.2365264908337599 0.38834162546439549 0 -0.24781733580734391 0.38604582424895789 0 -0.24388213391773941 0.40163479241199579 0 -0.22162162460370111 0.40801623681407218 0 -0.24388213391773941 0.40163479241199579 0 -0.22162162460370111 0.40801623681407218 0 -0.2365264908337599 0.38834162546439549 0 -0.2225569648072106 0.38059728391652659 0 -0.22162162460370111 0.40801623681407218 0 -0.2365264908337599 0.38834162546439549 0 -0.24388213391773941 0.40163479241199579 0 -0.2365264908337599 0.38834162546439549 0 -0.2225569648072106 0.38059728391652659 0 -0.23735930512057779 0.37349779701461089 0 -0.2225569648072106 0.38059728391652659 0 -0.20545957084956781 0.38789926664213359 0 -0.1994770785436861 0.36691897370504389 0 -0.22162162460370111 0.40801623681407218 0 -0.2225569648072106 0.38059728391652659 0 -0.20545957084956781 0.38789926664213359 0 -0.22162162460370111 0.40801623681407218 0 -0.20545957084956781 0.38789926664213359 0 -0.19460267291041519 0.40299123798476227 0 -0.20545957084956781 0.38789926664213359 0 -0.19460267291041519 0.40299123798476227 0 -0.18736095772118591 0.3836472042370111 0 -0.20545957084956781 0.38789926664213359 0 -0.18736095772118591 0.3836472042370111 0 -0.1994770785436861 0.36691897370504389 0 -0.18736095772118591 0.3836472042370111 0 -0.16248792359233191 0.38534127627451031 0 -0.17644948136236779 0.3976803029940168 0 -0.18736095772118591 0.3836472042370111 0 -0.16248792359233191 0.38534127627451031 0 -0.1741500565645078 0.37123080613525078 0 -0.16248792359233191 0.38534127627451031 0 -0.16330635783110381 0.4038062271485704 0 -0.14438589058212131 0.3948348353259919 0 -0.16248792359233191 0.38534127627451031 0 -0.16330635783110381 0.4038062271485704 0 -0.17644948136236779 0.3976803029940168 0 -0.19460267291041519 0.40299123798476227 0 -0.17644948136236779 0.3976803029940168 0 -0.17778078602166139 0.40821888849324761 0 -0.19460267291041519 0.40299123798476227 0 -0.18736095772118591 0.3836472042370111 0 -0.17644948136236779 0.3976803029940168 0 -0.16330635783110381 0.4038062271485704 0 -0.17644948136236779 0.3976803029940168 0 -0.17778078602166139 0.40821888849324761 0 -0.19460267291041519 0.40299123798476227 0 -0.182164522352502 0.41833083015148409 0 -0.17778078602166139 0.40821888849324761 0 -0.182164522352502 0.41833083015148409 0 -0.1723808956519178 0.41828584418740389 0 -0.17778078602166139 0.40821888849324761 0 -0.19176926968858449 0.42488004754311998 0 -0.182164522352502 0.41833083015148409 0 -0.18693863061853061 0.43491447939059907 0 -0.182164522352502 0.41833083015148409 0 -0.18693863061853061 0.43491447939059907 0 -0.1697263717945888 0.43367042231820602 0 -0.182164522352502 0.41833083015148409 0 -0.1697263717945888 0.43367042231820602 0 -0.182164522352502 0.41833083015148409 0 -0.1723808956519178 0.41828584418740389 0 -0.1697263717945888 0.43367042231820602 0 -0.15995177900170021 0.44572512983606088 0 -0.1697263717945888 0.43367042231820602 0 -0.15376963845050121 0.4328235067909087 0 -0.1697263717945888 0.43367042231820602 0 -0.14650538949161929 0.41591584262955861 0 -0.15376963845050121 0.4328235067909087 0 -0.1697263717945888 0.43367042231820602 0 -0.14650538949161929 0.41591584262955861 0 -0.1723808956519178 0.41828584418740389 0 -0.1697263717945888 0.43367042231820602 0 -0.14650538949161929 0.41591584262955861 0 -0.1723808956519178 0.41828584418740389 0 -0.14650538949161929 0.41591584262955861 0 -0.16330635783110381 0.4038062271485704 0 -0.1723808956519178 0.41828584418740389 0 -0.14650538949161929 0.41591584262955861 0 -0.16330635783110381 0.4038062271485704 0 -0.1723808956519178 0.41828584418740389 0 -0.17778078602166139 0.40821888849324761 0 -0.14650538949161929 0.41591584262955861 0 -0.15376963845050121 0.4328235067909087 0 -0.13889501351409689 0.43598263237980822 0 -0.13889501351409689 0.43598263237980822 0 -0.12761284081938409 0.41418542740570108 0 -0.14650538949161929 0.41591584262955861 0 -0.13889501351409689 0.43598263237980822 0 -0.12761284081938409 0.41418542740570108 0 -0.13889501351409689 0.43598263237980822 0 -0.12761284081938409 0.41418542740570108 0 -0.1242648033483075 0.43981492828754482 0 -0.14650538949161929 0.41591584262955861 0 -0.12761284081938409 0.41418542740570108 0 -0.12644786621320531 0.40058001872868543 0 -0.14650538949161929 0.41591584262955861 0 -0.12644786621320531 0.40058001872868543 0 -0.14650538949161929 0.41591584262955861 0 -0.12761284081938409 0.41418542740570108 0 -0.14650538949161929 0.41591584262955861 0 -0.12644786621320531 0.40058001872868543 0 -0.14438589058212131 0.3948348353259919 0 -0.12644786621320531 0.40058001872868543 0 -0.12826940643264259 0.38638828685515292 0 -0.14438589058212131 0.3948348353259919 0 -0.1399268433138337 0.37661104245066729 0 -0.12826940643264259 0.38638828685515292 0 -0.1198206075896991 0.37069234566290138 0 -0.1399268433138337 0.37661104245066729 0 -0.12826940643264259 0.38638828685515292 0 -0.14438589058212131 0.3948348353259919 0 -0.16248792359233191 0.38534127627451031 0 -0.1399268433138337 0.37661104245066729 0 -0.1571746455416145 0.36408416689185819 0 -0.16248792359233191 0.38534127627451031 0 -0.1399268433138337 0.37661104245066729 0 -0.14438589058212131 0.3948348353259919 0 -0.16330635783110381 0.4038062271485704 0 -0.14650538949161929 0.41591584262955861 0 -0.14438589058212131 0.3948348353259919 0 -0.1367685514822152 0.35851885971508118 0 -0.13367478836053351 0.33932016938713638 0 -0.15331730601663701 0.3395623532820784 0 -0.1367685514822152 0.35851885971508118 0 -0.15331730601663701 0.3395623532820784 0 -0.1571746455416145 0.36408416689185819 0 -0.1399268433138337 0.37661104245066729 0 -0.1367685514822152 0.35851885971508118 0 -0.1571746455416145 0.36408416689185819 0 -0.1399268433138337 0.37661104245066729 0 -0.1367685514822152 0.35851885971508118 0 -0.1198206075896991 0.37069234566290138 0 -0.1367685514822152 0.35851885971508118 0 -0.13367478836053351 0.33932016938713638 0 -0.1173066256070304 0.35104950557859033 0 -0.13367478836053351 0.33932016938713638 0 -0.1262409447270301 0.3211703831111522 0 -0.1175879007316586 0.33497855513245622 0 -0.13367478836053351 0.33932016938713638 0 -0.1262409447270301 0.3211703831111522 0 -0.14995133854557879 0.31573290008088639 0 -0.1262409447270301 0.3211703831111522 0 -0.14995133854557879 0.31573290008088639 0 -0.13170636281121431 0.30540396541675668 0 -0.13367478836053351 0.33932016938713638 0 -0.14995133854557879 0.31573290008088639 0 -0.15331730601663701 0.3395623532820784 0 -0.15331730601663701 0.3395623532820784 0 -0.17079439025487569 0.32494122108339912 0 -0.1763971922801616 0.3532406634935612 0 -0.14995133854557879 0.31573290008088639 0 -0.17079439025487569 0.32494122108339912 0 -0.167164841548782 0.29891422322321631 0 -0.14995133854557879 0.31573290008088639 0 -0.15331730601663701 0.3395623532820784 0 -0.17079439025487569 0.32494122108339912 0 -0.17079439025487569 0.32494122108339912 0 -0.19256976679114979 0.33165381796875049 0 -0.19699128312530151 0.30504565645142051 0 -0.17079439025487569 0.32494122108339912 0 -0.1763971922801616 0.3532406634935612 0 -0.19256976679114979 0.33165381796875049 0 -0.15331730601663701 0.3395623532820784 0 -0.1763971922801616 0.3532406634935612 0 -0.1571746455416145 0.36408416689185819 0 -0.15331730601663701 0.3395623532820784 0 -0.1763971922801616 0.3532406634935612 0 -0.1763971922801616 0.3532406634935612 0 -0.1571746455416145 0.36408416689185819 0 -0.1741500565645078 0.37123080613525078 0 -0.16248792359233191 0.38534127627451031 0 -0.1571746455416145 0.36408416689185819 0 -0.1741500565645078 0.37123080613525078 0 -0.18736095772118591 0.3836472042370111 0 -0.1741500565645078 0.37123080613525078 0 -0.1994770785436861 0.36691897370504389 0 -0.1763971922801616 0.3532406634935612 0 -0.1741500565645078 0.37123080613525078 0 -0.1994770785436861 0.36691897370504389 0 -0.1763971922801616 0.3532406634935612 0 -0.1994770785436861 0.36691897370504389 0 -0.1763971922801616 0.3532406634935612 0 -0.20127160642404629 0.34878804965207372 0 -0.19256976679114979 0.33165381796875049 0 -0.1763971922801616 0.3532406634935612 0 -0.1994770785436861 0.36691897370504389 0 -0.20127160642404629 0.34878804965207372 0 -0.1994770785436861 0.36691897370504389 0 -0.20127160642404629 0.34878804965207372 0 -0.22480168799342179 0.35512276170724633 0 -0.20127160642404629 0.34878804965207372 0 -0.22480168799342179 0.35512276170724633 0 -0.2131123065118124 0.33700403138576668 0 -0.2225569648072106 0.38059728391652659 0 -0.1994770785436861 0.36691897370504389 0 -0.2225569648072106 0.38059728391652659 0 -0.1994770785436861 0.36691897370504389 0 -0.22480168799342179 0.35512276170724633 0 -0.2225569648072106 0.38059728391652659 0 -0.22480168799342179 0.35512276170724633 0 -0.23735930512057779 0.37349779701461089 0 -0.25368472498167011 0.34420349485172652 0 -0.22480168799342179 0.35512276170724633 0 -0.24822911175635759 0.36217347122335058 0 -0.22480168799342179 0.35512276170724633 0 -0.24822911175635759 0.36217347122335058 0 -0.23735930512057779 0.37349779701461089 0 -0.25453646971320443 0.37462232419521813 0 -0.24822911175635759 0.36217347122335058 0 -0.23735930512057779 0.37349779701461089 0 -0.25757488899104952 0.31786411623381933 0 -0.23478691102954721 0.33115088205162452 0 -0.2366570207200871 0.30010935915934539 0 -0.25368472498167011 0.34420349485172652 0 -0.22480168799342179 0.35512276170724633 0 -0.23478691102954721 0.33115088205162452 0 -0.25368472498167011 0.34420349485172652 0 -0.23478691102954721 0.33115088205162452 0 -0.25757488899104952 0.31786411623381933 0 -0.25368472498167011 0.34420349485172652 0 -0.23478691102954721 0.33115088205162452 0 -0.23478691102954721 0.33115088205162452 0 -0.2158890970774244 0.31809826925152251 0 -0.2131123065118124 0.33700403138576668 0 -0.22480168799342179 0.35512276170724633 0 -0.23478691102954721 0.33115088205162452 0 -0.2131123065118124 0.33700403138576668 0 -0.23478691102954721 0.33115088205162452 0 -0.2158890970774244 0.31809826925152251 0 -0.2366570207200871 0.30010935915934539 0 -0.23478691102954721 0.33115088205162452 0 -0.2158890970774244 0.31809826925152251 0 -0.2158890970774244 0.31809826925152251 0 -0.2131123065118124 0.33700403138576668 0 -0.19256976679114979 0.33165381796875049 0 -0.20127160642404629 0.34878804965207372 0 -0.2131123065118124 0.33700403138576668 0 -0.19256976679114979 0.33165381796875049 0 -0.2158890970774244 0.31809826925152251 0 -0.19256976679114979 0.33165381796875049 0 -0.19699128312530151 0.30504565645142051 0 -0.19699128312530151 0.30504565645142051 0 -0.2044220976180971 0.2747921468301005 0 -0.18537993383704029 0.28397978744787411 0 -0.19699128312530151 0.30504565645142051 0 -0.21636901433909059 0.29447561219915308 0 -0.2044220976180971 0.2747921468301005 0 -0.2158890970774244 0.31809826925152251 0 -0.19699128312530151 0.30504565645142051 0 -0.21636901433909059 0.29447561219915308 0 -0.2158890970774244 0.31809826925152251 0 -0.19699128312530151 0.30504565645142051 0 -0.2158890970774244 0.31809826925152251 0 -0.21636901433909059 0.29447561219915308 0 -0.2366570207200871 0.30010935915934539 0 -0.21636901433909059 0.29447561219915308 0 -0.2366570207200871 0.30010935915934539 0 -0.2235041758045673 0.27405874977876837 0 -0.26277913973510902 0.29023342414179659 0 -0.2366570207200871 0.30010935915934539 0 -0.2447247674615598 0.2718938593685879 0 -0.2366570207200871 0.30010935915934539 0 -0.2447247674615598 0.2718938593685879 0 -0.2235041758045673 0.27405874977876837 0 -0.25693865295534157 0.25278860643768353 0 -0.2416444700809012 0.25186566196455601 0 -0.2447247674615598 0.2718938593685879 0 -0.2416444700809012 0.25186566196455601 0 -0.2447247674615598 0.2718938593685879 0 -0.22667039518801041 0.25355429459537898 0 -0.2447247674615598 0.2718938593685879 0 -0.22667039518801041 0.25355429459537898 0 -0.2447247674615598 0.2718938593685879 0 -0.2235041758045673 0.27405874977876837 0 -0.22667039518801041 0.25355429459537898 0 -0.2235041758045673 0.27405874977876837 0 -0.22667039518801041 0.25355429459537898 0 -0.21218175950055909 0.24952722652004439 0 -0.2044220976180971 0.2747921468301005 0 -0.1929026130837673 0.25762258695206858 0 -0.21218175950055909 0.24952722652004439 0 -0.2044220976180971 0.2747921468301005 0 -0.21218175950055909 0.24952722652004439 0 -0.2235041758045673 0.27405874977876837 0 -0.2044220976180971 0.2747921468301005 0 -0.21218175950055909 0.24952722652004439 0 -0.21636901433909059 0.29447561219915308 0 -0.2235041758045673 0.27405874977876837 0 -0.2044220976180971 0.2747921468301005 0 -0.2044220976180971 0.2747921468301005 0 -0.1929026130837673 0.25762258695206858 0 -0.18537993383704029 0.28397978744787411 0 -0.1929026130837673 0.25762258695206858 0 -0.16582228118094081 0.26466105519565358 0 -0.18651378479530609 0.23505073182760211 0 -0.1929026130837673 0.25762258695206858 0 -0.16582228118094081 0.26466105519565358 0 -0.18537993383704029 0.28397978744787411 0 -0.16582228118094081 0.26466105519565358 0 -0.167164841548782 0.29891422322321631 0 -0.14136362158270599 0.28508793949713551 0 -0.16582228118094081 0.26466105519565358 0 -0.18537993383704029 0.28397978744787411 0 -0.167164841548782 0.29891422322321631 0 -0.19699128312530151 0.30504565645142051 0 -0.18537993383704029 0.28397978744787411 0 -0.167164841548782 0.29891422322321631 0 -0.17079439025487569 0.32494122108339912 0 -0.19699128312530151 0.30504565645142051 0 -0.167164841548782 0.29891422322321631 0 -0.167164841548782 0.29891422322321631 0 -0.14136362158270599 0.28508793949713551 0 -0.14995133854557879 0.31573290008088639 0 -0.167164841548782 0.29891422322321631 0 -0.14136362158270599 0.28508793949713551 0 -0.14995133854557879 0.31573290008088639 0 -0.14136362158270599 0.28508793949713551 0 -0.13170636281121431 0.30540396541675668 0 -0.1262409447270301 0.3211703831111522 0 -0.13170636281121431 0.30540396541675668 0 -0.1173504618646501 0.30916380798395637 0 -0.14136362158270599 0.28508793949713551 0 -0.13170636281121431 0.30540396541675668 0 -0.1202787732923796 0.29457691953651272 0 -0.14136362158270599 0.28508793949713551 0 -0.1196693143642453 0.28329908912575552 0 -0.1202787732923796 0.29457691953651272 0 -0.14136362158270599 0.28508793949713551 0 -0.1155624016166297 0.27126165577105521 0 -0.1196693143642453 0.28329908912575552 0 -0.14136362158270599 0.28508793949713551 0 -0.1155624016166297 0.27126165577105521 0 -0.12872708527658799 0.25991420809329241 0 -0.1416417428525672 0.26777243923482702 0 -0.1155624016166297 0.27126165577105521 0 -0.14136362158270599 0.28508793949713551 0 -0.1416417428525672 0.26777243923482702 0 -0.1155624016166297 0.27126165577105521 0 -0.12872708527658799 0.25991420809329241 0 -0.14534546737678511 0.25129379472131641 0 -0.1416417428525672 0.26777243923482702 0 -0.12872708527658799 0.25991420809329241 0 -0.14534546737678511 0.25129379472131641 0 -0.12470300375741469 0.2457033751303839 0 -0.16582228118094081 0.26466105519565358 0 -0.14534546737678511 0.25129379472131641 0 -0.1416417428525672 0.26777243923482702 0 -0.16582228118094081 0.26466105519565358 0 -0.14136362158270599 0.28508793949713551 0 -0.1416417428525672 0.26777243923482702 0 -0.1083690905562489 0.27746201143443072 0 -0.10470287070229969 0.27376422074294909 0 -0.09206590757372593 0.27740472432850488 0 -0.099741497972773749 0.27068482051400677 0 -0.1098053558875477 0.27272524579145851 0 -0.092391857727521592 0.25884509119311472 0 -0.1155624016166297 0.27126165577105521 0 -0.1098053558875477 0.27272524579145851 0 -0.092391857727521592 0.25884509119311472 0 -0.099741497972773749 0.27068482051400677 0 -0.09206590757372593 0.27740472432850488 0 -0.092391857727521592 0.25884509119311472 0 -0.10470287070229969 0.27376422074294909 0 -0.099741497972773749 0.27068482051400677 0 -0.1098053558875477 0.27272524579145851 0 -0.1083690905562489 0.27746201143443072 0 -0.1098053558875477 0.27272524579145851 0 -0.1083690905562489 0.27746201143443072 0 -0.10470287070229969 0.27376422074294909 0 -0.1098053558875477 0.27272524579145851 0 -0.10470287070229969 0.27376422074294909 0 -0.099741497972773749 0.27068482051400677 0 -0.09206590757372593 0.27740472432850488 0 -0.1155624016166297 0.27126165577105521 0 -0.092391857727521592 0.25884509119311472 0 -0.11076524853809321 0.25238606884059173 0 -0.1155624016166297 0.27126165577105521 0 -0.092391857727521592 0.25884509119311472 0 -0.11076524853809321 0.25238606884059173 0 -0.1199394347971814 0.25731632695883078 0 -0.1155624016166297 0.27126165577105521 0 -0.12872708527658799 0.25991420809329241 0 -0.1199394347971814 0.25731632695883078 0 -0.12470300375741469 0.2457033751303839 0 -0.11076524853809321 0.25238606884059173 0 -0.1199394347971814 0.25731632695883078 0 -0.12470300375741469 0.2457033751303839 0 -0.12872708527658799 0.25991420809329241 0 -0.1199394347971814 0.25731632695883078 0 -0.1155624016166297 0.27126165577105521 0 -0.12872708527658799 0.25991420809329241 0 -0.1155624016166297 0.27126165577105521 0 -0.1083690905562489 0.27746201143443072 0 -0.1155624016166297 0.27126165577105521 0 -0.1196693143642453 0.28329908912575552 0 -0.1083690905562489 0.27746201143443072 0 -0.1155624016166297 0.27126165577105521 0 -0.1098053558875477 0.27272524579145851 0 -0.1083690905562489 0.27746201143443072 0 -0.1155624016166297 0.27126165577105521 0 -0.1083690905562489 0.27746201143443072 0 -0.1202787732923796 0.29457691953651272 0 -0.1003457715998239 0.30392270831765028 0 -0.1083690905562489 0.27746201143443072 0 -0.1196693143642453 0.28329908912575552 0 -0.1202787732923796 0.29457691953651272 0 -0.1202787732923796 0.29457691953651272 0 -0.1173504618646501 0.30916380798395637 0 -0.1003457715998239 0.30392270831765028 0 -0.13170636281121431 0.30540396541675668 0 -0.1202787732923796 0.29457691953651272 0 -0.1173504618646501 0.30916380798395637 0 -0.1173504618646501 0.30916380798395637 0 -0.1003457715998239 0.30392270831765028 0 -0.1081804568928026 0.32074506353771021 0 -0.1083690905562489 0.27746201143443072 0 -0.08834593029567378 0.29472120043351602 0 -0.09206590757372593 0.27740472432850488 0 -0.1083690905562489 0.27746201143443072 0 -0.1003457715998239 0.30392270831765028 0 -0.08834593029567378 0.29472120043351602 0 -0.1083690905562489 0.27746201143443072 0 -0.1003457715998239 0.30392270831765028 0 -0.1083690905562489 0.27746201143443072 0 -0.08834593029567378 0.29472120043351602 0 -0.08834593029567378 0.29472120043351602 0 -0.079344374197139078 0.28508182268507098 0 -0.09206590757372593 0.27740472432850488 0 -0.08834593029567378 0.29472120043351602 0 -0.072463929930227558 0.29930610977545041 0 -0.077617967212061698 0.29366907382828078 0 -0.08834593029567378 0.29472120043351602 0 -0.079344374197139078 0.28508182268507098 0 -0.077617967212061698 0.29366907382828078 0 -0.08834593029567378 0.29472120043351602 0 -0.087527931766016032 0.31235393694025021 0 -0.08121949171140587 0.31012908581564408 0 -0.08834593029567378 0.29472120043351602 0 -0.068322770035098762 0.31198038943260148 0 -0.1003457715998239 0.30392270831765028 0 -0.08834593029567378 0.29472120043351602 0 -0.087527931766016032 0.31235393694025021 0 -0.08834593029567378 0.29472120043351602 0 -0.08121949171140587 0.31012908581564408 0 -0.069852456288818351 0.31207980665071 0 -0.08834593029567378 0.29472120043351602 0 -0.068322770035098762 0.31198038943260148 0 -0.069852456288818351 0.31207980665071 0 -0.08834593029567378 0.29472120043351602 0 -0.072463929930227558 0.29930610977545041 0 -0.068322770035098762 0.31198038943260148 0 -0.072463929930227558 0.29930610977545041 0 -0.064179569528432873 0.29754197169583518 0 -0.063962500348327456 0.30379626580195229 0 -0.072463929930227558 0.29930610977545041 0 -0.063962500348327456 0.30379626580195229 0 -0.068322770035098762 0.31198038943260148 0 -0.068322770035098762 0.31198038943260148 0 -0.069852456288818351 0.31207980665071 0 -0.079344374197139078 0.28508182268507098 0 -0.070510141993048517 0.29225124769799787 0 -0.067485792004003509 0.28106498521306011 0 -0.079344374197139078 0.28508182268507098 0 -0.077617967212061698 0.29366907382828078 0 -0.070510141993048517 0.29225124769799787 0 -0.072463929930227558 0.29930610977545041 0 -0.077617967212061698 0.29366907382828078 0 -0.070510141993048517 0.29225124769799787 0 -0.064179569528432873 0.29754197169583518 0 -0.070510141993048517 0.29225124769799787 0 -0.059799020663136082 0.29068729405280619 0 -0.072463929930227558 0.29930610977545041 0 -0.064179569528432873 0.29754197169583518 0 -0.070510141993048517 0.29225124769799787 0 -0.070510141993048517 0.29225124769799787 0 -0.067485792004003509 0.28106498521306011 0 -0.059799020663136082 0.29068729405280619 0 -0.079344374197139078 0.28508182268507098 0 -0.077112635008727601 0.26938653581869981 0 -0.067485792004003509 0.28106498521306011 0 -0.077112635008727601 0.26938653581869981 0 -0.067485792004003509 0.28106498521306011 0 -0.060296114269721542 0.26705395206363342 0 -0.079344374197139078 0.28508182268507098 0 -0.077112635008727601 0.26938653581869981 0 -0.09206590757372593 0.27740472432850488 0 -0.077112635008727601 0.26938653581869981 0 -0.09206590757372593 0.27740472432850488 0 -0.092391857727521592 0.25884509119311472 0 -0.092391857727521592 0.25884509119311472 0 -0.069221313838413207 0.24642852661517459 0 -0.077112635008727601 0.26938653581869981 0 -0.092391857727521592 0.25884509119311472 0 -0.069221313838413207 0.24642852661517459 0 -0.077112635008727601 0.26938653581869981 0 -0.060296114269721542 0.26705395206363342 0 -0.069221313838413207 0.24642852661517459 0 -0.048126263350958612 0.25465777805589501 0 -0.060296114269721542 0.26705395206363342 0 -0.069221313838413207 0.24642852661517459 0 -0.048126263350958612 0.25465777805589501 0 -0.060296114269721542 0.26705395206363342 0 -0.041784573477856593 0.2719242686623195 0 -0.055384127889045079 0.27986410773994991 0 -0.060296114269721542 0.26705395206363342 0 -0.041784573477856593 0.2719242686623195 0 -0.055384127889045079 0.27986410773994991 0 -0.041784573477856593 0.2719242686623195 0 -0.044370237993260717 0.29032640624232281 0 -0.067485792004003509 0.28106498521306011 0 -0.055384127889045079 0.27986410773994991 0 -0.060296114269721542 0.26705395206363342 0 -0.041784573477856593 0.2719242686623195 0 -0.028053557715267439 0.25838243531431121 0 -0.02550209953536561 0.27186686885002359 0 -0.041784573477856593 0.2719242686623195 0 -0.02550209953536561 0.27186686885002359 0 -0.031040102747703489 0.28267752730564011 0 -0.048126263350958612 0.25465777805589501 0 -0.041784573477856593 0.2719242686623195 0 -0.028053557715267439 0.25838243531431121 0 -0.048126263350958612 0.25465777805589501 0 -0.028053557715267439 0.25838243531431121 0 -0.033382390283993792 0.24359412621706661 0 -0.028053557715267439 0.25838243531431121 0 -0.01504563196256534 0.26333196488375049 0 -0.01778818590069102 0.2421293126167848 0 -0.01504563196256534 0.26333196488375049 0 -0.01778818590069102 0.2421293126167848 0 -0.028053557715267439 0.25838243531431121 0 -0.02550209953536561 0.27186686885002359 0 -0.01504563196256534 0.26333196488375049 0 -0.028053557715267439 0.25838243531431121 0 -0.01504563196256534 0.26333196488375049 0 -0.02550209953536561 0.27186686885002359 0 -0.01214761008608776 0.28573653795517551 0 -0.031040102747703489 0.28267752730564011 0 -0.02550209953536561 0.27186686885002359 0 -0.01504563196256534 0.26333196488375049 0 -0.01214761008608776 0.28573653795517551 0 -0.001267499687089951 0.2776013217203892 0 -0.01504563196256534 0.26333196488375049 0 -0.01214761008608776 0.28573653795517551 0 -0.01504563196256534 0.26333196488375049 0 -0.01214761008608776 0.28573653795517551 0 -0.00067809962666212902 0.26216505597133072 0 -0.01504563196256534 0.26333196488375049 0 0.010965700908337589 0.27322930467739909 0 -0.001267499687089951 0.2776013217203892 0 -0.01504563196256534 0.26333196488375049 0 0.010965700908337589 0.27322930467739909 0 -0.01504563196256534 0.26333196488375049 0 0.010965700908337589 0.27322930467739909 0 -0.0087132352456033638 0.25173417187717928 0 -0.01504563196256534 0.26333196488375049 0 -0.01778818590069102 0.2421293126167848 0 -0.00067809962666212902 0.26216505597133072 0 -0.0087132352456033638 0.25173417187717928 0 0.0027594708259384838 0.25829047161104352 0 -0.00067809962666212902 0.26216505597133072 0 -0.0087132352456033638 0.25173417187717928 0 -0.01504563196256534 0.26333196488375049 0 -0.009249588209606344 0.30814111102660002 0 -0.01214761008608776 0.28573653795517551 0 0.0038021096493471361 0.29689124930627131 0 -0.009249588209606344 0.30814111102660002 0 -0.01214761008608776 0.28573653795517551 0 -0.01214761008608776 0.28573653795517551 0 0.002380999114604244 0.28599596302517022 0 0.0038021096493471361 0.29689124930627131 0 -0.001267499687089951 0.2776013217203892 0 -0.01214761008608776 0.28573653795517551 0 0.002380999114604244 0.28599596302517022 0 -0.009249588209606344 0.30814111102660002 0 -0.01214761008608776 0.28573653795517551 0 -0.02711874363180217 0.2953884665518679 0 -0.01214761008608776 0.28573653795517551 0 -0.031040102747703489 0.28267752730564011 0 -0.02711874363180217 0.2953884665518679 0 -0.009249588209606344 0.30814111102660002 0 -0.02711874363180217 0.2953884665518679 0 -0.038786179122352507 0.31006075022960111 0 -0.009249588209606344 0.30814111102660002 0 -0.038786179122352507 0.31006075022960111 0 -0.02711874363180217 0.2953884665518679 0 -0.038786179122352507 0.31006075022960111 0 -0.044370237993260717 0.29032640624232281 0 -0.038786179122352507 0.31006075022960111 0 -0.044370237993260717 0.29032640624232281 0 -0.054162254707424723 0.30166894115096898 0 -0.031040102747703489 0.28267752730564011 0 -0.02711874363180217 0.2953884665518679 0 -0.044370237993260717 0.29032640624232281 0 -0.041784573477856593 0.2719242686623195 0 -0.031040102747703489 0.28267752730564011 0 -0.044370237993260717 0.29032640624232281 0 -0.055384127889045079 0.27986410773994991 0 -0.044370237993260717 0.29032640624232281 0 -0.059799020663136082 0.29068729405280619 0 -0.044370237993260717 0.29032640624232281 0 -0.059799020663136082 0.29068729405280619 0 -0.054162254707424723 0.30166894115096898 0 -0.064179569528432873 0.29754197169583518 0 -0.059799020663136082 0.29068729405280619 0 -0.054162254707424723 0.30166894115096898 0 -0.067485792004003509 0.28106498521306011 0 -0.055384127889045079 0.27986410773994991 0 -0.059799020663136082 0.29068729405280619 0 -0.068322770035098762 0.31198038943260148 0 -0.038786179122352507 0.31006075022960111 0 -0.068322770035098762 0.31198038943260148 0 -0.038786179122352507 0.31006075022960111 0 -0.054162254707424723 0.30166894115096898 0 -0.064179569528432873 0.29754197169583518 0 -0.063962500348327456 0.30379626580195229 0 -0.054162254707424723 0.30166894115096898 0 -0.063962500348327456 0.30379626580195229 0 -0.068322770035098762 0.31198038943260148 0 -0.054162254707424723 0.30166894115096898 0 -0.068322770035098762 0.31198038943260148 0 -0.038786179122352507 0.31006075022960111 0 -0.053879496619987192 0.32442993198196868 0 -0.068322770035098762 0.31198038943260148 0 -0.053879496619987192 0.32442993198196868 0 -0.059045099567240703 0.33862263320968672 0 -0.059976501396798443 0.34640013057040159 0 -0.068046633572776155 0.34513696516333192 0 -0.053879496619987192 0.32442993198196868 0 -0.059045099567240703 0.33862263320968672 0 -0.06815446288386498 0.3263880450875648 0 -0.053879496619987192 0.32442993198196868 0 -0.059045099567240703 0.33862263320968672 0 -0.049717572699208172 0.33977374392884352 0 -0.053879496619987192 0.32442993198196868 0 -0.049717572699208172 0.33977374392884352 0 -0.039436223204876379 0.33687947453133682 0 -0.059045099567240703 0.33862263320968672 0 -0.049717572699208172 0.33977374392884352 0 -0.052933118771744558 0.34753778728834739 0 -0.049717572699208172 0.33977374392884352 0 -0.039436223204876379 0.33687947453133682 0 -0.045752302425533672 0.34929255203680049 0 -0.053879496619987192 0.32442993198196868 0 -0.039436223204876379 0.33687947453133682 0 -0.039359444206513459 0.32419621080282812 0 -0.053879496619987192 0.32442993198196868 0 -0.039436223204876379 0.33687947453133682 0 -0.039436223204876379 0.33687947453133682 0 -0.039359444206513459 0.32419621080282812 0 -0.02531264429424256 0.33765677836634578 0 -0.039436223204876379 0.33687947453133682 0 -0.02531264429424256 0.33765677836634578 0 -0.034795741464765127 0.3466441775467104 0 -0.038786179122352507 0.31006075022960111 0 -0.053879496619987192 0.32442993198196868 0 -0.039359444206513459 0.32419621080282812 0 -0.038786179122352507 0.31006075022960111 0 -0.039359444206513459 0.32419621080282812 0 -0.024068293084679539 0.32272721199300619 0 -0.009249588209606344 0.30814111102660002 0 -0.038786179122352507 0.31006075022960111 0 -0.024068293084679539 0.32272721199300619 0 -0.024068293084679539 0.32272721199300619 0 -0.02531264429424256 0.33765677836634578 0 -0.005758602284471958 0.33512988219008361 0 -0.039359444206513459 0.32419621080282812 0 -0.024068293084679539 0.32272721199300619 0 -0.02531264429424256 0.33765677836634578 0 -0.005758602284471958 0.33512988219008361 0 -0.0077202170519437719 0.34710906184019069 0 0.0082446038140756572 0.34376242611402219 0 -0.02531264429424256 0.33765677836634578 0 -0.005758602284471958 0.33512988219008361 0 -0.0077202170519437719 0.34710906184019069 0 -0.009249588209606344 0.30814111102660002 0 -0.005758602284471958 0.33512988219008361 0 0.0094307060340404689 0.32376070079746733 0 -0.009249588209606344 0.30814111102660002 0 -0.005758602284471958 0.33512988219008361 0 -0.009249588209606344 0.30814111102660002 0 -0.024068293084679539 0.32272721199300619 0 -0.005758602284471958 0.33512988219008361 0 -0.0045677851665312944 0.36532665559408428 0 -0.0087141207398781558 0.37710904293520409 0 0.0077169544749549623 0.36306791211952738 0 -0.0045677851665312944 0.36532665559408428 0 -0.019623601183504629 0.35541479533684739 0 -0.0087141207398781558 0.37710904293520409 0 -0.0087141207398781558 0.37710904293520409 0 0.0077169544749549623 0.36306791211952738 0 -0.0077202170519437719 0.34710906184019069 0 -0.019623601183504629 0.35541479533684739 0 0.0038095970876644218 0.35606187191015221 0 -0.019623601183504629 0.35541479533684739 0 0.0038095970876644218 0.35606187191015221 0 -0.0045677851665312944 0.36532665559408428 0 -0.019623601183504629 0.35541479533684739 0 0.0038095970876644218 0.35606187191015221 0 -0.02531264429424256 0.33765677836634578 0 -0.019623601183504629 0.35541479533684739 0 -0.034795741464765127 0.3466441775467104 0 -0.02531264429424256 0.33765677836634578 0 -0.0077202170519437719 0.34710906184019069 0 -0.019623601183504629 0.35541479533684739 0 -0.019623601183504629 0.35541479533684739 0 -0.034100997704691827 0.37295894625721099 0 -0.0087141207398781558 0.37710904293520409 0 -0.019623601183504629 0.35541479533684739 0 -0.034100997704691827 0.37295894625721099 0 -0.043056799454673583 0.35476771876354157 0 -0.034100997704691827 0.37295894625721099 0 -0.047131069669461997 0.36807368878450081 0 -0.054593457040109393 0.3822816536988497 0 -0.034100997704691827 0.37295894625721099 0 -0.043056799454673583 0.35476771876354157 0 -0.034100997704691827 0.37295894625721099 0 -0.043056799454673583 0.35476771876354157 0 -0.047131069669461997 0.36807368878450081 0 -0.019623601183504629 0.35541479533684739 0 -0.043056799454673583 0.35476771876354157 0 -0.019623601183504629 0.35541479533684739 0 -0.034795741464765127 0.3466441775467104 0 -0.043056799454673583 0.35476771876354157 0 -0.043056799454673583 0.35476771876354157 0 -0.045752302425533672 0.34929255203680049 0 -0.039436223204876379 0.33687947453133682 0 -0.034795741464765127 0.3466441775467104 0 -0.045752302425533672 0.34929255203680049 0 -0.034795741464765127 0.3466441775467104 0 -0.043056799454673583 0.35476771876354157 0 -0.045752302425533672 0.34929255203680049 0 -0.043056799454673583 0.35476771876354157 0 -0.052933118771744558 0.34753778728834739 0 -0.059881153675432383 0.35430313662024071 0 -0.043056799454673583 0.35476771876354157 0 -0.059881153675432383 0.35430313662024071 0 -0.051828064233363932 0.36038047858465339 0 -0.043056799454673583 0.35476771876354157 0 -0.059881153675432383 0.35430313662024071 0 -0.043056799454673583 0.35476771876354157 0 -0.045752302425533672 0.34929255203680049 0 -0.052933118771744558 0.34753778728834739 0 -0.049717572699208172 0.33977374392884352 0 -0.045752302425533672 0.34929255203680049 0 -0.052933118771744558 0.34753778728834739 0 -0.059881153675432383 0.35430313662024071 0 -0.051828064233363932 0.36038047858465339 0 -0.058626870601395778 0.36023180910453118 0 -0.059045099567240703 0.33862263320968672 0 -0.052933118771744558 0.34753778728834739 0 -0.059976501396798443 0.34640013057040159 0 -0.052933118771744558 0.34753778728834739 0 -0.059881153675432383 0.35430313662024071 0 -0.059976501396798443 0.34640013057040159 0 -0.047131069669461997 0.36807368878450081 0 -0.054116187566776573 0.36544526432200969 0 -0.058148679921659119 0.37186744297544022 0 -0.047131069669461997 0.36807368878450081 0 -0.058148679921659119 0.37186744297544022 0 -0.054593457040109393 0.3822816536988497 0 -0.043056799454673583 0.35476771876354157 0 -0.047131069669461997 0.36807368878450081 0 -0.051828064233363932 0.36038047858465339 0 -0.047131069669461997 0.36807368878450081 0 -0.051828064233363932 0.36038047858465339 0 -0.054116187566776573 0.36544526432200969 0 -0.054116187566776573 0.36544526432200969 0 -0.058626870601395778 0.36023180910453118 0 -0.058148679921659119 0.37186744297544022 0 -0.051828064233363932 0.36038047858465339 0 -0.054116187566776573 0.36544526432200969 0 -0.058626870601395778 0.36023180910453118 0 -0.058626870601395778 0.36023180910453118 0 -0.058148679921659119 0.37186744297544022 0 -0.076275814730551866 0.38330479896731001 0 -0.058626870601395778 0.36023180910453118 0 -0.071157696118109362 0.36170448025062218 0 -0.076275814730551866 0.38330479896731001 0 -0.071157696118109362 0.36170448025062218 0 -0.084299133686975572 0.35684410208409001 0 -0.076275814730551866 0.38330479896731001 0 -0.058626870601395778 0.36023180910453118 0 -0.076275814730551866 0.38330479896731001 0 -0.084299133686975572 0.35684410208409001 0 -0.089436666146690338 0.3774527594588406 0 -0.076275814730551866 0.38330479896731001 0 -0.084299133686975572 0.35684410208409001 0 -0.076275814730551866 0.38330479896731001 0 -0.093494049974744503 0.36523362229143391 0 -0.084299133686975572 0.35684410208409001 0 -0.089436666146690338 0.3774527594588406 0 -0.084299133686975572 0.35684410208409001 0 -0.076705507896191183 0.35383855447693902 0 -0.080753986599573127 0.33990497651870988 0 -0.084299133686975572 0.35684410208409001 0 -0.092322452643399749 0.33038340520087017 0 -0.095141502753968779 0.35097174187852381 0 -0.093494049974744503 0.36523362229143391 0 -0.084299133686975572 0.35684410208409001 0 -0.095141502753968779 0.35097174187852381 0 -0.059881153675432383 0.35430313662024071 0 -0.071157696118109362 0.36170448025062218 0 -0.076705507896191183 0.35383855447693902 0 -0.076705507896191183 0.35383855447693902 0 -0.068046633572776155 0.34513696516333192 0 -0.080753986599573127 0.33990497651870988 0 -0.059881153675432383 0.35430313662024071 0 -0.076705507896191183 0.35383855447693902 0 -0.068046633572776155 0.34513696516333192 0 -0.059881153675432383 0.35430313662024071 0 -0.076705507896191183 0.35383855447693902 0 -0.071157696118109362 0.36170448025062218 0 -0.084299133686975572 0.35684410208409001 0 -0.076705507896191183 0.35383855447693902 0 -0.059881153675432383 0.35430313662024071 0 -0.058626870601395778 0.36023180910453118 0 -0.071157696118109362 0.36170448025062218 0 -0.059881153675432383 0.35430313662024071 0 -0.059976501396798443 0.34640013057040159 0 -0.068046633572776155 0.34513696516333192 0 -0.06815446288386498 0.3263880450875648 0 -0.079151648495115301 0.32136139923810009 0 -0.080753986599573127 0.33990497651870988 0 -0.068046633572776155 0.34513696516333192 0 -0.06815446288386498 0.3263880450875648 0 -0.080753986599573127 0.33990497651870988 0 -0.059045099567240703 0.33862263320968672 0 -0.068046633572776155 0.34513696516333192 0 -0.06815446288386498 0.3263880450875648 0 -0.068322770035098762 0.31198038943260148 0 -0.069852456288818351 0.31207980665071 0 -0.06815446288386498 0.3263880450875648 0 -0.068322770035098762 0.31198038943260148 0 -0.053879496619987192 0.32442993198196868 0 -0.06815446288386498 0.3263880450875648 0 -0.08121949171140587 0.31012908581564408 0 -0.069852456288818351 0.31207980665071 0 -0.079151648495115301 0.32136139923810009 0 -0.069852456288818351 0.31207980665071 0 -0.06815446288386498 0.3263880450875648 0 -0.079151648495115301 0.32136139923810009 0 -0.087527931766016032 0.31235393694025021 0 -0.079151648495115301 0.32136139923810009 0 -0.092322452643399749 0.33038340520087017 0 -0.1003457715998239 0.30392270831765028 0 -0.087527931766016032 0.31235393694025021 0 -0.092322452643399749 0.33038340520087017 0 -0.087527931766016032 0.31235393694025021 0 -0.08121949171140587 0.31012908581564408 0 -0.079151648495115301 0.32136139923810009 0 -0.084299133686975572 0.35684410208409001 0 -0.092322452643399749 0.33038340520087017 0 -0.079151648495115301 0.32136139923810009 0 -0.092322452643399749 0.33038340520087017 0 -0.080753986599573127 0.33990497651870988 0 -0.084299133686975572 0.35684410208409001 0 -0.092322452643399749 0.33038340520087017 0 -0.080753986599573127 0.33990497651870988 0 -0.092322452643399749 0.33038340520087017 0 -0.10472406897533799 0.34168768652513631 0 -0.095141502753968779 0.35097174187852381 0 -0.092322452643399749 0.33038340520087017 0 -0.10472406897533799 0.34168768652513631 0 -0.1081804568928026 0.32074506353771021 0 -0.1003457715998239 0.30392270831765028 0 -0.092322452643399749 0.33038340520087017 0 -0.1003457715998239 0.30392270831765028 0 -0.092322452643399749 0.33038340520087017 0 -0.1081804568928026 0.32074506353771021 0 -0.1262409447270301 0.3211703831111522 0 -0.1173504618646501 0.30916380798395637 0 -0.1081804568928026 0.32074506353771021 0 -0.1262409447270301 0.3211703831111522 0 -0.1081804568928026 0.32074506353771021 0 -0.1175879007316586 0.33497855513245622 0 -0.13367478836053351 0.33932016938713638 0 -0.1175879007316586 0.33497855513245622 0 -0.1173066256070304 0.35104950557859033 0 -0.10472406897533799 0.34168768652513631 0 -0.1081804568928026 0.32074506353771021 0 -0.1175879007316586 0.33497855513245622 0 -0.10472406897533799 0.34168768652513631 0 -0.1175879007316586 0.33497855513245622 0 -0.1173066256070304 0.35104950557859033 0 -0.1173066256070304 0.35104950557859033 0 -0.1198206075896991 0.37069234566290138 0 -0.1030551893938276 0.35978992576853291 0 -0.1367685514822152 0.35851885971508118 0 -0.1173066256070304 0.35104950557859033 0 -0.1198206075896991 0.37069234566290138 0 -0.1198206075896991 0.37069234566290138 0 -0.1030551893938276 0.35978992576853291 0 -0.10026372758235801 0.37465761506622741 0 -0.093494049974744503 0.36523362229143391 0 -0.10026372758235801 0.37465761506622741 0 -0.089436666146690338 0.3774527594588406 0 -0.093494049974744503 0.36523362229143391 0 -0.1030551893938276 0.35978992576853291 0 -0.10026372758235801 0.37465761506622741 0 -0.10472406897533799 0.34168768652513631 0 -0.1030551893938276 0.35978992576853291 0 -0.095141502753968779 0.35097174187852381 0 -0.093494049974744503 0.36523362229143391 0 -0.1030551893938276 0.35978992576853291 0 -0.095141502753968779 0.35097174187852381 0 -0.10472406897533799 0.34168768652513631 0 -0.1173066256070304 0.35104950557859033 0 -0.1030551893938276 0.35978992576853291 0 -0.101128536279416 0.3977608810528192 0 -0.11378235269799521 0.38746486633725291 0 -0.11258596611237601 0.40408595479252452 0 -0.101128536279416 0.3977608810528192 0 -0.095244926421122186 0.38729621463576269 0 -0.11378235269799521 0.38746486633725291 0 -0.101128536279416 0.3977608810528192 0 -0.11258596611237601 0.40408595479252452 0 -0.097808874238227678 0.41145560844912898 0 -0.101128536279416 0.3977608810528192 0 -0.097808874238227678 0.41145560844912898 0 -0.087042344484389883 0.39738020370821953 0 -0.101128536279416 0.3977608810528192 0 -0.095244926421122186 0.38729621463576269 0 -0.087042344484389883 0.39738020370821953 0 -0.10026372758235801 0.37465761506622741 0 -0.095244926421122186 0.38729621463576269 0 -0.11378235269799521 0.38746486633725291 0 -0.10026372758235801 0.37465761506622741 0 -0.095244926421122186 0.38729621463576269 0 -0.089436666146690338 0.3774527594588406 0 -0.1198206075896991 0.37069234566290138 0 -0.10026372758235801 0.37465761506622741 0 -0.11378235269799521 0.38746486633725291 0 -0.12826940643264259 0.38638828685515292 0 -0.1198206075896991 0.37069234566290138 0 -0.11378235269799521 0.38746486633725291 0 -0.12644786621320531 0.40058001872868543 0 -0.12826940643264259 0.38638828685515292 0 -0.11378235269799521 0.38746486633725291 0 -0.12761284081938409 0.41418542740570108 0 -0.11378235269799521 0.38746486633725291 0 -0.12761284081938409 0.41418542740570108 0 -0.12644786621320531 0.40058001872868543 0 -0.11378235269799521 0.38746486633725291 0 -0.12761284081938409 0.41418542740570108 0 -0.11378235269799521 0.38746486633725291 0 -0.11258596611237601 0.40408595479252452 0 -0.12761284081938409 0.41418542740570108 0 -0.11258596611237601 0.40408595479252452 0 -0.097808874238227678 0.41145560844912898 0 -0.12761284081938409 0.41418542740570108 0 -0.1126245701039178 0.4308246085444013 0 -0.097808874238227678 0.41145560844912898 0 -0.12761284081938409 0.41418542740570108 0 -0.097808874238227678 0.41145560844912898 0 -0.12761284081938409 0.41418542740570108 0 -0.1126245701039178 0.4308246085444013 0 -0.1242648033483075 0.43981492828754482 0 -0.1126245701039178 0.4308246085444013 0 -0.096605527178418776 0.42311346390882398 0 -0.097170403390676049 0.43571281837191522 0 -0.1126245701039178 0.4308246085444013 0 -0.097170403390676049 0.43571281837191522 0 -0.10338783084247161 0.44098956532991213 0 -0.1126245701039178 0.4308246085444013 0 -0.097808874238227678 0.41145560844912898 0 -0.1126245701039178 0.4308246085444013 0 -0.096605527178418776 0.42311346390882398 0 -0.097808874238227678 0.41145560844912898 0 -0.096605527178418776 0.42311346390882398 0 -0.097808874238227678 0.41145560844912898 0 -0.090623427087895073 0.41079747558654428 0 -0.097808874238227678 0.41145560844912898 0 -0.090623427087895073 0.41079747558654428 0 -0.096605527178418776 0.42311346390882398 0 -0.090623427087895073 0.41079747558654428 0 -0.084800361071377284 0.4267768085921303 0 -0.090623427087895073 0.41079747558654428 0 -0.084347825254610875 0.40943513047528779 0 -0.084800361071377284 0.4267768085921303 0 -0.084800361071377284 0.4267768085921303 0 -0.074925168374781331 0.40278603401425761 0 -0.084347825254610875 0.40943513047528779 0 -0.084800361071377284 0.4267768085921303 0 -0.074925168374781331 0.40278603401425761 0 -0.097808874238227678 0.41145560844912898 0 -0.090623427087895073 0.41079747558654428 0 -0.087042344484389883 0.39738020370821953 0 -0.096605527178418776 0.42311346390882398 0 -0.097170403390676049 0.43571281837191522 0 -0.084800361071377284 0.4267768085921303 0 -0.084800361071377284 0.4267768085921303 0 -0.077689053426030094 0.43734830183904833 0 -0.073740177733494089 0.43015549729097768 0 -0.084800361071377284 0.4267768085921303 0 -0.077689053426030094 0.43734830183904833 0 -0.085627028266785254 0.44117175463919189 0 -0.077689053426030094 0.43734830183904833 0 -0.073740177733494089 0.43015549729097768 0 -0.069373851585076945 0.43677151010665521 0 -0.084800361071377284 0.4267768085921303 0 -0.073740177733494089 0.43015549729097768 0 -0.074963529381557356 0.42372471124402672 0 -0.084800361071377284 0.4267768085921303 0 -0.074963529381557356 0.42372471124402672 0 -0.074207610301873977 0.415826985147286 0 -0.073740177733494089 0.43015549729097768 0 -0.07134827269677288 0.42521816639912852 0 -0.067010261651664849 0.42692585223643509 0 -0.073740177733494089 0.43015549729097768 0 -0.074963529381557356 0.42372471124402672 0 -0.07134827269677288 0.42521816639912852 0 -0.074963529381557356 0.42372471124402672 0 -0.07134827269677288 0.42521816639912852 0 -0.069903249343569923 0.42035209495099629 0 -0.06803153127557314 0.42418340705062968 0 -0.063864341410284964 0.42423751461595932 0 -0.069903249343569923 0.42035209495099629 0 -0.07134827269677288 0.42521816639912852 0 -0.06803153127557314 0.42418340705062968 0 -0.067010261651664849 0.42692585223643509 0 -0.07134827269677288 0.42521816639912852 0 -0.06803153127557314 0.42418340705062968 0 -0.069903249343569923 0.42035209495099629 0 -0.06803153127557314 0.42418340705062968 0 -0.063864341410284964 0.42423751461595932 0 -0.067010261651664849 0.42692585223643509 0 -0.063864341410284964 0.42423751461595932 0 -0.067010261651664849 0.42692585223643509 0 -0.067010261651664849 0.42692585223643509 0 -0.06657591115514655 0.43192586875325267 0 -0.062357688865182517 0.42920641545622512 0 -0.063864341410284964 0.42423751461595932 0 -0.067010261651664849 0.42692585223643509 0 -0.062357688865182517 0.42920641545622512 0 -0.063864341410284964 0.42423751461595932 0 -0.062357688865182517 0.42920641545622512 0 -0.073740177733494089 0.43015549729097768 0 -0.067010261651664849 0.42692585223643509 0 -0.06657591115514655 0.43192586875325267 0 -0.073740177733494089 0.43015549729097768 0 -0.06657591115514655 0.43192586875325267 0 -0.069373851585076945 0.43677151010665521 0 -0.06657591115514655 0.43192586875325267 0 -0.062750456602468974 0.43554137489064498 0 -0.062357688865182517 0.42920641545622512 0 -0.06657591115514655 0.43192586875325267 0 -0.062750456602468974 0.43554137489064498 0 -0.069373851585076945 0.43677151010665521 0 -0.063864341410284964 0.42423751461595932 0 -0.069903249343569923 0.42035209495099629 0 -0.070070078070418332 0.40377115679163461 0 -0.074207610301873977 0.415826985147286 0 -0.069903249343569923 0.42035209495099629 0 -0.070070078070418332 0.40377115679163461 0 -0.063864341410284964 0.42423751461595932 0 -0.070070078070418332 0.40377115679163461 0 -0.058881304157308093 0.40804381518971672 0 -0.063864341410284964 0.42423751461595932 0 -0.070070078070418332 0.40377115679163461 0 -0.084800361071377284 0.4267768085921303 0 -0.074207610301873977 0.415826985147286 0 -0.074925168374781331 0.40278603401425761 0 -0.074207610301873977 0.415826985147286 0 -0.070070078070418332 0.40377115679163461 0 -0.074925168374781331 0.40278603401425761 0 -0.074963529381557356 0.42372471124402672 0 -0.074207610301873977 0.415826985147286 0 -0.069903249343569923 0.42035209495099629 0 -0.070070078070418332 0.40377115679163461 0 -0.064506344576777661 0.39145758865641178 0 -0.076275814730551866 0.38330479896731001 0 -0.070070078070418332 0.40377115679163461 0 -0.074925168374781331 0.40278603401425761 0 -0.076275814730551866 0.38330479896731001 0 -0.070070078070418332 0.40377115679163461 0 -0.076275814730551866 0.38330479896731001 0 -0.070070078070418332 0.40377115679163461 0 -0.064506344576777661 0.39145758865641178 0 -0.057086028466031037 0.39647274516785291 0 -0.074925168374781331 0.40278603401425761 0 -0.087042344484389883 0.39738020370821953 0 -0.076275814730551866 0.38330479896731001 0 -0.084347825254610875 0.40943513047528779 0 -0.074925168374781331 0.40278603401425761 0 -0.087042344484389883 0.39738020370821953 0 -0.097808874238227678 0.41145560844912898 0 -0.087042344484389883 0.39738020370821953 0 -0.090623427087895073 0.41079747558654428 0 -0.084347825254610875 0.40943513047528779 0 -0.087042344484389883 0.39738020370821953 0 -0.087042344484389883 0.39738020370821953 0 -0.089436666146690338 0.3774527594588406 0 -0.076275814730551866 0.38330479896731001 0 -0.095244926421122186 0.38729621463576269 0 -0.087042344484389883 0.39738020370821953 0 -0.089436666146690338 0.3774527594588406 0 -0.087042344484389883 0.39738020370821953 0 -0.076275814730551866 0.38330479896731001 0 -0.064506344576777661 0.39145758865641178 0 -0.076275814730551866 0.38330479896731001 0 -0.054593457040109393 0.3822816536988497 0 -0.058148679921659119 0.37186744297544022 0 -0.076275814730551866 0.38330479896731001 0 -0.054593457040109393 0.3822816536988497 0 -0.064506344576777661 0.39145758865641178 0 -0.054593457040109393 0.3822816536988497 0 -0.057086028466031037 0.39647274516785291 0 -0.054593457040109393 0.3822816536988497 0 -0.057086028466031037 0.39647274516785291 0 -0.042391572779214973 0.39096282696345341 0 -0.057086028466031037 0.39647274516785291 0 -0.042391572779214973 0.39096282696345341 0 -0.044504768682498037 0.40769384418342008 0 -0.070070078070418332 0.40377115679163461 0 -0.057086028466031037 0.39647274516785291 0 -0.058881304157308093 0.40804381518971672 0 -0.057086028466031037 0.39647274516785291 0 -0.044504768682498037 0.40769384418342008 0 -0.058881304157308093 0.40804381518971672 0 -0.02514519595471108 0.39115017375088101 0 -0.044504768682498037 0.40769384418342008 0 -0.042391572779214973 0.39096282696345341 0 -0.02514519595471108 0.39115017375088101 0 -0.044504768682498037 0.40769384418342008 0 -0.034100997704691827 0.37295894625721099 0 -0.054593457040109393 0.3822816536988497 0 -0.042391572779214973 0.39096282696345341 0 -0.034100997704691827 0.37295894625721099 0 -0.042391572779214973 0.39096282696345341 0 -0.02514519595471108 0.39115017375088101 0 -0.034100997704691827 0.37295894625721099 0 -0.02514519595471108 0.39115017375088101 0 -0.034100997704691827 0.37295894625721099 0 -0.02514519595471108 0.39115017375088101 0 -0.0087141207398781558 0.37710904293520409 0 -0.02514519595471108 0.39115017375088101 0 -0.0087141207398781558 0.37710904293520409 0 -0.02514519595471108 0.39115017375088101 0 -0.014810785045769751 0.41214166341376801 0 -0.02514519595471108 0.39115017375088101 0 -0.014810785045769751 0.41214166341376801 0 -0.044504768682498037 0.40769384418342008 0 -0.0068648610501423502 0.39382000907293813 0 -0.014810785045769751 0.41214166341376801 0 0.0046995574085186929 0.41194005205042061 0 -0.02514519595471108 0.39115017375088101 0 -0.0068648610501423502 0.39382000907293813 0 -0.014810785045769751 0.41214166341376801 0 -0.02514519595471108 0.39115017375088101 0 -0.0068648610501423502 0.39382000907293813 0 -0.0087141207398781558 0.37710904293520409 0 -0.0068648610501423502 0.39382000907293813 0 -0.0087141207398781558 0.37710904293520409 0 0.0053185270157129726 0.37689571945341471 0 -0.0044763741368290672 0.43313315307665529 0 -0.014810785045769751 0.41214166341376801 0 -0.0044763741368290672 0.43313315307665529 0 -0.014810785045769751 0.41214166341376801 0 -0.026116443713473419 0.4246575807879529 0 -0.0044763741368290672 0.43313315307665529 0 -0.014810785045769751 0.41214166341376801 0 0.0046995574085186929 0.41194005205042061 0 -0.014810785045769751 0.41214166341376801 0 -0.026116443713473419 0.4246575807879529 0 -0.044504768682498037 0.40769384418342008 0 -0.0044763741368290672 0.43313315307665529 0 -0.026116443713473419 0.4246575807879529 0 -0.02623027688729573 0.44118750916919391 0 -0.026116443713473419 0.4246575807879529 0 -0.040560013814974517 0.42913173409672722 0 -0.02623027688729573 0.44118750916919391 0 -0.040560013814974517 0.42913173409672722 0 -0.048293098329248912 0.43867666423002288 0 -0.039090066940739521 0.44352471403713711 0 -0.026116443713473419 0.4246575807879529 0 -0.040560013814974517 0.42913173409672722 0 -0.044504768682498037 0.40769384418342008 0 -0.040560013814974517 0.42913173409672722 0 -0.044504768682498037 0.40769384418342008 0 -0.051886787429848112 0.42350176277299723 0 -0.063864341410284964 0.42423751461595932 0 -0.044504768682498037 0.40769384418342008 0 -0.058881304157308093 0.40804381518971672 0 -0.063864341410284964 0.42423751461595932 0 -0.044504768682498037 0.40769384418342008 0 -0.051886787429848112 0.42350176277299723 0 -0.063864341410284964 0.42423751461595932 0 -0.044504768682498037 0.40769384418342008 0 -0.053936434918908913 0.43159717611494758 0 -0.057641003333182179 0.44086754716312743 0 -0.048293098329248912 0.43867666423002288 0 -0.040560013814974517 0.42913173409672722 0 -0.053936434918908913 0.43159717611494758 0 -0.048293098329248912 0.43867666423002288 0 -0.040560013814974517 0.42913173409672722 0 -0.053936434918908913 0.43159717611494758 0 -0.051886787429848112 0.42350176277299723 0 -0.053936434918908913 0.43159717611494758 0 -0.051886787429848112 0.42350176277299723 0 -0.062357688865182517 0.42920641545622512 0 -0.063864341410284964 0.42423751461595932 0 -0.051886787429848112 0.42350176277299723 0 -0.062357688865182517 0.42920641545622512 0 -0.062750456602468974 0.43554137489064498 0 -0.053936434918908913 0.43159717611494758 0 -0.062357688865182517 0.42920641545622512 0 -0.062750456602468974 0.43554137489064498 0 -0.053936434918908913 0.43159717611494758 0 -0.057641003333182179 0.44086754716312743 0 -0.062750456602468974 0.43554137489064498 0 -0.057641003333182179 0.44086754716312743 0 -0.065491549478626135 0.44200233464982802 0 -0.057641003333182179 0.44086754716312743 0 -0.062398417199954148 0.4499603094023914 0 -0.065491549478626135 0.44200233464982802 0 -0.057641003333182179 0.44086754716312743 0 -0.062398417199954148 0.4499603094023914 0 -0.050237972638439453 0.44826214973817502 0 -0.057641003333182179 0.44086754716312743 0 -0.050237972638439453 0.44826214973817502 0 -0.048293098329248912 0.43867666423002288 0 -0.062398417199954148 0.4499603094023914 0 -0.050230730183752688 0.46259696058471089 0 -0.064501224992871267 0.46542691543905351 0 -0.062398417199954148 0.4499603094023914 0 -0.050237972638439453 0.44826214973817502 0 -0.050230730183752688 0.46259696058471089 0 -0.050230730183752688 0.46259696058471089 0 -0.035748626011326709 0.45858167758110602 0 -0.046040344352481867 0.47841272498986082 0 -0.050237972638439453 0.44826214973817502 0 -0.050230730183752688 0.46259696058471089 0 -0.035748626011326709 0.45858167758110602 0 -0.035748626011326709 0.45858167758110602 0 -0.039090066940739521 0.44352471403713711 0 -0.02623027688729573 0.44118750916919391 0 -0.050237972638439453 0.44826214973817502 0 -0.048293098329248912 0.43867666423002288 0 -0.039090066940739521 0.44352471403713711 0 -0.050237972638439453 0.44826214973817502 0 -0.035748626011326709 0.45858167758110602 0 -0.039090066940739521 0.44352471403713711 0 -0.040560013814974517 0.42913173409672722 0 -0.039090066940739521 0.44352471403713711 0 -0.02623027688729573 0.44118750916919391 0 -0.035748626011326709 0.45858167758110602 0 -0.02623027688729573 0.44118750916919391 0 -0.01728298942402769 0.45556140426229003 0 -0.0044763741368290672 0.43313315307665529 0 -0.02623027688729573 0.44118750916919391 0 -0.01728298942402769 0.45556140426229003 0 -0.035748626011326709 0.45858167758110602 0 -0.01728298942402769 0.45556140426229003 0 -0.022784747477638551 0.4775754860453762 0 -0.01728298942402769 0.45556140426229003 0 -0.0062093312902834459 0.46527566221073008 0 0.006403582431216831 0.45126676372832991 0 -0.01728298942402769 0.45556140426229003 0 -0.0062093312902834459 0.46527566221073008 0 -0.022784747477638551 0.4775754860453762 0 -0.0044763741368290672 0.43313315307665529 0 -0.01728298942402769 0.45556140426229003 0 0.006403582431216831 0.45126676372832991 0 -0.0062093312902834459 0.46527566221073008 0 -0.022784747477638551 0.4775754860453762 0 0.0095498935665802413 0.47810272379952351 0 -0.022784747477638551 0.4775754860453762 0 -0.021427984417146221 0.5 0 0.0095498935665802413 0.47810272379952351 0 -0.021427984417146221 0.5 0 0.0095498935665802413 0.47810272379952351 0 0.0086042794582089632 0.5 0 -0.022784747477638551 0.4775754860453762 0 -0.021427984417146221 0.5 0 -0.046040344352481867 0.47841272498986082 0 -0.021427984417146221 0.5 0 -0.046040344352481867 0.47841272498986082 0 -0.051460248292501398 0.5 0 -0.035748626011326709 0.45858167758110602 0 -0.022784747477638551 0.4775754860453762 0 -0.046040344352481867 0.47841272498986082 0 -0.046040344352481867 0.47841272498986082 0 -0.067939054777113927 0.48291587414950521 0 -0.064501224992871267 0.46542691543905351 0 -0.050230730183752688 0.46259696058471089 0 -0.046040344352481867 0.47841272498986082 0 -0.064501224992871267 0.46542691543905351 0 -0.046040344352481867 0.47841272498986082 0 -0.051460248292501398 0.5 0 -0.067939054777113927 0.48291587414950521 0 -0.051460248292501398 0.5 0 -0.081492512167856565 0.50000000000000011 0 -0.067939054777113927 0.48291587414950521 0 -0.081492512167856565 0.50000000000000011 0 -0.085878896958769185 0.47675925450649242 0 -0.067939054777113927 0.48291587414950521 0 -0.081492512167856565 0.50000000000000011 0 -0.085878896958769185 0.47675925450649242 0 -0.099362977551805121 0.48745008538217821 0 -0.081492512167856565 0.50000000000000011 0 -0.085878896958769185 0.47675925450649242 0 -0.085878896958769185 0.47675925450649242 0 -0.075452149305044958 0.46933040044586682 0 -0.067939054777113927 0.48291587414950521 0 -0.075452149305044958 0.46933040044586682 0 -0.067939054777113927 0.48291587414950521 0 -0.064501224992871267 0.46542691543905351 0 -0.064501224992871267 0.46542691543905351 0 -0.075214053997903707 0.45912990264989012 0 -0.070315415620740368 0.45334812155980347 0 -0.062398417199954148 0.4499603094023914 0 -0.064501224992871267 0.46542691543905351 0 -0.070315415620740368 0.45334812155980347 0 -0.075214053997903707 0.45912990264989012 0 -0.070315415620740368 0.45334812155980347 0 -0.081419329692844739 0.44979703694502599 0 -0.075452149305044958 0.46933040044586682 0 -0.064501224992871267 0.46542691543905351 0 -0.075214053997903707 0.45912990264989012 0 -0.075452149305044958 0.46933040044586682 0 -0.075214053997903707 0.45912990264989012 0 -0.082509194984251868 0.46007906520350089 0 -0.069373851585076945 0.43677151010665521 0 -0.065491549478626135 0.44200233464982802 0 -0.073041418115067244 0.44511613748665291 0 -0.062750456602468974 0.43554137489064498 0 -0.069373851585076945 0.43677151010665521 0 -0.065491549478626135 0.44200233464982802 0 -0.062398417199954148 0.4499603094023914 0 -0.065491549478626135 0.44200233464982802 0 -0.073041418115067244 0.44511613748665291 0 -0.062398417199954148 0.4499603094023914 0 -0.070315415620740368 0.45334812155980347 0 -0.073041418115067244 0.44511613748665291 0 -0.070315415620740368 0.45334812155980347 0 -0.073041418115067244 0.44511613748665291 0 -0.081419329692844739 0.44979703694502599 0 -0.073041418115067244 0.44511613748665291 0 -0.07941018481149445 0.44345804230003222 0 -0.081419329692844739 0.44979703694502599 0 -0.077689053426030094 0.43734830183904833 0 -0.069373851585076945 0.43677151010665521 0 -0.073041418115067244 0.44511613748665291 0 -0.077689053426030094 0.43734830183904833 0 -0.073041418115067244 0.44511613748665291 0 -0.07941018481149445 0.44345804230003222 0 -0.097170403390676049 0.43571281837191522 0 -0.084800361071377284 0.4267768085921303 0 -0.094675553767973264 0.45076758317000298 0 -0.084800361071377284 0.4267768085921303 0 -0.094675553767973264 0.45076758317000298 0 -0.084800361071377284 0.4267768085921303 0 -0.085627028266785254 0.44117175463919189 0 -0.094675553767973264 0.45076758317000298 0 -0.085627028266785254 0.44117175463919189 0 -0.07941018481149445 0.44345804230003222 0 -0.081419329692844739 0.44979703694502599 0 -0.077689053426030094 0.43734830183904833 0 -0.085627028266785254 0.44117175463919189 0 -0.07941018481149445 0.44345804230003222 0 -0.085627028266785254 0.44117175463919189 0 -0.081419329692844739 0.44979703694502599 0 -0.088082484801868088 0.44854024150695748 0 -0.081419329692844739 0.44979703694502599 0 -0.086047819819581178 0.45134535453790131 0 -0.088082484801868088 0.44854024150695748 0 -0.085627028266785254 0.44117175463919189 0 -0.088082484801868088 0.44854024150695748 0 -0.094675553767973264 0.45076758317000298 0 -0.086047819819581178 0.45134535453790131 0 -0.088082484801868088 0.44854024150695748 0 -0.090265281749681819 0.45351850901298468 0 -0.088082484801868088 0.44854024150695748 0 -0.090265281749681819 0.45351850901298468 0 -0.094675553767973264 0.45076758317000298 0 -0.085878896958769185 0.47675925450649242 0 -0.075452149305044958 0.46933040044586682 0 -0.082509194984251868 0.46007906520350089 0 -0.085878896958769185 0.47675925450649242 0 -0.090265281749681819 0.45351850901298468 0 -0.085878896958769185 0.47675925450649242 0 -0.090265281749681819 0.45351850901298468 0 -0.093944937474792503 0.46462082789344678 0 -0.085878896958769185 0.47675925450649242 0 -0.082509194984251868 0.46007906520350089 0 -0.090265281749681819 0.45351850901298468 0 -0.081419329692844739 0.44979703694502599 0 -0.086047819819581178 0.45134535453790131 0 -0.082509194984251868 0.46007906520350089 0 -0.075214053997903707 0.45912990264989012 0 -0.081419329692844739 0.44979703694502599 0 -0.082509194984251868 0.46007906520350089 0 -0.090265281749681819 0.45351850901298468 0 -0.093944937474792503 0.46462082789344678 0 -0.094675553767973264 0.45076758317000298 0 -0.086047819819581178 0.45134535453790131 0 -0.082509194984251868 0.46007906520350089 0 -0.090265281749681819 0.45351850901298468 0 -0.093944937474792503 0.46462082789344678 0 -0.094675553767973264 0.45076758317000298 0 -0.1045507464645692 0.47475835774787573 0 -0.094675553767973264 0.45076758317000298 0 -0.1045507464645692 0.47475835774787573 0 -0.1087715055698807 0.4588247561088431 0 -0.094675553767973264 0.45076758317000298 0 -0.1045507464645692 0.47475835774787573 0 -0.1126245701039178 0.4308246085444013 0 -0.1090807961073193 0.44665325123332839 0 -0.10338783084247161 0.44098956532991213 0 -0.097170403390676049 0.43571281837191522 0 -0.094675553767973264 0.45076758317000298 0 -0.10338783084247161 0.44098956532991213 0 -0.1087715055698807 0.4588247561088431 0 -0.094675553767973264 0.45076758317000298 0 -0.1090807961073193 0.44665325123332839 0 -0.094675553767973264 0.45076758317000298 0 -0.1090807961073193 0.44665325123332839 0 -0.10338783084247161 0.44098956532991213 0 -0.1126245701039178 0.4308246085444013 0 -0.1090807961073193 0.44665325123332839 0 -0.1242648033483075 0.43981492828754482 0 -0.1090807961073193 0.44665325123332839 0 -0.1242648033483075 0.43981492828754482 0 -0.1204057133641486 0.45504160574272429 0 -0.1087715055698807 0.4588247561088431 0 -0.1176294132596279 0.46872710166108278 0 -0.1045507464645692 0.47475835774787573 0 -0.1087715055698807 0.4588247561088431 0 -0.1204057133641486 0.45504160574272429 0 -0.1176294132596279 0.46872710166108278 0 -0.1087715055698807 0.4588247561088431 0 -0.1090807961073193 0.44665325123332839 0 -0.1204057133641486 0.45504160574272429 0 -0.13097929143795109 0.46459511115351071 0 -0.1204057133641486 0.45504160574272429 0 -0.1176294132596279 0.46872710166108278 0 -0.12908554574303099 0.47755934496718438 0 -0.1176294132596279 0.46872710166108278 0 -0.1160402402672886 0.48503019582547341 0 -0.1176294132596279 0.46872710166108278 0 -0.1160402402672886 0.48503019582547341 0 -0.1045507464645692 0.47475835774787573 0 -0.13803845513632401 0.5 0 -0.1097654836520903 0.5 0 -0.1160402402672886 0.48503019582547341 0 -0.1097654836520903 0.5 0 -0.1160402402672886 0.48503019582547341 0 -0.099362977551805121 0.48745008538217821 0 -0.081492512167856565 0.50000000000000011 0 -0.1097654836520903 0.5 0 -0.099362977551805121 0.48745008538217821 0 -0.085878896958769185 0.47675925450649242 0 -0.093944937474792503 0.46462082789344678 0 -0.1045507464645692 0.47475835774787573 0 -0.085878896958769185 0.47675925450649242 0 -0.099362977551805121 0.48745008538217821 0 -0.1045507464645692 0.47475835774787573 0 -0.1160402402672886 0.48503019582547341 0 -0.099362977551805121 0.48745008538217821 0 -0.1045507464645692 0.47475835774787573 0 -0.15850742705232401 0.077073165420907211 0 -0.17832815471062741 0.080370175701138483 0 -0.15596223049933161 0.089669487892629185 0 -0.17128916945913089 0.092189477241546317 0 -0.17832815471062741 0.080370175701138483 0 -0.15596223049933161 0.089669487892629185 0 -0.17832815471062741 0.080370175701138483 0 -0.15596223049933161 0.089669487892629185 0 -0.15850742705232401 0.077073165420907211 0 -0.16907692184479731 0.071953328836937142 0 -0.17832815471062741 0.080370175701138483 0 -0.15850742705232401 0.077073165420907211 0 -0.15722519427174569 0.065058312825911402 0 -0.16907692184479731 0.071953328836937142 0 -0.16907692184479731 0.071953328836937142 0 -0.1809864334298861 0.069780609401686525 0 -0.17832815471062741 0.080370175701138483 0 -0.16907692184479731 0.071953328836937142 0 -0.1809864334298861 0.069780609401686525 0 -0.18167022033174851 0.056262687610226528 0 -0.1809864334298861 0.069780609401686525 0 -0.17832815471062741 0.080370175701138483 0 -0.20069407892192309 0.071070863509647808 0 -0.1809864334298861 0.069780609401686525 0 -0.18167022033174851 0.056262687610226528 0 -0.1876556690991136 0.063313821709693935 0 -0.17128916945913089 0.092189477241546317 0 -0.18444466814129201 0.081023499242751457 0 -0.17631468167186989 0.1066384650542631 0 -0.17128916945913089 0.092189477241546317 0 -0.18444466814129201 0.081023499242751457 0 -0.17832815471062741 0.080370175701138483 0 -0.18444466814129201 0.081023499242751457 0 -0.17631468167186989 0.1066384650542631 0 -0.19937405773042491 0.1071019237599893 0 -0.17631468167186989 0.1066384650542631 0 -0.16393492635195239 0.1245978723337525 0 -0.1795193575176991 0.1294692331289829 0 -0.17631468167186989 0.1066384650542631 0 -0.19937405773042491 0.1071019237599893 0 -0.1795193575176991 0.1294692331289829 0 -0.16393492635195239 0.1245978723337525 0 -0.16139611227253359 0.1032457583169494 0 -0.15311233888185891 0.1152965378839053 0 -0.17631468167186989 0.1066384650542631 0 -0.16393492635195239 0.1245978723337525 0 -0.16139611227253359 0.1032457583169494 0 -0.17128916945913089 0.092189477241546317 0 -0.17631468167186989 0.1066384650542631 0 -0.16139611227253359 0.1032457583169494 0 -0.17128916945913089 0.092189477241546317 0 -0.16139611227253359 0.1032457583169494 0 -0.15596223049933161 0.089669487892629185 0 -0.16139611227253359 0.1032457583169494 0 -0.13359630628803579 0.098968800084119873 0 -0.15596223049933161 0.089669487892629185 0 -0.16139611227253359 0.1032457583169494 0 -0.15311233888185891 0.1152965378839053 0 -0.13359630628803579 0.098968800084119873 0 -0.13359630628803579 0.098968800084119873 0 -0.15596223049933161 0.089669487892629185 0 -0.15311233888185891 0.1152965378839053 0 -0.13930859898956699 0.1145050369687237 0 -0.153752621985453 0.14073392350839439 0 -0.15311233888185891 0.1152965378839053 0 -0.13930859898956699 0.1145050369687237 0 -0.13359630628803579 0.098968800084119873 0 -0.13930859898956699 0.1145050369687237 0 -0.12607259725238279 0.11330641960449821 0 -0.12916618827146031 0.12390190950899049 0 -0.13930859898956699 0.1145050369687237 0 -0.12607259725238279 0.11330641960449821 0 -0.13359630628803579 0.098968800084119873 0 -0.13359630628803579 0.098968800084119873 0 -0.12697672020224329 0.087309090757334687 0 -0.14089006822782121 0.082531143958766096 0 -0.12697672020224329 0.087309090757334687 0 -0.14089006822782121 0.082531143958766096 0 -0.12697985749263241 0.07630636069427757 0 -0.15850742705232401 0.077073165420907211 0 -0.14089006822782121 0.082531143958766096 0 -0.15596223049933161 0.089669487892629185 0 -0.13359630628803579 0.098968800084119873 0 -0.14089006822782121 0.082531143958766096 0 -0.15596223049933161 0.089669487892629185 0 -0.15850742705232401 0.077073165420907211 0 -0.14089006822782121 0.082531143958766096 0 -0.14764327064684279 0.071644858797684771 0 -0.15722519427174569 0.065058312825911402 0 -0.14764327064684279 0.071644858797684771 0 -0.1471722955607111 0.059591957907519158 0 -0.15850742705232401 0.077073165420907211 0 -0.15722519427174569 0.065058312825911402 0 -0.14764327064684279 0.071644858797684771 0 -0.14089006822782121 0.082531143958766096 0 -0.14764327064684279 0.071644858797684771 0 -0.13666502121529681 0.069478967649866344 0 -0.14764327064684279 0.071644858797684771 0 -0.13666502121529681 0.069478967649866344 0 -0.1471722955607111 0.059591957907519158 0 -0.14089006822782121 0.082531143958766096 0 -0.13666502121529681 0.069478967649866344 0 -0.12697985749263241 0.07630636069427757 0 -0.13666502121529681 0.069478967649866344 0 -0.12697985749263241 0.07630636069427757 0 -0.12509646681095879 0.065597408261105467 0 -0.13666502121529681 0.069478967649866344 0 -0.12509646681095879 0.065597408261105467 0 -0.13233523162579211 0.057527865090889828 0 -0.13233523162579211 0.057527865090889828 0 -0.1197320338084647 0.057760070231756527 0 -0.1244920148619628 0.050381604022983993 0 -0.12509646681095879 0.065597408261105467 0 -0.13233523162579211 0.057527865090889828 0 -0.1197320338084647 0.057760070231756527 0 -0.13666502121529681 0.069478967649866344 0 -0.13233523162579211 0.057527865090889828 0 -0.1471722955607111 0.059591957907519158 0 -0.13233523162579211 0.057527865090889828 0 -0.131277092146349 0.043237905602295942 0 -0.1435202772377579 0.047601805401877667 0 -0.13233523162579211 0.057527865090889828 0 -0.131277092146349 0.043237905602295942 0 -0.1244920148619628 0.050381604022983993 0 -0.131277092146349 0.043237905602295942 0 -0.14194951185496399 0.035172378083737049 0 -0.12424451236807239 0.027069144312366941 0 -0.131277092146349 0.043237905602295942 0 -0.12424451236807239 0.027069144312366941 0 -0.12075472355362291 0.04122338309529356 0 -0.131277092146349 0.043237905602295942 0 -0.12075472355362291 0.04122338309529356 0 -0.1244920148619628 0.050381604022983993 0 -0.131277092146349 0.043237905602295942 0 -0.14194951185496399 0.035172378083737049 0 -0.1435202772377579 0.047601805401877667 0 -0.14194951185496399 0.035172378083737049 0 -0.15126073753592009 0.02487777788828089 0 -0.1637260562540532 0.045028253166508762 0 -0.14194951185496399 0.035172378083737049 0 -0.1435202772377579 0.047601805401877667 0 -0.1637260562540532 0.045028253166508762 0 -0.15722519427174569 0.065058312825911402 0 -0.1471722955607111 0.059591957907519158 0 -0.1637260562540532 0.045028253166508762 0 -0.1471722955607111 0.059591957907519158 0 -0.1435202772377579 0.047601805401877667 0 -0.1637260562540532 0.045028253166508762 0 -0.13233523162579211 0.057527865090889828 0 -0.1471722955607111 0.059591957907519158 0 -0.1435202772377579 0.047601805401877667 0 -0.1244522405185825 -0.00038769298458709092 0 -0.1310798501921922 0.016754836893075501 0 -0.12424451236807239 0.027069144312366941 0 -0.1244522405185825 -0.00038769298458709092 0 -0.13302987177733741 0.0072862060594841918 0 -0.1310798501921922 0.016754836893075501 0 -0.13796817939809339 -7.5853332940862265e-05 0 -0.13302987177733741 0.0072862060594841918 0 -0.13861921700048169 0.01285353366238922 0 -0.1244522405185825 -0.00038769298458709092 0 -0.13796817939809339 -7.5853332940862265e-05 0 -0.13302987177733741 0.0072862060594841918 0 -0.13302987177733741 0.0072862060594841918 0 -0.13861921700048169 0.01285353366238922 0 -0.1310798501921922 0.016754836893075501 0 -0.14194951185496399 0.035172378083737049 0 -0.1395360945068517 0.023372288850015029 0 -0.12424451236807239 0.027069144312366941 0 -0.13861921700048169 0.01285353366238922 0 -0.1395360945068517 0.023372288850015029 0 -0.1310798501921922 0.016754836893075501 0 -0.1395360945068517 0.023372288850015029 0 -0.1310798501921922 0.016754836893075501 0 -0.12424451236807239 0.027069144312366941 0 -0.14194951185496399 0.035172378083737049 0 -0.1395360945068517 0.023372288850015029 0 -0.15126073753592009 0.02487777788828089 0 -0.15126073753592009 0.02487777788828089 0 -0.15188271994169991 0.01786916074884114 0 -0.14657132146084931 0.01677767438903701 0 -0.15126073753592009 0.02487777788828089 0 -0.15837519066330749 0.018103177496080571 0 -0.1567842680697151 0.017821512483746641 0 -0.15126073753592009 0.02487777788828089 0 -0.15188271994169991 0.01786916074884114 0 -0.1567842680697151 0.017821512483746641 0 -0.1543123506052223 0.01567032783345056 0 -0.15188271994169991 0.01786916074884114 0 -0.1567842680697151 0.017821512483746641 0 -0.13861921700048169 0.01285353366238922 0 -0.1395360945068517 0.023372288850015029 0 -0.14657132146084931 0.01677767438903701 0 -0.1395360945068517 0.023372288850015029 0 -0.15126073753592009 0.02487777788828089 0 -0.14657132146084931 0.01677767438903701 0 -0.15381676672243971 -0.0048344028756085976 0 -0.13796817939809339 -7.5853332940862265e-05 0 -0.14598604308907309 0.0075397954886723484 0 -0.15381676672243971 -0.0048344028756085976 0 -0.15837519066330749 0.018103177496080571 0 -0.15381676672243971 -0.0048344028756085976 0 -0.15182406541376531 0.011854288846745499 0 -0.15837519066330749 0.018103177496080571 0 -0.15381676672243971 -0.0048344028756085976 0 -0.15182406541376531 0.011854288846745499 0 -0.14598604308907309 0.0075397954886723484 0 -0.13861921700048169 0.01285353366238922 0 -0.14657132146084931 0.01677767438903701 0 -0.14598604308907309 0.0075397954886723484 0 -0.14657132146084931 0.01677767438903701 0 -0.15182406541376531 0.011854288846745499 0 -0.14598604308907309 0.0075397954886723484 0 -0.15188271994169991 0.01786916074884114 0 -0.14657132146084931 0.01677767438903701 0 -0.15182406541376531 0.011854288846745499 0 -0.1543123506052223 0.01567032783345056 0 -0.15182406541376531 0.011854288846745499 0 -0.15837519066330749 0.018103177496080571 0 -0.1543123506052223 0.01567032783345056 0 -0.15188271994169991 0.01786916074884114 0 -0.15182406541376531 0.011854288846745499 0 -0.13796817939809339 -7.5853332940862265e-05 0 -0.13861921700048169 0.01285353366238922 0 -0.14598604308907309 0.0075397954886723484 0 -0.15381676672243971 -0.0048344028756085976 0 -0.16872927738725291 0.0066655648670224509 0 -0.15837519066330749 0.018103177496080571 0 -0.16872927738725291 0.0066655648670224509 0 -0.15837519066330749 0.018103177496080571 0 -0.17312315274812851 0.016956976572924821 0 -0.15837519066330749 0.018103177496080571 0 -0.17088268452158301 0.030303691123205939 0 -0.18416549926151529 0.022669224655560441 0 -0.15837519066330749 0.018103177496080571 0 -0.17088268452158301 0.030303691123205939 0 -0.1637260562540532 0.045028253166508762 0 -0.15126073753592009 0.02487777788828089 0 -0.15837519066330749 0.018103177496080571 0 -0.1637260562540532 0.045028253166508762 0 -0.15837519066330749 0.018103177496080571 0 -0.18416549926151529 0.022669224655560441 0 -0.1543123506052223 0.01567032783345056 0 -0.15837519066330749 0.018103177496080571 0 -0.1567842680697151 0.017821512483746641 0 -0.15837519066330749 0.018103177496080571 0 -0.1567842680697151 0.017821512483746641 0 -0.15837519066330749 0.018103177496080571 0 -0.18416549926151529 0.022669224655560441 0 -0.17312315274812851 0.016956976572924821 0 -0.17088268452158301 0.030303691123205939 0 -0.18416549926151529 0.022669224655560441 0 -0.1815242396402782 0.037713578252632912 0 -0.18416549926151529 0.022669224655560441 0 -0.17919408738426101 0.017592611389363012 0 -0.18518118592807509 0.0154377595936586 0 -0.18416549926151529 0.022669224655560441 0 -0.17312315274812851 0.016956976572924821 0 -0.17919408738426101 0.017592611389363012 0 -0.1785064095432054 -0.0066611219507198768 0 -0.16872927738725291 0.0066655648670224509 0 -0.193034969706537 0.00064734206737222756 0 -0.16872927738725291 0.0066655648670224509 0 -0.193034969706537 0.00064734206737222756 0 -0.16872927738725291 0.0066655648670224509 0 -0.18518118592807509 0.0154377595936586 0 -0.193034969706537 0.00064734206737222756 0 -0.16872927738725291 0.0066655648670224509 0 -0.17919408738426101 0.017592611389363012 0 -0.18518118592807509 0.0154377595936586 0 -0.16872927738725291 0.0066655648670224509 0 -0.17312315274812851 0.016956976572924821 0 -0.17919408738426101 0.017592611389363012 0 -0.16907692184479731 0.071953328836937142 0 -0.1637260562540532 0.045028253166508762 0 -0.18167022033174851 0.056262687610226528 0 -0.15722519427174569 0.065058312825911402 0 -0.16907692184479731 0.071953328836937142 0 -0.1637260562540532 0.045028253166508762 0 -0.16907692184479731 0.071953328836937142 0 -0.1637260562540532 0.045028253166508762 0 -0.15837519066330749 0.018103177496080571 0 -0.1637260562540532 0.045028253166508762 0 -0.17088268452158301 0.030303691123205939 0 -0.1637260562540532 0.045028253166508762 0 -0.1815242396402782 0.037713578252632912 0 -0.1815242396402782 0.037713578252632912 0 -0.18167022033174851 0.056262687610226528 0 -0.1948999673891425 0.045815662425189529 0 -0.1637260562540532 0.045028253166508762 0 -0.1815242396402782 0.037713578252632912 0 -0.18167022033174851 0.056262687610226528 0 -0.18416549926151529 0.022669224655560441 0 -0.1815242396402782 0.037713578252632912 0 -0.19539241544158811 0.034915353149486399 0 -0.19598386328254799 0.058823167906541372 0 -0.20873259774339259 0.055173182954087172 0 -0.20069407892192309 0.071070863509647808 0 -0.18167022033174851 0.056262687610226528 0 -0.19598386328254799 0.058823167906541372 0 -0.1876556690991136 0.063313821709693935 0 -0.19598386328254799 0.058823167906541372 0 -0.1948999673891425 0.045815662425189529 0 -0.20873259774339259 0.055173182954087172 0 -0.18167022033174851 0.056262687610226528 0 -0.19598386328254799 0.058823167906541372 0 -0.1948999673891425 0.045815662425189529 0 -0.1815242396402782 0.037713578252632912 0 -0.1948999673891425 0.045815662425189529 0 -0.19539241544158811 0.034915353149486399 0 -0.1948999673891425 0.045815662425189529 0 -0.19539241544158811 0.034915353149486399 0 -0.20641656305728129 0.041143028599009299 0 -0.20641656305728129 0.041143028599009299 0 -0.20995580785972329 0.027235271815039791 0 -0.22080882119384479 0.043900986742667819 0 -0.19539241544158811 0.034915353149486399 0 -0.20641656305728129 0.041143028599009299 0 -0.20995580785972329 0.027235271815039791 0 -0.20641656305728129 0.041143028599009299 0 -0.20873259774339259 0.055173182954087172 0 -0.22080882119384479 0.043900986742667819 0 -0.20873259774339259 0.055173182954087172 0 -0.2267202713125637 0.058975611642501508 0 -0.2176358721649875 0.072186860311035453 0 -0.1948999673891425 0.045815662425189529 0 -0.20641656305728129 0.041143028599009299 0 -0.20873259774339259 0.055173182954087172 0 -0.20993853639106591 -0.0035380738047605968 0 -0.2009137908539024 0.01431144198083124 0 -0.193034969706537 0.00064734206737222756 0 -0.18518118592807509 0.0154377595936586 0 -0.2009137908539024 0.01431144198083124 0 -0.193034969706537 0.00064734206737222756 0 -0.18518118592807509 0.0154377595936586 0 -0.193034969706537 0.00064734206737222756 0 -0.18416549926151529 0.022669224655560441 0 -0.20995580785972329 0.027235271815039791 0 -0.18416549926151529 0.022669224655560441 0 -0.18518118592807509 0.0154377595936586 0 -0.2009137908539024 0.01431144198083124 0 -0.18416549926151529 0.022669224655560441 0 -0.2009137908539024 0.01431144198083124 0 -0.20995580785972329 0.027235271815039791 0 -0.18416549926151529 0.022669224655560441 0 -0.19539241544158811 0.034915353149486399 0 -0.20995580785972329 0.027235271815039791 0 -0.2009137908539024 0.01431144198083124 0 -0.20995580785972329 0.027235271815039791 0 -0.21568563774484731 0.0082874278720449449 0 -0.20993853639106591 -0.0035380738047605968 0 -0.2009137908539024 0.01431144198083124 0 -0.21568563774484731 0.0082874278720449449 0 -0.22684210307559549 -0.0077234896768903086 0 -0.21568563774484731 0.0082874278720449449 0 -0.23077795054394901 0.01115198904600462 0 -0.22684210307559549 -0.0077234896768903086 0 -0.23077795054394901 0.01115198904600462 0 -0.20995580785972329 0.027235271815039791 0 -0.21568563774484731 0.0082874278720449449 0 -0.23077795054394901 0.01115198904600462 0 -0.20995580785972329 0.027235271815039791 0 -0.2357461164579312 0.03180131897451912 0 -0.20995580785972329 0.027235271815039791 0 -0.23077795054394901 0.01115198904600462 0 -0.2357461164579312 0.03180131897451912 0 -0.23077795054394901 0.01115198904600462 0 -0.24854849079604721 0.020569936005881421 0 -0.2357461164579312 0.03180131897451912 0 -0.26153642505613889 0.036367366133998442 0 -0.24854849079604721 0.020569936005881421 0 -0.2357461164579312 0.03180131897451912 0 -0.23077795054394901 0.01115198904600462 0 -0.24854849079604721 0.020569936005881421 0 -0.24598119983726671 0.0037338506766126851 0 -0.22684210307559549 -0.0077234896768903086 0 -0.23077795054394901 0.01115198904600462 0 -0.24598119983726671 0.0037338506766126851 0 -0.20873259774339259 0.055173182954087172 0 -0.2267202713125637 0.058975611642501508 0 -0.22080882119384479 0.043900986742667819 0 -0.2267202713125637 0.058975611642501508 0 -0.22080882119384479 0.043900986742667819 0 -0.239388393447095 0.04766651035075449 0 -0.22080882119384479 0.043900986742667819 0 -0.2357461164579312 0.03180131897451912 0 -0.239388393447095 0.04766651035075449 0 -0.20995580785972329 0.027235271815039791 0 -0.22080882119384479 0.043900986742667819 0 -0.2357461164579312 0.03180131897451912 0 -0.26153642505613889 0.036367366133998442 0 -0.2357461164579312 0.03180131897451912 0 -0.26153642505613889 0.036367366133998442 0 -0.2357461164579312 0.03180131897451912 0 -0.239388393447095 0.04766651035075449 0 -0.25116276906762952 0.054241108780248931 0 -0.239388393447095 0.04766651035075449 0 -0.24035595759446179 0.060712669830591162 0 -0.2267202713125637 0.058975611642501508 0 -0.239388393447095 0.04766651035075449 0 -0.24035595759446179 0.060712669830591162 0 -0.25116276906762952 0.054241108780248931 0 -0.24035595759446179 0.060712669830591162 0 -0.24829977196364941 0.065213336215906109 0 -0.2267202713125637 0.058975611642501508 0 -0.24035595759446179 0.060712669830591162 0 -0.23791909572611269 0.075142721002645518 0 -0.24035595759446179 0.060712669830591162 0 -0.24829977196364941 0.065213336215906109 0 -0.23791909572611269 0.075142721002645518 0 -0.25064083865024739 0.073628726666345984 0 -0.23791909572611269 0.075142721002645518 0 -0.24857020570659841 0.081659589420377987 0 -0.25064083865024739 0.073628726666345984 0 -0.24829977196364941 0.065213336215906109 0 -0.23791909572611269 0.075142721002645518 0 -0.23791909572611269 0.075142721002645518 0 -0.2427234934652894 0.090762762990284518 0 -0.22646138453880821 0.085461994072224837 0 -0.25413031243694739 0.089521027236778197 0 -0.2427234934652894 0.090762762990284518 0 -0.24857020570659841 0.081659589420377987 0 -0.23791909572611269 0.075142721002645518 0 -0.2427234934652894 0.090762762990284518 0 -0.24857020570659841 0.081659589420377987 0 -0.2267202713125637 0.058975611642501508 0 -0.23791909572611269 0.075142721002645518 0 -0.2176358721649875 0.072186860311035453 0 -0.23791909572611269 0.075142721002645518 0 -0.22646138453880821 0.085461994072224837 0 -0.2176358721649875 0.072186860311035453 0 -0.20873259774339259 0.055173182954087172 0 -0.2176358721649875 0.072186860311035453 0 -0.20069407892192309 0.071070863509647808 0 -0.2176358721649875 0.072186860311035453 0 -0.20525373999263671 0.08640341449760941 0 -0.20069407892192309 0.071070863509647808 0 -0.22646138453880821 0.085461994072224837 0 -0.2176358721649875 0.072186860311035453 0 -0.20525373999263671 0.08640341449760941 0 -0.22646138453880821 0.085461994072224837 0 -0.20525373999263671 0.08640341449760941 0 -0.2161514522581473 0.1006972439961434 0 -0.18444466814129201 0.081023499242751457 0 -0.20525373999263671 0.08640341449760941 0 -0.20069407892192309 0.071070863509647808 0 -0.18444466814129201 0.081023499242751457 0 -0.20525373999263671 0.08640341449760941 0 -0.19937405773042491 0.1071019237599893 0 -0.17832815471062741 0.080370175701138483 0 -0.20069407892192309 0.071070863509647808 0 -0.18444466814129201 0.081023499242751457 0 -0.17832815471062741 0.080370175701138483 0 -0.20069407892192309 0.071070863509647808 0 -0.1809864334298861 0.069780609401686525 0 -0.1876556690991136 0.063313821709693935 0 -0.20069407892192309 0.071070863509647808 0 -0.19598386328254799 0.058823167906541372 0 -0.1876556690991136 0.063313821709693935 0 -0.20069407892192309 0.071070863509647808 0 -0.19937405773042491 0.1071019237599893 0 -0.2161514522581473 0.1006972439961434 0 -0.21430344731955769 0.133180348277227 0 -0.19937405773042491 0.1071019237599893 0 -0.19727411993202021 0.1275714443648302 0 -0.1795193575176991 0.1294692331289829 0 -0.18444466814129201 0.081023499242751457 0 -0.19937405773042491 0.1071019237599893 0 -0.20525373999263671 0.08640341449760941 0 -0.19937405773042491 0.1071019237599893 0 -0.2161514522581473 0.1006972439961434 0 -0.19937405773042491 0.1071019237599893 0 -0.21430344731955769 0.133180348277227 0 -0.19937405773042491 0.1071019237599893 0 -0.19727411993202021 0.1275714443648302 0 -0.21430344731955769 0.133180348277227 0 -0.2161514522581473 0.1006972439961434 0 -0.23231730930006211 0.10853516007106349 0 -0.21430344731955769 0.133180348277227 0 -0.2427234934652894 0.090762762990284518 0 -0.22646138453880821 0.085461994072224837 0 -0.23231730930006211 0.10853516007106349 0 -0.22646138453880821 0.085461994072224837 0 -0.2161514522581473 0.1006972439961434 0 -0.23231730930006211 0.10853516007106349 0 -0.25610310449345419 0.1041046972302731 0 -0.2427234934652894 0.090762762990284518 0 -0.23231730930006211 0.10853516007106349 0 -0.25610310449345419 0.1041046972302731 0 -0.23231730930006211 0.10853516007106349 0 -0.2495823492922267 0.12121763785839371 0 -0.23231730930006211 0.10853516007106349 0 -0.2495823492922267 0.12121763785839371 0 -0.23849568892714909 0.13696143350773771 0 -0.23231730930006211 0.10853516007106349 0 -0.23849568892714909 0.13696143350773771 0 -0.25477231595188199 0.13792181725732239 0 -0.2495823492922267 0.12121763785839371 0 -0.23849568892714909 0.13696143350773771 0 -0.23231730930006211 0.10853516007106349 0 -0.23849568892714909 0.13696143350773771 0 -0.21430344731955769 0.133180348277227 0 -0.23849568892714909 0.13696143350773771 0 -0.22923283690869051 0.15925877279446471 0 -0.21430344731955769 0.133180348277227 0 -0.22923283690869051 0.15925877279446471 0 -0.21430344731955769 0.133180348277227 0 -0.2543915534089356 0.15018751405662761 0 -0.23849568892714909 0.13696143350773771 0 -0.24467406855423091 0.1653877069444131 0 -0.23849568892714909 0.13696143350773771 0 -0.24467406855423091 0.1653877069444131 0 -0.22923283690869051 0.15925877279446471 0 -0.2543915534089356 0.15018751405662761 0 -0.25477231595188199 0.13792181725732239 0 -0.23849568892714909 0.13696143350773771 0 -0.23849568892714909 0.13696143350773771 0 -0.24467406855423091 0.1653877069444131 0 -0.24467406855423091 0.1653877069444131 0 -0.2350219134637796 0.18103954803765679 0 -0.22379977898383499 0.16989282922580509 0 -0.24467406855423091 0.1653877069444131 0 -0.24947341468037071 0.1874691479585941 0 -0.2350219134637796 0.18103954803765679 0 -0.24467406855423091 0.1653877069444131 0 -0.24947341468037071 0.1874691479585941 0 -0.2350219134637796 0.18103954803765679 0 -0.22004124654446131 0.18611549732905991 0 -0.22379977898383499 0.16989282922580509 0 -0.24467406855423091 0.1653877069444131 0 -0.22379977898383499 0.16989282922580509 0 -0.22923283690869051 0.15925877279446471 0 -0.22379977898383499 0.16989282922580509 0 -0.22923283690869051 0.15925877279446471 0 -0.20989634202023699 0.1560844752241346 0 -0.24467406855423091 0.1653877069444131 0 -0.22379977898383499 0.16989282922580509 0 -0.22379977898383499 0.16989282922580509 0 -0.20292548941343971 0.17439795150720031 0 -0.20989634202023699 0.1560844752241346 0 -0.20292548941343971 0.17439795150720031 0 -0.20989634202023699 0.1560844752241346 0 -0.17833905569944569 0.15756593750779829 0 -0.22379977898383499 0.16989282922580509 0 -0.20292548941343971 0.17439795150720031 0 -0.22004124654446131 0.18611549732905991 0 -0.22379977898383499 0.16989282922580509 0 -0.20292548941343971 0.17439795150720031 0 -0.22004124654446131 0.18611549732905991 0 -0.20292548941343971 0.17439795150720031 0 -0.22004124654446131 0.18611549732905991 0 -0.20292548941343971 0.17439795150720031 0 -0.20568385543668641 0.19260324117033031 0 -0.20292548941343971 0.17439795150720031 0 -0.1757122088887666 0.1802711648698879 0 -0.20292548941343971 0.17439795150720031 0 -0.1897130520823497 0.19444680225630501 0 -0.1757122088887666 0.1802711648698879 0 -0.20292548941343971 0.17439795150720031 0 -0.20568385543668641 0.19260324117033031 0 -0.1897130520823497 0.19444680225630501 0 -0.20292548941343971 0.17439795150720031 0 -0.17833905569944569 0.15756593750779829 0 -0.19589961716039911 0.1405342722931214 0 -0.20989634202023699 0.1560844752241346 0 -0.17833905569944569 0.15756593750779829 0 -0.19727411993202021 0.1275714443648302 0 -0.19589961716039911 0.1405342722931214 0 -0.1795193575176991 0.1294692331289829 0 -0.19727411993202021 0.1275714443648302 0 -0.19589961716039911 0.1405342722931214 0 -0.21430344731955769 0.133180348277227 0 -0.22923283690869051 0.15925877279446471 0 -0.21430344731955769 0.133180348277227 0 -0.20989634202023699 0.1560844752241346 0 -0.19589961716039911 0.1405342722931214 0 -0.21430344731955769 0.133180348277227 0 -0.20989634202023699 0.1560844752241346 0 -0.23288038931281729 0.23888496135878451 0 -0.21994142138302111 0.22426230620998819 0 -0.21218175950055909 0.24952722652004439 0 -0.22667039518801041 0.25355429459537898 0 -0.23288038931281729 0.23888496135878451 0 -0.21218175950055909 0.24952722652004439 0 -0.2416444700809012 0.25186566196455601 0 -0.22667039518801041 0.25355429459537898 0 -0.23288038931281729 0.23888496135878451 0 -0.2416444700809012 0.25186566196455601 0 -0.23288038931281729 0.23888496135878451 0 -0.2470081454867771 0.2422065880623451 0 -0.25693865295534157 0.25278860643768353 0 -0.2416444700809012 0.25186566196455601 0 -0.2470081454867771 0.2422065880623451 0 -0.25109603964961891 0.234366577265785 0 -0.2470081454867771 0.2422065880623451 0 -0.24424918889796191 0.23342051569475999 0 -0.23288038931281729 0.23888496135878451 0 -0.2470081454867771 0.2422065880623451 0 -0.24424918889796191 0.23342051569475999 0 -0.23288038931281729 0.23888496135878451 0 -0.24424918889796191 0.23342051569475999 0 -0.2396805993576108 0.22455316273993289 0 -0.24424918889796191 0.23342051569475999 0 -0.249817319625419 0.2274340479663062 0 -0.2396805993576108 0.22455316273993289 0 -0.25109603964961891 0.234366577265785 0 -0.24424918889796191 0.23342051569475999 0 -0.249817319625419 0.2274340479663062 0 -0.249817319625419 0.2274340479663062 0 -0.24904636230289101 0.22050689045355901 0 -0.2396805993576108 0.22455316273993289 0 -0.24904636230289101 0.22050689045355901 0 -0.2396805993576108 0.22455316273993289 0 -0.24333230173327219 0.21221501244476959 0 -0.2396805993576108 0.22455316273993289 0 -0.21994142138302111 0.22426230620998819 0 -0.23304733008138001 0.21339205942673259 0 -0.23288038931281729 0.23888496135878451 0 -0.2396805993576108 0.22455316273993289 0 -0.21994142138302111 0.22426230620998819 0 -0.21994142138302111 0.22426230620998819 0 -0.22770108326548311 0.19899738589993199 0 -0.210353022999335 0.20567537760669019 0 -0.21994142138302111 0.22426230620998819 0 -0.23304733008138001 0.21339205942673259 0 -0.22770108326548311 0.19899738589993199 0 -0.21994142138302111 0.22426230620998819 0 -0.22770108326548311 0.19899738589993199 0 -0.23304733008138001 0.21339205942673259 0 -0.2346933251094325 0.20523388649383931 0 -0.22770108326548311 0.19899738589993199 0 -0.25427276080650663 0.20955058897277601 0 -0.23715700367548431 0.1978330431509176 0 -0.2396805993576108 0.22455316273993289 0 -0.23304733008138001 0.21339205942673259 0 -0.24333230173327219 0.21221501244476959 0 -0.25427276080650663 0.20955058897277601 0 -0.24333230173327219 0.21221501244476959 0 -0.23715700367548431 0.1978330431509176 0 -0.25561524088587501 0.21572724177218369 0 -0.24904636230289101 0.22050689045355901 0 -0.24333230173327219 0.21221501244476959 0 -0.24333230173327219 0.21221501244476959 0 -0.2346933251094325 0.20523388649383931 0 -0.23715700367548431 0.1978330431509176 0 -0.23304733008138001 0.21339205942673259 0 -0.24333230173327219 0.21221501244476959 0 -0.2346933251094325 0.20523388649383931 0 -0.25427276080650663 0.20955058897277601 0 -0.24947341468037071 0.1874691479585941 0 -0.23715700367548431 0.1978330431509176 0 -0.24947341468037071 0.1874691479585941 0 -0.2350219134637796 0.18103954803765679 0 -0.23715700367548431 0.1978330431509176 0 -0.22004124654446131 0.18611549732905991 0 -0.23715700367548431 0.1978330431509176 0 -0.22004124654446131 0.18611549732905991 0 -0.23715700367548431 0.1978330431509176 0 -0.22770108326548311 0.19899738589993199 0 -0.2350219134637796 0.18103954803765679 0 -0.22004124654446131 0.18611549732905991 0 -0.23715700367548431 0.1978330431509176 0 -0.2346933251094325 0.20523388649383931 0 -0.23715700367548431 0.1978330431509176 0 -0.22770108326548311 0.19899738589993199 0 -0.22004124654446131 0.18611549732905991 0 -0.22770108326548311 0.19899738589993199 0 -0.21594480206149139 0.19584787550150309 0 -0.22770108326548311 0.19899738589993199 0 -0.21594480206149139 0.19584787550150309 0 -0.210353022999335 0.20567537760669019 0 -0.22004124654446131 0.18611549732905991 0 -0.21594480206149139 0.19584787550150309 0 -0.20568385543668641 0.19260324117033031 0 -0.21594480206149139 0.19584787550150309 0 -0.20568385543668641 0.19260324117033031 0 -0.210353022999335 0.20567537760669019 0 -0.20568385543668641 0.19260324117033031 0 -0.19800517532583911 0.2033181044808495 0 -0.210353022999335 0.20567537760669019 0 -0.20568385543668641 0.19260324117033031 0 -0.1897130520823497 0.19444680225630501 0 -0.19800517532583911 0.2033181044808495 0 -0.1897130520823497 0.19444680225630501 0 -0.19800517532583911 0.2033181044808495 0 -0.1863200837324982 0.20555600776477401 0 -0.19800517532583911 0.2033181044808495 0 -0.19795586237832599 0.21830909360614789 0 -0.210353022999335 0.20567537760669019 0 -0.19800517532583911 0.2033181044808495 0 -0.19795586237832599 0.21830909360614789 0 -0.1863200837324982 0.20555600776477401 0 -0.19795586237832599 0.21830909360614789 0 -0.18240126852579899 0.21930684119835961 0 -0.1863200837324982 0.20555600776477401 0 -0.21994142138302111 0.22426230620998819 0 -0.19795586237832599 0.21830909360614789 0 -0.210353022999335 0.20567537760669019 0 -0.21994142138302111 0.22426230620998819 0 -0.19795586237832599 0.21830909360614789 0 -0.20314208847108339 0.23556135501649109 0 -0.19795586237832599 0.21830909360614789 0 -0.18651378479530609 0.23505073182760211 0 -0.18240126852579899 0.21930684119835961 0 -0.19795586237832599 0.21830909360614789 0 -0.20314208847108339 0.23556135501649109 0 -0.18651378479530609 0.23505073182760211 0 -0.1929026130837673 0.25762258695206858 0 -0.20314208847108339 0.23556135501649109 0 -0.18651378479530609 0.23505073182760211 0 -0.1929026130837673 0.25762258695206858 0 -0.20314208847108339 0.23556135501649109 0 -0.21218175950055909 0.24952722652004439 0 -0.21994142138302111 0.22426230620998819 0 -0.21218175950055909 0.24952722652004439 0 -0.21994142138302111 0.22426230620998819 0 -0.20314208847108339 0.23556135501649109 0 -0.21218175950055909 0.24952722652004439 0 -0.16582228118094081 0.26466105519565358 0 -0.18651378479530609 0.23505073182760211 0 -0.1608218935138386 0.23306973899941771 0 -0.16582228118094081 0.26466105519565358 0 -0.14534546737678511 0.25129379472131641 0 -0.1608218935138386 0.23306973899941771 0 -0.18651378479530609 0.23505073182760211 0 -0.1608218935138386 0.23306973899941771 0 -0.18651378479530609 0.23505073182760211 0 -0.18240126852579899 0.21930684119835961 0 -0.1608218935138386 0.23306973899941771 0 -0.1608218935138386 0.23306973899941771 0 -0.16716432822862029 0.21469463307327219 0 -0.14537567171977789 0.21373021027012479 0 -0.18240126852579899 0.21930684119835961 0 -0.1608218935138386 0.23306973899941771 0 -0.16716432822862029 0.21469463307327219 0 -0.16716432822862029 0.21469463307327219 0 -0.15728284033457929 0.19872471446884221 0 -0.14537567171977789 0.21373021027012479 0 -0.16716432822862029 0.21469463307327219 0 -0.1863200837324982 0.20555600776477401 0 -0.15728284033457929 0.19872471446884221 0 -0.18240126852579899 0.21930684119835961 0 -0.16716432822862029 0.21469463307327219 0 -0.1863200837324982 0.20555600776477401 0 -0.1863200837324982 0.20555600776477401 0 -0.1747365466553682 0.1940095109997643 0 -0.15728284033457929 0.19872471446884221 0 -0.1897130520823497 0.19444680225630501 0 -0.1863200837324982 0.20555600776477401 0 -0.1747365466553682 0.1940095109997643 0 -0.1897130520823497 0.19444680225630501 0 -0.1747365466553682 0.1940095109997643 0 -0.1757122088887666 0.1802711648698879 0 -0.1747365466553682 0.1940095109997643 0 -0.16534449221108169 0.19019064904669619 0 -0.1757122088887666 0.1802711648698879 0 -0.1863200837324982 0.20555600776477401 0 -0.15728284033457929 0.19872471446884221 0 -0.1747365466553682 0.1940095109997643 0 -0.16534449221108169 0.19019064904669619 0 -0.15728284033457929 0.19872471446884221 0 -0.16534449221108169 0.19019064904669619 0 -0.15728284033457929 0.19872471446884221 0 -0.15629575781976141 0.184461654133797 0 -0.15728284033457929 0.19872471446884221 0 -0.12824559693666041 0.19189342117291039 0 -0.15629575781976141 0.184461654133797 0 -0.15728284033457929 0.19872471446884221 0 -0.12824559693666041 0.19189342117291039 0 -0.14537567171977789 0.21373021027012479 0 -0.15728284033457929 0.19872471446884221 0 -0.12824559693666041 0.19189342117291039 0 -0.12824559693666041 0.19189342117291039 0 -0.14537567171977789 0.21373021027012479 0 -0.1242544958201173 0.21504107598638081 0 -0.1608218935138386 0.23306973899941771 0 -0.14537567171977789 0.21373021027012479 0 -0.13513000223237101 0.23108874617123329 0 -0.1608218935138386 0.23306973899941771 0 -0.13513000223237101 0.23108874617123329 0 -0.14537567171977789 0.21373021027012479 0 -0.13513000223237101 0.23108874617123329 0 -0.1242544958201173 0.21504107598638081 0 -0.14534546737678511 0.25129379472131641 0 -0.13513000223237101 0.23108874617123329 0 -0.12470300375741469 0.2457033751303839 0 -0.14534546737678511 0.25129379472131641 0 -0.1608218935138386 0.23306973899941771 0 -0.13513000223237101 0.23108874617123329 0 -0.17833905569944569 0.15756593750779829 0 -0.1561619761378806 0.16047685630827471 0 -0.153752621985453 0.14073392350839439 0 -0.1795193575176991 0.1294692331289829 0 -0.17833905569944569 0.15756593750779829 0 -0.153752621985453 0.14073392350839439 0 -0.17833905569944569 0.15756593750779829 0 -0.153752621985453 0.14073392350839439 0 -0.16393492635195239 0.1245978723337525 0 -0.15311233888185891 0.1152965378839053 0 -0.153752621985453 0.14073392350839439 0 -0.16393492635195239 0.1245978723337525 0 -0.1795193575176991 0.1294692331289829 0 -0.153752621985453 0.14073392350839439 0 -0.19589961716039911 0.1405342722931214 0 -0.1795193575176991 0.1294692331289829 0 -0.17833905569944569 0.15756593750779829 0 -0.20292548941343971 0.17439795150720031 0 -0.17833905569944569 0.15756593750779829 0 -0.1757122088887666 0.1802711648698879 0 -0.1897130520823497 0.19444680225630501 0 -0.1757122088887666 0.1802711648698879 0 -0.16534449221108169 0.19019064904669619 0 -0.1757122088887666 0.1802711648698879 0 -0.15629575781976141 0.184461654133797 0 -0.1757122088887666 0.1802711648698879 0 -0.15629575781976141 0.184461654133797 0 -0.1757122088887666 0.1802711648698879 0 -0.15629575781976141 0.184461654133797 0 -0.1561619761378806 0.16047685630827471 0 -0.17833905569944569 0.15756593750779829 0 -0.1757122088887666 0.1802711648698879 0 -0.1561619761378806 0.16047685630827471 0 -0.1757122088887666 0.1802711648698879 0 -0.1561619761378806 0.16047685630827471 0 -0.1561619761378806 0.16047685630827471 0 -0.14126926821389521 0.17232478353634881 0 -0.1371080151487378 0.15864895140394189 0 -0.15629575781976141 0.184461654133797 0 -0.1561619761378806 0.16047685630827471 0 -0.14126926821389521 0.17232478353634881 0 -0.12824559693666041 0.19189342117291039 0 -0.15629575781976141 0.184461654133797 0 -0.14126926821389521 0.17232478353634881 0 -0.12824559693666041 0.19189342117291039 0 -0.14126926821389521 0.17232478353634881 0 -0.1248941403316576 0.1686438139500778 0 -0.14126926821389521 0.17232478353634881 0 -0.1371080151487378 0.15864895140394189 0 -0.1248941403316576 0.1686438139500778 0 -0.1371080151487378 0.15864895140394189 0 -0.1239269324459726 0.1539154783358255 0 -0.1248941403316576 0.1686438139500778 0 -0.1371080151487378 0.15864895140394189 0 -0.13661174338699569 0.1406825477466605 0 -0.1239269324459726 0.1539154783358255 0 -0.1561619761378806 0.16047685630827471 0 -0.13661174338699569 0.1406825477466605 0 -0.1561619761378806 0.16047685630827471 0 -0.13661174338699569 0.1406825477466605 0 -0.153752621985453 0.14073392350839439 0 -0.1561619761378806 0.16047685630827471 0 -0.1371080151487378 0.15864895140394189 0 -0.13661174338699569 0.1406825477466605 0 -0.12916618827146031 0.12390190950899049 0 -0.153752621985453 0.14073392350839439 0 -0.13930859898956699 0.1145050369687237 0 -0.12916618827146031 0.12390190950899049 0 -0.153752621985453 0.14073392350839439 0 -0.13661174338699569 0.1406825477466605 0 -0.11706151063611089 0.1208882391850464 0 -0.12916618827146031 0.12390190950899049 0 -0.13661174338699569 0.1406825477466605 0 -0.11706151063611089 0.1208882391850464 0 -0.12916618827146031 0.12390190950899049 0 -0.13661174338699569 0.1406825477466605 0 -0.153752621985453 0.14073392350839439 0 -0.13661174338699569 0.1406825477466605 0 -0.11473911200363 0.13153944404780621 0 -0.1132109842275667 0.1430328284895945 0 -0.13661174338699569 0.1406825477466605 0 -0.11473911200363 0.13153944404780621 0 -0.11706151063611089 0.1208882391850464 0 -0.11473911200363 0.13153944404780621 0 -0.1039338124667491 0.13009472872812991 0 -0.1132109842275667 0.1430328284895945 0 -0.11473911200363 0.13153944404780621 0 -0.1039338124667491 0.13009472872812991 0 -0.10601879130899509 0.12208205668825579 0 -0.1039338124667491 0.13009472872812991 0 -0.093398168270057425 0.14218175111966569 0 -0.093946486761182085 0.1175508364221631 0 -0.1039338124667491 0.13009472872812991 0 -0.1132109842275667 0.1430328284895945 0 -0.093398168270057425 0.14218175111966569 0 -0.1078097791349048 0.15856925008885259 0 -0.089544080768145809 0.16137822361845131 0 -0.093398168270057425 0.14218175111966569 0 -0.1132109842275667 0.1430328284895945 0 -0.1078097791349048 0.15856925008885259 0 -0.093398168270057425 0.14218175111966569 0 -0.13661174338699569 0.1406825477466605 0 -0.1132109842275667 0.1430328284895945 0 -0.1239269324459726 0.1539154783358255 0 -0.1132109842275667 0.1430328284895945 0 -0.1239269324459726 0.1539154783358255 0 -0.1078097791349048 0.15856925008885259 0 -0.1248941403316576 0.1686438139500778 0 -0.099208353538741523 0.18506212787697859 0 -0.1078097791349048 0.15856925008885259 0 -0.1239269324459726 0.1539154783358255 0 -0.1248941403316576 0.1686438139500778 0 -0.1078097791349048 0.15856925008885259 0 -0.12824559693666041 0.19189342117291039 0 -0.1248941403316576 0.1686438139500778 0 -0.099208353538741523 0.18506212787697859 0 -0.099208353538741523 0.18506212787697859 0 -0.1078097791349048 0.15856925008885259 0 -0.089544080768145809 0.16137822361845131 0 -0.089544080768145809 0.16137822361845131 0 -0.070171110140822543 0.1782308345810468 0 -0.074669823138777097 0.15727584041375819 0 -0.099208353538741523 0.18506212787697859 0 -0.089544080768145809 0.16137822361845131 0 -0.070171110140822543 0.1782308345810468 0 -0.099208353538741523 0.18506212787697859 0 -0.070171110140822543 0.1782308345810468 0 -0.070171110140822543 0.1782308345810468 0 -0.074669823138777097 0.15727584041375819 0 -0.057722578482997257 0.16273086802879619 0 -0.074669823138777097 0.15727584041375819 0 -0.066369438716585821 0.14892706699039879 0 -0.057722578482997257 0.16273086802879619 0 -0.074669823138777097 0.15727584041375819 0 -0.066369438716585821 0.14892706699039879 0 -0.074733199104357148 0.14603812585323231 0 -0.074669823138777097 0.15727584041375819 0 -0.074733199104357148 0.14603812585323231 0 -0.082756465015383474 0.1492386270883771 0 -0.074733199104357148 0.14603812585323231 0 -0.067315024607703278 0.13662092079142449 0 -0.081437053795579945 0.1393191944367777 0 -0.066369438716585821 0.14892706699039879 0 -0.074733199104357148 0.14603812585323231 0 -0.067315024607703278 0.13662092079142449 0 -0.066369438716585821 0.14892706699039879 0 -0.067315024607703278 0.13662092079142449 0 -0.054361576129613079 0.15178129246158931 0 -0.067315024607703278 0.13662092079142449 0 -0.088852304720190942 0.12644129241805541 0 -0.067315024607703278 0.13662092079142449 0 -0.088852304720190942 0.12644129241805541 0 -0.075786521408142987 0.12443322189858901 0 -0.067315024607703278 0.13662092079142449 0 -0.062016764747578973 0.12884034001808189 0 -0.075786521408142987 0.12443322189858901 0 -0.088852304720190942 0.12644129241805541 0 -0.093398168270057425 0.14218175111966569 0 -0.093946486761182085 0.1175508364221631 0 -0.067315024607703278 0.13662092079142449 0 -0.081437053795579945 0.1393191944367777 0 -0.088852304720190942 0.12644129241805541 0 -0.093398168270057425 0.14218175111966569 0 -0.093946486761182085 0.1175508364221631 0 -0.081437053795579945 0.1393191944367777 0 -0.088852304720190942 0.12644129241805541 0 -0.093398168270057425 0.14218175111966569 0 -0.089544080768145809 0.16137822361845131 0 -0.093398168270057425 0.14218175111966569 0 -0.082756465015383474 0.1492386270883771 0 -0.089544080768145809 0.16137822361845131 0 -0.074669823138777097 0.15727584041375819 0 -0.082756465015383474 0.1492386270883771 0 -0.074733199104357148 0.14603812585323231 0 -0.081437053795579945 0.1393191944367777 0 -0.082756465015383474 0.1492386270883771 0 -0.081437053795579945 0.1393191944367777 0 -0.093398168270057425 0.14218175111966569 0 -0.082756465015383474 0.1492386270883771 0 -0.11076524853809321 0.25238606884059173 0 -0.1094381109509034 0.22910775334304889 0 -0.091345724210048884 0.23566487628332011 0 -0.11076524853809321 0.25238606884059173 0 -0.092391857727521592 0.25884509119311472 0 -0.091345724210048884 0.23566487628332011 0 -0.13513000223237101 0.23108874617123329 0 -0.12470300375741469 0.2457033751303839 0 -0.1094381109509034 0.22910775334304889 0 -0.11076524853809321 0.25238606884059173 0 -0.12470300375741469 0.2457033751303839 0 -0.1094381109509034 0.22910775334304889 0 -0.13513000223237101 0.23108874617123329 0 -0.1094381109509034 0.22910775334304889 0 -0.13513000223237101 0.23108874617123329 0 -0.1094381109509034 0.22910775334304889 0 -0.1242544958201173 0.21504107598638081 0 -0.1094381109509034 0.22910775334304889 0 -0.10308309726087379 0.20938524897458621 0 -0.091345724210048884 0.23566487628332011 0 -0.1094381109509034 0.22910775334304889 0 -0.10308309726087379 0.20938524897458621 0 -0.1242544958201173 0.21504107598638081 0 -0.12824559693666041 0.19189342117291039 0 -0.10308309726087379 0.20938524897458621 0 -0.1242544958201173 0.21504107598638081 0 -0.12824559693666041 0.19189342117291039 0 -0.099208353538741523 0.18506212787697859 0 -0.12824559693666041 0.19189342117291039 0 -0.099208353538741523 0.18506212787697859 0 -0.10308309726087379 0.20938524897458621 0 -0.099208353538741523 0.18506212787697859 0 -0.070171110140822543 0.1782308345810468 0 -0.078220861930521898 0.21057701145176541 0 -0.070171110140822543 0.1782308345810468 0 -0.078220861930521898 0.21057701145176541 0 -0.056949983849450658 0.19269083667038239 0 -0.099208353538741523 0.18506212787697859 0 -0.10308309726087379 0.20938524897458621 0 -0.078220861930521898 0.21057701145176541 0 -0.078220861930521898 0.21057701145176541 0 -0.056178602179823331 0.21732906463454121 0 -0.056949983849450658 0.19269083667038239 0 -0.10308309726087379 0.20938524897458621 0 -0.078220861930521898 0.21057701145176541 0 -0.091345724210048884 0.23566487628332011 0 -0.078220861930521898 0.21057701145176541 0 -0.069221313838413207 0.24642852661517459 0 -0.091345724210048884 0.23566487628332011 0 -0.078220861930521898 0.21057701145176541 0 -0.069221313838413207 0.24642852661517459 0 -0.056178602179823331 0.21732906463454121 0 -0.092391857727521592 0.25884509119311472 0 -0.069221313838413207 0.24642852661517459 0 -0.091345724210048884 0.23566487628332011 0 -0.033382390283993792 0.24359412621706661 0 -0.046050769949304807 0.23401196203723451 0 -0.025866468353912139 0.2289639569827632 0 -0.048126263350958612 0.25465777805589501 0 -0.033382390283993792 0.24359412621706661 0 -0.046050769949304807 0.23401196203723451 0 -0.048126263350958612 0.25465777805589501 0 -0.069221313838413207 0.24642852661517459 0 -0.046050769949304807 0.23401196203723451 0 -0.069221313838413207 0.24642852661517459 0 -0.046050769949304807 0.23401196203723451 0 -0.069221313838413207 0.24642852661517459 0 -0.046050769949304807 0.23401196203723451 0 -0.056178602179823331 0.21732906463454121 0 -0.046050769949304807 0.23401196203723451 0 -0.03692704292774221 0.2147422921961073 0 -0.025866468353912139 0.2289639569827632 0 -0.046050769949304807 0.23401196203723451 0 -0.03692704292774221 0.2147422921961073 0 -0.056178602179823331 0.21732906463454121 0 -0.03692704292774221 0.2147422921961073 0 -0.056178602179823331 0.21732906463454121 0 -0.044221089124866657 0.20193605474889509 0 -0.03692704292774221 0.2147422921961073 0 -0.044221089124866657 0.20193605474889509 0 -0.032331133115066808 0.19858524020914661 0 -0.056178602179823331 0.21732906463454121 0 -0.056949983849450658 0.19269083667038239 0 -0.044221089124866657 0.20193605474889509 0 -0.056949983849450658 0.19269083667038239 0 -0.040360849617421202 0.18777351164107661 0 -0.044221089124866657 0.20193605474889509 0 -0.040360849617421202 0.18777351164107661 0 -0.032331133115066808 0.19858524020914661 0 -0.026751027678188599 0.18229597604057349 0 -0.040360849617421202 0.18777351164107661 0 -0.044221089124866657 0.20193605474889509 0 -0.032331133115066808 0.19858524020914661 0 -0.016914194843479571 0.2076274745640635 0 -0.026751027678188599 0.18229597604057349 0 -0.032331133115066808 0.19858524020914661 0 -0.016914194843479571 0.2076274745640635 0 -0.026751027678188599 0.18229597604057349 0 -0.01405220631290922 0.19352016069679451 0 -0.016914194843479571 0.2076274745640635 0 -0.026751027678188599 0.18229597604057349 0 -0.01405220631290922 0.19352016069679451 0 -0.0012364494800765971 0.1960628175593882 0 -0.01891215499648707 0.1765136475382359 0 -0.01405220631290922 0.19352016069679451 0 -0.0012364494800765971 0.1960628175593882 0 -0.0064787008301582438 0.20475797647738719 0 -0.0012364494800765971 0.1960628175593882 0 -0.0064787008301582438 0.20475797647738719 0 0.003893562275735573 0.2064819102401671 0 -0.01405220631290922 0.19352016069679451 0 -0.0064787008301582438 0.20475797647738719 0 -0.016914194843479571 0.2076274745640635 0 -0.0045317147067566524 0.21522543551468479 0 -0.016914194843479571 0.2076274745640635 0 -0.0070773620087705444 0.23295897308755351 0 -0.0064787008301582438 0.20475797647738719 0 -0.0045317147067566524 0.21522543551468479 0 -0.016914194843479571 0.2076274745640635 0 -0.0064787008301582438 0.20475797647738719 0 -0.0045317147067566524 0.21522543551468479 0 0.003893562275735573 0.2064819102401671 0 -0.03692704292774221 0.2147422921961073 0 -0.016914194843479571 0.2076274745640635 0 -0.025866468353912139 0.2289639569827632 0 -0.03692704292774221 0.2147422921961073 0 -0.032331133115066808 0.19858524020914661 0 -0.016914194843479571 0.2076274745640635 0 -0.016914194843479571 0.2076274745640635 0 -0.025866468353912139 0.2289639569827632 0 -0.0070773620087705444 0.23295897308755351 0 -0.016914194843479571 0.2076274745640635 0 -0.0070773620087705444 0.23295897308755351 0 -0.0045317147067566524 0.21522543551468479 0 -0.0070773620087705444 0.23295897308755351 0 0.0038866256090455522 0.2239579318999283 0 -0.0070773620087705444 0.23295897308755351 0 0.001894876929373096 0.24743045501984201 0 0.0027594708259384838 0.25829047161104352 0 -0.0070773620087705444 0.23295897308755351 0 0.0027594708259384838 0.25829047161104352 0 -0.0087132352456033638 0.25173417187717928 0 -0.0070773620087705444 0.23295897308755351 0 -0.01778818590069102 0.2421293126167848 0 -0.0087132352456033638 0.25173417187717928 0 -0.0070773620087705444 0.23295897308755351 0 0.0027594708259384838 0.25829047161104352 0 -0.025866468353912139 0.2289639569827632 0 -0.0070773620087705444 0.23295897308755351 0 -0.01778818590069102 0.2421293126167848 0 -0.028053557715267439 0.25838243531431121 0 -0.033382390283993792 0.24359412621706661 0 -0.01778818590069102 0.2421293126167848 0 -0.033382390283993792 0.24359412621706661 0 -0.025866468353912139 0.2289639569827632 0 -0.01778818590069102 0.2421293126167848 0 -0.044416936009294992 0.14744373737619401 0 -0.030319635528424791 0.14770209815471691 0 -0.021396469969749188 0.1374028974533886 0 -0.044416936009294992 0.14744373737619401 0 -0.030319635528424791 0.14770209815471691 0 -0.027639103276038759 0.15537380566908321 0 -0.044416936009294992 0.14744373737619401 0 -0.038116788675066252 0.15302723042411279 0 -0.027639103276038759 0.15537380566908321 0 -0.044416936009294992 0.14744373737619401 0 -0.041458398192443832 0.13942314763129199 0 -0.021396469969749188 0.1374028974533886 0 -0.044416936009294992 0.14744373737619401 0 -0.027639103276038759 0.15537380566908321 0 -0.044416936009294992 0.14744373737619401 0 -0.021396469969749188 0.1374028974533886 0 -0.044416936009294992 0.14744373737619401 0 -0.036587860512897558 0.15696447751708351 0 -0.044416936009294992 0.14744373737619401 0 -0.047012455662473793 0.15786975055381819 0 -0.036587860512897558 0.15696447751708351 0 -0.044416936009294992 0.14744373737619401 0 -0.038116788675066252 0.15302723042411279 0 -0.036587860512897558 0.15696447751708351 0 -0.038116788675066252 0.15302723042411279 0 -0.036587860512897558 0.15696447751708351 0 -0.027639103276038759 0.15537380566908321 0 -0.038116788675066252 0.15302723042411279 0 -0.036587860512897558 0.15696447751708351 0 -0.037500573576258918 0.13069979942664511 0 -0.041458398192443832 0.13942314763129199 0 -0.021396469969749188 0.1374028974533886 0 -0.037500573576258918 0.13069979942664511 0 -0.028643554108799551 0.12806760582925611 0 -0.034668926388748328 0.1237436995229996 0 -0.037500573576258918 0.13069979942664511 0 -0.047589673205635397 0.1324549890601831 0 -0.046884900963607742 0.11986348336078891 0 -0.037500573576258918 0.13069979942664511 0 -0.041458398192443832 0.13942314763129199 0 -0.047589673205635397 0.1324549890601831 0 -0.044416936009294992 0.14744373737619401 0 -0.041458398192443832 0.13942314763129199 0 -0.047589673205635397 0.1324549890601831 0 -0.067315024607703278 0.13662092079142449 0 -0.044416936009294992 0.14744373737619401 0 -0.062016764747578973 0.12884034001808189 0 -0.044416936009294992 0.14744373737619401 0 -0.062016764747578973 0.12884034001808189 0 -0.044416936009294992 0.14744373737619401 0 -0.047589673205635397 0.1324549890601831 0 -0.062016764747578973 0.12884034001808189 0 -0.047589673205635397 0.1324549890601831 0 -0.062016764747578973 0.12884034001808189 0 -0.046884900963607742 0.11986348336078891 0 -0.067315024607703278 0.13662092079142449 0 -0.044416936009294992 0.14744373737619401 0 -0.054361576129613079 0.15178129246158931 0 -0.067315024607703278 0.13662092079142449 0 -0.044416936009294992 0.14744373737619401 0 -0.044416936009294992 0.14744373737619401 0 -0.054361576129613079 0.15178129246158931 0 -0.044416936009294992 0.14744373737619401 0 -0.054361576129613079 0.15178129246158931 0 -0.047012455662473793 0.15786975055381819 0 -0.066369438716585821 0.14892706699039879 0 -0.054361576129613079 0.15178129246158931 0 -0.057722578482997257 0.16273086802879619 0 -0.057722578482997257 0.16273086802879619 0 -0.050411583818504503 0.1777900037548745 0 -0.045636115300606919 0.16650756778262649 0 -0.054361576129613079 0.15178129246158931 0 -0.057722578482997257 0.16273086802879619 0 -0.047012455662473793 0.15786975055381819 0 -0.057722578482997257 0.16273086802879619 0 -0.047012455662473793 0.15786975055381819 0 -0.045636115300606919 0.16650756778262649 0 -0.070171110140822543 0.1782308345810468 0 -0.056949983849450658 0.19269083667038239 0 -0.050411583818504503 0.1777900037548745 0 -0.070171110140822543 0.1782308345810468 0 -0.057722578482997257 0.16273086802879619 0 -0.050411583818504503 0.1777900037548745 0 -0.056949983849450658 0.19269083667038239 0 -0.040360849617421202 0.18777351164107661 0 -0.050411583818504503 0.1777900037548745 0 -0.040360849617421202 0.18777351164107661 0 -0.050411583818504503 0.1777900037548745 0 -0.039949487385523758 0.17426630734724691 0 -0.050411583818504503 0.1777900037548745 0 -0.039949487385523758 0.17426630734724691 0 -0.045636115300606919 0.16650756778262649 0 -0.040360849617421202 0.18777351164107661 0 -0.039949487385523758 0.17426630734724691 0 -0.026751027678188599 0.18229597604057349 0 -0.039949487385523758 0.17426630734724691 0 -0.036587860512897558 0.15696447751708351 0 -0.026751027678188599 0.18229597604057349 0 -0.036587860512897558 0.15696447751708351 0 -0.026751027678188599 0.18229597604057349 0 -0.039949487385523758 0.17426630734724691 0 -0.045636115300606919 0.16650756778262649 0 -0.036587860512897558 0.15696447751708351 0 -0.047012455662473793 0.15786975055381819 0 -0.045636115300606919 0.16650756778262649 0 -0.036587860512897558 0.15696447751708351 0 -0.01891215499648707 0.1765136475382359 0 -0.010861270542782259 0.1633038739619718 0 -0.027639103276038759 0.15537380566908321 0 -0.010861270542782259 0.1633038739619718 0 -0.027639103276038759 0.15537380566908321 0 -0.036587860512897558 0.15696447751708351 0 -0.01891215499648707 0.1765136475382359 0 -0.036587860512897558 0.15696447751708351 0 -0.01891215499648707 0.1765136475382359 0 -0.027639103276038759 0.15537380566908321 0 -0.01405220631290922 0.19352016069679451 0 -0.01891215499648707 0.1765136475382359 0 -0.026751027678188599 0.18229597604057349 0 -0.036587860512897558 0.15696447751708351 0 -0.01891215499648707 0.1765136475382359 0 -0.026751027678188599 0.18229597604057349 0 -0.01891215499648707 0.1765136475382359 0 -0.010861270542782259 0.1633038739619718 0 0.00061104658230836653 0.17769045695541219 0 -0.0012364494800765971 0.1960628175593882 0 -0.01891215499648707 0.1765136475382359 0 0.00061104658230836653 0.17769045695541219 0 -0.0012364494800765971 0.1960628175593882 0 -0.01891215499648707 0.1765136475382359 0 -0.010861270542782259 0.1633038739619718 0 0.001788155555331062 0.1557637096651584 0 0.00061104658230836653 0.17769045695541219 0 -0.01542264584752753 0.14956457798035719 0 -0.015783289274076458 0.13495459563681389 0 0.001788155555331062 0.1557637096651584 0 -0.015783289274076458 0.13495459563681389 0 0.001788155555331062 0.1557637096651584 0 0.01185912902997375 0.14130758542593569 0 -0.010861270542782259 0.1633038739619718 0 -0.01542264584752753 0.14956457798035719 0 0.001788155555331062 0.1557637096651584 0 -0.015783289274076458 0.13495459563681389 0 0.001788155555331062 0.1557637096651584 0 -0.01542264584752753 0.14956457798035719 0 -0.023159931299824549 0.14839209377580129 0 -0.027639103276038759 0.15537380566908321 0 -0.010861270542782259 0.1633038739619718 0 -0.01542264584752753 0.14956457798035719 0 -0.027639103276038759 0.15537380566908321 0 -0.01542264584752753 0.14956457798035719 0 -0.023159931299824549 0.14839209377580129 0 -0.021396469969749188 0.1374028974533886 0 -0.01542264584752753 0.14956457798035719 0 -0.021396469969749188 0.1374028974533886 0 -0.015783289274076458 0.13495459563681389 0 -0.030319635528424791 0.14770209815471691 0 -0.021396469969749188 0.1374028974533886 0 -0.023159931299824549 0.14839209377580129 0 -0.030319635528424791 0.14770209815471691 0 -0.021396469969749188 0.1374028974533886 0 -0.023159931299824549 0.14839209377580129 0 -0.030319635528424791 0.14770209815471691 0 -0.027639103276038759 0.15537380566908321 0 -0.028643554108799551 0.12806760582925611 0 -0.017506847497941139 0.13291345901070739 0 -0.032144953111298558 0.1155781737325411 0 -0.037500573576258918 0.13069979942664511 0 -0.028643554108799551 0.12806760582925611 0 -0.021396469969749188 0.1374028974533886 0 -0.021396469969749188 0.1374028974533886 0 -0.015783289274076458 0.13495459563681389 0 -0.017506847497941139 0.13291345901070739 0 -0.021396469969749188 0.1374028974533886 0 -0.015783289274076458 0.13495459563681389 0 -0.021396469969749188 0.1374028974533886 0 -0.017506847497941139 0.13291345901070739 0 -0.015783289274076458 0.13495459563681389 0 -0.017506847497941139 0.13291345901070739 0 -0.028643554108799551 0.12806760582925611 0 -0.021396469969749188 0.1374028974533886 0 -0.017506847497941139 0.13291345901070739 0 -0.015783289274076458 0.13495459563681389 0 -0.017506847497941139 0.13291345901070739 0 -0.0052228475358298988 0.1187351519746004 0 -0.015783289274076458 0.13495459563681389 0 -0.0052228475358298988 0.1187351519746004 0 0.0081407562022233586 0.1245196413435004 0 -0.017506847497941139 0.13291345901070739 0 -0.0052228475358298988 0.1187351519746004 0 -0.015783289274076458 0.13495459563681389 0 0.0081407562022233586 0.1245196413435004 0 -0.0052228475358298988 0.1187351519746004 0 -0.0040597014752050652 0.1051126182356364 0 -0.02761291541641378 0.1090435214711212 0 -0.017506847497941139 0.13291345901070739 0 -0.0052228475358298988 0.1187351519746004 0 -0.019344259015361451 0.119617058157429 0 -0.0040597014752050652 0.1051126182356364 0 -0.01533391803445322 0.09737838425916874 0 0.0051087594610210148 0.080527692295617709 0 -0.0052228475358298988 0.1187351519746004 0 -0.0040597014752050652 0.1051126182356364 0 0.0092582498306486675 0.1020209346744549 0 -0.0040597014752050652 0.1051126182356364 0 -0.01533391803445322 0.09737838425916874 0 -0.02761291541641378 0.1090435214711212 0 -0.01533391803445322 0.09737838425916874 0 -0.027797722535604891 0.095528124355643507 0 -0.02761291541641378 0.1090435214711212 0 -0.0052228475358298988 0.1187351519746004 0 -0.02761291541641378 0.1090435214711212 0 -0.019344259015361451 0.119617058157429 0 -0.017506847497941139 0.13291345901070739 0 -0.019344259015361451 0.119617058157429 0 -0.032144953111298558 0.1155781737325411 0 -0.02761291541641378 0.1090435214711212 0 -0.019344259015361451 0.119617058157429 0 -0.032144953111298558 0.1155781737325411 0 -0.0052228475358298988 0.1187351519746004 0 -0.02761291541641378 0.1090435214711212 0 -0.017506847497941139 0.13291345901070739 0 -0.032144953111298558 0.1155781737325411 0 -0.0012292332505543029 0.06378464068123596 0 -0.011084303888442551 0.081696622097620714 0 -0.018620569400409771 0.06708533464306303 0 -0.0012292332505543029 0.06378464068123596 0 -0.011084303888442551 0.081696622097620714 0 0.0051087594610210148 0.080527692295617709 0 -0.01533391803445322 0.09737838425916874 0 -0.011084303888442551 0.081696622097620714 0 0.0051087594610210148 0.080527692295617709 0 -0.01533391803445322 0.09737838425916874 0 0.0051087594610210148 0.080527692295617709 0 -0.011084303888442551 0.081696622097620714 0 0.0051087594610210148 0.080527692295617709 0 -0.027797722535604891 0.095528124355643507 0 -0.011084303888442551 0.081696622097620714 0 -0.032921925083363349 0.0833654898886593 0 -0.01533391803445322 0.09737838425916874 0 -0.027797722535604891 0.095528124355643507 0 -0.011084303888442551 0.081696622097620714 0 -0.018620569400409771 0.06708533464306303 0 -0.031868141831282552 0.069818555696904067 0 -0.028283535649973771 0.053358049395037133 0 -0.018620569400409771 0.06708533464306303 0 -0.031868141831282552 0.069818555696904067 0 -0.032921925083363349 0.0833654898886593 0 -0.011084303888442551 0.081696622097620714 0 -0.018620569400409771 0.06708533464306303 0 -0.032921925083363349 0.0833654898886593 0 -0.046276495737503101 0.06795068115397529 0 -0.032921925083363349 0.0833654898886593 0 -0.055882409073029139 0.082732437330199013 0 -0.046276495737503101 0.06795068115397529 0 -0.031868141831282552 0.069818555696904067 0 -0.028283535649973771 0.053358049395037133 0 -0.046276495737503101 0.06795068115397529 0 -0.031868141831282552 0.069818555696904067 0 -0.032921925083363349 0.0833654898886593 0 -0.027797722535604891 0.095528124355643507 0 -0.032921925083363349 0.0833654898886593 0 -0.050002983296997462 0.099351890967641507 0 -0.032921925083363349 0.0833654898886593 0 -0.055882409073029139 0.082732437330199013 0 -0.050002983296997462 0.099351890967641507 0 -0.055882409073029139 0.082732437330199013 0 -0.050002983296997462 0.099351890967641507 0 -0.072393051177581158 0.089660260464161839 0 -0.046276495737503101 0.06795068115397529 0 -0.055882409073029139 0.082732437330199013 0 -0.062589921296568873 0.06642957971461419 0 -0.032144953111298558 0.1155781737325411 0 -0.050002983296997462 0.099351890967641507 0 -0.046884900963607742 0.11986348336078891 0 -0.037500573576258918 0.13069979942664511 0 -0.034668926388748328 0.1237436995229996 0 -0.046884900963607742 0.11986348336078891 0 -0.028643554108799551 0.12806760582925611 0 -0.034668926388748328 0.1237436995229996 0 -0.032144953111298558 0.1155781737325411 0 -0.034668926388748328 0.1237436995229996 0 -0.032144953111298558 0.1155781737325411 0 -0.046884900963607742 0.11986348336078891 0 -0.027797722535604891 0.095528124355643507 0 -0.02761291541641378 0.1090435214711212 0 -0.050002983296997462 0.099351890967641507 0 -0.02761291541641378 0.1090435214711212 0 -0.050002983296997462 0.099351890967641507 0 -0.02761291541641378 0.1090435214711212 0 -0.032144953111298558 0.1155781737325411 0 -0.050002983296997462 0.099351890967641507 0 -0.050002983296997462 0.099351890967641507 0 -0.072393051177581158 0.089660260464161839 0 -0.050002983296997462 0.099351890967641507 0 -0.062115440392200259 0.1100516779477724 0 -0.072393051177581158 0.089660260464161839 0 -0.062016764747578973 0.12884034001808189 0 -0.062115440392200259 0.1100516779477724 0 -0.046884900963607742 0.11986348336078891 0 -0.050002983296997462 0.099351890967641507 0 -0.062115440392200259 0.1100516779477724 0 -0.046884900963607742 0.11986348336078891 0 -0.062016764747578973 0.12884034001808189 0 -0.062115440392200259 0.1100516779477724 0 -0.07825578499994286 0.1108801308713713 0 -0.062016764747578973 0.12884034001808189 0 -0.07825578499994286 0.1108801308713713 0 -0.062016764747578973 0.12884034001808189 0 -0.075786521408142987 0.12443322189858901 0 -0.07825578499994286 0.1108801308713713 0 -0.088852304720190942 0.12644129241805541 0 -0.075786521408142987 0.12443322189858901 0 -0.083719546898917335 0.119699814685821 0 -0.083719546898917335 0.119699814685821 0 -0.07825578499994286 0.1108801308713713 0 -0.093946486761182085 0.1175508364221631 0 -0.075786521408142987 0.12443322189858901 0 -0.083719546898917335 0.119699814685821 0 -0.07825578499994286 0.1108801308713713 0 -0.088852304720190942 0.12644129241805541 0 -0.083719546898917335 0.119699814685821 0 -0.093946486761182085 0.1175508364221631 0 -0.07825578499994286 0.1108801308713713 0 -0.072393051177581158 0.089660260464161839 0 -0.094494805252306774 0.092919921724660626 0 -0.07825578499994286 0.1108801308713713 0 -0.094494805252306774 0.092919921724660626 0 -0.093946486761182085 0.1175508364221631 0 -0.07825578499994286 0.1108801308713713 0 -0.094494805252306774 0.092919921724660626 0 -0.062115440392200259 0.1100516779477724 0 -0.07825578499994286 0.1108801308713713 0 -0.072393051177581158 0.089660260464161839 0 -0.055882409073029139 0.082732437330199013 0 -0.072393051177581158 0.089660260464161839 0 -0.062589921296568873 0.06642957971461419 0 -0.072393051177581158 0.089660260464161839 0 -0.062589921296568873 0.06642957971461419 0 -0.079461892795990779 0.070449194571112136 0 -0.062589921296568873 0.06642957971461419 0 -0.079461892795990779 0.070449194571112136 0 -0.072380178782229632 0.053292134703331731 0 -0.079461892795990779 0.070449194571112136 0 -0.094783119058163612 0.079968629960679383 0 -0.095163193665411511 0.062895368012773595 0 -0.072393051177581158 0.089660260464161839 0 -0.079461892795990779 0.070449194571112136 0 -0.094783119058163612 0.079968629960679383 0 -0.072393051177581158 0.089660260464161839 0 -0.094494805252306774 0.092919921724660626 0 -0.094783119058163612 0.079968629960679383 0 -0.072393051177581158 0.089660260464161839 0 -0.094783119058163612 0.079968629960679383 0 -0.094494805252306774 0.092919921724660626 0 -0.1072570836689255 0.074569224449017327 0 -0.1143352617609841 0.070976556735617355 0 -0.094494805252306774 0.092919921724660626 0 -0.094783119058163612 0.079968629960679383 0 -0.1072570836689255 0.074569224449017327 0 -0.094494805252306774 0.092919921724660626 0 -0.094783119058163612 0.079968629960679383 0 -0.094494805252306774 0.092919921724660626 0 -0.1143352617609841 0.070976556735617355 0 -0.11134444788944529 0.091345452974062963 0 -0.094494805252306774 0.092919921724660626 0 -0.1143352617609841 0.070976556735617355 0 -0.094783119058163612 0.079968629960679383 0 -0.095163193665411511 0.062895368012773595 0 -0.094783119058163612 0.079968629960679383 0 -0.095163193665411511 0.062895368012773595 0 -0.1072570836689255 0.074569224449017327 0 -0.095163193665411511 0.062895368012773595 0 -0.1143352617609841 0.070976556735617355 0 -0.1079186055395126 0.059947093390224047 0 -0.095163193665411511 0.062895368012773595 0 -0.1072570836689255 0.074569224449017327 0 -0.1143352617609841 0.070976556735617355 0 -0.095163193665411511 0.062895368012773595 0 -0.1143352617609841 0.070976556735617355 0 -0.094783119058163612 0.079968629960679383 0 -0.1072570836689255 0.074569224449017327 0 -0.1131683311422218 0.062814464837820119 0 -0.1163519950294771 0.068746068028026575 0 -0.1143352617609841 0.070976556735617355 0 -0.1131683311422218 0.062814464837820119 0 -0.1143352617609841 0.070976556735617355 0 -0.1079186055395126 0.059947093390224047 0 -0.1131683311422218 0.062814464837820119 0 -0.1163519950294771 0.068746068028026575 0 -0.1185872066977806 0.063729502839677182 0 -0.1163519950294771 0.068746068028026575 0 -0.1143352617609841 0.070976556735617355 0 -0.12697985749263241 0.07630636069427757 0 -0.1143352617609841 0.070976556735617355 0 -0.12697985749263241 0.07630636069427757 0 -0.1143352617609841 0.070976556735617355 0 -0.1200161930876608 0.081776906418299489 0 -0.12697985749263241 0.07630636069427757 0 -0.1163519950294771 0.068746068028026575 0 -0.1143352617609841 0.070976556735617355 0 -0.12697985749263241 0.07630636069427757 0 -0.12509646681095879 0.065597408261105467 0 -0.1163519950294771 0.068746068028026575 0 -0.12509646681095879 0.065597408261105467 0 -0.1163519950294771 0.068746068028026575 0 -0.1185872066977806 0.063729502839677182 0 -0.13359630628803579 0.098968800084119873 0 -0.12697672020224329 0.087309090757334687 0 -0.11134444788944529 0.091345452974062963 0 -0.1143352617609841 0.070976556735617355 0 -0.11134444788944529 0.091345452974062963 0 -0.1200161930876608 0.081776906418299489 0 -0.12697672020224329 0.087309090757334687 0 -0.11134444788944529 0.091345452974062963 0 -0.1200161930876608 0.081776906418299489 0 -0.12697672020224329 0.087309090757334687 0 -0.12697985749263241 0.07630636069427757 0 -0.1200161930876608 0.081776906418299489 0 -0.12607259725238279 0.11330641960449821 0 -0.13359630628803579 0.098968800084119873 0 -0.11123038207674001 0.1082681122756106 0 -0.13359630628803579 0.098968800084119873 0 -0.11134444788944529 0.091345452974062963 0 -0.11123038207674001 0.1082681122756106 0 -0.13359630628803579 0.098968800084119873 0 -0.11123038207674001 0.1082681122756106 0 -0.11134444788944529 0.091345452974062963 0 -0.11123038207674001 0.1082681122756106 0 -0.1057361510920251 0.099277959283072717 0 -0.12607259725238279 0.11330641960449821 0 -0.11123038207674001 0.1082681122756106 0 -0.11706151063611089 0.1208882391850464 0 -0.12607259725238279 0.11330641960449821 0 -0.12916618827146031 0.12390190950899049 0 -0.11706151063611089 0.1208882391850464 0 -0.11473911200363 0.13153944404780621 0 -0.11706151063611089 0.1208882391850464 0 -0.10601879130899509 0.12208205668825579 0 -0.1036345166478785 0.1154037657297244 0 -0.093946486761182085 0.1175508364221631 0 -0.097511277885226108 0.1010939306234323 0 -0.11123038207674001 0.1082681122756106 0 -0.11706151063611089 0.1208882391850464 0 -0.097511277885226108 0.1010939306234323 0 -0.11706151063611089 0.1208882391850464 0 -0.1036345166478785 0.1154037657297244 0 -0.097511277885226108 0.1010939306234323 0 -0.11706151063611089 0.1208882391850464 0 -0.097511277885226108 0.1010939306234323 0 -0.11706151063611089 0.1208882391850464 0 -0.1036345166478785 0.1154037657297244 0 -0.10601879130899509 0.12208205668825579 0 -0.1039338124667491 0.13009472872812991 0 -0.10601879130899509 0.12208205668825579 0 -0.093946486761182085 0.1175508364221631 0 -0.1036345166478785 0.1154037657297244 0 -0.10601879130899509 0.12208205668825579 0 -0.093946486761182085 0.1175508364221631 0 -0.094494805252306774 0.092919921724660626 0 -0.11134444788944529 0.091345452974062963 0 -0.1057361510920251 0.099277959283072717 0 -0.094494805252306774 0.092919921724660626 0 -0.093946486761182085 0.1175508364221631 0 -0.094494805252306774 0.092919921724660626 0 -0.093946486761182085 0.1175508364221631 0 -0.097511277885226108 0.1010939306234323 0 -0.094494805252306774 0.092919921724660626 0 -0.097511277885226108 0.1010939306234323 0 -0.1057361510920251 0.099277959283072717 0 -0.11123038207674001 0.1082681122756106 0 -0.097511277885226108 0.1010939306234323 0 -0.1057361510920251 0.099277959283072717 0 -0.1001339578063882 0.022436777626384768 0 -0.09536928659882779 0.01424719335382847 0 -0.1128440433065038 0.01636018592503535 0 -0.1001339578063882 0.022436777626384768 0 -0.1128440433065038 0.01636018592503535 0 -0.1012358460944251 0.033108064834657697 0 -0.1128440433065038 0.01636018592503535 0 -0.11393466639619521 0.035004472642448957 0 -0.1012358460944251 0.033108064834657697 0 -0.1128440433065038 0.01636018592503535 0 -0.1012358460944251 0.033108064834657697 0 -0.1001339578063882 0.022436777626384768 0 -0.1012358460944251 0.033108064834657697 0 -0.091086655225796079 0.026031666392017531 0 -0.1001339578063882 0.022436777626384768 0 -0.09536928659882779 0.01424719335382847 0 -0.091086655225796079 0.026031666392017531 0 -0.10394313851700079 0.0020556251079679459 0 -0.09536928659882779 0.01424719335382847 0 -0.085958893623968774 0.001514634656162053 0 -0.10394313851700079 0.0020556251079679459 0 -0.09536928659882779 0.01424719335382847 0 -0.1128440433065038 0.01636018592503535 0 -0.1244522405185825 -0.00038769298458709092 0 -0.12424451236807239 0.027069144312366941 0 -0.1244522405185825 -0.00038769298458709092 0 -0.1128440433065038 0.01636018592503535 0 -0.12424451236807239 0.027069144312366941 0 -0.1244522405185825 -0.00038769298458709092 0 -0.1128440433065038 0.01636018592503535 0 -0.1244522405185825 -0.00038769298458709092 0 -0.10394313851700079 0.0020556251079679459 0 -0.1128440433065038 0.01636018592503535 0 -0.1128440433065038 0.01636018592503535 0 -0.12424451236807239 0.027069144312366941 0 -0.11393466639619521 0.035004472642448957 0 -0.12424451236807239 0.027069144312366941 0 -0.12075472355362291 0.04122338309529356 0 -0.11393466639619521 0.035004472642448957 0 -0.12075472355362291 0.04122338309529356 0 -0.1244920148619628 0.050381604022983993 0 -0.1151670195775447 0.0482238646449 0 -0.11393466639619521 0.035004472642448957 0 -0.1151670195775447 0.0482238646449 0 -0.10635909785250069 0.04125385698526951 0 -0.12075472355362291 0.04122338309529356 0 -0.11393466639619521 0.035004472642448957 0 -0.1151670195775447 0.0482238646449 0 -0.12509646681095879 0.065597408261105467 0 -0.1185872066977806 0.063729502839677182 0 -0.1197320338084647 0.057760070231756527 0 -0.1197320338084647 0.057760070231756527 0 -0.1244920148619628 0.050381604022983993 0 -0.1151670195775447 0.0482238646449 0 -0.1151670195775447 0.0482238646449 0 -0.1125210466915524 0.054978807834542787 0 -0.1051700993263314 0.050476507920077678 0 -0.1197320338084647 0.057760070231756527 0 -0.1151670195775447 0.0482238646449 0 -0.1125210466915524 0.054978807834542787 0 -0.1131683311422218 0.062814464837820119 0 -0.1197320338084647 0.057760070231756527 0 -0.1125210466915524 0.054978807834542787 0 -0.1131683311422218 0.062814464837820119 0 -0.1125210466915524 0.054978807834542787 0 -0.1079186055395126 0.059947093390224047 0 -0.1131683311422218 0.062814464837820119 0 -0.1185872066977806 0.063729502839677182 0 -0.1197320338084647 0.057760070231756527 0 -0.095163193665411511 0.062895368012773595 0 -0.1051700993263314 0.050476507920077678 0 -0.095336714328198874 0.041619114628837717 0 -0.095163193665411511 0.062895368012773595 0 -0.095336714328198874 0.041619114628837717 0 -0.1125210466915524 0.054978807834542787 0 -0.1079186055395126 0.059947093390224047 0 -0.1051700993263314 0.050476507920077678 0 -0.095163193665411511 0.062895368012773595 0 -0.1079186055395126 0.059947093390224047 0 -0.1051700993263314 0.050476507920077678 0 -0.11393466639619521 0.035004472642448957 0 -0.10635909785250069 0.04125385698526951 0 -0.1012358460944251 0.033108064834657697 0 -0.1051700993263314 0.050476507920077678 0 -0.10635909785250069 0.04125385698526951 0 -0.095336714328198874 0.041619114628837717 0 -0.1151670195775447 0.0482238646449 0 -0.1051700993263314 0.050476507920077678 0 -0.10635909785250069 0.04125385698526951 0 -0.095336714328198874 0.041619114628837717 0 -0.1012358460944251 0.033108064834657697 0 -0.08853862327275358 0.036894035852943478 0 -0.10635909785250069 0.04125385698526951 0 -0.095336714328198874 0.041619114628837717 0 -0.1012358460944251 0.033108064834657697 0 -0.095336714328198874 0.041619114628837717 0 -0.1012358460944251 0.033108064834657697 0 -0.1012358460944251 0.033108064834657697 0 -0.08853862327275358 0.036894035852943478 0 -0.091086655225796079 0.026031666392017531 0 -0.08853862327275358 0.036894035852943478 0 -0.081088353484909961 0.032020518526829703 0 -0.091086655225796079 0.026031666392017531 0 -0.08853862327275358 0.036894035852943478 0 -0.079654612676290371 0.043453985766932421 0 -0.089627648882346422 0.049855943744280047 0 -0.095336714328198874 0.041619114628837717 0 -0.08853862327275358 0.036894035852943478 0 -0.089627648882346422 0.049855943744280047 0 -0.095336714328198874 0.041619114628837717 0 -0.089627648882346422 0.049855943744280047 0 -0.08853862327275358 0.036894035852943478 0 -0.079654612676290371 0.043453985766932421 0 -0.081088353484909961 0.032020518526829703 0 -0.095163193665411511 0.062895368012773595 0 -0.089627648882346422 0.049855943744280047 0 -0.072380178782229632 0.053292134703331731 0 -0.095163193665411511 0.062895368012773595 0 -0.095336714328198874 0.041619114628837717 0 -0.089627648882346422 0.049855943744280047 0 -0.095163193665411511 0.062895368012773595 0 -0.072380178782229632 0.053292134703331731 0 -0.079461892795990779 0.070449194571112136 0 -0.095163193665411511 0.062895368012773595 0 -0.072380178782229632 0.053292134703331731 0 -0.079654612676290371 0.043453985766932421 0 -0.089627648882346422 0.049855943744280047 0 -0.072380178782229632 0.053292134703331731 0 -0.079654612676290371 0.043453985766932421 0 -0.072380178782229632 0.053292134703331731 0 -0.065785112224924183 0.037111289768743512 0 -0.072380178782229632 0.053292134703331731 0 -0.065785112224924183 0.037111289768743512 0 -0.049597163899048183 0.043688901393888827 0 -0.079654612676290371 0.043453985766932421 0 -0.081088353484909961 0.032020518526829703 0 -0.065785112224924183 0.037111289768743512 0 -0.081088353484909961 0.032020518526829703 0 -0.065785112224924183 0.037111289768743512 0 -0.069646162847898541 0.026335067629459381 0 -0.069646162847898541 0.026335067629459381 0 -0.076118231742993758 0.01527396050979404 0 -0.05559295393876626 0.02093450171247024 0 -0.065785112224924183 0.037111289768743512 0 -0.069646162847898541 0.026335067629459381 0 -0.05559295393876626 0.02093450171247024 0 -0.081088353484909961 0.032020518526829703 0 -0.069646162847898541 0.026335067629459381 0 -0.076118231742993758 0.01527396050979404 0 -0.081088353484909961 0.032020518526829703 0 -0.091086655225796079 0.026031666392017531 0 -0.076118231742993758 0.01527396050979404 0 -0.09536928659882779 0.01424719335382847 0 -0.091086655225796079 0.026031666392017531 0 -0.076118231742993758 0.01527396050979404 0 -0.09536928659882779 0.01424719335382847 0 -0.085958893623968774 0.001514634656162053 0 -0.076118231742993758 0.01527396050979404 0 -0.076118231742993758 0.01527396050979404 0 -0.065648076432031049 0.00090955339710942099 0 -0.05559295393876626 0.02093450171247024 0 -0.085958893623968774 0.001514634656162053 0 -0.076118231742993758 0.01527396050979404 0 -0.065648076432031049 0.00090955339710942099 0 -0.045118160941850949 -0.00049033847668307538 0 -0.065648076432031049 0.00090955339710942099 0 -0.05559295393876626 0.02093450171247024 0 -0.05559295393876626 0.02093450171247024 0 -0.041197297059898302 0.028587588038626519 0 -0.049597163899048183 0.043688901393888827 0 -0.05559295393876626 0.02093450171247024 0 -0.032784921385912158 0.01564128096370114 0 -0.041197297059898302 0.028587588038626519 0 -0.032784921385912158 0.01564128096370114 0 -0.041197297059898302 0.028587588038626519 0 -0.02681414901586664 0.034085668084445887 0 -0.045118160941850949 -0.00049033847668307538 0 -0.05559295393876626 0.02093450171247024 0 -0.032784921385912158 0.01564128096370114 0 -0.045118160941850949 -0.00049033847668307538 0 -0.027025641752002061 -0.0079319500279313396 0 -0.032784921385912158 0.01564128096370114 0 -0.062589921296568873 0.06642957971461419 0 -0.072380178782229632 0.053292134703331731 0 -0.049597163899048183 0.043688901393888827 0 -0.046276495737503101 0.06795068115397529 0 -0.062589921296568873 0.06642957971461419 0 -0.049597163899048183 0.043688901393888827 0 -0.072380178782229632 0.053292134703331731 0 -0.049597163899048183 0.043688901393888827 0 -0.065785112224924183 0.037111289768743512 0 -0.05559295393876626 0.02093450171247024 0 -0.049597163899048183 0.043688901393888827 0 -0.049597163899048183 0.043688901393888827 0 -0.02681414901586664 0.034085668084445887 0 -0.041197297059898302 0.028587588038626519 0 -0.049597163899048183 0.043688901393888827 0 -0.02681414901586664 0.034085668084445887 0 -0.049597163899048183 0.043688901393888827 0 -0.028283535649973771 0.053358049395037133 0 -0.02681414901586664 0.034085668084445887 0 -0.046276495737503101 0.06795068115397529 0 -0.028283535649973771 0.053358049395037133 0 -0.046276495737503101 0.06795068115397529 0 -0.049597163899048183 0.043688901393888827 0 -0.028283535649973771 0.053358049395037133 0 -0.028283535649973771 0.053358049395037133 0 -0.010290575562444429 0.038765417636098962 0 -0.0097640400442320502 0.053032197103308337 0 -0.018620569400409771 0.06708533464306303 0 -0.028283535649973771 0.053358049395037133 0 -0.0097640400442320502 0.053032197103308337 0 -0.028283535649973771 0.053358049395037133 0 -0.010290575562444429 0.038765417636098962 0 -0.02681414901586664 0.034085668084445887 0 -0.010290575562444429 0.038765417636098962 0 -0.020835528804160591 0.022374223573919171 0 -0.028283535649973771 0.053358049395037133 0 -0.02681414901586664 0.034085668084445887 0 -0.010290575562444429 0.038765417636098962 0 -0.010290575562444429 0.038765417636098962 0 0.0077023845250848884 0.024172785877160811 0 -0.010290575562444429 0.038765417636098962 0 -0.0034349793211087142 0.044893397967285961 0 0.0047272217829380687 0.036246676438490527 0 -0.010290575562444429 0.038765417636098962 0 -0.0034349793211087142 0.044893397967285961 0 -0.0097640400442320502 0.053032197103308337 0 -0.0012292332505543029 0.06378464068123596 0 -0.018620569400409771 0.06708533464306303 0 -0.0097640400442320502 0.053032197103308337 0 -0.0034349793211087142 0.044893397967285961 0 -0.0097640400442320502 0.053032197103308337 0 0.0015874765393035599 0.051529300691246019 0 -0.0012292332505543029 0.06378464068123596 0 -0.0097640400442320502 0.053032197103308337 0 0.0015874765393035599 0.051529300691246019 0 -0.027025641752002061 -0.0079319500279313396 0 -0.032784921385912158 0.01564128096370114 0 -0.01566814095190756 0.010235570601176981 0 -0.032784921385912158 0.01564128096370114 0 -0.02681414901586664 0.034085668084445887 0 -0.020835528804160591 0.022374223573919171 0 -0.032784921385912158 0.01564128096370114 0 -0.01566814095190756 0.010235570601176981 0 -0.020835528804160591 0.022374223573919171 0 -0.010290575562444429 0.038765417636098962 0 -0.020835528804160591 0.022374223573919171 0 -0.0077262750329500059 0.02266504195052366 0 -0.01566814095190756 0.010235570601176981 0 -0.020835528804160591 0.022374223573919171 0 -0.0077262750329500059 0.02266504195052366 0 -0.010290575562444429 0.038765417636098962 0 -0.0077262750329500059 0.02266504195052366 0 0.0077023845250848884 0.024172785877160811 0 -0.0091716063734174208 -0.003332990253060792 0 -0.01566814095190756 0.010235570601176981 0 0.001118487675879971 0.0096665619175221752 0 -0.0091716063734174208 -0.003332990253060792 0 0.001118487675879971 0.0096665619175221752 0 0.006935528729737548 -0.0054826371559186567 0 -0.01566814095190756 0.010235570601176981 0 -0.0077262750329500059 0.02266504195052366 0 0.001118487675879971 0.0096665619175221752 0 0.001118487675879971 0.0096665619175221752 0 0.0077023845250848884 0.024172785877160811 0 0.025695344612614111 0.0095801541182225364 0 0.001118487675879971 0.0096665619175221752 0 0.025695344612614111 0.0095801541182225364 0 0.006935528729737548 -0.0054826371559186567 0 -0.0077262750329500059 0.02266504195052366 0 0.001118487675879971 0.0096665619175221752 0 0.0077023845250848884 0.024172785877160811 0 0.0077023845250848884 0.024172785877160811 0 0.024648998497944961 0.02642224341189468 0 0.015911730558903318 0.034762274935307848 0 0.024648998497944961 0.02642224341189468 0 0.025695344612614111 0.0095801541182225364 0 0.038363400138324961 0.019751697241263279 0 0.0077023845250848884 0.024172785877160811 0 0.024648998497944961 0.02642224341189468 0 0.025695344612614111 0.0095801541182225364 0 0.0077023845250848884 0.024172785877160811 0 0.025695344612614111 0.0095801541182225364 0 0.025695344612614111 0.0095801541182225364 0 0.006935528729737548 -0.0054826371559186567 0 0.01459521235494949 0.061710637509134872 0 0.0047272217829380687 0.036246676438490527 0 -0.0012292332505543029 0.06378464068123596 0 0.01459521235494949 0.061710637509134872 0 0.0015874765393035599 0.051529300691246019 0 0.01459521235494949 0.061710637509134872 0 0.0015874765393035599 0.051529300691246019 0 0.0047272217829380687 0.036246676438490527 0 0.01459521235494949 0.061710637509134872 0 0.0047272217829380687 0.036246676438490527 0 0.016570281580619739 0.045526930476817662 0 -0.010290575562444429 0.038765417636098962 0 0.0077023845250848884 0.024172785877160811 0 0.0047272217829380687 0.036246676438490527 0 -0.0034349793211087142 0.044893397967285961 0 0.0015874765393035599 0.051529300691246019 0 0.0047272217829380687 0.036246676438490527 0 0.0047272217829380687 0.036246676438490527 0 0.015911730558903318 0.034762274935307848 0 0.016570281580619739 0.045526930476817662 0 0.0077023845250848884 0.024172785877160811 0 0.0047272217829380687 0.036246676438490527 0 0.015911730558903318 0.034762274935307848 0 0.024648998497944961 0.02642224341189468 0 0.015911730558903318 0.034762274935307848 0 0.025892041879535671 0.039420421904702428 0 0.024648998497944961 0.02642224341189468 0 0.025892041879535671 0.039420421904702428 0 0.038236142792751733 0.035111405712831077 0 0.015911730558903318 0.034762274935307848 0 0.025892041879535671 0.039420421904702428 0 0.016570281580619739 0.045526930476817662 0 0.025892041879535671 0.039420421904702428 0 0.016570281580619739 0.045526930476817662 0 0.021716339062575678 0.05448348331271597 0 0.01459521235494949 0.061710637509134872 0 0.016570281580619739 0.045526930476817662 0 0.021716339062575678 0.05448348331271597 0 0.01459521235494949 0.061710637509134872 0 0.021716339062575678 0.05448348331271597 0 0.030459386295035529 0.05963142741263059 0 0.01459521235494949 0.061710637509134872 0 0.030459386295035529 0.05963142741263059 0 0.021716339062575678 0.05448348331271597 0 0.030459386295035529 0.05963142741263059 0 0.032703710623893968 0.046893395464013943 0 0.025892041879535671 0.039420421904702428 0 0.021716339062575678 0.05448348331271597 0 0.032703710623893968 0.046893395464013943 0 0.030459386295035529 0.05963142741263059 0 0.032703710623893968 0.046893395464013943 0 0.047214643089571059 0.045820238977188371 0 0.030459386295035529 0.05963142741263059 0 0.04797297407010033 0.057336039788577382 0 0.030459386295035529 0.05963142741263059 0 0.04797297407010033 0.057336039788577382 0 0.027635028654909001 0.06907575978797427 0 0.030459386295035529 0.05963142741263059 0 0.047214643089571059 0.045820238977188371 0 0.04797297407010033 0.057336039788577382 0 0.030459386295035529 0.05963142741263059 0 0.047214643089571059 0.045820238977188371 0 0.038236142792751733 0.035111405712831077 0 0.047214643089571059 0.045820238977188371 0 0.051031455664035288 0.029923240364304559 0 0.032703710623893968 0.046893395464013943 0 0.038236142792751733 0.035111405712831077 0 0.047214643089571059 0.045820238977188371 0 0.025892041879535671 0.039420421904702428 0 0.032703710623893968 0.046893395464013943 0 0.038236142792751733 0.035111405712831077 0 0.062359133547200143 0.040731400683572692 0 0.047214643089571059 0.045820238977188371 0 0.063969899884107562 0.032009050541747332 0 0.047214643089571059 0.045820238977188371 0 0.063969899884107562 0.032009050541747332 0 0.047214643089571059 0.045820238977188371 0 0.051031455664035288 0.029923240364304559 0 0.063969899884107562 0.032009050541747332 0 0.062359133547200143 0.040731400683572692 0 0.04797297407010033 0.057336039788577382 0 0.072379857481358154 0.054137194478101919 0 0.04797297407010033 0.057336039788577382 0 0.072379857481358154 0.054137194478101919 0 0.062359133547200143 0.040731400683572692 0 0.04797297407010033 0.057336039788577382 0 0.062359133547200143 0.040731400683572692 0 0.047214643089571059 0.045820238977188371 0 0.04797297407010033 0.057336039788577382 0 0.04797297407010033 0.057336039788577382 0 0.072379857481358154 0.054137194478101919 0 0.06072113176624426 0.066105246874810966 0 0.040835927619124697 0.0088703260301804514 0 0.038363400138324961 0.019751697241263279 0 0.051939500327619889 0.017318508583630769 0 0.040835927619124697 0.0088703260301804514 0 0.046640351189982193 0.001482106492276504 0 0.040314465242246092 -0.002276229875846851 0 0.025695344612614111 0.0095801541182225364 0 0.040314465242246092 -0.002276229875846851 0 0.025695344612614111 0.0095801541182225364 0 0.040835927619124697 0.0088703260301804514 0 0.040314465242246092 -0.002276229875846851 0 0.025695344612614111 0.0095801541182225364 0 0.040835927619124697 0.0088703260301804514 0 0.038363400138324961 0.019751697241263279 0 0.025695344612614111 0.0095801541182225364 0 0.038363400138324961 0.019751697241263279 0 0.024648998497944961 0.02642224341189468 0 0.038236142792751733 0.035111405712831077 0 0.038363400138324961 0.019751697241263279 0 0.038363400138324961 0.019751697241263279 0 0.051031455664035288 0.029923240364304559 0 0.038236142792751733 0.035111405712831077 0 0.038363400138324961 0.019751697241263279 0 0.051031455664035288 0.029923240364304559 0 0.038363400138324961 0.019751697241263279 0 0.051939500327619889 0.017318508583630769 0 0.051031455664035288 0.029923240364304559 0 0.051031455664035288 0.029923240364304559 0 0.062107590562420073 0.0228568457980407 0 0.063969899884107562 0.032009050541747332 0 0.051939500327619889 0.017318508583630769 0 0.062107590562420073 0.0228568457980407 0 0.064696567818308529 0.01472149906873369 0 0.051939500327619889 0.017318508583630769 0 0.051031455664035288 0.029923240364304559 0 0.062107590562420073 0.0228568457980407 0 0.055514373943813228 0.0067304088365214816 0 0.075461568133428525 0.0044331687040122013 0 0.049896637954744763 -0.0073960790217490677 0 0.051939500327619889 0.017318508583630769 0 0.055514373943813228 0.0067304088365214816 0 0.064696567818308529 0.01472149906873369 0 0.040835927619124697 0.0088703260301804514 0 0.051939500327619889 0.017318508583630769 0 0.055514373943813228 0.0067304088365214816 0 0.046640351189982193 0.001482106492276504 0 0.055514373943813228 0.0067304088365214816 0 0.049896637954744763 -0.0073960790217490677 0 0.040835927619124697 0.0088703260301804514 0 0.046640351189982193 0.001482106492276504 0 0.055514373943813228 0.0067304088365214816 0 0.075461568133428525 0.0044331687040122013 0 0.064696567818308529 0.01472149906873369 0 0.08072515667864405 0.018197862106306289 0 0.055514373943813228 0.0067304088365214816 0 0.075461568133428525 0.0044331687040122013 0 0.064696567818308529 0.01472149906873369 0 0.075461568133428525 0.0044331687040122013 0 0.1010264983121123 0.016262416429773479 0 0.075461568133428525 0.0044331687040122013 0 0.1010264983121123 0.016262416429773479 0 0.098011391193308373 -0.0056982583262641584 0 0.075461568133428525 0.0044331687040122013 0 0.08072515667864405 0.018197862106306289 0 0.1010264983121123 0.016262416429773479 0 0.088041666307225416 0.02743399724937181 0 0.08072515667864405 0.018197862106306289 0 0.1010264983121123 0.016262416429773479 0 0.088041666307225416 0.02743399724937181 0 0.08072515667864405 0.018197862106306289 0 0.076745293024301803 0.02412676157856956 0 0.088041666307225416 0.02743399724937181 0 0.076745293024301803 0.02412676157856956 0 0.082258845210710349 0.03253561428057717 0 0.08072515667864405 0.018197862106306289 0 0.076745293024301803 0.02412676157856956 0 0.063969899884107562 0.032009050541747332 0 0.062107590562420073 0.0228568457980407 0 0.064696567818308529 0.01472149906873369 0 0.08072515667864405 0.018197862106306289 0 0.08072515667864405 0.018197862106306289 0 0.063969899884107562 0.032009050541747332 0 0.062107590562420073 0.0228568457980407 0 0.08072515667864405 0.018197862106306289 0 0.063969899884107562 0.032009050541747332 0 0.062359133547200143 0.040731400683572692 0 0.076745293024301803 0.02412676157856956 0 0.062359133547200143 0.040731400683572692 0 0.076745293024301803 0.02412676157856956 0 0.076375628159171968 0.038405412939545532 0 0.062359133547200143 0.040731400683572692 0 0.076745293024301803 0.02412676157856956 0 0.063969899884107562 0.032009050541747332 0 0.062359133547200143 0.040731400683572692 0 0.076375628159171968 0.038405412939545532 0 0.072379857481358154 0.054137194478101919 0 0.072379857481358154 0.054137194478101919 0 0.087872793352142223 0.040176285354821803 0 0.096786740892615686 0.050938349167624693 0 0.072379857481358154 0.054137194478101919 0 0.096786740892615686 0.050938349167624693 0 0.072379857481358154 0.054137194478101919 0 0.096786740892615686 0.050938349167624693 0 0.089592915186254174 0.067390154600646832 0 0.076375628159171968 0.038405412939545532 0 0.072379857481358154 0.054137194478101919 0 0.087872793352142223 0.040176285354821803 0 0.076375628159171968 0.038405412939545532 0 0.082258845210710349 0.03253561428057717 0 0.087872793352142223 0.040176285354821803 0 0.076745293024301803 0.02412676157856956 0 0.076375628159171968 0.038405412939545532 0 0.082258845210710349 0.03253561428057717 0 0.088041666307225416 0.02743399724937181 0 0.087872793352142223 0.040176285354821803 0 0.098246025398924644 0.032379674771496843 0 0.088041666307225416 0.02743399724937181 0 0.082258845210710349 0.03253561428057717 0 0.087872793352142223 0.040176285354821803 0 0.098246025398924644 0.032379674771496843 0 0.09859813872304253 0.041737690340159041 0 0.1063796333462841 0.038668109643535398 0 0.087872793352142223 0.040176285354821803 0 0.098246025398924644 0.032379674771496843 0 0.09859813872304253 0.041737690340159041 0 0.087872793352142223 0.040176285354821803 0 0.09859813872304253 0.041737690340159041 0 0.096786740892615686 0.050938349167624693 0 0.09859813872304253 0.041737690340159041 0 0.1037055006252459 0.04652603276331644 0 0.096786740892615686 0.050938349167624693 0 0.1037055006252459 0.04652603276331644 0 0.1091701701315707 0.045405346223324289 0 0.1063796333462841 0.038668109643535398 0 0.09859813872304253 0.041737690340159041 0 0.1037055006252459 0.04652603276331644 0 0.1063796333462841 0.038668109643535398 0 0.098246025398924644 0.032379674771496843 0 0.1063796333462841 0.038668109643535398 0 0.1080469394596527 0.029312409717345649 0 0.1063796333462841 0.038668109643535398 0 0.11369005285381351 0.036564640387925021 0 0.1080469394596527 0.029312409717345649 0 0.10140855114010359 0.056741753968867333 0 0.1082136550722141 0.059696613986540442 0 0.089592915186254174 0.067390154600646832 0 0.10140855114010359 0.056741753968867333 0 0.096786740892615686 0.050938349167624693 0 0.089592915186254174 0.067390154600646832 0 0.10140855114010359 0.056741753968867333 0 0.096786740892615686 0.050938349167624693 0 0.1040187002827474 0.052009313231975308 0 0.1037055006252459 0.04652603276331644 0 0.096786740892615686 0.050938349167624693 0 0.1040187002827474 0.052009313231975308 0 0.1037055006252459 0.04652603276331644 0 0.10828434687670541 0.049049973369521209 0 0.1040187002827474 0.052009313231975308 0 0.1037055006252459 0.04652603276331644 0 0.1091701701315707 0.045405346223324289 0 0.10828434687670541 0.049049973369521209 0 0.10828434687670541 0.049049973369521209 0 0.1040187002827474 0.052009313231975308 0 0.1085923347430168 0.054888678040205661 0 0.10140855114010359 0.056741753968867333 0 0.1040187002827474 0.052009313231975308 0 0.1085923347430168 0.054888678040205661 0 0.10140855114010359 0.056741753968867333 0 0.1085923347430168 0.054888678040205661 0 0.1082136550722141 0.059696613986540442 0 0.1082136550722141 0.059696613986540442 0 0.12683439495817461 0.052003073372435288 0 0.1085923347430168 0.054888678040205661 0 0.1082136550722141 0.059696613986540442 0 0.12683439495817461 0.052003073372435288 0 0.1082136550722141 0.059696613986540442 0 0.1213053233293625 0.063977455960140386 0 0.12683439495817461 0.052003073372435288 0 0.1085923347430168 0.054888678040205661 0 0.11545296983014219 0.044674578582556468 0 0.12683439495817461 0.052003073372435288 0 0.1085923347430168 0.054888678040205661 0 0.11545296983014219 0.044674578582556468 0 0.10828434687670541 0.049049973369521209 0 0.1085923347430168 0.054888678040205661 0 0.11545296983014219 0.044674578582556468 0 0.11545296983014219 0.044674578582556468 0 0.12683439495817461 0.052003073372435288 0 0.11545296983014219 0.044674578582556468 0 0.12659142849079691 0.028091664155532971 0 0.13015300311198849 0.040381385354086502 0 0.11369005285381351 0.036564640387925021 0 0.11545296983014219 0.044674578582556468 0 0.12659142849079691 0.028091664155532971 0 0.11369005285381351 0.036564640387925021 0 0.1080469394596527 0.029312409717345649 0 0.12659142849079691 0.028091664155532971 0 0.11545296983014219 0.044674578582556468 0 0.12659142849079691 0.028091664155532971 0 0.1091701701315707 0.045405346223324289 0 0.1063796333462841 0.038668109643535398 0 0.11316657253878901 0.043202368340974628 0 0.11369005285381351 0.036564640387925021 0 0.11316657253878901 0.043202368340974628 0 0.11545296983014219 0.044674578582556468 0 0.1063796333462841 0.038668109643535398 0 0.11369005285381351 0.036564640387925021 0 0.11316657253878901 0.043202368340974628 0 0.1091701701315707 0.045405346223324289 0 0.10828434687670541 0.049049973369521209 0 0.11545296983014219 0.044674578582556468 0 0.1091701701315707 0.045405346223324289 0 0.11316657253878901 0.043202368340974628 0 0.11545296983014219 0.044674578582556468 0 0.11316657253878901 0.043202368340974628 0 0.11545296983014219 0.044674578582556468 0 0.11545296983014219 0.044674578582556468 0 0.13015300311198849 0.040381385354086502 0 0.12683439495817461 0.052003073372435288 0 0.11882011836095251 0.0065886106746579649 0 0.1010264983121123 0.016262416429773479 0 0.12659142849079691 0.028091664155532971 0 0.1010264983121123 0.016262416429773479 0 0.12659142849079691 0.028091664155532971 0 0.1010264983121123 0.016262416429773479 0 0.1080469394596527 0.029312409717345649 0 0.12659142849079691 0.028091664155532971 0 0.11882011836095251 0.0065886106746579649 0 0.1010264983121123 0.016262416429773479 0 0.098011391193308373 -0.0056982583262641584 0 0.088041666307225416 0.02743399724937181 0 0.098246025398924644 0.032379674771496843 0 0.1010264983121123 0.016262416429773479 0 0.098246025398924644 0.032379674771496843 0 0.1010264983121123 0.016262416429773479 0 0.1080469394596527 0.029312409717345649 0 0.102028599401492 0.1079210482782756 0 0.1185648575779607 0.095458187827811403 0 0.097454497296707604 0.093489332089851121 0 0.102028599401492 0.1079210482782756 0 0.094862282777670462 0.1196438628042634 0 0.1117522404438802 0.12667258555115829 0 0.123281054128593 0.11724462113534739 0 0.1117522404438802 0.12667258555115829 0 0.13947052033133081 0.1245003570974072 0 0.102028599401492 0.1079210482782756 0 0.123281054128593 0.11724462113534739 0 0.1117522404438802 0.12667258555115829 0 0.102028599401492 0.1079210482782756 0 0.123281054128593 0.11724462113534739 0 0.102028599401492 0.1079210482782756 0 0.123281054128593 0.11724462113534739 0 0.1185648575779607 0.095458187827811403 0 0.1185648575779607 0.095458187827811403 0 0.10766661625946521 0.081617344394697103 0 0.12679961534922851 0.075073796793526271 0 0.1127439035567581 0.069567645006608142 0 0.10766661625946521 0.081617344394697103 0 0.12679961534922851 0.075073796793526271 0 0.1213053233293625 0.063977455960140386 0 0.1127439035567581 0.069567645006608142 0 0.12679961534922851 0.075073796793526271 0 0.1082136550722141 0.059696613986540442 0 0.1213053233293625 0.063977455960140386 0 0.1127439035567581 0.069567645006608142 0 0.1082136550722141 0.059696613986540442 0 0.089592915186254174 0.067390154600646832 0 0.1014387622560044 0.070574023901201433 0 0.10766661625946521 0.081617344394697103 0 0.08998097741878798 0.081820185866337797 0 0.1082136550722141 0.059696613986540442 0 0.1014387622560044 0.070574023901201433 0 0.089592915186254174 0.067390154600646832 0 0.1082136550722141 0.059696613986540442 0 0.1127439035567581 0.069567645006608142 0 0.1014387622560044 0.070574023901201433 0 0.1127439035567581 0.069567645006608142 0 0.1014387622560044 0.070574023901201433 0 0.10766661625946521 0.081617344394697103 0 0.1185648575779607 0.095458187827811403 0 0.097454497296707604 0.093489332089851121 0 0.10766661625946521 0.081617344394697103 0 0.097454497296707604 0.093489332089851121 0 0.10766661625946521 0.081617344394697103 0 0.08998097741878798 0.081820185866337797 0 0.097454497296707604 0.093489332089851121 0 0.08998097741878798 0.081820185866337797 0 0.080776144674391009 0.098597475421203867 0 0.08998097741878798 0.081820185866337797 0 0.071888117261322881 0.075707086101057836 0 0.080776144674391009 0.098597475421203867 0 0.08998097741878798 0.081820185866337797 0 0.089592915186254174 0.067390154600646832 0 0.071888117261322881 0.075707086101057836 0 0.1014387622560044 0.070574023901201433 0 0.08998097741878798 0.081820185866337797 0 0.089592915186254174 0.067390154600646832 0 0.072379857481358154 0.054137194478101919 0 0.089592915186254174 0.067390154600646832 0 0.071888117261322881 0.075707086101057836 0 0.072379857481358154 0.054137194478101919 0 0.071888117261322881 0.075707086101057836 0 0.06072113176624426 0.066105246874810966 0 0.071888117261322881 0.075707086101057836 0 0.080776144674391009 0.098597475421203867 0 0.059523689947290133 0.089273902564132146 0 0.069834633883481517 0.1065625652268001 0 0.059315065316452309 0.1025539410383776 0 0.059523689947290133 0.089273902564132146 0 0.080776144674391009 0.098597475421203867 0 0.059523689947290133 0.089273902564132146 0 0.069834633883481517 0.1065625652268001 0 0.080776144674391009 0.098597475421203867 0 0.081634330708880196 0.1151370033827101 0 0.069834633883481517 0.1065625652268001 0 0.080776144674391009 0.098597475421203867 0 0.059523689947290133 0.089273902564132146 0 0.069834633883481517 0.1065625652268001 0 0.064307476710745728 0.1098785041095611 0 0.059315065316452309 0.1025539410383776 0 0.102028599401492 0.1079210482782756 0 0.080776144674391009 0.098597475421203867 0 0.081634330708880196 0.1151370033827101 0 0.102028599401492 0.1079210482782756 0 0.080776144674391009 0.098597475421203867 0 0.102028599401492 0.1079210482782756 0 0.097454497296707604 0.093489332089851121 0 0.080776144674391009 0.098597475421203867 0 0.102028599401492 0.1079210482782756 0 0.094862282777670462 0.1196438628042634 0 0.081634330708880196 0.1151370033827101 0 0.094862282777670462 0.1196438628042634 0 0.081634330708880196 0.1151370033827101 0 0.084033960556429532 0.12884481400490949 0 0.081634330708880196 0.1151370033827101 0 0.071861500007931359 0.1232467005620789 0 0.084033960556429532 0.12884481400490949 0 0.081634330708880196 0.1151370033827101 0 0.071861500007931359 0.1232467005620789 0 0.068543873750645412 0.1149277749384955 0 0.069834633883481517 0.1065625652268001 0 0.081634330708880196 0.1151370033827101 0 0.068543873750645412 0.1149277749384955 0 0.068543873750645412 0.1149277749384955 0 0.064307476710745728 0.1098785041095611 0 0.059536333892403683 0.1154697352345713 0 0.069834633883481517 0.1065625652268001 0 0.068543873750645412 0.1149277749384955 0 0.064307476710745728 0.1098785041095611 0 0.071861500007931359 0.1232467005620789 0 0.068543873750645412 0.1149277749384955 0 0.059536333892403683 0.1154697352345713 0 0.056458373241313059 0.1220229844831647 0 0.046980594318971967 0.103944553472415 0 0.044984286063853948 0.1144984098979744 0 0.056458373241313059 0.1220229844831647 0 0.059536333892403683 0.1154697352345713 0 0.047111977694586651 0.095143209078012936 0 0.056458373241313059 0.1220229844831647 0 0.047823074661834691 0.1229743903388081 0 0.044984286063853948 0.1144984098979744 0 0.056458373241313059 0.1220229844831647 0 0.047111977694586651 0.095143209078012936 0 0.056458373241313059 0.1220229844831647 0 0.047111977694586651 0.095143209078012936 0 0.046980594318971967 0.103944553472415 0 0.059536333892403683 0.1154697352345713 0 0.059315065316452309 0.1025539410383776 0 0.048250118395506067 0.092934788779969885 0 0.064307476710745728 0.1098785041095611 0 0.059536333892403683 0.1154697352345713 0 0.059315065316452309 0.1025539410383776 0 0.059536333892403683 0.1154697352345713 0 0.047111977694586651 0.095143209078012936 0 0.048250118395506067 0.092934788779969885 0 0.059536333892403683 0.1154697352345713 0 0.048250118395506067 0.092934788779969885 0 0.059315065316452309 0.1025539410383776 0 0.059523689947290133 0.089273902564132146 0 0.048250118395506067 0.092934788779969885 0 0.046980594318971967 0.103944553472415 0 0.031997015267580219 0.10661530464401089 0 0.044984286063853948 0.1144984098979744 0 0.046980594318971967 0.103944553472415 0 0.039592722901722707 0.099159129702000026 0 0.031997015267580219 0.10661530464401089 0 0.047111977694586651 0.095143209078012936 0 0.046980594318971967 0.103944553472415 0 0.044236279529428407 0.098362398272746204 0 0.043259823202432338 0.095202700838556822 0 0.039592722901722707 0.099159129702000026 0 0.040006298791842428 0.091064350555588536 0 0.047111977694586651 0.095143209078012936 0 0.043259823202432338 0.095202700838556822 0 0.043326765309194368 0.091114650811160686 0 0.047111977694586651 0.095143209078012936 0 0.043259823202432338 0.095202700838556822 0 0.044236279529428407 0.098362398272746204 0 0.046980594318971967 0.103944553472415 0 0.044236279529428407 0.098362398272746204 0 0.039592722901722707 0.099159129702000026 0 0.043259823202432338 0.095202700838556822 0 0.044236279529428407 0.098362398272746204 0 0.039592722901722707 0.099159129702000026 0 0.039592722901722707 0.099159129702000026 0 0.040006298791842428 0.091064350555588536 0 0.033999193661208522 0.092549709374426317 0 0.039592722901722707 0.099159129702000026 0 0.031997015267580219 0.10661530464401089 0 0.033999193661208522 0.092549709374426317 0 0.031997015267580219 0.10661530464401089 0 0.044984286063853948 0.1144984098979744 0 0.040254683338031831 0.12792389191371131 0 0.031997015267580219 0.10661530464401089 0 0.027418588341799281 0.11951208787462859 0 0.040254683338031831 0.12792389191371131 0 0.031997015267580219 0.10661530464401089 0 0.040254683338031831 0.12792389191371131 0 0.047823074661834691 0.1229743903388081 0 0.044984286063853948 0.1144984098979744 0 0.040254683338031831 0.12792389191371131 0 0.071888117261322881 0.075707086101057836 0 0.050643578252195447 0.077240667131504986 0 0.06072113176624426 0.066105246874810966 0 0.071888117261322881 0.075707086101057836 0 0.050643578252195447 0.077240667131504986 0 0.04797297407010033 0.057336039788577382 0 0.050643578252195447 0.077240667131504986 0 0.06072113176624426 0.066105246874810966 0 0.059523689947290133 0.089273902564132146 0 0.048250118395506067 0.092934788779969885 0 0.038271235220189187 0.079950329707060411 0 0.050643578252195447 0.077240667131504986 0 0.059523689947290133 0.089273902564132146 0 0.038271235220189187 0.079950329707060411 0 0.059523689947290133 0.089273902564132146 0 0.038271235220189187 0.079950329707060411 0 0.071888117261322881 0.075707086101057836 0 0.050643578252195447 0.077240667131504986 0 0.059523689947290133 0.089273902564132146 0 0.050643578252195447 0.077240667131504986 0 0.038271235220189187 0.079950329707060411 0 0.029399039243067929 0.078774248161950916 0 0.043326765309194368 0.091114650811160686 0 0.040006298791842428 0.091064350555588536 0 0.038271235220189187 0.079950329707060411 0 0.048250118395506067 0.092934788779969885 0 0.043326765309194368 0.091114650811160686 0 0.038271235220189187 0.079950329707060411 0 0.047111977694586651 0.095143209078012936 0 0.048250118395506067 0.092934788779969885 0 0.043326765309194368 0.091114650811160686 0 0.043259823202432338 0.095202700838556822 0 0.043326765309194368 0.091114650811160686 0 0.040006298791842428 0.091064350555588536 0 0.040006298791842428 0.091064350555588536 0 0.033999193661208522 0.092549709374426317 0 0.035112272261912547 0.085996705185296951 0 0.033999193661208522 0.092549709374426317 0 0.035112272261912547 0.085996705185296951 0 0.030562463090829231 0.085656845023995995 0 0.040006298791842428 0.091064350555588536 0 0.035112272261912547 0.085996705185296951 0 0.038271235220189187 0.079950329707060411 0 0.035112272261912547 0.085996705185296951 0 0.038271235220189187 0.079950329707060411 0 0.029399039243067929 0.078774248161950916 0 0.035112272261912547 0.085996705185296951 0 0.029399039243067929 0.078774248161950916 0 0.030562463090829231 0.085656845023995995 0 0.04797297407010033 0.057336039788577382 0 0.027635028654909001 0.06907575978797427 0 0.029399039243067929 0.078774248161950916 0 0.04797297407010033 0.057336039788577382 0 0.050643578252195447 0.077240667131504986 0 0.029399039243067929 0.078774248161950916 0 0.050643578252195447 0.077240667131504986 0 0.029399039243067929 0.078774248161950916 0 0.04797297407010033 0.057336039788577382 0 0.029399039243067929 0.078774248161950916 0 0.01459521235494949 0.061710637509134872 0 0.030459386295035529 0.05963142741263059 0 0.017825248683011649 0.070045619055208203 0 0.01459521235494949 0.061710637509134872 0 0.017825248683011649 0.070045619055208203 0 0.030459386295035529 0.05963142741263059 0 0.017825248683011649 0.070045619055208203 0 0.030459386295035529 0.05963142741263059 0 0.017825248683011649 0.070045619055208203 0 0.027635028654909001 0.06907575978797427 0 0.027635028654909001 0.06907575978797427 0 0.021430743364398389 0.07934945609652827 0 0.029399039243067929 0.078774248161950916 0 0.017825248683011649 0.070045619055208203 0 0.027635028654909001 0.06907575978797427 0 0.021430743364398389 0.07934945609652827 0 0.017825248683011649 0.070045619055208203 0 0.021430743364398389 0.07934945609652827 0 0.023739347197128589 0.085306717374310406 0 0.0092582498306486675 0.1020209346744549 0 0.021430743364398389 0.07934945609652827 0 0.023739347197128589 0.085306717374310406 0 0.01369104835205702 0.085774757015682671 0 0.021430743364398389 0.07934945609652827 0 0.023739347197128589 0.085306717374310406 0 0.021430743364398389 0.07934945609652827 0 0.029399039243067929 0.078774248161950916 0 0.023739347197128589 0.085306717374310406 0 0.021430743364398389 0.07934945609652827 0 0.029399039243067929 0.078774248161950916 0 0.029399039243067929 0.078774248161950916 0 0.030562463090829231 0.085656845023995995 0 0.023739347197128589 0.085306717374310406 0 0.029399039243067929 0.078774248161950916 0 0.023739347197128589 0.085306717374310406 0 0.033999193661208522 0.092549709374426317 0 0.030562463090829231 0.085656845023995995 0 0.023739347197128589 0.085306717374310406 0 0.023739347197128589 0.085306717374310406 0 0.01369104835205702 0.085774757015682671 0 0.0092582498306486675 0.1020209346744549 0 0.0051087594610210148 0.080527692295617709 0 0.01369104835205702 0.085774757015682671 0 0.0092582498306486675 0.1020209346744549 0 0.021430743364398389 0.07934945609652827 0 0.0051087594610210148 0.080527692295617709 0 0.021430743364398389 0.07934945609652827 0 0.0051087594610210148 0.080527692295617709 0 0.01369104835205702 0.085774757015682671 0 -0.0012292332505543029 0.06378464068123596 0 0.01459521235494949 0.061710637509134872 0 -0.0012292332505543029 0.06378464068123596 0 0.01459521235494949 0.061710637509134872 0 0.0080955592782806732 0.069159055867407046 0 0.017825248683011649 0.070045619055208203 0 0.021430743364398389 0.07934945609652827 0 0.0051087594610210148 0.080527692295617709 0 -0.0012292332505543029 0.06378464068123596 0 0.0051087594610210148 0.080527692295617709 0 0.0080955592782806732 0.069159055867407046 0 0.017825248683011649 0.070045619055208203 0 0.0051087594610210148 0.080527692295617709 0 0.0080955592782806732 0.069159055867407046 0 0.017825248683011649 0.070045619055208203 0 0.0051087594610210148 0.080527692295617709 0 0.01459521235494949 0.061710637509134872 0 0.017825248683011649 0.070045619055208203 0 0.0080955592782806732 0.069159055867407046 0 0.019482067178466251 0.1107491432724047 0 0.017356945103072018 0.1204998149293544 0 0.027418588341799281 0.11951208787462859 0 0.017356945103072018 0.1204998149293544 0 0.027418588341799281 0.11951208787462859 0 0.028136896369567631 0.1331750506540591 0 0.031997015267580219 0.10661530464401089 0 0.019482067178466251 0.1107491432724047 0 0.027418588341799281 0.11951208787462859 0 0.031997015267580219 0.10661530464401089 0 0.033999193661208522 0.092549709374426317 0 0.023739347197128589 0.085306717374310406 0 0.023739347197128589 0.085306717374310406 0 0.02108550348152554 0.10082233348119581 0 0.0092582498306486675 0.1020209346744549 0 0.031997015267580219 0.10661530464401089 0 0.023739347197128589 0.085306717374310406 0 0.031997015267580219 0.10661530464401089 0 0.023739347197128589 0.085306717374310406 0 0.02108550348152554 0.10082233348119581 0 0.031997015267580219 0.10661530464401089 0 0.019482067178466251 0.1107491432724047 0 0.02108550348152554 0.10082233348119581 0 0.019482067178466251 0.1107491432724047 0 0.02108550348152554 0.10082233348119581 0 0.0092582498306486675 0.1020209346744549 0 -0.0040597014752050652 0.1051126182356364 0 0.0051087594610210148 0.080527692295617709 0 0.0092582498306486675 0.1020209346744549 0 0.019482067178466251 0.1107491432724047 0 0.0092582498306486675 0.1020209346744549 0 0.0097761010461718117 0.1150243840307837 0 -0.0052228475358298988 0.1187351519746004 0 0.0092582498306486675 0.1020209346744549 0 -0.0052228475358298988 0.1187351519746004 0 0.0092582498306486675 0.1020209346744549 0 0.0097761010461718117 0.1150243840307837 0 0.019482067178466251 0.1107491432724047 0 0.017356945103072018 0.1204998149293544 0 0.0097761010461718117 0.1150243840307837 0 0.017356945103072018 0.1204998149293544 0 0.0081407562022233586 0.1245196413435004 0 0.017356945103072018 0.1204998149293544 0 0.0097761010461718117 0.1150243840307837 0 0.0081407562022233586 0.1245196413435004 0 -0.0052228475358298988 0.1187351519746004 0 0.0097761010461718117 0.1150243840307837 0 0.0081407562022233586 0.1245196413435004 0 -0.0052228475358298988 0.1187351519746004 0 0.0081407562022233586 0.1245196413435004 0 -0.015783289274076458 0.13495459563681389 0 0.0081407562022233586 0.1245196413435004 0 0.01185912902997375 0.14130758542593569 0 0.017356945103072018 0.1204998149293544 0 0.0081407562022233586 0.1245196413435004 0 0.028136896369567631 0.1331750506540591 0 0.0081407562022233586 0.1245196413435004 0 0.028136896369567631 0.1331750506540591 0 0.0081407562022233586 0.1245196413435004 0 0.028136896369567631 0.1331750506540591 0 0.01185912902997375 0.14130758542593569 0 0.028136896369567631 0.1331750506540591 0 0.0267736462585265 0.15269096182544131 0 0.035919394343652343 0.14075559589415579 0 0.028136896369567631 0.1331750506540591 0 0.0267736462585265 0.15269096182544131 0 0.01185912902997375 0.14130758542593569 0 0.0267736462585265 0.15269096182544131 0 0.001788155555331062 0.1557637096651584 0 0.01185912902997375 0.14130758542593569 0 0.001788155555331062 0.1557637096651584 0 0.00061104658230836653 0.17769045695541219 0 0.019359600384737739 0.17657282369350361 0 0.001788155555331062 0.1557637096651584 0 0.019359600384737739 0.17657282369350361 0 0.00061104658230836653 0.17769045695541219 0 0.019359600384737739 0.17657282369350361 0 0.017852612557627559 0.19656860209324539 0 0.019359600384737739 0.17657282369350361 0 0.036931045214144441 0.19738193772184889 0 0.0267736462585265 0.15269096182544131 0 0.001788155555331062 0.1557637096651584 0 0.019359600384737739 0.17657282369350361 0 0.0267736462585265 0.15269096182544131 0 0.019359600384737739 0.17657282369350361 0 0.038399134829123632 0.17159850230738899 0 0.0267736462585265 0.15269096182544131 0 0.038399134829123632 0.17159850230738899 0 0.048512351408483409 0.1492324791834117 0 0.019359600384737739 0.17657282369350361 0 0.038399134829123632 0.17159850230738899 0 0.036931045214144441 0.19738193772184889 0 0.038399134829123632 0.17159850230738899 0 0.053915020648589329 0.181809847856817 0 0.036931045214144441 0.19738193772184889 0 0.053915020648589329 0.181809847856817 0 0.056298621576963533 0.16595151756685289 0 0.075151164334765874 0.17578253529346821 0 0.038399134829123632 0.17159850230738899 0 0.053915020648589329 0.181809847856817 0 0.056298621576963533 0.16595151756685289 0 0.038399134829123632 0.17159850230738899 0 0.056298621576963533 0.16595151756685289 0 0.048512351408483409 0.1492324791834117 0 0.048512351408483409 0.1492324791834117 0 0.055211699142625699 0.13746009370018761 0 0.065804768788039439 0.14890275988831639 0 0.056298621576963533 0.16595151756685289 0 0.048512351408483409 0.1492324791834117 0 0.065804768788039439 0.14890275988831639 0 0.048512351408483409 0.1492324791834117 0 0.055211699142625699 0.13746009370018761 0 0.049904412172306151 0.13036597214331841 0 0.056458373241313059 0.1220229844831647 0 0.059536333892403683 0.1154697352345713 0 0.070822549389301243 0.1380046816891726 0 0.056458373241313059 0.1220229844831647 0 0.055211699142625699 0.13746009370018761 0 0.065804768788039439 0.14890275988831639 0 0.056458373241313059 0.1220229844831647 0 0.065804768788039439 0.14890275988831639 0 0.056458373241313059 0.1220229844831647 0 0.047823074661834691 0.1229743903388081 0 0.049904412172306151 0.13036597214331841 0 0.056458373241313059 0.1220229844831647 0 0.055211699142625699 0.13746009370018761 0 0.049904412172306151 0.13036597214331841 0 0.048512351408483409 0.1492324791834117 0 0.040254683338031831 0.12792389191371131 0 0.048512351408483409 0.1492324791834117 0 0.040254683338031831 0.12792389191371131 0 0.035919394343652343 0.14075559589415579 0 0.048512351408483409 0.1492324791834117 0 0.049904412172306151 0.13036597214331841 0 0.040254683338031831 0.12792389191371131 0 0.047823074661834691 0.1229743903388081 0 0.049904412172306151 0.13036597214331841 0 0.040254683338031831 0.12792389191371131 0 0.027418588341799281 0.11951208787462859 0 0.028136896369567631 0.1331750506540591 0 0.040254683338031831 0.12792389191371131 0 0.028136896369567631 0.1331750506540591 0 0.040254683338031831 0.12792389191371131 0 0.035919394343652343 0.14075559589415579 0 0.0267736462585265 0.15269096182544131 0 0.048512351408483409 0.1492324791834117 0 0.035919394343652343 0.14075559589415579 0 0.020197736684044801 0.2291273398277828 0 0.034114961552744377 0.23516115760169301 0 0.036501911092354018 0.25177276941539839 0 0.018629400856135309 0.24429501886194191 0 0.020197736684044801 0.2291273398277828 0 0.02692674034290404 0.25134916217479408 0 0.020197736684044801 0.2291273398277828 0 0.02692674034290404 0.25134916217479408 0 0.036501911092354018 0.25177276941539839 0 0.020197736684044801 0.2291273398277828 0 0.036501911092354018 0.25177276941539839 0 0.018629400856135309 0.24429501886194191 0 0.0082785766384091443 0.23618007315607359 0 0.020197736684044801 0.2291273398277828 0 0.018629400856135309 0.24429501886194191 0 0.012944211518790589 0.24639919126045251 0 0.0082785766384091443 0.23618007315607359 0 0.012944211518790589 0.24639919126045251 0 0.001894876929373096 0.24743045501984201 0 0.0082785766384091443 0.23618007315607359 0 -0.0070773620087705444 0.23295897308755351 0 0.001894876929373096 0.24743045501984201 0 0.0082785766384091443 0.23618007315607359 0 0.0082785766384091443 0.23618007315607359 0 0.0038866256090455522 0.2239579318999283 0 0.020197736684044801 0.2291273398277828 0 0.0038866256090455522 0.2239579318999283 0 0.020197736684044801 0.2291273398277828 0 0.003893562275735573 0.2064819102401671 0 -0.0070773620087705444 0.23295897308755351 0 0.0082785766384091443 0.23618007315607359 0 0.0038866256090455522 0.2239579318999283 0 0.01643925603633389 0.21561198758054059 0 0.035370792182188207 0.216260201755786 0 0.034114961552744377 0.23516115760169301 0 0.020197736684044801 0.2291273398277828 0 0.01643925603633389 0.21561198758054059 0 0.034114961552744377 0.23516115760169301 0 0.01643925603633389 0.21561198758054059 0 0.034114961552744377 0.23516115760169301 0 0.017852612557627559 0.19656860209324539 0 0.036931045214144441 0.19738193772184889 0 0.035370792182188207 0.216260201755786 0 0.01643925603633389 0.21561198758054059 0 0.017852612557627559 0.19656860209324539 0 0.035370792182188207 0.216260201755786 0 0.020197736684044801 0.2291273398277828 0 0.003893562275735573 0.2064819102401671 0 -0.0045317147067566524 0.21522543551468479 0 0.0038866256090455522 0.2239579318999283 0 0.003893562275735573 0.2064819102401671 0 -0.0012364494800765971 0.1960628175593882 0 0.01643925603633389 0.21561198758054059 0 -0.0012364494800765971 0.1960628175593882 0 0.01643925603633389 0.21561198758054059 0 0.003893562275735573 0.2064819102401671 0 0.020197736684044801 0.2291273398277828 0 0.01643925603633389 0.21561198758054059 0 0.003893562275735573 0.2064819102401671 0 -0.0012364494800765971 0.1960628175593882 0 0.01643925603633389 0.21561198758054059 0 0.017852612557627559 0.19656860209324539 0 -0.0012364494800765971 0.1960628175593882 0 0.00061104658230836653 0.17769045695541219 0 0.017852612557627559 0.19656860209324539 0 0.019359600384737739 0.17657282369350361 0 0.017852612557627559 0.19656860209324539 0 0.036931045214144441 0.19738193772184889 0 0.053915020648589329 0.181809847856817 0 0.036931045214144441 0.19738193772184889 0 0.062795137287949193 0.19833474639452611 0 0.036931045214144441 0.19738193772184889 0 0.054502490043551163 0.2181910517501941 0 0.062795137287949193 0.19833474639452611 0 0.036931045214144441 0.19738193772184889 0 0.054502490043551163 0.2181910517501941 0 0.036931045214144441 0.19738193772184889 0 0.054502490043551163 0.2181910517501941 0 0.035370792182188207 0.216260201755786 0 0.054502490043551163 0.2181910517501941 0 0.035370792182188207 0.216260201755786 0 0.034114961552744377 0.23516115760169301 0 0.054502490043551163 0.2181910517501941 0 0.055174909047777811 0.2396291133956362 0 0.034114961552744377 0.23516115760169301 0 0.054502490043551163 0.2181910517501941 0 0.055174909047777811 0.2396291133956362 0 0.072073934872957782 0.23900016577853919 0 0.055174909047777811 0.2396291133956362 0 0.034114961552744377 0.23516115760169301 0 0.051790667069154861 0.2547103276228454 0 0.055174909047777811 0.2396291133956362 0 0.051790667069154861 0.2547103276228454 0 0.063392491700480919 0.2510828642249095 0 0.034114961552744377 0.23516115760169301 0 0.036501911092354018 0.25177276941539839 0 0.051790667069154861 0.2547103276228454 0 0.034114961552744377 0.23516115760169301 0 0.051790667069154861 0.2547103276228454 0 0.072073934872957782 0.23900016577853919 0 0.093843955428218759 0.229542086103772 0 0.089645379702363526 0.25980927980688501 0 0.072073934872957782 0.23900016577853919 0 0.089645379702363526 0.25980927980688501 0 0.055174909047777811 0.2396291133956362 0 0.072073934872957782 0.23900016577853919 0 0.063392491700480919 0.2510828642249095 0 0.072073934872957782 0.23900016577853919 0 0.063392491700480919 0.2510828642249095 0 0.074261774750864804 0.25289133929391111 0 0.054502490043551163 0.2181910517501941 0 0.072073934872957782 0.23900016577853919 0 0.054502490043551163 0.2181910517501941 0 0.072073934872957782 0.23900016577853919 0 0.07691655231929137 0.22036312128655 0 0.072073934872957782 0.23900016577853919 0 0.07691655231929137 0.22036312128655 0 0.093843955428218759 0.229542086103772 0 0.084497559881492323 0.20266231069862009 0 0.1011551627426199 0.2154511434485995 0 0.093843955428218759 0.229542086103772 0 0.084497559881492323 0.20266231069862009 0 0.093843955428218759 0.229542086103772 0 0.07691655231929137 0.22036312128655 0 0.084497559881492323 0.20266231069862009 0 0.093843955428218759 0.229542086103772 0 0.07691655231929137 0.22036312128655 0 0.062795137287949193 0.19833474639452611 0 0.084497559881492323 0.20266231069862009 0 0.054502490043551163 0.2181910517501941 0 0.07691655231929137 0.22036312128655 0 0.062795137287949193 0.19833474639452611 0 0.062795137287949193 0.19833474639452611 0 0.084497559881492323 0.20266231069862009 0 0.075151164334765874 0.17578253529346821 0 0.084497559881492323 0.20266231069862009 0 0.075151164334765874 0.17578253529346821 0 0.084497559881492323 0.20266231069862009 0 0.10184565838461331 0.1924014028594688 0 0.093394980383096363 0.18307457459837531 0 0.084497559881492323 0.20266231069862009 0 0.10184565838461331 0.1924014028594688 0 0.10260278643249959 0.20376756124449391 0 0.10184565838461331 0.1924014028594688 0 0.1105875138732399 0.1994169567440035 0 0.10260278643249959 0.20376756124449391 0 0.10184565838461331 0.1924014028594688 0 0.1131184160342838 0.18994185980391479 0 0.1105875138732399 0.1994169567440035 0 0.10184565838461331 0.1924014028594688 0 0.1131184160342838 0.18994185980391479 0 0.1054525685194168 0.18020148819897211 0 0.1131184160342838 0.18994185980391479 0 0.1210814068145178 0.19423580856195369 0 0.1131184160342838 0.18994185980391479 0 0.1210814068145178 0.19423580856195369 0 0.1196286990311512 0.18236386641526309 0 0.1210814068145178 0.19423580856195369 0 0.11958782189190099 0.20227867846385961 0 0.13241563583181001 0.2003476577346209 0 0.1131184160342838 0.18994185980391479 0 0.1210814068145178 0.19423580856195369 0 0.11958782189190099 0.20227867846385961 0 0.1131184160342838 0.18994185980391479 0 0.11958782189190099 0.20227867846385961 0 0.1105875138732399 0.1994169567440035 0 0.11958782189190099 0.20227867846385961 0 0.1105875138732399 0.1994169567440035 0 0.11467542950451071 0.21015036581969679 0 0.11958782189190099 0.20227867846385961 0 0.11467542950451071 0.21015036581969679 0 0.12714211421566091 0.2115365522170618 0 0.11467542950451071 0.21015036581969679 0 0.1287590091161889 0.22454109023782651 0 0.12714211421566091 0.2115365522170618 0 0.11467542950451071 0.21015036581969679 0 0.1011551627426199 0.2154511434485995 0 0.1117838155087727 0.22779371718329239 0 0.084497559881492323 0.20266231069862009 0 0.10260278643249959 0.20376756124449391 0 0.1011551627426199 0.2154511434485995 0 0.1105875138732399 0.1994169567440035 0 0.11467542950451071 0.21015036581969679 0 0.10260278643249959 0.20376756124449391 0 0.11467542950451071 0.21015036581969679 0 0.10260278643249959 0.20376756124449391 0 0.1011551627426199 0.2154511434485995 0 0.1011551627426199 0.2154511434485995 0 0.093843955428218759 0.229542086103772 0 0.1117838155087727 0.22779371718329239 0 0.11467542950451071 0.21015036581969679 0 0.1117838155087727 0.22779371718329239 0 0.1287590091161889 0.22454109023782651 0 0.1117838155087727 0.22779371718329239 0 0.1287590091161889 0.22454109023782651 0 0.116065923487036 0.25155424759680489 0 0.093843955428218759 0.229542086103772 0 0.089645379702363526 0.25980927980688501 0 0.116065923487036 0.25155424759680489 0 0.093843955428218759 0.229542086103772 0 0.1117838155087727 0.22779371718329239 0 0.116065923487036 0.25155424759680489 0 0.085867858697711436 0.14453522140638461 0 0.070822549389301243 0.1380046816891726 0 0.082108764886198796 0.1605396281437739 0 0.085867858697711436 0.14453522140638461 0 0.082108764886198796 0.1605396281437739 0 0.098061838006449922 0.1524476624703702 0 0.085867858697711436 0.14453522140638461 0 0.084033960556429532 0.12884481400490949 0 0.098019367542785563 0.1407790739484335 0 0.085867858697711436 0.14453522140638461 0 0.084033960556429532 0.12884481400490949 0 0.070822549389301243 0.1380046816891726 0 0.071861500007931359 0.1232467005620789 0 0.059536333892403683 0.1154697352345713 0 0.070822549389301243 0.1380046816891726 0 0.059536333892403683 0.1154697352345713 0 0.070822549389301243 0.1380046816891726 0 0.056458373241313059 0.1220229844831647 0 0.070822549389301243 0.1380046816891726 0 0.065804768788039439 0.14890275988831639 0 0.071861500007931359 0.1232467005620789 0 0.084033960556429532 0.12884481400490949 0 0.070822549389301243 0.1380046816891726 0 0.070822549389301243 0.1380046816891726 0 0.082108764886198796 0.1605396281437739 0 0.070822549389301243 0.1380046816891726 0 0.065804768788039439 0.14890275988831639 0 0.082108764886198796 0.1605396281437739 0 0.056298621576963533 0.16595151756685289 0 0.065804768788039439 0.14890275988831639 0 0.075151164334765874 0.17578253529346821 0 0.065804768788039439 0.14890275988831639 0 0.075151164334765874 0.17578253529346821 0 0.082108764886198796 0.1605396281437739 0 0.065804768788039439 0.14890275988831639 0 0.075151164334765874 0.17578253529346821 0 0.053915020648589329 0.181809847856817 0 0.062795137287949193 0.19833474639452611 0 0.075151164334765874 0.17578253529346821 0 0.075151164334765874 0.17578253529346821 0 0.093394980383096363 0.18307457459837531 0 0.082108764886198796 0.1605396281437739 0 0.084497559881492323 0.20266231069862009 0 0.075151164334765874 0.17578253529346821 0 0.093394980383096363 0.18307457459837531 0 0.093394980383096363 0.18307457459837531 0 0.082108764886198796 0.1605396281437739 0 0.1017810834163356 0.16778327145988009 0 0.093394980383096363 0.18307457459837531 0 0.082108764886198796 0.1605396281437739 0 0.082108764886198796 0.1605396281437739 0 0.1017810834163356 0.16778327145988009 0 0.098061838006449922 0.1524476624703702 0 0.1017810834163356 0.16778327145988009 0 0.1094413004412432 0.1568441156191657 0 0.098061838006449922 0.1524476624703702 0 0.10184565838461331 0.1924014028594688 0 0.093394980383096363 0.18307457459837531 0 0.1054525685194168 0.18020148819897211 0 0.093394980383096363 0.18307457459837531 0 0.1017810834163356 0.16778327145988009 0 0.1054525685194168 0.18020148819897211 0 0.1017810834163356 0.16778327145988009 0 0.1054525685194168 0.18020148819897211 0 0.1143103312636523 0.17467474260035151 0 0.1131184160342838 0.18994185980391479 0 0.1132877880089454 0.18182979361660931 0 0.1196286990311512 0.18236386641526309 0 0.1131184160342838 0.18994185980391479 0 0.1054525685194168 0.18020148819897211 0 0.1132877880089454 0.18182979361660931 0 0.1054525685194168 0.18020148819897211 0 0.1132877880089454 0.18182979361660931 0 0.1143103312636523 0.17467474260035151 0 0.1132877880089454 0.18182979361660931 0 0.1143103312636523 0.17467474260035151 0 0.1196286990311512 0.18236386641526309 0 0.1143103312636523 0.17467474260035151 0 0.1229466648353691 0.17360959233997481 0 0.1196286990311512 0.18236386641526309 0 0.1229466648353691 0.17360959233997481 0 0.1196286990311512 0.18236386641526309 0 0.1315359285025598 0.17914174819028489 0 0.1210814068145178 0.19423580856195369 0 0.1196286990311512 0.18236386641526309 0 0.1315359285025598 0.17914174819028489 0 0.1017810834163356 0.16778327145988009 0 0.1143103312636523 0.17467474260035151 0 0.11826309888899959 0.1638296446882945 0 0.1017810834163356 0.16778327145988009 0 0.1094413004412432 0.1568441156191657 0 0.11826309888899959 0.1638296446882945 0 0.1094413004412432 0.1568441156191657 0 0.11826309888899959 0.1638296446882945 0 0.12116198843957229 0.15461983439099389 0 0.1143103312636523 0.17467474260035151 0 0.1229466648353691 0.17360959233997481 0 0.11826309888899959 0.1638296446882945 0 0.1229466648353691 0.17360959233997481 0 0.11826309888899959 0.1638296446882945 0 0.1286748755814317 0.16568949079043779 0 0.11826309888899959 0.1638296446882945 0 0.12116198843957229 0.15461983439099389 0 0.1286748755814317 0.16568949079043779 0 0.12116198843957229 0.15461983439099389 0 0.1235319134973574 0.14279740261083959 0 0.11069945258584669 0.14552439304262721 0 0.1094413004412432 0.1568441156191657 0 0.12116198843957229 0.15461983439099389 0 0.11069945258584669 0.14552439304262721 0 0.1094413004412432 0.1568441156191657 0 0.11069945258584669 0.14552439304262721 0 0.098061838006449922 0.1524476624703702 0 0.11069945258584669 0.14552439304262721 0 0.098019367542785563 0.1407790739484335 0 0.098061838006449922 0.1524476624703702 0 0.085867858697711436 0.14453522140638461 0 0.098019367542785563 0.1407790739484335 0 0.098061838006449922 0.1524476624703702 0 0.084033960556429532 0.12884481400490949 0 0.1117522404438802 0.12667258555115829 0 0.094862282777670462 0.1196438628042634 0 0.084033960556429532 0.12884481400490949 0 0.1117522404438802 0.12667258555115829 0 0.084033960556429532 0.12884481400490949 0 0.098019367542785563 0.1407790739484335 0 0.1117522404438802 0.12667258555115829 0 0.11069945258584669 0.14552439304262721 0 0.098019367542785563 0.1407790739484335 0 0.1117522404438802 0.12667258555115829 0 0.1235319134973574 0.14279740261083959 0 0.11069945258584669 0.14552439304262721 0 0.1117522404438802 0.12667258555115829 0 0.1235319134973574 0.14279740261083959 0 0.1117522404438802 0.12667258555115829 0 0.1338250830151082 0.13680555700437169 0 0.1117522404438802 0.12667258555115829 0 0.1338250830151082 0.13680555700437169 0 0.13947052033133081 0.1245003570974072 0 0.1117522404438802 0.12667258555115829 0 0.13947052033133081 0.1245003570974072 0 0.1338250830151082 0.13680555700437169 0 0.14773514824261011 0.13994704674368119 0 0.13947052033133081 0.1245003570974072 0 0.14773514824261011 0.13994704674368119 0 0.13947052033133081 0.1245003570974072 0 0.16718880021878149 0.12232812864365609 0 0.14773514824261011 0.13994704674368119 0 0.1492794596183103 0.15557552201751701 0 0.16307655427518189 0.1461583771030025 0 0.14773514824261011 0.13994704674368119 0 0.1492794596183103 0.15557552201751701 0 0.13636128964255501 0.15303395959459851 0 0.1235319134973574 0.14279740261083959 0 0.1338250830151082 0.13680555700437169 0 0.13636128964255501 0.15303395959459851 0 0.1338250830151082 0.13680555700437169 0 0.14773514824261011 0.13994704674368119 0 0.13636128964255501 0.15303395959459851 0 0.12116198843957229 0.15461983439099389 0 0.1235319134973574 0.14279740261083959 0 0.13636128964255501 0.15303395959459851 0 0.12116198843957229 0.15461983439099389 0 0.13636128964255501 0.15303395959459851 0 0.1286748755814317 0.16568949079043779 0 0.13636128964255501 0.15303395959459851 0 0.1286748755814317 0.16568949079043779 0 0.1402599975996246 0.1687496010839549 0 0.1286748755814317 0.16568949079043779 0 0.1402599975996246 0.1687496010839549 0 0.1315359285025598 0.17914174819028489 0 0.1210814068145178 0.19423580856195369 0 0.1315359285025598 0.17914174819028489 0 0.14172685770208041 0.18088834424850889 0 0.1229466648353691 0.17360959233997481 0 0.1286748755814317 0.16568949079043779 0 0.1315359285025598 0.17914174819028489 0 0.1402599975996246 0.1687496010839549 0 0.1315359285025598 0.17914174819028489 0 0.14172685770208041 0.18088834424850889 0 0.1315359285025598 0.17914174819028489 0 0.14172685770208041 0.18088834424850889 0 0.14172685770208041 0.18088834424850889 0 0.1589643083315804 0.1699886255623487 0 0.15664227980061579 0.1834446584897341 0 0.14172685770208041 0.18088834424850889 0 0.1589643083315804 0.1699886255623487 0 0.1402599975996246 0.1687496010839549 0 0.14172685770208041 0.18088834424850889 0 0.1589643083315804 0.1699886255623487 0 0.14172685770208041 0.18088834424850889 0 0.15664227980061579 0.1834446584897341 0 0.14735069213281321 0.19092796682168489 0 0.14172685770208041 0.18088834424850889 0 0.15664227980061579 0.1834446584897341 0 0.1492794596183103 0.15557552201751701 0 0.1402599975996246 0.1687496010839549 0 0.1589643083315804 0.1699886255623487 0 0.1492794596183103 0.15557552201751701 0 0.13636128964255501 0.15303395959459851 0 0.1402599975996246 0.1687496010839549 0 0.1492794596183103 0.15557552201751701 0 0.1589643083315804 0.1699886255623487 0 0.16307655427518189 0.1461583771030025 0 0.1589643083315804 0.1699886255623487 0 0.1832181015668064 0.15465227861531949 0 0.16307655427518189 0.1461583771030025 0 0.1589643083315804 0.1699886255623487 0 0.16307655427518189 0.1461583771030025 0 0.1589643083315804 0.1699886255623487 0 0.1832181015668064 0.15465227861531949 0 0.1589643083315804 0.1699886255623487 0 0.15664227980061579 0.1834446584897341 0 0.17367876449497299 0.17356388092826039 0 0.15664227980061579 0.1834446584897341 0 0.17803712215301101 0.18711146321258301 0 0.15664227980061579 0.1834446584897341 0 0.17367876449497299 0.17356388092826039 0 0.17803712215301101 0.18711146321258301 0 0.1589643083315804 0.1699886255623487 0 0.15664227980061579 0.1834446584897341 0 0.17367876449497299 0.17356388092826039 0 0.17803712215301101 0.18711146321258301 0 0.1915320106228488 0.17262237876131631 0 0.1589643083315804 0.1699886255623487 0 0.17367876449497299 0.17356388092826039 0 0.1832181015668064 0.15465227861531949 0 0.17367876449497299 0.17356388092826039 0 0.1832181015668064 0.15465227861531949 0 0.1915320106228488 0.17262237876131631 0 0.1832181015668064 0.15465227861531949 0 0.18154761934540289 0.13534417850528041 0 0.16307655427518189 0.1461583771030025 0 0.18154761934540289 0.13534417850528041 0 0.19370351113240411 0.1202502215829211 0 0.16718880021878149 0.12232812864365609 0 0.16307655427518189 0.1461583771030025 0 0.16718880021878149 0.12232812864365609 0 0.14773514824261011 0.13994704674368119 0 0.16307655427518189 0.1461583771030025 0 0.16718880021878149 0.12232812864365609 0 0.18154761934540289 0.13534417850528041 0 0.16307655427518189 0.1461583771030025 0 0.16718880021878149 0.12232812864365609 0 0.14248646727170791 0.24329921538672239 0 0.16890701105638031 0.23504418317664161 0 0.14248646727170791 0.24329921538672239 0 0.116065923487036 0.25155424759680489 0 0.14248646727170791 0.24329921538672239 0 0.1287590091161889 0.22454109023782651 0 0.116065923487036 0.25155424759680489 0 0.14248646727170791 0.24329921538672239 0 0.1287590091161889 0.22454109023782651 0 0.14216045677169509 0.2226427774354276 0 0.1287590091161889 0.22454109023782651 0 0.14216045677169509 0.2226427774354276 0 0.13903299807830019 0.21154409335764149 0 0.14248646727170791 0.24329921538672239 0 0.14216045677169509 0.2226427774354276 0 0.16890701105638031 0.23504418317664161 0 0.14216045677169509 0.2226427774354276 0 0.1513137794066001 0.21432303737238931 0 0.16890701105638031 0.23504418317664161 0 0.15183105921464751 0.210852851725322 0 0.13241563583181001 0.2003476577346209 0 0.15183105921464751 0.210852851725322 0 0.13903299807830019 0.21154409335764149 0 0.13241563583181001 0.2003476577346209 0 0.1513137794066001 0.21432303737238931 0 0.15183105921464751 0.210852851725322 0 0.14522842943996589 0.21534193400985699 0 0.1513137794066001 0.21432303737238931 0 0.15183105921464751 0.210852851725322 0 0.15183105921464751 0.210852851725322 0 0.14522842943996589 0.21534193400985699 0 0.13903299807830019 0.21154409335764149 0 0.14216045677169509 0.2226427774354276 0 0.1513137794066001 0.21432303737238931 0 0.14522842943996589 0.21534193400985699 0 0.14216045677169509 0.2226427774354276 0 0.14522842943996589 0.21534193400985699 0 0.13903299807830019 0.21154409335764149 0 0.1287590091161889 0.22454109023782651 0 0.13903299807830019 0.21154409335764149 0 0.12714211421566091 0.2115365522170618 0 0.11958782189190099 0.20227867846385961 0 0.12714211421566091 0.2115365522170618 0 0.13241563583181001 0.2003476577346209 0 0.13903299807830019 0.21154409335764149 0 0.12714211421566091 0.2115365522170618 0 0.13241563583181001 0.2003476577346209 0 0.1210814068145178 0.19423580856195369 0 0.13241563583181001 0.2003476577346209 0 0.13808072668616231 0.19149491569441959 0 0.1210814068145178 0.19423580856195369 0 0.14172685770208041 0.18088834424850889 0 0.13808072668616231 0.19149491569441959 0 0.1210814068145178 0.19423580856195369 0 0.14172685770208041 0.18088834424850889 0 0.1210814068145178 0.19423580856195369 0 0.13241563583181001 0.2003476577346209 0 0.15664227980061579 0.1834446584897341 0 0.15183105921464751 0.210852851725322 0 0.14735069213281321 0.19092796682168489 0 0.14172685770208041 0.18088834424850889 0 0.13808072668616231 0.19149491569441959 0 0.14735069213281321 0.19092796682168489 0 0.15183105921464751 0.210852851725322 0 0.13808072668616231 0.19149491569441959 0 0.14735069213281321 0.19092796682168489 0 0.15664227980061579 0.1834446584897341 0 0.15183105921464751 0.210852851725322 0 0.15183105921464751 0.210852851725322 0 0.13241563583181001 0.2003476577346209 0 0.13808072668616231 0.19149491569441959 0 0.15183105921464751 0.210852851725322 0 0.13808072668616231 0.19149491569441959 0 0.15664227980061579 0.1834446584897341 0 0.17803712215301101 0.18711146321258301 0 0.17078007948547791 0.20461318166966591 0 0.15664227980061579 0.1834446584897341 0 0.15183105921464751 0.210852851725322 0 0.17078007948547791 0.20461318166966591 0 0.17803712215301101 0.18711146321258301 0 0.18699821765939811 0.20575379358823331 0 0.17078007948547791 0.20461318166966591 0 0.18699821765939811 0.20575379358823331 0 0.18150256540618689 0.21619068467845909 0 0.17078007948547791 0.20461318166966591 0 0.18150256540618689 0.21619068467845909 0 0.17078007948547791 0.20461318166966591 0 0.1696832039875637 0.2204437538389574 0 0.15183105921464751 0.210852851725322 0 0.1696832039875637 0.2204437538389574 0 0.15183105921464751 0.210852851725322 0 0.17078007948547791 0.20461318166966591 0 0.1696832039875637 0.2204437538389574 0 0.15183105921464751 0.210852851725322 0 0.16890701105638031 0.23504418317664161 0 0.15183105921464751 0.210852851725322 0 0.1696832039875637 0.2204437538389574 0 0.16890701105638031 0.23504418317664161 0 0.1513137794066001 0.21432303737238931 0 0.15183105921464751 0.210852851725322 0 0.16890701105638031 0.23504418317664161 0 0.1696832039875637 0.2204437538389574 0 0.1730962958839812 0.23373525170759399 0 0.16890701105638031 0.23504418317664161 0 0.18150256540618689 0.21619068467845909 0 0.1696832039875637 0.2204437538389574 0 0.1874551123034256 0.23002704556275291 0 0.1696832039875637 0.2204437538389574 0 0.1874551123034256 0.23002704556275291 0 0.1730962958839812 0.23373525170759399 0 0.1696832039875637 0.2204437538389574 0 0.1874551123034256 0.23002704556275291 0 0.16890701105638031 0.23504418317664161 0 0.18564289691528729 0.25868749876629671 0 0.1821848497420967 0.24129823675235251 0 0.16890701105638031 0.23504418317664161 0 0.18564289691528729 0.25868749876629671 0 0.1730962958839812 0.23373525170759399 0 0.1821848497420967 0.24129823675235251 0 0.16890701105638031 0.23504418317664161 0 0.1874551123034256 0.23002704556275291 0 0.1730962958839812 0.23373525170759399 0 0.1821848497420967 0.24129823675235251 0 0.14248646727170791 0.24329921538672239 0 0.16890701105638031 0.23504418317664161 0 0.1631161995596529 0.25657386530356069 0 0.1730962958839812 0.23373525170759399 0 0.16890701105638031 0.23504418317664161 0 0.2052270206192876 0.23961033728654851 0 0.2245441737887168 0.23093760545441711 0 0.21458810326103989 0.25029177234766842 0 0.2052270206192876 0.23961033728654851 0 0.2050239072751949 0.2492833193895482 0 0.21458810326103989 0.25029177234766842 0 0.2052270206192876 0.23961033728654851 0 0.2050239072751949 0.2492833193895482 0 0.1956251304139873 0.24830732682566101 0 0.1874551123034256 0.23002704556275291 0 0.1821848497420967 0.24129823675235251 0 0.1956251304139873 0.24830732682566101 0 0.1874551123034256 0.23002704556275291 0 0.2052270206192876 0.23961033728654851 0 0.1821848497420967 0.24129823675235251 0 0.1956251304139873 0.24830732682566101 0 0.18564289691528729 0.25868749876629671 0 0.1874551123034256 0.23002704556275291 0 0.2052270206192876 0.23961033728654851 0 0.1956251304139873 0.24830732682566101 0 0.1874551123034256 0.23002704556275291 0 0.2052270206192876 0.23961033728654851 0 0.20110338325899621 0.22697869990708769 0 0.18150256540618689 0.21619068467845909 0 0.1874551123034256 0.23002704556275291 0 0.19422843088031849 0.2167901493339745 0 0.1874551123034256 0.23002704556275291 0 0.20110338325899621 0.22697869990708769 0 0.19422843088031849 0.2167901493339745 0 0.20110338325899621 0.22697869990708769 0 0.2086865974780466 0.21738525977654841 0 0.19422843088031849 0.2167901493339745 0 0.2052270206192876 0.23961033728654851 0 0.21155197229915221 0.22775520817690251 0 0.2245441737887168 0.23093760545441711 0 0.20110338325899621 0.22697869990708769 0 0.21155197229915221 0.22775520817690251 0 0.2086865974780466 0.21738525977654841 0 0.2052270206192876 0.23961033728654851 0 0.20110338325899621 0.22697869990708769 0 0.21155197229915221 0.22775520817690251 0 0.21155197229915221 0.22775520817690251 0 0.2086865974780466 0.21738525977654841 0 0.22156171208109349 0.2232889965660497 0 0.211417792929007 0.20448623071467029 0 0.2086865974780466 0.21738525977654841 0 0.22411523440486891 0.2128525325182862 0 0.2086865974780466 0.21738525977654841 0 0.22411523440486891 0.2128525325182862 0 0.22156171208109349 0.2232889965660497 0 0.211417792929007 0.20448623071467029 0 0.2086865974780466 0.21738525977654841 0 0.19996516513116139 0.20542151256053021 0 0.2086865974780466 0.21738525977654841 0 0.19422843088031849 0.2167901493339745 0 0.19996516513116139 0.20542151256053021 0 0.18699821765939811 0.20575379358823331 0 0.18150256540618689 0.21619068467845909 0 0.19422843088031849 0.2167901493339745 0 0.18699821765939811 0.20575379358823331 0 0.19422843088031849 0.2167901493339745 0 0.19996516513116139 0.20542151256053021 0 0.18699821765939811 0.20575379358823331 0 0.19996516513116139 0.20542151256053021 0 0.19943196450540629 0.19077826793543179 0 0.17803712215301101 0.18711146321258301 0 0.19943196450540629 0.19077826793543179 0 0.17803712215301101 0.18711146321258301 0 0.18699821765939811 0.20575379358823331 0 0.19943196450540629 0.19077826793543179 0 0.211417792929007 0.20448623071467029 0 0.19943196450540629 0.19077826793543179 0 0.22082680685780151 0.19444507265828059 0 0.19943196450540629 0.19077826793543179 0 0.22082680685780151 0.19444507265828059 0 0.211417792929007 0.20448623071467029 0 0.19996516513116139 0.20542151256053021 0 0.19943196450540629 0.19077826793543179 0 0.22082680685780151 0.19444507265828059 0 0.2418323282778008 0.1922485172988235 0 0.23200417938957321 0.20455559625434991 0 0.22082680685780151 0.19444507265828059 0 0.2418323282778008 0.1922485172988235 0 0.2298041727050075 0.1787595393801808 0 0.2418323282778008 0.1922485172988235 0 0.24124234801782149 0.21867626254200909 0 0.2418323282778008 0.1922485172988235 0 0.24124234801782149 0.21867626254200909 0 0.25471258750952741 0.20148162901819469 0 0.2418323282778008 0.1922485172988235 0 0.24124234801782149 0.21867626254200909 0 0.23200417938957321 0.20455559625434991 0 0.24124234801782149 0.21867626254200909 0 0.25357276657721323 0.21641202867955539 0 0.25471258750952741 0.20148162901819469 0 0.24124234801782149 0.21867626254200909 0 0.22411523440486891 0.2128525325182862 0 0.2303270751280653 0.22194856436908961 0 0.211417792929007 0.20448623071467029 0 0.22082680685780151 0.19444507265828059 0 0.22411523440486891 0.2128525325182862 0 0.22082680685780151 0.19444507265828059 0 0.23200417938957321 0.20455559625434991 0 0.22411523440486891 0.2128525325182862 0 0.24124234801782149 0.21867626254200909 0 0.23200417938957321 0.20455559625434991 0 0.22411523440486891 0.2128525325182862 0 0.22411523440486891 0.2128525325182862 0 0.22156171208109349 0.2232889965660497 0 0.2303270751280653 0.22194856436908961 0 0.22156171208109349 0.2232889965660497 0 0.2245441737887168 0.23093760545441711 0 0.2301452193877111 0.22885480910105491 0 0.21155197229915221 0.22775520817690251 0 0.22156171208109349 0.2232889965660497 0 0.2245441737887168 0.23093760545441711 0 0.2301452193877111 0.22885480910105491 0 0.23408043491912681 0.23335190051361199 0 0.23787356880598759 0.22384871304106421 0 0.2301452193877111 0.22885480910105491 0 0.23408043491912681 0.23335190051361199 0 0.2258394828391487 0.23585902185418811 0 0.2245441737887168 0.23093760545441711 0 0.2301452193877111 0.22885480910105491 0 0.2258394828391487 0.23585902185418811 0 0.2301452193877111 0.22885480910105491 0 0.2303270751280653 0.22194856436908961 0 0.23787356880598759 0.22384871304106421 0 0.22156171208109349 0.2232889965660497 0 0.2301452193877111 0.22885480910105491 0 0.2303270751280653 0.22194856436908961 0 0.24124234801782149 0.21867626254200909 0 0.2303270751280653 0.22194856436908961 0 0.23787356880598759 0.22384871304106421 0 0.24124234801782149 0.21867626254200909 0 0.23787356880598759 0.22384871304106421 0 0.25357276657721323 0.21641202867955539 0 0.23408043491912681 0.23335190051361199 0 0.24868260911088891 0.2303107595792985 0 0.25357276657721323 0.21641202867955539 0 0.23408043491912681 0.23335190051361199 0 0.23787356880598759 0.22384871304106421 0 0.25357276657721323 0.21641202867955539 0 0.23408043491912681 0.23335190051361199 0 0.25357276657721323 0.21641202867955539 0 0.24868260911088891 0.2303107595792985 0 0.2392512687495113 0.23539683186585869 0 0.2471090749199483 0.2357199094212839 0 0.23408043491912681 0.23335190051361199 0 0.24868260911088891 0.2303107595792985 0 0.2392512687495113 0.23539683186585869 0 0.23408043491912681 0.23335190051361199 0 0.2356673672060029 0.23553231024254659 0 0.23369101455560959 0.23545012385447089 0 0.2356673672060029 0.23553231024254659 0 0.23652425047500741 0.24096462129343871 0 0.23369101455560959 0.23545012385447089 0 0.23652425047500741 0.24096462129343871 0 0.2392512687495113 0.23539683186585869 0 0.24523436150048811 0.24199469982198529 0 0.2356673672060029 0.23553231024254659 0 0.23652425047500741 0.24096462129343871 0 0.2392512687495113 0.23539683186585869 0 0.23408043491912681 0.23335190051361199 0 0.2356673672060029 0.23553231024254659 0 0.2392512687495113 0.23539683186585869 0 0.24523436150048811 0.24199469982198529 0 0.2471090749199483 0.2357199094212839 0 0.25452501640087027 0.2374112721999547 0 0.2392512687495113 0.23539683186585869 0 0.24523436150048811 0.24199469982198529 0 0.2471090749199483 0.2357199094212839 0 0.24523436150048811 0.24199469982198529 0 0.23995652529561701 0.25039133628829258 0 0.25404003316197471 0.25208422786308371 0 0.23652425047500741 0.24096462129343871 0 0.24523436150048811 0.24199469982198529 0 0.23995652529561701 0.25039133628829258 0 0.23652425047500741 0.24096462129343871 0 0.23169913173193779 0.25404958449575432 0 0.23995652529561701 0.25039133628829258 0 0.23369101455560959 0.23545012385447089 0 0.2170338530129477 0.25958452376210089 0 0.21458810326103989 0.25029177234766842 0 0.23408043491912681 0.23335190051361199 0 0.23369101455560959 0.23545012385447089 0 0.21458810326103989 0.25029177234766842 0 0.23408043491912681 0.23335190051361199 0 0.21458810326103989 0.25029177234766842 0 0.2245441737887168 0.23093760545441711 0 0.21458810326103989 0.25029177234766842 0 0.23408043491912681 0.23335190051361199 0 0.2258394828391487 0.23585902185418811 0 0.21458810326103989 0.25029177234766842 0 0.23369101455560959 0.23545012385447089 0 0.2170338530129477 0.25958452376210089 0 0.23169913173193779 0.25404958449575432 0 0.23652425047500741 0.24096462129343871 0 0.23369101455560959 0.23545012385447089 0 0.23169913173193779 0.25404958449575432 0 0.23369101455560959 0.23545012385447089 0 0.2170338530129477 0.25958452376210089 0 0.2245441737887168 0.23093760545441711 0 0.2258394828391487 0.23585902185418811 0 0.21458810326103989 0.25029177234766842 0 0.2074718948020329 0.13931593166829101 0 0.2035930282546865 0.1573108976369578 0 0.22801201431925219 0.15227861461809999 0 0.2074718948020329 0.13931593166829101 0 0.22815060196587239 0.13250420183309389 0 0.2202182220460269 0.1181723145221887 0 0.2074718948020329 0.13931593166829101 0 0.2202182220460269 0.1181723145221887 0 0.19370351113240411 0.1202502215829211 0 0.18154761934540289 0.13534417850528041 0 0.2074718948020329 0.13931593166829101 0 0.19370351113240411 0.1202502215829211 0 0.1832181015668064 0.15465227861531949 0 0.2074718948020329 0.13931593166829101 0 0.1832181015668064 0.15465227861531949 0 0.18154761934540289 0.13534417850528041 0 0.2074718948020329 0.13931593166829101 0 0.1832181015668064 0.15465227861531949 0 0.2074718948020329 0.13931593166829101 0 0.2035930282546865 0.1573108976369578 0 0.1832181015668064 0.15465227861531949 0 0.1915320106228488 0.17262237876131631 0 0.2035930282546865 0.1573108976369578 0 0.1915320106228488 0.17262237876131631 0 0.21309098299550949 0.1707274381193544 0 0.2035930282546865 0.1573108976369578 0 0.19943196450540629 0.19077826793543179 0 0.1915320106228488 0.17262237876131631 0 0.21309098299550949 0.1707274381193544 0 0.17803712215301101 0.18711146321258301 0 0.19943196450540629 0.19077826793543179 0 0.1915320106228488 0.17262237876131631 0 0.19943196450540629 0.19077826793543179 0 0.22082680685780151 0.19444507265828059 0 0.21309098299550949 0.1707274381193544 0 0.21309098299550949 0.1707274381193544 0 0.2035930282546865 0.1573108976369578 0 0.22801201431925219 0.15227861461809999 0 0.2298041727050075 0.1787595393801808 0 0.2424223085377801 0.16582077205563811 0 0.22801201431925219 0.15227861461809999 0 0.21309098299550949 0.1707274381193544 0 0.2298041727050075 0.1787595393801808 0 0.22801201431925219 0.15227861461809999 0 0.22082680685780151 0.19444507265828059 0 0.21309098299550949 0.1707274381193544 0 0.2298041727050075 0.1787595393801808 0 0.2418323282778008 0.1922485172988235 0 0.2424223085377801 0.16582077205563811 0 0.2418323282778008 0.1922485172988235 0 0.2424223085377801 0.16582077205563811 0 0.26032431562704572 0.18342712708893841 0 0.2418323282778008 0.1922485172988235 0 0.2298041727050075 0.1787595393801808 0 0.2424223085377801 0.16582077205563811 0 0.2424223085377801 0.16582077205563811 0 0.24301228879775941 0.13939302681245261 0 0.2424223085377801 0.16582077205563811 0 0.24301228879775941 0.13939302681245261 0 0.25486404381895789 0.1523024957907583 0 0.22801201431925219 0.15227861461809999 0 0.23648687609860089 0.13476882232929049 0 0.24301228879775941 0.13939302681245261 0 0.2424223085377801 0.16582077205563811 0 0.22801201431925219 0.15227861461809999 0 0.24301228879775941 0.13939302681245261 0 0.2074718948020329 0.13931593166829101 0 0.22801201431925219 0.15227861461809999 0 0.22815060196587239 0.13250420183309389 0 0.22815060196587239 0.13250420183309389 0 0.24420216851797599 0.1292372680552665 0 0.2202182220460269 0.1181723145221887 0 0.22801201431925219 0.15227861461809999 0 0.22815060196587239 0.13250420183309389 0 0.23648687609860089 0.13476882232929049 0 0.22815060196587239 0.13250420183309389 0 0.23648687609860089 0.13476882232929049 0 0.24420216851797599 0.1292372680552665 0 0.23648687609860089 0.13476882232929049 0 0.24301228879775941 0.13939302681245261 0 0.24420216851797599 0.1292372680552665 0 0.24646482385440791 0.1109165710353929 0 0.23770217468454991 0.11680213067385049 0 0.255186127323073 0.11543194682551421 0 0.24420216851797599 0.1292372680552665 0 0.23770217468454991 0.11680213067385049 0 0.255186127323073 0.11543194682551421 0 0.23770217468454991 0.11680213067385049 0 0.255186127323073 0.11543194682551421 0 0.23770217468454991 0.11680213067385049 0 0.24055722746134861 0.1095612663226197 0 0.23538797832625211 0.10692464088038291 0 0.24646482385440791 0.1109165710353929 0 0.23770217468454991 0.11680213067385049 0 0.24055722746134861 0.1095612663226197 0 0.24174744587836799 0.1033548466348798 0 0.22816008327650389 0.097918375238235045 0 0.24736227196270541 0.090270970101712061 0 0.22816008327650389 0.097918375238235045 0 0.24736227196270541 0.090270970101712061 0 0.24174744587836799 0.1033548466348798 0 0.24736227196270541 0.090270970101712061 0 0.25459763100830068 0.096141582858552177 0 0.24174744587836799 0.1033548466348798 0 0.25459763100830068 0.096141582858552177 0 0.24646482385440791 0.1109165710353929 0 0.24174744587836799 0.1033548466348798 0 0.25655208948606423 0.10927836717886751 0 0.24174744587836799 0.1033548466348798 0 0.25655208948606423 0.10927836717886751 0 0.24646482385440791 0.1109165710353929 0 0.24055722746134861 0.1095612663226197 0 0.24174744587836799 0.1033548466348798 0 0.23538797832625211 0.10692464088038291 0 0.24174744587836799 0.1033548466348798 0 0.22816008327650389 0.097918375238235045 0 0.24055722746134861 0.1095612663226197 0 0.23538797832625211 0.10692464088038291 0 0.24174744587836799 0.1033548466348798 0 0.23538797832625211 0.10692464088038291 0 0.24174744587836799 0.1033548466348798 0 0.24174744587836799 0.1033548466348798 0 0.22816008327650389 0.097918375238235045 0 0.23538797832625211 0.10692464088038291 0 0.22816008327650389 0.097918375238235045 0 0.22436085098549791 0.1097634104313145 0 0.23770217468454991 0.11680213067385049 0 0.2202182220460269 0.1181723145221887 0 0.23770217468454991 0.11680213067385049 0 0.2202182220460269 0.1181723145221887 0 0.22436085098549791 0.1097634104313145 0 0.24420216851797599 0.1292372680552665 0 0.23770217468454991 0.11680213067385049 0 0.2202182220460269 0.1181723145221887 0 0.24420216851797599 0.1292372680552665 0 0.2202182220460269 0.1181723145221887 0 0.23770217468454991 0.11680213067385049 0 0.23538797832625211 0.10692464088038291 0 0.22436085098549791 0.1097634104313145 0 0.2202182220460269 0.1181723145221887 0 0.20033579659415629 0.10899959084191641 0 0.19370351113240411 0.1202502215829211 0 0.2202182220460269 0.1181723145221887 0 0.20033579659415629 0.10899959084191641 0 0.2202182220460269 0.1181723145221887 0 0.19370351113240411 0.1202502215829211 0 0.2202182220460269 0.1181723145221887 0 0.22436085098549791 0.1097634104313145 0 0.20033579659415629 0.10899959084191641 0 0.22816008327650389 0.097918375238235045 0 0.22436085098549791 0.1097634104313145 0 0.20033579659415629 0.10899959084191641 0 0.22816008327650389 0.097918375238235045 0 0.20033579659415629 0.10899959084191641 0 0.2016134769563831 0.087296750559026068 0 0.22816008327650389 0.097918375238235045 0 0.20033579659415629 0.10899959084191641 0 0.20033579659415629 0.10899959084191641 0 0.18422746814952201 0.1154148446289336 0 0.1860496622757298 0.1024087067025775 0 0.20033579659415629 0.10899959084191641 0 0.2016134769563831 0.087296750559026068 0 0.1860496622757298 0.1024087067025775 0 0.20033579659415629 0.10899959084191641 0 0.1860496622757298 0.1024087067025775 0 0.20033579659415629 0.10899959084191641 0 0.19370351113240411 0.1202502215829211 0 0.18422746814952201 0.1154148446289336 0 0.20033579659415629 0.10899959084191641 0 0.18422746814952201 0.1154148446289336 0 0.19220101611619109 0.069455466931817506 0 0.2016134769563831 0.087296750559026068 0 0.22553753830923129 0.072562856517635971 0 0.19220101611619109 0.069455466931817506 0 0.22553753830923129 0.072562856517635971 0 0.20371280465575431 0.054854742933563613 0 0.19220101611619109 0.069455466931817506 0 0.2016134769563831 0.087296750559026068 0 0.17506687063626211 0.076675125879817507 0 0.2016134769563831 0.087296750559026068 0 0.17506687063626211 0.076675125879817507 0 0.2016134769563831 0.087296750559026068 0 0.1860496622757298 0.1024087067025775 0 0.17954517331912459 0.085943521096986275 0 0.22816008327650389 0.097918375238235045 0 0.2016134769563831 0.087296750559026068 0 0.22553753830923129 0.072562856517635971 0 0.22816008327650389 0.097918375238235045 0 0.2016134769563831 0.087296750559026068 0 0.22553753830923129 0.072562856517635971 0 0.20371280465575431 0.054854742933563613 0 0.22816008327650389 0.097918375238235045 0 0.22553753830923129 0.072562856517635971 0 0.24736227196270541 0.090270970101712061 0 0.22553753830923129 0.072562856517635971 0 0.24736227196270541 0.090270970101712061 0 0.22553753830923129 0.072562856517635971 0 0.24736227196270541 0.090270970101712061 0 0.24874122334595 0.07170785510379532 0 0.22553753830923129 0.072562856517635971 0 0.24874122334595 0.07170785510379532 0 0.24629062771517271 0.052820950830226497 0 0.24629062771517271 0.052820950830226497 0 0.22540450977275331 0.044226989078737088 0 0.24629062771517271 0.052820950830226497 0 0.2492733855269578 0.041579555173777823 0 0.22540450977275331 0.044226989078737088 0 0.2492733855269578 0.041579555173777823 0 0.23050941707716249 0.025621187905106171 0 0.2492733855269578 0.041579555173777823 0 0.22540450977275331 0.044226989078737088 0 0.23050941707716249 0.025621187905106171 0 0.22540450977275331 0.044226989078737088 0 0.23050941707716249 0.025621187905106171 0 0.21805144048265651 0.031797176764528597 0 0.22553753830923129 0.072562856517635971 0 0.24629062771517271 0.052820950830226497 0 0.22540450977275331 0.044226989078737088 0 0.23790413247208811 0.0091049515404343275 0 0.25322369798355371 0.0032948183560677501 0 0.2464198669495459 -0.012097030270161889 0 0.23790413247208811 0.0091049515404343275 0 0.25442723867738032 0.016379625870619269 0 0.25322369798355371 0.0032948183560677501 0 0.2492733855269578 0.041579555173777823 0 0.24818833723327199 0.02644705719899533 0 0.23050941707716249 0.025621187905106171 0 0.23790413247208811 0.0091049515404343275 0 0.24818833723327199 0.02644705719899533 0 0.25442723867738032 0.016379625870619269 0 0.23790413247208811 0.0091049515404343275 0 0.24818833723327199 0.02644705719899533 0 0.23050941707716249 0.025621187905106171 0 0.23050941707716249 0.025621187905106171 0 0.2117734432503762 0.02170750274702346 0 0.21805144048265651 0.031797176764528597 0 0.23050941707716249 0.025621187905106171 0 0.21174544862736719 0.0096628206364345465 0 0.23050941707716249 0.025621187905106171 0 0.22518260227175371 0.0072623370788317187 0 0.21174544862736719 0.0096628206364345465 0 0.23790413247208811 0.0091049515404343275 0 0.22518260227175371 0.0072623370788317187 0 0.2300866381754704 -0.0072438550720441714 0 0.23790413247208811 0.0091049515404343275 0 0.23050941707716249 0.025621187905106171 0 0.22518260227175371 0.0072623370788317187 0 0.21174544862736719 0.0096628206364345465 0 0.2117734432503762 0.02170750274702346 0 0.20589386385567829 -0.0063134785331596111 0 0.2117734432503762 0.02170750274702346 0 0.19985428483697371 0.01027601627170664 0 0.20589386385567829 -0.0063134785331596111 0 0.2117734432503762 0.02170750274702346 0 0.20589386385567829 -0.0063134785331596111 0 0.22518260227175371 0.0072623370788317187 0 0.21174544862736719 0.0096628206364345465 0 0.2185782736923042 -0.0038367730406402641 0 0.23050941707716249 0.025621187905106171 0 0.21174544862736719 0.0096628206364345465 0 0.2117734432503762 0.02170750274702346 0 0.2117734432503762 0.02170750274702346 0 0.19994459845139961 0.023663902980434019 0 0.19985428483697371 0.01027601627170664 0 0.2117734432503762 0.02170750274702346 0 0.21805144048265651 0.031797176764528597 0 0.20451839183033399 0.035633027327247678 0 0.2117734432503762 0.02170750274702346 0 0.19994459845139961 0.023663902980434019 0 0.20451839183033399 0.035633027327247678 0 0.19994459845139961 0.023663902980434019 0 0.20451839183033399 0.035633027327247678 0 0.1836322738879155 0.027039065575756291 0 0.19994459845139961 0.023663902980434019 0 0.19985428483697371 0.01027601627170664 0 0.1836322738879155 0.027039065575756291 0 0.19985428483697371 0.01027601627170664 0 0.20589386385567829 -0.0063134785331596111 0 0.18863989258252481 -0.001979820774580698 0 0.19985428483697371 0.01027601627170664 0 0.1836322738879155 0.027039065575756291 0 0.18863989258252481 -0.001979820774580698 0 0.22553753830923129 0.072562856517635971 0 0.22540450977275331 0.044226989078737088 0 0.20371280465575431 0.054854742933563613 0 0.22540450977275331 0.044226989078737088 0 0.20451839183033399 0.035633027327247678 0 0.22540450977275331 0.044226989078737088 0 0.21805144048265651 0.031797176764528597 0 0.20451839183033399 0.035633027327247678 0 0.22540450977275331 0.044226989078737088 0 0.20371280465575431 0.054854742933563613 0 0.20451839183033399 0.035633027327247678 0 0.20451839183033399 0.035633027327247678 0 0.1818880710022803 0.03714662934948755 0 0.1836322738879155 0.027039065575756291 0 0.20371280465575431 0.054854742933563613 0 0.20451839183033399 0.035633027327247678 0 0.1818880710022803 0.03714662934948755 0 0.20371280465575431 0.054854742933563613 0 0.1818880710022803 0.03714662934948755 0 0.20451839183033399 0.035633027327247678 0 0.1836322738879155 0.027039065575756291 0 0.20371280465575431 0.054854742933563613 0 0.17847747081927551 0.05691087761465332 0 0.1818880710022803 0.03714662934948755 0 0.19220101611619109 0.069455466931817506 0 0.20371280465575431 0.054854742933563613 0 0.17847747081927551 0.05691087761465332 0 0.17847747081927551 0.05691087761465332 0 0.1818880710022803 0.03714662934948755 0 0.17847747081927551 0.05691087761465332 0 0.1818880710022803 0.03714662934948755 0 0.1636569447874848 0.036789081642687432 0 0.1818880710022803 0.03714662934948755 0 0.1836322738879155 0.027039065575756291 0 0.1818880710022803 0.03714662934948755 0 0.1636569447874848 0.036789081642687432 0 0.1620242678869008 0.02102957209859084 0 0.17847747081927551 0.05691087761465332 0 0.1636569447874848 0.036789081642687432 0 0.15962551614652079 0.053115759904931073 0 0.17847747081927551 0.05691087761465332 0 0.15962551614652079 0.053115759904931073 0 0.16641746421004469 0.065589342706300277 0 0.15962551614652079 0.053115759904931073 0 0.15045482833334159 0.067212260357143019 0 0.16641746421004469 0.065589342706300277 0 0.1716695151525548 0.011722155214289249 0 0.17506184651935949 -0.0021247232161890161 0 0.18863989258252481 -0.001979820774580698 0 0.1836322738879155 0.027039065575756291 0 0.18863989258252481 -0.001979820774580698 0 0.1836322738879155 0.027039065575756291 0 0.1716695151525548 0.011722155214289249 0 0.18863989258252481 -0.001979820774580698 0 0.1818880710022803 0.03714662934948755 0 0.1730573255808272 0.02268781650565178 0 0.1620242678869008 0.02102957209859084 0 0.1818880710022803 0.03714662934948755 0 0.1620242678869008 0.02102957209859084 0 0.1730573255808272 0.02268781650565178 0 0.1836322738879155 0.027039065575756291 0 0.1716695151525548 0.011722155214289249 0 0.1730573255808272 0.02268781650565178 0 0.1836322738879155 0.027039065575756291 0 0.1818880710022803 0.03714662934948755 0 0.1730573255808272 0.02268781650565178 0 0.1836322738879155 0.027039065575756291 0 0.1636569447874848 0.036789081642687432 0 0.1620242678869008 0.02102957209859084 0 0.15032019737810451 0.03113296745297477 0 0.1730573255808272 0.02268781650565178 0 0.1620242678869008 0.02102957209859084 0 0.1716695151525548 0.011722155214289249 0 0.1620242678869008 0.02102957209859084 0 0.1716695151525548 0.011722155214289249 0 0.15871689523486121 0.010399441389301141 0 0.1716695151525548 0.011722155214289249 0 0.15871689523486121 0.010399441389301141 0 0.1628037813635097 0.0015330777282007481 0 0.15871689523486121 0.010399441389301141 0 0.1628037813635097 0.0015330777282007481 0 0.15453230216132671 0.0032055715019124438 0 0.1716695151525548 0.011722155214289249 0 0.1628037813635097 0.0015330777282007481 0 0.17506184651935949 -0.0021247232161890161 0 0.1620242678869008 0.02102957209859084 0 0.14216046477152491 0.0049125148476896544 0 0.15871689523486121 0.010399441389301141 0 0.14216046477152491 0.0049125148476896544 0 0.15453230216132671 0.0032055715019124438 0 0.14216046477152491 0.0049125148476896544 0 0.15453230216132671 0.0032055715019124438 0 0.15849764294065671 -0.0060544572746906826 0 0.1620242678869008 0.02102957209859084 0 0.15871689523486121 0.010399441389301141 0 0.14216046477152491 0.0049125148476896544 0 0.1620242678869008 0.02102957209859084 0 0.14216046477152491 0.0049125148476896544 0 0.1432298655490542 0.02239521632663263 0 0.1620242678869008 0.02102957209859084 0 0.1432298655490542 0.02239521632663263 0 0.15032019737810451 0.03113296745297477 0 0.1432298655490542 0.02239521632663263 0 0.15032019737810451 0.03113296745297477 0 0.1366405524080008 0.032741533152345258 0 0.1432298655490542 0.02239521632663263 0 0.12659142849079691 0.028091664155532971 0 0.1366405524080008 0.032741533152345258 0 0.14216046477152491 0.0049125148476896544 0 0.1432298655490542 0.02239521632663263 0 0.12659142849079691 0.028091664155532971 0 0.14216046477152491 0.0049125148476896544 0 0.12659142849079691 0.028091664155532971 0 0.1323442420055404 0.014884056975098 0 0.14216046477152491 0.0049125148476896544 0 0.12659142849079691 0.028091664155532971 0 0.11882011836095251 0.0065886106746579649 0 0.12659142849079691 0.028091664155532971 0 0.1323442420055404 0.014884056975098 0 0.12659142849079691 0.028091664155532971 0 0.1366405524080008 0.032741533152345258 0 0.11882011836095251 0.0065886106746579649 0 0.1323442420055404 0.014884056975098 0 0.13735218555535891 0.001011181807127467 0 0.1323442420055404 0.014884056975098 0 0.13735218555535891 0.001011181807127467 0 0.14216046477152491 0.0049125148476896544 0 0.1323442420055404 0.014884056975098 0 0.13735218555535891 0.001011181807127467 0 0.14216046477152491 0.0049125148476896544 0 0.13735218555535891 0.001011181807127467 0 0.15962551614652079 0.053115759904931073 0 0.1452456698728295 0.044396077507560729 0 0.15045482833334159 0.067212260357143019 0 0.1452456698728295 0.044396077507560729 0 0.12683439495817461 0.052003073372435288 0 0.15045482833334159 0.067212260357143019 0 0.1636569447874848 0.036789081642687432 0 0.15032019737810451 0.03113296745297477 0 0.1452456698728295 0.044396077507560729 0 0.1636569447874848 0.036789081642687432 0 0.15962551614652079 0.053115759904931073 0 0.1452456698728295 0.044396077507560729 0 0.1636569447874848 0.036789081642687432 0 0.1452456698728295 0.044396077507560729 0 0.15032019737810451 0.03113296745297477 0 0.1452456698728295 0.044396077507560729 0 0.1366405524080008 0.032741533152345258 0 0.1452456698728295 0.044396077507560729 0 0.13015300311198849 0.040381385354086502 0 0.12683439495817461 0.052003073372435288 0 0.1452456698728295 0.044396077507560729 0 0.1366405524080008 0.032741533152345258 0 0.13015300311198849 0.040381385354086502 0 0.12659142849079691 0.028091664155532971 0 0.1366405524080008 0.032741533152345258 0 0.13015300311198849 0.040381385354086502 0 0.12683439495817461 0.052003073372435288 0 0.13134854049252651 0.064566646620811727 0 0.15045482833334159 0.067212260357143019 0 0.1452456698728295 0.044396077507560729 0 0.12683439495817461 0.052003073372435288 0 0.12683439495817461 0.052003073372435288 0 0.15045482833334159 0.067212260357143019 0 0.1213053233293625 0.063977455960140386 0 0.12683439495817461 0.052003073372435288 0 0.13134854049252651 0.064566646620811727 0 0.13134854049252651 0.064566646620811727 0 0.12679961534922851 0.075073796793526271 0 0.15045482833334159 0.067212260357143019 0 0.1213053233293625 0.063977455960140386 0 0.13134854049252651 0.064566646620811727 0 0.12679961534922851 0.075073796793526271 0 0.12679961534922851 0.075073796793526271 0 0.15045482833334159 0.067212260357143019 0 0.1492815716532653 0.085445809678383625 0 0.1185648575779607 0.095458187827811403 0 0.12679961534922851 0.075073796793526271 0 0.13332649773741079 0.089989738391902788 0 0.1492815716532653 0.085445809678383625 0 0.13332649773741079 0.089989738391902788 0 0.13865994636918871 0.10398115926788989 0 0.12679961534922851 0.075073796793526271 0 0.1492815716532653 0.085445809678383625 0 0.12679961534922851 0.075073796793526271 0 0.1492815716532653 0.085445809678383625 0 0.13332649773741079 0.089989738391902788 0 0.123281054128593 0.11724462113534739 0 0.1185648575779607 0.095458187827811403 0 0.13865994636918871 0.10398115926788989 0 0.1185648575779607 0.095458187827811403 0 0.13332649773741079 0.089989738391902788 0 0.13865994636918871 0.10398115926788989 0 0.123281054128593 0.11724462113534739 0 0.13865994636918871 0.10398115926788989 0 0.13947052033133081 0.1245003570974072 0 0.13947052033133081 0.1245003570974072 0 0.15026369300765779 0.1129544164764977 0 0.16718880021878149 0.12232812864365609 0 0.13947052033133081 0.1245003570974072 0 0.16718880021878149 0.12232812864365609 0 0.13865994636918871 0.10398115926788989 0 0.13947052033133081 0.1245003570974072 0 0.15026369300765779 0.1129544164764977 0 0.1492815716532653 0.085445809678383625 0 0.13865994636918871 0.10398115926788989 0 0.15573550511132991 0.1010080208970377 0 0.13865994636918871 0.10398115926788989 0 0.15026369300765779 0.1129544164764977 0 0.15573550511132991 0.1010080208970377 0 0.15573550511132991 0.1010080208970377 0 0.17176352795730221 0.095817822563241214 0 0.16718880021878149 0.12232812864365609 0 0.17176352795730221 0.095817822563241214 0 0.16718880021878149 0.12232812864365609 0 0.1492815716532653 0.085445809678383625 0 0.15573550511132991 0.1010080208970377 0 0.17176352795730221 0.095817822563241214 0 0.15026369300765779 0.1129544164764977 0 0.15573550511132991 0.1010080208970377 0 0.16718880021878149 0.12232812864365609 0 0.16718880021878149 0.12232812864365609 0 0.18422746814952201 0.1154148446289336 0 0.17176352795730221 0.095817822563241214 0 0.16718880021878149 0.12232812864365609 0 0.18422746814952201 0.1154148446289336 0 0.19370351113240411 0.1202502215829211 0 0.16718880021878149 0.12232812864365609 0 0.19370351113240411 0.1202502215829211 0 0.16718880021878149 0.12232812864365609 0 0.18422746814952201 0.1154148446289336 0 0.17176352795730221 0.095817822563241214 0 0.18422746814952201 0.1154148446289336 0 0.1860496622757298 0.1024087067025775 0 0.17176352795730221 0.095817822563241214 0 0.1860496622757298 0.1024087067025775 0 0.17954517331912459 0.085943521096986275 0 0.17176352795730221 0.095817822563241214 0 0.1860496622757298 0.1024087067025775 0 0.2016134769563831 0.087296750559026068 0 0.17954517331912459 0.085943521096986275 0 0.17506687063626211 0.076675125879817507 0 0.17176352795730221 0.095817822563241214 0 0.17407526170850959 0.082421447341849294 0 0.17176352795730221 0.095817822563241214 0 0.17954517331912459 0.085943521096986275 0 0.17407526170850959 0.082421447341849294 0 0.17954517331912459 0.085943521096986275 0 0.17407526170850959 0.082421447341849294 0 0.17506687063626211 0.076675125879817507 0 0.17407526170850959 0.082421447341849294 0 0.17506687063626211 0.076675125879817507 0 0.17954517331912459 0.085943521096986275 0 0.17407526170850959 0.082421447341849294 0 0.17847747081927551 0.05691087761465332 0 0.17506687063626211 0.076675125879817507 0 0.19220101611619109 0.069455466931817506 0 0.17847747081927551 0.05691087761465332 0 0.17506687063626211 0.076675125879817507 0 0.17847747081927551 0.05691087761465332 0 0.17506687063626211 0.076675125879817507 0 0.16641746421004469 0.065589342706300277 0 0.17407526170850959 0.082421447341849294 0 0.17506687063626211 0.076675125879817507 0 0.16846263511482451 0.074032689774956653 0 0.15045482833334159 0.067212260357143019 0 0.16846263511482451 0.074032689774956653 0 0.16641746421004469 0.065589342706300277 0 0.17506687063626211 0.076675125879817507 0 0.16846263511482451 0.074032689774956653 0 0.16641746421004469 0.065589342706300277 0 0.15045482833334159 0.067212260357143019 0 0.17407526170850959 0.082421447341849294 0 0.16846263511482451 0.074032689774956653 0 0.17506687063626211 0.076675125879817507 0 0.16846263511482451 0.074032689774956653 0 0.15045482833334159 0.067212260357143019 0 0.17407526170850959 0.082421447341849294 0 0.1492815716532653 0.085445809678383625 0 0.17176352795730221 0.095817822563241214 0 0.1492815716532653 0.085445809678383625 0 0.17176352795730221 0.095817822563241214 0 0.17407526170850959 0.082421447341849294 0 0.15045482833334159 0.067212260357143019 0 0.1492815716532653 0.085445809678383625 0 0.17407526170850959 0.082421447341849294 0 0.094789198081262169 0.47221984895451657 0 0.09870107108427445 0.5 0 0.1248616532684987 0.47476888169724352 0 0.09870107108427445 0.5 0 0.1248616532684987 0.47476888169724352 0 0.1287333349596296 0.50000000000000233 0 0.1248616532684987 0.47476888169724352 0 0.1154926134483955 0.45328817880533262 0 0.094789198081262169 0.47221984895451657 0 0.1248616532684987 0.47476888169724352 0 0.1154926134483955 0.45328817880533262 0 0.1248616532684987 0.47476888169724352 0 0.1205619018159948 0.44674810255646558 0 0.1248616532684987 0.47476888169724352 0 0.1154926134483955 0.45328817880533262 0 0.1205619018159948 0.44674810255646558 0 0.1154926134483955 0.45328817880533262 0 0.106123573628292 0.43180747591342172 0 0.1154926134483955 0.45328817880533262 0 0.1205619018159948 0.44674810255646558 0 0.106123573628292 0.43180747591342172 0 0.1154926134483955 0.45328817880533262 0 0.096722182691352548 0.44869154901932268 0 0.106123573628292 0.43180747591342172 0 0.094789198081262169 0.47221984895451657 0 0.1154926134483955 0.45328817880533262 0 0.096722182691352548 0.44869154901932268 0 0.094789198081262169 0.47221984895451657 0 0.077453222292990773 0.45016302493177879 0 0.067202034968243438 0.47028323083424428 0 0.094789198081262169 0.47221984895451657 0 0.096722182691352548 0.44869154901932268 0 0.077453222292990773 0.45016302493177879 0 0.096722182691352548 0.44869154901932268 0 0.077453222292990773 0.45016302493177879 0 0.085233479690329184 0.42595657570789891 0 0.077453222292990773 0.45016302493177879 0 0.085233479690329184 0.42595657570789891 0 0.077453222292990773 0.45016302493177879 0 0.055846149836862702 0.43889490050586683 0 0.065639666334966471 0.42409002317344818 0 0.077453222292990773 0.45016302493177879 0 0.067202034968243438 0.47028323083424428 0 0.051776939420019832 0.45519588853091181 0 0.094789198081262169 0.47221984895451657 0 0.067202034968243438 0.47028323083424428 0 0.068668807208919325 0.5 0 0.094789198081262169 0.47221984895451657 0 0.09870107108427445 0.5 0 0.068668807208919325 0.5 0 0.068668807208919325 0.5 0 0.043814234576468783 0.4752156274217324 0 0.038636543333564137 0.5 0 0.067202034968243438 0.47028323083424428 0 0.068668807208919325 0.5 0 0.043814234576468783 0.4752156274217324 0 0.038636543333564137 0.5 0 0.0095498935665802413 0.47810272379952351 0 0.0086042794582089632 0.5 0 0.043814234576468783 0.4752156274217324 0 0.038636543333564137 0.5 0 0.0095498935665802413 0.47810272379952351 0 0.043814234576468783 0.4752156274217324 0 0.0095498935665802413 0.47810272379952351 0 0.02936257191825143 0.45548825099001988 0 -0.0044763741368290672 0.43313315307665529 0 0.006403582431216831 0.45126676372832991 0 0.01131617767293759 0.43066417693356068 0 0.006403582431216831 0.45126676372832991 0 0.024585063983693121 0.43937755350337049 0 0.01131617767293759 0.43066417693356068 0 -0.0062093312902834459 0.46527566221073008 0 0.0095498935665802413 0.47810272379952351 0 0.006403582431216831 0.45126676372832991 0 0.0095498935665802413 0.47810272379952351 0 0.006403582431216831 0.45126676372832991 0 0.02936257191825143 0.45548825099001988 0 0.02936257191825143 0.45548825099001988 0 0.024585063983693121 0.43937755350337049 0 0.039439570502417587 0.44016889882154447 0 0.006403582431216831 0.45126676372832991 0 0.02936257191825143 0.45548825099001988 0 0.024585063983693121 0.43937755350337049 0 0.02936257191825143 0.45548825099001988 0 0.039439570502417587 0.44016889882154447 0 0.051776939420019832 0.45519588853091181 0 0.043814234576468783 0.4752156274217324 0 0.02936257191825143 0.45548825099001988 0 0.051776939420019832 0.45519588853091181 0 0.067202034968243438 0.47028323083424428 0 0.043814234576468783 0.4752156274217324 0 0.051776939420019832 0.45519588853091181 0 0.039439570502417587 0.44016889882154447 0 0.051776939420019832 0.45519588853091181 0 0.055846149836862702 0.43889490050586683 0 0.077453222292990773 0.45016302493177879 0 0.051776939420019832 0.45519588853091181 0 0.055846149836862702 0.43889490050586683 0 0.055846149836862702 0.43889490050586683 0 0.044352211855280779 0.42435697566478181 0 0.065639666334966471 0.42409002317344818 0 0.054179592762823331 0.4124556941646933 0 0.065774511826563423 0.40583773171119408 0 0.065639666334966471 0.42409002317344818 0 0.054179592762823331 0.4124556941646933 0 0.044352211855280779 0.42435697566478181 0 0.042551786202842029 0.40583695196884878 0 0.054179592762823331 0.4124556941646933 0 0.044352211855280779 0.42435697566478181 0 0.065639666334966471 0.42409002317344818 0 0.054179592762823331 0.4124556941646933 0 0.052579787594463898 0.40215678830519391 0 0.065774511826563423 0.40583773171119408 0 0.054179592762823331 0.4124556941646933 0 0.042551786202842029 0.40583695196884878 0 0.052579787594463898 0.40215678830519391 0 0.031615607723292562 0.41237007764590089 0 0.044352211855280779 0.42435697566478181 0 0.042551786202842029 0.40583695196884878 0 0.031615607723292562 0.41237007764590089 0 0.044352211855280779 0.42435697566478181 0 0.029348552931666359 0.42650056435783129 0 0.039439570502417587 0.44016889882154447 0 0.055846149836862702 0.43889490050586683 0 0.044352211855280779 0.42435697566478181 0 0.039439570502417587 0.44016889882154447 0 0.044352211855280779 0.42435697566478181 0 0.029348552931666359 0.42650056435783129 0 0.024585063983693121 0.43937755350337049 0 0.039439570502417587 0.44016889882154447 0 0.029348552931666359 0.42650056435783129 0 0.024585063983693121 0.43937755350337049 0 0.029348552931666359 0.42650056435783129 0 0.01131617767293759 0.43066417693356068 0 0.029348552931666359 0.42650056435783129 0 0.019479081626689841 0.41692126840220728 0 0.01131617767293759 0.43066417693356068 0 0.031615607723292562 0.41237007764590089 0 0.029348552931666359 0.42650056435783129 0 0.019479081626689841 0.41692126840220728 0 0.031615607723292562 0.41237007764590089 0 0.019479081626689841 0.41692126840220728 0 0.02210553341445062 0.40298972327242938 0 0.019479081626689841 0.41692126840220728 0 0.0046995574085186929 0.41194005205042061 0 0.02210553341445062 0.40298972327242938 0 0.019479081626689841 0.41692126840220728 0 0.0046995574085186929 0.41194005205042061 0 0.01131617767293759 0.43066417693356068 0 -0.0044763741368290672 0.43313315307665529 0 0.0046995574085186929 0.41194005205042061 0 0.01131617767293759 0.43066417693356068 0 -0.0068648610501423502 0.39382000907293813 0 0.0053185270157129726 0.37689571945341471 0 0.0079727676898529512 0.39395805239723503 0 0.0053185270157129726 0.37689571945341471 0 0.0079727676898529512 0.39395805239723503 0 0.017055050774382831 0.3783760363496293 0 0.0053185270157129726 0.37689571945341471 0 0.017055050774382831 0.3783760363496293 0 0.014905446519761849 0.37011919055753012 0 -0.0068648610501423502 0.39382000907293813 0 0.0046995574085186929 0.41194005205042061 0 0.0079727676898529512 0.39395805239723503 0 0.0046995574085186929 0.41194005205042061 0 0.0079727676898529512 0.39395805239723503 0 0.02210553341445062 0.40298972327242938 0 0.0079727676898529512 0.39395805239723503 0 0.02210553341445062 0.40298972327242938 0 0.02735486101880703 0.39232044610694311 0 0.031615607723292562 0.41237007764590089 0 0.02210553341445062 0.40298972327242938 0 0.03492587150599015 0.39714318271575322 0 0.02210553341445062 0.40298972327242938 0 0.02735486101880703 0.39232044610694311 0 0.03492587150599015 0.39714318271575322 0 0.0079727676898529512 0.39395805239723503 0 0.02735486101880703 0.39232044610694311 0 0.033420514628485373 0.38302977191180709 0 0.017055050774382831 0.3783760363496293 0 0.033420514628485373 0.38302977191180709 0 0.023779055828078009 0.37097747554075361 0 0.0079727676898529512 0.39395805239723503 0 0.017055050774382831 0.3783760363496293 0 0.033420514628485373 0.38302977191180709 0 0.0079727676898529512 0.39395805239723503 0 0.033420514628485373 0.38302977191180709 0 0.02735486101880703 0.39232044610694311 0 0.032859848824407727 0.38560668074253002 0 0.033420514628485373 0.38302977191180709 0 0.02735486101880703 0.39232044610694311 0 0.032859848824407727 0.38560668074253002 0 0.032844630049655758 0.3911952656019041 0 0.033420514628485373 0.38302977191180709 0 0.040531910439000007 0.38820627445006711 0 0.055078026168592691 0.37372917012189599 0 0.033420514628485373 0.38302977191180709 0 0.055078026168592691 0.37372917012189599 0 0.032859848824407727 0.38560668074253002 0 0.033420514628485373 0.38302977191180709 0 0.032859848824407727 0.38560668074253002 0 0.040531910439000007 0.38820627445006711 0 0.032844630049655758 0.3911952656019041 0 0.032859848824407727 0.38560668074253002 0 0.033420514628485373 0.38302977191180709 0 0.040531910439000007 0.38820627445006711 0 0.031615607723292562 0.41237007764590089 0 0.03492587150599015 0.39714318271575322 0 0.042551786202842029 0.40583695196884878 0 0.040531910439000007 0.38820627445006711 0 0.03492587150599015 0.39714318271575322 0 0.032844630049655758 0.3911952656019041 0 0.02735486101880703 0.39232044610694311 0 0.03492587150599015 0.39714318271575322 0 0.032844630049655758 0.3911952656019041 0 0.040531910439000007 0.38820627445006711 0 0.03492587150599015 0.39714318271575322 0 0.044409534997012647 0.39663533348309749 0 0.040531910439000007 0.38820627445006711 0 0.044409534997012647 0.39663533348309749 0 0.05145831924276717 0.38983346997562462 0 0.044409534997012647 0.39663533348309749 0 0.042551786202842029 0.40583695196884878 0 0.052579787594463898 0.40215678830519391 0 0.03492587150599015 0.39714318271575322 0 0.044409534997012647 0.39663533348309749 0 0.042551786202842029 0.40583695196884878 0 0.052579787594463898 0.40215678830519391 0 0.065929237187869999 0.38841376689227869 0 0.065774511826563423 0.40583773171119408 0 0.044409534997012647 0.39663533348309749 0 0.052579787594463898 0.40215678830519391 0 0.05145831924276717 0.38983346997562462 0 0.052579787594463898 0.40215678830519391 0 0.05145831924276717 0.38983346997562462 0 0.065929237187869999 0.38841376689227869 0 0.05145831924276717 0.38983346997562462 0 0.065929237187869999 0.38841376689227869 0 0.055078026168592691 0.37372917012189599 0 0.040531910439000007 0.38820627445006711 0 0.05145831924276717 0.38983346997562462 0 0.055078026168592691 0.37372917012189599 0 0.065929237187869999 0.38841376689227869 0 0.07065435961583541 0.37741521318853999 0 0.055078026168592691 0.37372917012189599 0 0.065929237187869999 0.38841376689227869 0 0.07065435961583541 0.37741521318853999 0 0.084874637398179506 0.3830893474080016 0 0.065929237187869999 0.38841376689227869 0 0.084874637398179506 0.3830893474080016 0 0.078183007061163587 0.39730645121706609 0 0.084874637398179506 0.3830893474080016 0 0.09301373708766289 0.40175012648401748 0 0.1017514530376761 0.37456476915266362 0 0.084874637398179506 0.3830893474080016 0 0.1017514530376761 0.37456476915266362 0 0.089894590955766338 0.37016501712229671 0 0.084874637398179506 0.3830893474080016 0 0.09301373708766289 0.40175012648401748 0 0.084874637398179506 0.3830893474080016 0 0.09301373708766289 0.40175012648401748 0 0.078183007061163587 0.39730645121706609 0 0.09301373708766289 0.40175012648401748 0 0.078183007061163587 0.39730645121706609 0 0.0779125114683729 0.4107996813321716 0 0.065929237187869999 0.38841376689227869 0 0.078183007061163587 0.39730645121706609 0 0.065774511826563423 0.40583773171119408 0 0.078183007061163587 0.39730645121706609 0 0.065774511826563423 0.40583773171119408 0 0.0779125114683729 0.4107996813321716 0 0.065774511826563423 0.40583773171119408 0 0.0779125114683729 0.4107996813321716 0 0.065639666334966471 0.42409002317344818 0 0.0779125114683729 0.4107996813321716 0 0.065639666334966471 0.42409002317344818 0 0.085233479690329184 0.42595657570789891 0 0.077453222292990773 0.45016302493177879 0 0.065639666334966471 0.42409002317344818 0 0.085233479690329184 0.42595657570789891 0 0.09301373708766289 0.40175012648401748 0 0.085233479690329184 0.42595657570789891 0 0.09301373708766289 0.40175012648401748 0 0.0779125114683729 0.4107996813321716 0 0.085233479690329184 0.42595657570789891 0 0.09301373708766289 0.40175012648401748 0 0.085233479690329184 0.42595657570789891 0 0.096641093798834857 0.4103746730739769 0 0.096641093798834857 0.4103746730739769 0 0.106123573628292 0.43180747591342172 0 0.096641093798834857 0.4103746730739769 0 0.1162621503634904 0.41872732341568758 0 0.11303311796937431 0.39768424579749467 0 0.096641093798834857 0.4103746730739769 0 0.106123573628292 0.43180747591342172 0 0.1162621503634904 0.41872732341568758 0 0.096641093798834857 0.4103746730739769 0 0.1162621503634904 0.41872732341568758 0 0.085233479690329184 0.42595657570789891 0 0.096641093798834857 0.4103746730739769 0 0.106123573628292 0.43180747591342172 0 0.096722182691352548 0.44869154901932268 0 0.085233479690329184 0.42595657570789891 0 0.106123573628292 0.43180747591342172 0 0.1205619018159948 0.44674810255646558 0 0.1162621503634904 0.41872732341568758 0 0.1205619018159948 0.44674810255646558 0 0.106123573628292 0.43180747591342172 0 0.1162621503634904 0.41872732341568758 0 0.1162621503634904 0.41872732341568758 0 0.11303311796937431 0.39768424579749467 0 0.11303311796937431 0.39768424579749467 0 0.1231373165426977 0.3806134049577457 0 0.1271742827044339 0.39597619803598749 0 0.1162621503634904 0.41872732341568758 0 0.11303311796937431 0.39768424579749467 0 0.1271742827044339 0.39597619803598749 0 0.11303311796937431 0.39768424579749467 0 0.1098040855752573 0.37664116817930182 0 0.11303311796937431 0.39768424579749467 0 0.1098040855752573 0.37664116817930182 0 0.1231373165426977 0.3806134049577457 0 0.09301373708766289 0.40175012648401748 0 0.10162794664532369 0.38287681265592 0 0.1017514530376761 0.37456476915266362 0 0.11303311796937431 0.39768424579749467 0 0.1098040855752573 0.37664116817930182 0 0.10162794664532369 0.38287681265592 0 0.09301373708766289 0.40175012648401748 0 0.1017514530376761 0.37456476915266362 0 0.09301373708766289 0.40175012648401748 0 0.096641093798834857 0.4103746730739769 0 0.10162794664532369 0.38287681265592 0 0.096641093798834857 0.4103746730739769 0 0.10162794664532369 0.38287681265592 0 0.096641093798834857 0.4103746730739769 0 0.11303311796937431 0.39768424579749467 0 0.10162794664532369 0.38287681265592 0 0.09301373708766289 0.40175012648401748 0 0.096641093798834857 0.4103746730739769 0 0.10657505318114149 0.3555980905611088 0 0.1040837309638282 0.33936254988137232 0 0.10657505318114149 0.3555980905611088 0 0.096269577202366938 0.34885221845001108 0 0.090674694454237537 0.35844253683721511 0 0.10657505318114149 0.3555980905611088 0 0.1081370103155585 0.34698533999968961 0 0.1040837309638282 0.33936254988137232 0 0.10657505318114149 0.3555980905611088 0 0.096269577202366938 0.34885221845001108 0 0.1040837309638282 0.33936254988137232 0 0.10657505318114149 0.3555980905611088 0 0.1081370103155585 0.34698533999968961 0 0.1081370103155585 0.34698533999968961 0 0.1105857944332822 0.35159063999376577 0 0.10657505318114149 0.3555980905611088 0 0.1081370103155585 0.34698533999968961 0 0.1105857944332822 0.35159063999376577 0 0.10657505318114149 0.3555980905611088 0 0.097223947907205094 0.36469260341832099 0 0.090674694454237537 0.35844253683721511 0 0.1098040855752573 0.37664116817930182 0 0.10657505318114149 0.3555980905611088 0 0.1098040855752573 0.37664116817930182 0 0.10162794664532369 0.38287681265592 0 0.10657505318114149 0.3555980905611088 0 0.10657505318114149 0.3555980905611088 0 0.097223947907205094 0.36469260341832099 0 0.1017514530376761 0.37456476915266362 0 0.10162794664532369 0.38287681265592 0 0.10657505318114149 0.3555980905611088 0 0.10162794664532369 0.38287681265592 0 0.10657505318114149 0.3555980905611088 0 0.1017514530376761 0.37456476915266362 0 0.097223947907205094 0.36469260341832099 0 0.1017514530376761 0.37456476915266362 0 0.089894590955766338 0.37016501712229671 0 0.1231373165426977 0.3806134049577457 0 0.1176766025370503 0.36283148293627721 0 0.13271547193899449 0.36524458735671972 0 0.1098040855752573 0.37664116817930182 0 0.10657505318114149 0.3555980905611088 0 0.1176766025370503 0.36283148293627721 0 0.1098040855752573 0.37664116817930182 0 0.1231373165426977 0.3806134049577457 0 0.1176766025370503 0.36283148293627721 0 0.1176766025370503 0.36283148293627721 0 0.1232256624926347 0.35239419723674059 0 0.13271547193899449 0.36524458735671972 0 0.10657505318114149 0.3555980905611088 0 0.1176766025370503 0.36283148293627721 0 0.1105857944332822 0.35159063999376577 0 0.1176766025370503 0.36283148293627721 0 0.1232256624926347 0.35239419723674059 0 0.1105857944332822 0.35159063999376577 0 0.1081370103155585 0.34698533999968961 0 0.1105857944332822 0.35159063999376577 0 0.1168368962248217 0.34531303274388031 0 0.1232256624926347 0.35239419723674059 0 0.1105857944332822 0.35159063999376577 0 0.1168368962248217 0.34531303274388031 0 0.1232256624926347 0.35239419723674059 0 0.1168368962248217 0.34531303274388031 0 0.1260676383484185 0.3399282146226113 0 0.1081370103155585 0.34698533999968961 0 0.1173014636805894 0.33730338313169689 0 0.1117137236550247 0.32726307032677399 0 0.1081370103155585 0.34698533999968961 0 0.1117137236550247 0.32726307032677399 0 0.1168368962248217 0.34531303274388031 0 0.1173014636805894 0.33730338313169689 0 0.1260676383484185 0.3399282146226113 0 0.1173014636805894 0.33730338313169689 0 0.12375204985912221 0.32702725796552912 0 0.1260676383484185 0.3399282146226113 0 0.1173014636805894 0.33730338313169689 0 0.12375204985912221 0.32702725796552912 0 0.1117137236550247 0.32726307032677399 0 0.1081370103155585 0.34698533999968961 0 0.1168368962248217 0.34531303274388031 0 0.1173014636805894 0.33730338313169689 0 0.1117137236550247 0.32726307032677399 0 0.11529043699448981 0.30754080065385803 0 0.1117137236550247 0.32726307032677399 0 0.1095765413243488 0.31862098055757049 0 0.11529043699448981 0.30754080065385803 0 0.1214195525311879 0.31440901896845502 0 0.1117137236550247 0.32726307032677399 0 0.11529043699448981 0.30754080065385803 0 0.1214195525311879 0.31440901896845502 0 0.12375204985912221 0.32702725796552912 0 0.12817088130983889 0.317450689473041 0 0.1214195525311879 0.31440901896845502 0 0.12375204985912221 0.32702725796552912 0 0.1117137236550247 0.32726307032677399 0 0.1040837309638282 0.33936254988137232 0 0.090103400857782137 0.31307047550514489 0 0.1040837309638282 0.33936254988137232 0 0.1025673515982234 0.32948055280164651 0 0.090103400857782137 0.31307047550514489 0 0.10278173829001019 0.3206216626476312 0 0.1025673515982234 0.32948055280164651 0 0.090103400857782137 0.31307047550514489 0 0.1095765413243488 0.31862098055757049 0 0.10278173829001019 0.3206216626476312 0 0.099947674014671917 0.31467323404701991 0 0.1095765413243488 0.31862098055757049 0 0.099947674014671917 0.31467323404701991 0 0.09732687347400408 0.30507295899279041 0 0.1117137236550247 0.32726307032677399 0 0.1095765413243488 0.31862098055757049 0 0.10278173829001019 0.3206216626476312 0 0.1117137236550247 0.32726307032677399 0 0.10278173829001019 0.3206216626476312 0 0.1025673515982234 0.32948055280164651 0 0.10278173829001019 0.3206216626476312 0 0.099947674014671917 0.31467323404701991 0 0.090103400857782137 0.31307047550514489 0 0.096269577202366938 0.34885221845001108 0 0.1040837309638282 0.33936254988137232 0 0.085896102217652828 0.34083244099607402 0 0.1081370103155585 0.34698533999968961 0 0.1117137236550247 0.32726307032677399 0 0.1040837309638282 0.33936254988137232 0 0.1081370103155585 0.34698533999968961 0 0.1040837309638282 0.33936254988137232 0 0.1117137236550247 0.32726307032677399 0 0.1040837309638282 0.33936254988137232 0 0.1025673515982234 0.32948055280164651 0 0.1040837309638282 0.33936254988137232 0 0.1025673515982234 0.32948055280164651 0 0.1040837309638282 0.33936254988137232 0 0.085896102217652828 0.34083244099607402 0 0.090103400857782137 0.31307047550514489 0 0.085896102217652828 0.34083244099607402 0 0.090103400857782137 0.31307047550514489 0 0.073944851781294785 0.32640562720437011 0 0.073944851781294785 0.32640562720437011 0 0.05926959110604698 0.32438382341666039 0 0.066452600317618793 0.30933520022964911 0 0.090103400857782137 0.31307047550514489 0 0.073944851781294785 0.32640562720437011 0 0.066452600317618793 0.30933520022964911 0 0.068002564407373206 0.3444061958743222 0 0.05926959110604698 0.32438382341666039 0 0.085896102217652828 0.34083244099607402 0 0.073944851781294785 0.32640562720437011 0 0.068002564407373206 0.3444061958743222 0 0.073944851781294785 0.32640562720437011 0 0.068002564407373206 0.3444061958743222 0 0.05926959110604698 0.32438382341666039 0 0.068002564407373206 0.3444061958743222 0 0.081709153938225559 0.35166937446406898 0 0.076735537708699481 0.364428568331984 0 0.068002564407373206 0.3444061958743222 0 0.076735537708699481 0.364428568331984 0 0.068002564407373206 0.3444061958743222 0 0.076735537708699481 0.364428568331984 0 0.058880509289504487 0.35752542115937253 0 0.085896102217652828 0.34083244099607402 0 0.068002564407373206 0.3444061958743222 0 0.081709153938225559 0.35166937446406898 0 0.081709153938225559 0.35166937446406898 0 0.090674694454237537 0.35844253683721511 0 0.076735537708699481 0.364428568331984 0 0.096269577202366938 0.34885221845001108 0 0.081709153938225559 0.35166937446406898 0 0.090674694454237537 0.35844253683721511 0 0.096269577202366938 0.34885221845001108 0 0.085896102217652828 0.34083244099607402 0 0.081709153938225559 0.35166937446406898 0 0.084874637398179506 0.3830893474080016 0 0.089894590955766338 0.37016501712229671 0 0.076735537708699481 0.364428568331984 0 0.084874637398179506 0.3830893474080016 0 0.076735537708699481 0.364428568331984 0 0.097223947907205094 0.36469260341832099 0 0.090674694454237537 0.35844253683721511 0 0.089894590955766338 0.37016501712229671 0 0.090674694454237537 0.35844253683721511 0 0.089894590955766338 0.37016501712229671 0 0.076735537708699481 0.364428568331984 0 0.090674694454237537 0.35844253683721511 0 0.076735537708699481 0.364428568331984 0 0.076735537708699481 0.364428568331984 0 0.055078026168592691 0.37372917012189599 0 0.058880509289504487 0.35752542115937253 0 0.07065435961583541 0.37741521318853999 0 0.084874637398179506 0.3830893474080016 0 0.076735537708699481 0.364428568331984 0 0.07065435961583541 0.37741521318853999 0 0.076735537708699481 0.364428568331984 0 0.055078026168592691 0.37372917012189599 0 0.076735537708699481 0.364428568331984 0 0.055078026168592691 0.37372917012189599 0 0.055078026168592691 0.37372917012189599 0 0.058880509289504487 0.35752542115937253 0 0.039125882353897343 0.35680699826087081 0 0.068002564407373206 0.3444061958743222 0 0.058880509289504487 0.35752542115937253 0 0.05148455776782021 0.34576385860545072 0 0.058880509289504487 0.35752542115937253 0 0.05148455776782021 0.34576385860545072 0 0.039125882353897343 0.35680699826087081 0 0.039125882353897343 0.35680699826087081 0 0.031548662582759998 0.36398682567210089 0 0.025752053585936779 0.33511492304397028 0 0.05148455776782021 0.34576385860545072 0 0.039125882353897343 0.35680699826087081 0 0.044831250079309708 0.3305842246099347 0 0.033420514628485373 0.38302977191180709 0 0.039125882353897343 0.35680699826087081 0 0.031548662582759998 0.36398682567210089 0 0.033420514628485373 0.38302977191180709 0 0.055078026168592691 0.37372917012189599 0 0.039125882353897343 0.35680699826087081 0 0.033420514628485373 0.38302977191180709 0 0.039125882353897343 0.35680699826087081 0 0.033420514628485373 0.38302977191180709 0 0.031548662582759998 0.36398682567210089 0 0.023779055828078009 0.37097747554075361 0 0.017055050774382831 0.3783760363496293 0 0.023779055828078009 0.37097747554075361 0 0.014905446519761849 0.37011919055753012 0 0.023779055828078009 0.37097747554075361 0 0.019349684376360511 0.36318206543595072 0 0.014905446519761849 0.37011919055753012 0 0.031548662582759998 0.36398682567210089 0 0.019349684376360511 0.36318206543595072 0 0.019690074755218789 0.35178644121934483 0 0.031548662582759998 0.36398682567210089 0 0.023779055828078009 0.37097747554075361 0 0.019349684376360511 0.36318206543595072 0 0.031548662582759998 0.36398682567210089 0 0.025752053585936779 0.33511492304397028 0 0.031548662582759998 0.36398682567210089 0 0.019690074755218789 0.35178644121934483 0 0.025752053585936779 0.33511492304397028 0 0.019349684376360511 0.36318206543595072 0 0.019690074755218789 0.35178644121934483 0 0.0119730942360182 0.35563939605115702 0 0.0119730942360182 0.35563939605115702 0 0.0038095970876644218 0.35606187191015221 0 0.0077169544749549623 0.36306791211952738 0 -0.0077202170519437719 0.34710906184019069 0 0.0082446038140756572 0.34376242611402219 0 0.0038095970876644218 0.35606187191015221 0 0.0119730942360182 0.35563939605115702 0 0.0082446038140756572 0.34376242611402219 0 0.0038095970876644218 0.35606187191015221 0 0.019690074755218789 0.35178644121934483 0 0.0119730942360182 0.35563939605115702 0 0.0082446038140756572 0.34376242611402219 0 -0.0045677851665312944 0.36532665559408428 0 0.0038095970876644218 0.35606187191015221 0 0.0077169544749549623 0.36306791211952738 0 -0.0087141207398781558 0.37710904293520409 0 0.0053185270157129726 0.37689571945341471 0 0.0077169544749549623 0.36306791211952738 0 0.0053185270157129726 0.37689571945341471 0 0.0077169544749549623 0.36306791211952738 0 0.014905446519761849 0.37011919055753012 0 0.019349684376360511 0.36318206543595072 0 0.0077169544749549623 0.36306791211952738 0 0.014905446519761849 0.37011919055753012 0 0.019349684376360511 0.36318206543595072 0 0.0119730942360182 0.35563939605115702 0 0.0077169544749549623 0.36306791211952738 0 -0.009249588209606344 0.30814111102660002 0 0.0094307060340404689 0.32376070079746733 0 0.01995544458911469 0.30624302041583928 0 -0.005758602284471958 0.33512988219008361 0 0.0082446038140756572 0.34376242611402219 0 0.0094307060340404689 0.32376070079746733 0 0.0082446038140756572 0.34376242611402219 0 0.0094307060340404689 0.32376070079746733 0 0.025752053585936779 0.33511492304397028 0 0.019690074755218789 0.35178644121934483 0 0.0082446038140756572 0.34376242611402219 0 0.025752053585936779 0.33511492304397028 0 0.025752053585936779 0.33511492304397028 0 0.01995544458911469 0.30624302041583928 0 0.025752053585936779 0.33511492304397028 0 0.034898059553693392 0.31581284699138767 0 0.01995544458911469 0.30624302041583928 0 0.0094307060340404689 0.32376070079746733 0 0.025752053585936779 0.33511492304397028 0 0.01995544458911469 0.30624302041583928 0 0.034898059553693392 0.31581284699138767 0 0.044831250079309708 0.3305842246099347 0 0.05053661780472133 0.30436145095899841 0 0.025752053585936779 0.33511492304397028 0 0.034898059553693392 0.31581284699138767 0 0.044831250079309708 0.3305842246099347 0 0.039125882353897343 0.35680699826087081 0 0.025752053585936779 0.33511492304397028 0 0.044831250079309708 0.3305842246099347 0 0.039125882353897343 0.35680699826087081 0 0.044831250079309708 0.3305842246099347 0 0.068002564407373206 0.3444061958743222 0 0.05148455776782021 0.34576385860545072 0 0.05926959110604698 0.32438382341666039 0 0.05148455776782021 0.34576385860545072 0 0.044831250079309708 0.3305842246099347 0 0.05926959110604698 0.32438382341666039 0 0.044831250079309708 0.3305842246099347 0 0.05053661780472133 0.30436145095899841 0 0.044831250079309708 0.3305842246099347 0 0.05926959110604698 0.32438382341666039 0 0.05053661780472133 0.30436145095899841 0 0.05926959110604698 0.32438382341666039 0 0.05053661780472133 0.30436145095899841 0 0.05926959110604698 0.32438382341666039 0 0.05053661780472133 0.30436145095899841 0 0.066452600317618793 0.30933520022964911 0 0.059204269303370749 0.30137448027593422 0 0.05053661780472133 0.30436145095899841 0 0.066452600317618793 0.30933520022964911 0 0.04765756321016474 0.29776054867416191 0 0.05053661780472133 0.30436145095899841 0 0.052561166870736087 0.29505630281458828 0 0.059204269303370749 0.30137448027593422 0 0.05053661780472133 0.30436145095899841 0 0.052561166870736087 0.29505630281458828 0 0.05053661780472133 0.30436145095899841 0 0.052561166870736087 0.29505630281458828 0 0.04765756321016474 0.29776054867416191 0 0.05053661780472133 0.30436145095899841 0 0.052561166870736087 0.29505630281458828 0 0.036977033779240318 0.28312664447104818 0 0.062988366650143207 0.29302398426469728 0 0.036977033779240318 0.28312664447104818 0 0.048149862160842181 0.27985089866820428 0 0.062988366650143207 0.29302398426469728 0 0.036977033779240318 0.28312664447104818 0 0.062988366650143207 0.29302398426469728 0 0.048149862160842181 0.27985089866820428 0 0.054778979573680928 0.27715841955607551 0 0.062988366650143207 0.29302398426469728 0 0.059204269303370749 0.30137448027593422 0 0.052561166870736087 0.29505630281458828 0 0.062988366650143207 0.29302398426469728 0 0.04765756321016474 0.29776054867416191 0 0.036186098738389023 0.29603891009636157 0 0.036977033779240318 0.28312664447104818 0 0.04765756321016474 0.29776054867416191 0 0.052561166870736087 0.29505630281458828 0 0.036977033779240318 0.28312664447104818 0 0.036186098738389023 0.29603891009636157 0 0.036977033779240318 0.28312664447104818 0 0.027757552790527541 0.29644954410470781 0 0.034898059553693392 0.31581284699138767 0 0.05053661780472133 0.30436145095899841 0 0.039754971674175903 0.30430037111620312 0 0.04765756321016474 0.29776054867416191 0 0.05053661780472133 0.30436145095899841 0 0.039754971674175903 0.30430037111620312 0 0.04765756321016474 0.29776054867416191 0 0.036186098738389023 0.29603891009636157 0 0.039754971674175903 0.30430037111620312 0 0.036186098738389023 0.29603891009636157 0 0.039754971674175903 0.30430037111620312 0 0.028740536311392211 0.30567206060121932 0 0.034898059553693392 0.31581284699138767 0 0.039754971674175903 0.30430037111620312 0 0.028740536311392211 0.30567206060121932 0 0.034898059553693392 0.31581284699138767 0 0.028740536311392211 0.30567206060121932 0 0.01995544458911469 0.30624302041583928 0 0.028740536311392211 0.30567206060121932 0 0.01995544458911469 0.30624302041583928 0 0.01995544458911469 0.30624302041583928 0 0.027757552790527541 0.29644954410470781 0 0.016928650534501429 0.29116708493907051 0 0.01995544458911469 0.30624302041583928 0 0.016928650534501429 0.29116708493907051 0 0.036186098738389023 0.29603891009636157 0 0.028740536311392211 0.30567206060121932 0 0.027757552790527541 0.29644954410470781 0 0.028740536311392211 0.30567206060121932 0 0.01995544458911469 0.30624302041583928 0 0.027757552790527541 0.29644954410470781 0 0.036977033779240318 0.28312664447104818 0 0.016928650534501429 0.29116708493907051 0 0.013901856479889301 0.2760911494623014 0 0.036977033779240318 0.28312664447104818 0 0.027757552790527541 0.29644954410470781 0 0.016928650534501429 0.29116708493907051 0 0.016928650534501429 0.29116708493907051 0 0.0075090435902615098 0.27971283806045072 0 0.013901856479889301 0.2760911494623014 0 0.016928650534501429 0.29116708493907051 0 0.013901856479889301 0.2760911494623014 0 0.016928650534501429 0.29116708493907051 0 0.002380999114604244 0.28599596302517022 0 0.0075090435902615098 0.27971283806045072 0 0.016928650534501429 0.29116708493907051 0 0.002380999114604244 0.28599596302517022 0 0.0038021096493471361 0.29689124930627131 0 0.01995544458911469 0.30624302041583928 0 0.016928650534501429 0.29116708493907051 0 0.0038021096493471361 0.29689124930627131 0 -0.009249588209606344 0.30814111102660002 0 0.01995544458911469 0.30624302041583928 0 -0.009249588209606344 0.30814111102660002 0 0.01995544458911469 0.30624302041583928 0 0.0038021096493471361 0.29689124930627131 0 0.012944211518790589 0.24639919126045251 0 0.001894876929373096 0.24743045501984201 0 0.027350481215018482 0.26092432701142793 0 0.001894876929373096 0.24743045501984201 0 0.01235577794179212 0.26160751525750708 0 0.027350481215018482 0.26092432701142793 0 0.001894876929373096 0.24743045501984201 0 0.027350481215018482 0.26092432701142793 0 0.01235577794179212 0.26160751525750708 0 0.0066431973405819862 0.26423936680728111 0 0.01332705073189009 0.26743114199411 0 0.001894876929373096 0.24743045501984201 0 0.01235577794179212 0.26160751525750708 0 0.0027594708259384838 0.25829047161104352 0 0.01235577794179212 0.26160751525750708 0 0.0027594708259384838 0.25829047161104352 0 0.0066431973405819862 0.26423936680728111 0 -0.00067809962666212902 0.26216505597133072 0 0.0027594708259384838 0.25829047161104352 0 0.0066431973405819862 0.26423936680728111 0 -0.00067809962666212902 0.26216505597133072 0 0.0066431973405819862 0.26423936680728111 0 0.010965700908337589 0.27322930467739909 0 -0.001267499687089951 0.2776013217203892 0 0.0075090435902615098 0.27971283806045072 0 0.010965700908337589 0.27322930467739909 0 -0.001267499687089951 0.2776013217203892 0 0.002380999114604244 0.28599596302517022 0 0.0075090435902615098 0.27971283806045072 0 0.0075090435902615098 0.27971283806045072 0 0.013901856479889301 0.2760911494623014 0 0.010965700908337589 0.27322930467739909 0 0.010965700908337589 0.27322930467739909 0 0.01332705073189009 0.26743114199411 0 0.022419763759722669 0.26962443384228668 0 0.0066431973405819862 0.26423936680728111 0 0.010965700908337589 0.27322930467739909 0 0.01332705073189009 0.26743114199411 0 0.036977033779240318 0.28312664447104818 0 0.010965700908337589 0.27322930467739909 0 0.022419763759722669 0.26962443384228668 0 0.01235577794179212 0.26160751525750708 0 0.01332705073189009 0.26743114199411 0 0.022419763759722669 0.26962443384228668 0 0.036977033779240318 0.28312664447104818 0 0.013901856479889301 0.2760911494623014 0 0.010965700908337589 0.27322930467739909 0 0.036977033779240318 0.28312664447104818 0 0.010965700908337589 0.27322930467739909 0 0.036977033779240318 0.28312664447104818 0 0.022419763759722669 0.26962443384228668 0 0.032397819765571212 0.27218151163944088 0 0.022419763759722669 0.26962443384228668 0 0.027350481215018482 0.26092432701142793 0 0.032397819765571212 0.27218151163944088 0 0.018629400856135309 0.24429501886194191 0 0.012944211518790589 0.24639919126045251 0 0.027350481215018482 0.26092432701142793 0 0.018629400856135309 0.24429501886194191 0 0.027350481215018482 0.26092432701142793 0 0.02692674034290404 0.25134916217479408 0 0.01235577794179212 0.26160751525750708 0 0.022419763759722669 0.26962443384228668 0 0.027350481215018482 0.26092432701142793 0 0.027350481215018482 0.26092432701142793 0 0.02692674034290404 0.25134916217479408 0 0.036501911092354018 0.25177276941539839 0 0.027350481215018482 0.26092432701142793 0 0.036501911092354018 0.25177276941539839 0 0.052806085500663583 0.27441819900301412 0 0.036501911092354018 0.25177276941539839 0 0.052806085500663583 0.27441819900301412 0 0.027350481215018482 0.26092432701142793 0 0.039536256484267153 0.27410031615862712 0 0.052806085500663583 0.27441819900301412 0 0.027350481215018482 0.26092432701142793 0 0.052806085500663583 0.27441819900301412 0 0.036977033779240318 0.28312664447104818 0 0.032397819765571212 0.27218151163944088 0 0.039536256484267153 0.27410031615862712 0 0.027350481215018482 0.26092432701142793 0 0.032397819765571212 0.27218151163944088 0 0.039536256484267153 0.27410031615862712 0 0.039536256484267153 0.27410031615862712 0 0.048149862160842181 0.27985089866820428 0 0.052806085500663583 0.27441819900301412 0 0.036977033779240318 0.28312664447104818 0 0.039536256484267153 0.27410031615862712 0 0.048149862160842181 0.27985089866820428 0 0.052806085500663583 0.27441819900301412 0 0.051790667069154861 0.2547103276228454 0 0.069466372585565969 0.27425949764399721 0 0.052806085500663583 0.27441819900301412 0 0.054778979573680928 0.27715841955607551 0 0.076123070751733898 0.28677840112891878 0 0.048149862160842181 0.27985089866820428 0 0.052806085500663583 0.27441819900301412 0 0.054778979573680928 0.27715841955607551 0 0.052806085500663583 0.27441819900301412 0 0.054778979573680928 0.27715841955607551 0 0.051790667069154861 0.2547103276228454 0 0.069466372585565969 0.27425949764399721 0 0.036501911092354018 0.25177276941539839 0 0.052806085500663583 0.27441819900301412 0 0.051790667069154861 0.2547103276228454 0 0.051790667069154861 0.2547103276228454 0 0.062472563593505302 0.26110660749064829 0 0.069466372585565969 0.27425949764399721 0 0.051790667069154861 0.2547103276228454 0 0.062472563593505302 0.26110660749064829 0 0.063392491700480919 0.2510828642249095 0 0.07090317009537217 0.25886987532900169 0 0.089645379702363526 0.25980927980688501 0 0.066829182329119829 0.26693814307945207 0 0.063392491700480919 0.2510828642249095 0 0.07090317009537217 0.25886987532900169 0 0.074261774750864804 0.25289133929391111 0 0.062472563593505302 0.26110660749064829 0 0.063392491700480919 0.2510828642249095 0 0.07090317009537217 0.25886987532900169 0 0.062472563593505302 0.26110660749064829 0 0.07090317009537217 0.25886987532900169 0 0.066829182329119829 0.26693814307945207 0 0.07090317009537217 0.25886987532900169 0 0.074261774750864804 0.25289133929391111 0 0.089645379702363526 0.25980927980688501 0 0.072073934872957782 0.23900016577853919 0 0.074261774750864804 0.25289133929391111 0 0.089645379702363526 0.25980927980688501 0 0.089645379702363526 0.25980927980688501 0 0.066829182329119829 0.26693814307945207 0 0.089645379702363526 0.25980927980688501 0 0.084738505220855201 0.27427167124983992 0 0.066829182329119829 0.26693814307945207 0 0.084738505220855201 0.27427167124983992 0 0.069466372585565969 0.27425949764399721 0 0.085077205623658711 0.29152493742801078 0 0.084738505220855201 0.27427167124983992 0 0.095910340366493346 0.28464594086445177 0 0.099818528257267281 0.27185690653089678 0 0.089645379702363526 0.25980927980688501 0 0.084738505220855201 0.27427167124983992 0 0.099818528257267281 0.27185690653089678 0 0.084738505220855201 0.27427167124983992 0 0.066829182329119829 0.26693814307945207 0 0.069466372585565969 0.27425949764399721 0 0.052806085500663583 0.27441819900301412 0 0.069466372585565969 0.27425949764399721 0 0.076123070751733898 0.28677840112891878 0 0.052806085500663583 0.27441819900301412 0 0.076123070751733898 0.28677840112891878 0 0.069466372585565969 0.27425949764399721 0 0.076123070751733898 0.28677840112891878 0 0.062472563593505302 0.26110660749064829 0 0.069466372585565969 0.27425949764399721 0 0.062472563593505302 0.26110660749064829 0 0.066829182329119829 0.26693814307945207 0 0.069466372585565969 0.27425949764399721 0 0.069466372585565969 0.27425949764399721 0 0.085077205623658711 0.29152493742801078 0 0.069466372585565969 0.27425949764399721 0 0.076123070751733898 0.28677840112891878 0 0.085077205623658711 0.29152493742801078 0 0.062988366650143207 0.29302398426469728 0 0.076123070751733898 0.28677840112891878 0 0.066452600317618793 0.30933520022964911 0 0.054778979573680928 0.27715841955607551 0 0.062988366650143207 0.29302398426469728 0 0.076123070751733898 0.28677840112891878 0 0.090103400857782137 0.31307047550514489 0 0.076123070751733898 0.28677840112891878 0 0.066452600317618793 0.30933520022964911 0 0.059204269303370749 0.30137448027593422 0 0.062988366650143207 0.29302398426469728 0 0.066452600317618793 0.30933520022964911 0 0.090103400857782137 0.31307047550514489 0 0.076123070751733898 0.28677840112891878 0 0.085077205623658711 0.29152493742801078 0 0.090103400857782137 0.31307047550514489 0 0.076123070751733898 0.28677840112891878 0 0.090103400857782137 0.31307047550514489 0 0.085077205623658711 0.29152493742801078 0 0.09732687347400408 0.30507295899279041 0 0.085077205623658711 0.29152493742801078 0 0.09732687347400408 0.30507295899279041 0 0.084738505220855201 0.27427167124983992 0 0.085077205623658711 0.29152493742801078 0 0.095910340366493346 0.28464594086445177 0 0.076123070751733898 0.28677840112891878 0 0.085077205623658711 0.29152493742801078 0 0.085077205623658711 0.29152493742801078 0 0.095910340366493346 0.28464594086445177 0 0.10018382130907411 0.29953286904093468 0 0.085077205623658711 0.29152493742801078 0 0.10018382130907411 0.29953286904093468 0 0.095910340366493346 0.28464594086445177 0 0.10809736708577181 0.28553666446189058 0 0.10018382130907411 0.29953286904093468 0 0.10809736708577181 0.28553666446189058 0 0.10018382130907411 0.29953286904093468 0 0.10959494141679089 0.29761357018739809 0 0.099947674014671917 0.31467323404701991 0 0.090103400857782137 0.31307047550514489 0 0.09732687347400408 0.30507295899279041 0 0.085077205623658711 0.29152493742801078 0 0.09732687347400408 0.30507295899279041 0 0.10018382130907411 0.29953286904093468 0 0.09732687347400408 0.30507295899279041 0 0.10018382130907411 0.29953286904093468 0 0.1055944182754792 0.3076919023112884 0 0.10018382130907411 0.29953286904093468 0 0.11529043699448981 0.30754080065385803 0 0.10959494141679089 0.29761357018739809 0 0.10018382130907411 0.29953286904093468 0 0.11529043699448981 0.30754080065385803 0 0.1095765413243488 0.31862098055757049 0 0.09732687347400408 0.30507295899279041 0 0.1055944182754792 0.3076919023112884 0 0.10018382130907411 0.29953286904093468 0 0.1055944182754792 0.3076919023112884 0 0.11529043699448981 0.30754080065385803 0 0.1095765413243488 0.31862098055757049 0 0.09732687347400408 0.30507295899279041 0 0.1095765413243488 0.31862098055757049 0 0.1055944182754792 0.3076919023112884 0 0.11529043699448981 0.30754080065385803 0 0.11529043699448981 0.30754080065385803 0 0.11637637905870279 0.30155283343175482 0 0.11810871752106521 0.30621928700195911 0 0.11529043699448981 0.30754080065385803 0 0.10959494141679089 0.29761357018739809 0 0.11637637905870279 0.30155283343175482 0 0.10959494141679089 0.29761357018739809 0 0.11637637905870279 0.30155283343175482 0 0.1164892219926046 0.29243334627748818 0 0.11529043699448981 0.30754080065385803 0 0.11637637905870279 0.30155283343175482 0 0.11637637905870279 0.30155283343175482 0 0.1222906650571363 0.2985709440566281 0 0.1164892219926046 0.29243334627748818 0 0.1222906650571363 0.2985709440566281 0 0.1206025954822835 0.30378795350269022 0 0.1243783730770044 0.30485679470236721 0 0.11637637905870279 0.30155283343175482 0 0.1222906650571363 0.2985709440566281 0 0.1206025954822835 0.30378795350269022 0 0.11637637905870279 0.30155283343175482 0 0.1206025954822835 0.30378795350269022 0 0.11810871752106521 0.30621928700195911 0 0.1206025954822835 0.30378795350269022 0 0.11810871752106521 0.30621928700195911 0 0.1213521300308707 0.30775440284793348 0 0.11529043699448981 0.30754080065385803 0 0.11810871752106521 0.30621928700195911 0 0.11930841490252821 0.30912172642276631 0 0.11810871752106521 0.30621928700195911 0 0.1213521300308707 0.30775440284793348 0 0.11930841490252821 0.30912172642276631 0 0.1243783730770044 0.30485679470236721 0 0.1213521300308707 0.30775440284793348 0 0.1244342991148414 0.30898461385241399 0 0.1206025954822835 0.30378795350269022 0 0.1243783730770044 0.30485679470236721 0 0.1213521300308707 0.30775440284793348 0 0.1214195525311879 0.31440901896845502 0 0.1244342991148414 0.30898461385241399 0 0.12900107104525951 0.30968741412501871 0 0.1214195525311879 0.31440901896845502 0 0.1213521300308707 0.30775440284793348 0 0.1244342991148414 0.30898461385241399 0 0.1214195525311879 0.31440901896845502 0 0.11529043699448981 0.30754080065385803 0 0.11930841490252821 0.30912172642276631 0 0.1214195525311879 0.31440901896845502 0 0.1213521300308707 0.30775440284793348 0 0.11930841490252821 0.30912172642276631 0 0.10809736708577181 0.28553666446189058 0 0.1164892219926046 0.29243334627748818 0 0.1210835213650209 0.28058702695229848 0 0.10809736708577181 0.28553666446189058 0 0.10959494141679089 0.29761357018739809 0 0.1164892219926046 0.29243334627748818 0 0.1222906650571363 0.2985709440566281 0 0.1164892219926046 0.29243334627748818 0 0.12596292383497329 0.28976449579057961 0 0.1164892219926046 0.29243334627748818 0 0.1210835213650209 0.28058702695229848 0 0.12596292383497329 0.28976449579057961 0 0.10809736708577181 0.28553666446189058 0 0.1210835213650209 0.28058702695229848 0 0.1147979612748997 0.2707881575742877 0 0.1210835213650209 0.28058702695229848 0 0.1147979612748997 0.2707881575742877 0 0.12791172371537049 0.26609555254785411 0 0.1147979612748997 0.2707881575742877 0 0.116065923487036 0.25155424759680489 0 0.099818528257267281 0.27185690653089678 0 0.1147979612748997 0.2707881575742877 0 0.116065923487036 0.25155424759680489 0 0.12791172371537049 0.26609555254785411 0 0.089645379702363526 0.25980927980688501 0 0.116065923487036 0.25155424759680489 0 0.089645379702363526 0.25980927980688501 0 0.116065923487036 0.25155424759680489 0 0.099818528257267281 0.27185690653089678 0 0.089645379702363526 0.25980927980688501 0 0.099818528257267281 0.27185690653089678 0 0.095910340366493346 0.28464594086445177 0 0.10809736708577181 0.28553666446189058 0 0.099818528257267281 0.27185690653089678 0 0.10809736708577181 0.28553666446189058 0 0.1147979612748997 0.2707881575742877 0 0.099818528257267281 0.27185690653089678 0 0.14627836463393121 0.26809473379089088 0 0.14256315404166739 0.2804585798755338 0 0.1332419302865058 0.27890394506169119 0 0.14627836463393121 0.26809473379089088 0 0.14256315404166739 0.2804585798755338 0 0.15383705453569649 0.27951082009548711 0 0.14627836463393121 0.26809473379089088 0 0.15383705453569649 0.27951082009548711 0 0.1609818760820641 0.2708255403471686 0 0.14248646727170791 0.24329921538672239 0 0.14627836463393121 0.26809473379089088 0 0.1631161995596529 0.25657386530356069 0 0.14248646727170791 0.24329921538672239 0 0.116065923487036 0.25155424759680489 0 0.12791172371537049 0.26609555254785411 0 0.14248646727170791 0.24329921538672239 0 0.14627836463393121 0.26809473379089088 0 0.12791172371537049 0.26609555254785411 0 0.14627836463393121 0.26809473379089088 0 0.12791172371537049 0.26609555254785411 0 0.1332419302865058 0.27890394506169119 0 0.1210835213650209 0.28058702695229848 0 0.12791172371537049 0.26609555254785411 0 0.1332419302865058 0.27890394506169119 0 0.1332419302865058 0.27890394506169119 0 0.12596292383497329 0.28976449579057961 0 0.13463915166403909 0.29011289163129678 0 0.1210835213650209 0.28058702695229848 0 0.1332419302865058 0.27890394506169119 0 0.12596292383497329 0.28976449579057961 0 0.1222906650571363 0.2985709440566281 0 0.12596292383497329 0.28976449579057961 0 0.12923992476061211 0.29615108028493942 0 0.12596292383497329 0.28976449579057961 0 0.12923992476061211 0.29615108028493942 0 0.13463915166403909 0.29011289163129678 0 0.13463915166403909 0.29011289163129678 0 0.13544399911061031 0.29845687749894129 0 0.1416447250157222 0.29544082675589128 0 0.12923992476061211 0.29615108028493942 0 0.13463915166403909 0.29011289163129678 0 0.13544399911061031 0.29845687749894129 0 0.14256315404166739 0.2804585798755338 0 0.1332419302865058 0.27890394506169119 0 0.13463915166403909 0.29011289163129678 0 0.1243783730770044 0.30485679470236721 0 0.1244342991148414 0.30898461385241399 0 0.12900107104525951 0.30968741412501871 0 0.1243783730770044 0.30485679470236721 0 0.12900107104525951 0.30968741412501871 0 0.1290658347258283 0.30205966601357243 0 0.12900107104525951 0.30968741412501871 0 0.1290658347258283 0.30205966601357243 0 0.1340409753043473 0.30463488541353972 0 0.1222906650571363 0.2985709440566281 0 0.1243783730770044 0.30485679470236721 0 0.1290658347258283 0.30205966601357243 0 0.1222906650571363 0.2985709440566281 0 0.12923992476061211 0.29615108028493942 0 0.1290658347258283 0.30205966601357243 0 0.12923992476061211 0.29615108028493942 0 0.1290658347258283 0.30205966601357243 0 0.13544399911061031 0.29845687749894129 0 0.13544399911061031 0.29845687749894129 0 0.14170706289926879 0.30357921339911909 0 0.1416447250157222 0.29544082675589128 0 0.13544399911061031 0.29845687749894129 0 0.1340409753043473 0.30463488541353972 0 0.14170706289926879 0.30357921339911909 0 0.1290658347258283 0.30205966601357243 0 0.13544399911061031 0.29845687749894129 0 0.1340409753043473 0.30463488541353972 0 0.13598458437900529 0.30983158877234418 0 0.14130712994747449 0.31140798331507108 0 0.14170706289926879 0.30357921339911909 0 0.12900107104525951 0.30968741412501871 0 0.1340409753043473 0.30463488541353972 0 0.13598458437900529 0.30983158877234418 0 0.1340409753043473 0.30463488541353972 0 0.13598458437900529 0.30983158877234418 0 0.14170706289926879 0.30357921339911909 0 0.13598458437900529 0.30983158877234418 0 0.14130712994747449 0.31140798331507108 0 0.13528824775885559 0.3155805734405937 0 0.12900107104525951 0.30968741412501871 0 0.13598458437900529 0.30983158877234418 0 0.13528824775885559 0.3155805734405937 0 0.1483486037307668 0.31106151759990119 0 0.14130712994747449 0.31140798331507108 0 0.14170706289926879 0.30357921339911909 0 0.1483486037307668 0.31106151759990119 0 0.14170706289926879 0.30357921339911909 0 0.1513591925520972 0.30423422291399321 0 0.14170706289926879 0.30357921339911909 0 0.14924189349128261 0.29698436464102829 0 0.1513591925520972 0.30423422291399321 0 0.14170706289926879 0.30357921339911909 0 0.14924189349128261 0.29698436464102829 0 0.1416447250157222 0.29544082675589128 0 0.1513591925520972 0.30423422291399321 0 0.15847128754916129 0.30901971199088751 0 0.1567398971697517 0.30020769771567818 0 0.14924189349128261 0.29698436464102829 0 0.1513591925520972 0.30423422291399321 0 0.1567398971697517 0.30020769771567818 0 0.1483486037307668 0.31106151759990119 0 0.1513591925520972 0.30423422291399321 0 0.15847128754916129 0.30901971199088751 0 0.1483486037307668 0.31106151759990119 0 0.15847128754916129 0.30901971199088751 0 0.1531779528472626 0.31690967251270458 0 0.14256315404166739 0.2804585798755338 0 0.15383705453569649 0.27951082009548711 0 0.14728728951424691 0.28871625735014939 0 0.14256315404166739 0.2804585798755338 0 0.13463915166403909 0.29011289163129678 0 0.14728728951424691 0.28871625735014939 0 0.14924189349128261 0.29698436464102829 0 0.14728728951424691 0.28871625735014939 0 0.1416447250157222 0.29544082675589128 0 0.13463915166403909 0.29011289163129678 0 0.14728728951424691 0.28871625735014939 0 0.1416447250157222 0.29544082675589128 0 0.14924189349128261 0.29698436464102829 0 0.1576814993112734 0.29111844862325259 0 0.1567398971697517 0.30020769771567818 0 0.14924189349128261 0.29698436464102829 0 0.14728728951424691 0.28871625735014939 0 0.1576814993112734 0.29111844862325259 0 0.15383705453569649 0.27951082009548711 0 0.14728728951424691 0.28871625735014939 0 0.1576814993112734 0.29111844862325259 0 0.15383705453569649 0.27951082009548711 0 0.1576814993112734 0.29111844862325259 0 0.16532030222413041 0.28061774918364429 0 0.1576814993112734 0.29111844862325259 0 0.1689979645595176 0.28949488405725932 0 0.16532030222413041 0.28061774918364429 0 0.1576814993112734 0.29111844862325259 0 0.1689979645595176 0.28949488405725932 0 0.16694561294494401 0.29968174040922901 0 0.1689979645595176 0.28949488405725932 0 0.16694561294494401 0.29968174040922901 0 0.17866142019044989 0.29199773726540068 0 0.1689979645595176 0.28949488405725932 0 0.17498255083596301 0.28300150235233201 0 0.16532030222413041 0.28061774918364429 0 0.1576814993112734 0.29111844862325259 0 0.1567398971697517 0.30020769771567818 0 0.16694561294494401 0.29968174040922901 0 0.15847128754916129 0.30901971199088751 0 0.1567398971697517 0.30020769771567818 0 0.16694561294494401 0.29968174040922901 0 0.16694561294494401 0.29968174040922901 0 0.17666858027807311 0.3015349886251833 0 0.1707678241303611 0.31259989648156872 0 0.15847128754916129 0.30901971199088751 0 0.16694561294494401 0.29968174040922901 0 0.1707678241303611 0.31259989648156872 0 0.17666858027807311 0.3015349886251833 0 0.18371952992762389 0.30785332357736089 0 0.1707678241303611 0.31259989648156872 0 0.16694561294494401 0.29968174040922901 0 0.17666858027807311 0.3015349886251833 0 0.17866142019044989 0.29199773726540068 0 0.17666858027807311 0.3015349886251833 0 0.18371952992762389 0.30785332357736089 0 0.1898902111984884 0.29891268329407239 0 0.18371952992762389 0.30785332357736089 0 0.1898902111984884 0.29891268329407239 0 0.17666858027807311 0.3015349886251833 0 0.17866142019044989 0.29199773726540068 0 0.1898902111984884 0.29891268329407239 0 0.17498255083596301 0.28300150235233201 0 0.17866142019044989 0.29199773726540068 0 0.1849298445554361 0.28099903695767547 0 0.1689979645595176 0.28949488405725932 0 0.17498255083596301 0.28300150235233201 0 0.17866142019044989 0.29199773726540068 0 0.17866142019044989 0.29199773726540068 0 0.18677859260729601 0.28760164196875848 0 0.1898902111984884 0.29891268329407239 0 0.17866142019044989 0.29199773726540068 0 0.18677859260729601 0.28760164196875848 0 0.1849298445554361 0.28099903695767547 0 0.1849298445554361 0.28099903695767547 0 0.17528279401001801 0.2714166079934146 0 0.19094745617081291 0.27038549871767581 0 0.17528279401001801 0.2714166079934146 0 0.18564289691528729 0.25868749876629671 0 0.19094745617081291 0.27038549871767581 0 0.17498255083596301 0.28300150235233201 0 0.1849298445554361 0.28099903695767547 0 0.17528279401001801 0.2714166079934146 0 0.17528279401001801 0.2714166079934146 0 0.16532030222413041 0.28061774918364429 0 0.1609818760820641 0.2708255403471686 0 0.17498255083596301 0.28300150235233201 0 0.17528279401001801 0.2714166079934146 0 0.16532030222413041 0.28061774918364429 0 0.17528279401001801 0.2714166079934146 0 0.1609818760820641 0.2708255403471686 0 0.1631161995596529 0.25657386530356069 0 0.15383705453569649 0.27951082009548711 0 0.16532030222413041 0.28061774918364429 0 0.1609818760820641 0.2708255403471686 0 0.14627836463393121 0.26809473379089088 0 0.1609818760820641 0.2708255403471686 0 0.1631161995596529 0.25657386530356069 0 0.16890701105638031 0.23504418317664161 0 0.1631161995596529 0.25657386530356069 0 0.18564289691528729 0.25868749876629671 0 0.17528279401001801 0.2714166079934146 0 0.1631161995596529 0.25657386530356069 0 0.18564289691528729 0.25868749876629671 0 0.1956251304139873 0.24830732682566101 0 0.18564289691528729 0.25868749876629671 0 0.20465537480646501 0.25892384109831479 0 0.18564289691528729 0.25868749876629671 0 0.19094745617081291 0.27038549871767581 0 0.20465537480646501 0.25892384109831479 0 0.2050239072751949 0.2492833193895482 0 0.1956251304139873 0.24830732682566101 0 0.20465537480646501 0.25892384109831479 0 0.19094745617081291 0.27038549871767581 0 0.20212350544635149 0.27452240688285762 0 0.1917381003592612 0.28136787577326228 0 0.1849298445554361 0.28099903695767547 0 0.19094745617081291 0.27038549871767581 0 0.1917381003592612 0.28136787577326228 0 0.19094745617081291 0.27038549871767581 0 0.20212350544635149 0.27452240688285762 0 0.20465537480646501 0.25892384109831479 0 0.21559138507808229 0.27635001083075639 0 0.2170338530129477 0.25958452376210089 0 0.2223889939606305 0.26849190584137572 0 0.20212350544635149 0.27452240688285762 0 0.2170338530129477 0.25958452376210089 0 0.20037669147028589 0.28371892366973078 0 0.2170338530129477 0.25958452376210089 0 0.20037669147028589 0.28371892366973078 0 0.21559138507808229 0.27635001083075639 0 0.2170338530129477 0.25958452376210089 0 0.20037669147028589 0.28371892366973078 0 0.20212350544635149 0.27452240688285762 0 0.20465537480646501 0.25892384109831479 0 0.21458810326103989 0.25029177234766842 0 0.20212350544635149 0.27452240688285762 0 0.2170338530129477 0.25958452376210089 0 0.21458810326103989 0.25029177234766842 0 0.20212350544635149 0.27452240688285762 0 0.21458810326103989 0.25029177234766842 0 0.2050239072751949 0.2492833193895482 0 0.20465537480646501 0.25892384109831479 0 0.21458810326103989 0.25029177234766842 0 0.20465537480646501 0.25892384109831479 0 0.21458810326103989 0.25029177234766842 0 0.23169913173193779 0.25404958449575432 0 0.22942687348362151 0.26728355318502178 0 0.24090080429007341 0.26281353644332878 0 0.23169913173193779 0.25404958449575432 0 0.2249153238939712 0.26221153605608138 0 0.22942687348362151 0.26728355318502178 0 0.2170338530129477 0.25958452376210089 0 0.2249153238939712 0.26221153605608138 0 0.2223889939606305 0.26849190584137572 0 0.2170338530129477 0.25958452376210089 0 0.23169913173193779 0.25404958449575432 0 0.2249153238939712 0.26221153605608138 0 0.2223889939606305 0.26849190584137572 0 0.2255322572178127 0.27738204478537232 0 0.22942687348362151 0.26728355318502178 0 0.2249153238939712 0.26221153605608138 0 0.2223889939606305 0.26849190584137572 0 0.22942687348362151 0.26728355318502178 0 0.21559138507808229 0.27635001083075639 0 0.2255322572178127 0.27738204478537232 0 0.21985426169801439 0.28935406669317137 0 0.21559138507808229 0.27635001083075639 0 0.2223889939606305 0.26849190584137572 0 0.2255322572178127 0.27738204478537232 0 0.2255322572178127 0.27738204478537232 0 0.23621117140834261 0.27732665952701641 0 0.23095623596381579 0.2876536505458 0 0.2255322572178127 0.27738204478537232 0 0.22942687348362151 0.26728355318502178 0 0.23621117140834261 0.27732665952701641 0 0.23621117140834261 0.27732665952701641 0 0.24818821145747599 0.27522177653690871 0 0.24090080429007341 0.26281353644332878 0 0.22942687348362151 0.26728355318502178 0 0.23621117140834261 0.27732665952701641 0 0.24090080429007341 0.26281353644332878 0 0.24818821145747599 0.27522177653690871 0 0.24090080429007341 0.26281353644332878 0 0.25530776412370298 0.26639583896058622 0 0.23995652529561701 0.25039133628829258 0 0.24090080429007341 0.26281353644332878 0 0.25404003316197471 0.25208422786308371 0 0.23169913173193779 0.25404958449575432 0 0.23995652529561701 0.25039133628829258 0 0.24090080429007341 0.26281353644332878 0 0.23765651747073049 0.31117848176507701 0 0.2454028482605469 0.29267792886045368 0 0.25114017462525878 0.31153615041935723 0 0.23765651747073049 0.31117848176507701 0 0.2454028482605469 0.29267792886045368 0 0.2283396740985745 0.30195705682751389 0 0.2454028482605469 0.29267792886045368 0 0.23095623596381579 0.2876536505458 0 0.2283396740985745 0.30195705682751389 0 0.23621117140834261 0.27732665952701641 0 0.24818821145747599 0.27522177653690871 0 0.2454028482605469 0.29267792886045368 0 0.23621117140834261 0.27732665952701641 0 0.2454028482605469 0.29267792886045368 0 0.23095623596381579 0.2876536505458 0 0.2255322572178127 0.27738204478537232 0 0.23095623596381579 0.2876536505458 0 0.21985426169801439 0.28935406669317137 0 0.23095623596381579 0.2876536505458 0 0.21985426169801439 0.28935406669317137 0 0.2283396740985745 0.30195705682751389 0 0.2283396740985745 0.30195705682751389 0 0.2184758680590754 0.31184724711422762 0 0.22801070301179061 0.32060690690137728 0 0.21985426169801439 0.28935406669317137 0 0.2283396740985745 0.30195705682751389 0 0.21670572119465931 0.30172893354768798 0 0.23765651747073049 0.31117848176507701 0 0.2283396740985745 0.30195705682751389 0 0.22801070301179061 0.32060690690137728 0 0.2283396740985745 0.30195705682751389 0 0.2184758680590754 0.31184724711422762 0 0.21670572119465931 0.30172893354768798 0 0.2184758680590754 0.31184724711422762 0 0.21670572119465931 0.30172893354768798 0 0.20632342479934371 0.30585855598863948 0 0.21670572119465931 0.30172893354768798 0 0.20632342479934371 0.30585855598863948 0 0.21141614329998781 0.29390938293380992 0 0.20632342479934371 0.30585855598863948 0 0.21141614329998781 0.29390938293380992 0 0.2042452804315445 0.29308429151921322 0 0.21559138507808229 0.27635001083075639 0 0.21985426169801439 0.28935406669317137 0 0.2104384150331686 0.28649738738125968 0 0.21985426169801439 0.28935406669317137 0 0.21141614329998781 0.29390938293380992 0 0.2104384150331686 0.28649738738125968 0 0.21985426169801439 0.28935406669317137 0 0.21670572119465931 0.30172893354768798 0 0.21141614329998781 0.29390938293380992 0 0.21141614329998781 0.29390938293380992 0 0.2042452804315445 0.29308429151921322 0 0.2104384150331686 0.28649738738125968 0 0.2042452804315445 0.29308429151921322 0 0.2104384150331686 0.28649738738125968 0 0.20037669147028589 0.28371892366973078 0 0.21559138507808229 0.27635001083075639 0 0.2104384150331686 0.28649738738125968 0 0.20037669147028589 0.28371892366973078 0 0.20212350544635149 0.27452240688285762 0 0.20037669147028589 0.28371892366973078 0 0.1898902111984884 0.29891268329407239 0 0.18677859260729601 0.28760164196875848 0 0.1917381003592612 0.28136787577326228 0 0.1898902111984884 0.29891268329407239 0 0.20037669147028589 0.28371892366973078 0 0.1976595376627992 0.29976589533378561 0 0.1898902111984884 0.29891268329407239 0 0.2042452804315445 0.29308429151921322 0 0.20037669147028589 0.28371892366973078 0 0.1976595376627992 0.29976589533378561 0 0.20212350544635149 0.27452240688285762 0 0.1898902111984884 0.29891268329407239 0 0.20212350544635149 0.27452240688285762 0 0.1917381003592612 0.28136787577326228 0 0.1898902111984884 0.29891268329407239 0 0.20037669147028589 0.28371892366973078 0 0.1898902111984884 0.29891268329407239 0 0.18677859260729601 0.28760164196875848 0 0.1849298445554361 0.28099903695767547 0 0.1917381003592612 0.28136787577326228 0 0.20632342479934371 0.30585855598863948 0 0.19412409721151189 0.30848045781950378 0 0.19635424873152091 0.31866253726922511 0 0.20632342479934371 0.30585855598863948 0 0.1976595376627992 0.29976589533378561 0 0.19412409721151189 0.30848045781950378 0 0.20632342479934371 0.30585855598863948 0 0.2042452804315445 0.29308429151921322 0 0.1976595376627992 0.29976589533378561 0 0.18371952992762389 0.30785332357736089 0 0.1976595376627992 0.29976589533378561 0 0.1898902111984884 0.29891268329407239 0 0.18371952992762389 0.30785332357736089 0 0.19412409721151189 0.30848045781950378 0 0.19635424873152091 0.31866253726922511 0 0.18371952992762389 0.30785332357736089 0 0.1976595376627992 0.29976589533378561 0 0.19412409721151189 0.30848045781950378 0 0.19635424873152091 0.31866253726922511 0 0.19329834396814641 0.33328399686629978 0 0.21150607161232149 0.3245036863190196 0 0.19635424873152091 0.31866253726922511 0 0.19329834396814641 0.33328399686629978 0 0.1818581672390053 0.32281790922797782 0 0.19329834396814641 0.33328399686629978 0 0.20841238186686439 0.34472105417207632 0 0.1876990638134575 0.35190483133425488 0 0.19329834396814641 0.33328399686629978 0 0.21150607161232149 0.3245036863190196 0 0.20841238186686439 0.34472105417207632 0 0.21150607161232149 0.3245036863190196 0 0.22736457019319431 0.33776348264759248 0 0.20841238186686439 0.34472105417207632 0 0.20632342479934371 0.30585855598863948 0 0.19635424873152091 0.31866253726922511 0 0.21150607161232149 0.3245036863190196 0 0.2184758680590754 0.31184724711422762 0 0.20632342479934371 0.30585855598863948 0 0.21150607161232149 0.3245036863190196 0 0.21150607161232149 0.3245036863190196 0 0.22801070301179061 0.32060690690137728 0 0.22736457019319431 0.33776348264759248 0 0.2184758680590754 0.31184724711422762 0 0.21150607161232149 0.3245036863190196 0 0.22801070301179061 0.32060690690137728 0 0.22801070301179061 0.32060690690137728 0 0.22736457019319431 0.33776348264759248 0 0.24490867605631639 0.32967072069511189 0 0.22736457019319431 0.33776348264759248 0 0.24490867605631639 0.32967072069511189 0 0.24521693247762111 0.35027114815259558 0 0.23765651747073049 0.31117848176507701 0 0.22801070301179061 0.32060690690137728 0 0.24490867605631639 0.32967072069511189 0 0.23765651747073049 0.31117848176507701 0 0.24490867605631639 0.32967072069511189 0 0.25114017462525878 0.31153615041935723 0 0.24305895760768401 0.36641304215893011 0 0.24521693247762111 0.35027114815259558 0 0.22613265613425179 0.35680737964537468 0 0.22736457019319431 0.33776348264759248 0 0.24521693247762111 0.35027114815259558 0 0.22613265613425179 0.35680737964537468 0 0.22736457019319431 0.33776348264759248 0 0.22613265613425179 0.35680737964537468 0 0.20841238186686439 0.34472105417207632 0 0.22613265613425179 0.35680737964537468 0 0.20200890290724041 0.36500873302905812 0 0.22860253219506471 0.37841014948266538 0 0.24305895760768401 0.36641304215893011 0 0.22613265613425179 0.35680737964537468 0 0.22860253219506471 0.37841014948266538 0 0.20200890290724041 0.36500873302905812 0 0.22860253219506471 0.37841014948266538 0 0.22613265613425179 0.35680737964537468 0 0.20841238186686439 0.34472105417207632 0 0.20200890290724041 0.36500873302905812 0 0.20841238186686439 0.34472105417207632 0 0.1876990638134575 0.35190483133425488 0 0.20200890290724041 0.36500873302905812 0 0.1876990638134575 0.35190483133425488 0 0.20200890290724041 0.36500873302905812 0 0.17637045729064621 0.37495278481954358 0 0.1876990638134575 0.35190483133425488 0 0.17637045729064621 0.37495278481954358 0 0.16909864488713719 0.35514267549568418 0 0.15975417249048229 0.36968310563447321 0 0.16909864488713719 0.35514267549568418 0 0.14990537096685039 0.36070173528474042 0 0.17637045729064621 0.37495278481954358 0 0.15975417249048229 0.36968310563447321 0 0.16909864488713719 0.35514267549568418 0 0.16909864488713719 0.35514267549568418 0 0.1770056519607103 0.33831974362286749 0 0.1619384281755652 0.34052596047808847 0 0.16909864488713719 0.35514267549568418 0 0.14990537096685039 0.36070173528474042 0 0.15416632756111201 0.34898696826244741 0 0.16909864488713719 0.35514267549568418 0 0.1619384281755652 0.34052596047808847 0 0.15416632756111201 0.34898696826244741 0 0.1876990638134575 0.35190483133425488 0 0.16909864488713719 0.35514267549568418 0 0.1770056519607103 0.33831974362286749 0 0.19329834396814641 0.33328399686629978 0 0.1770056519607103 0.33831974362286749 0 0.1818581672390053 0.32281790922797782 0 0.19329834396814641 0.33328399686629978 0 0.1876990638134575 0.35190483133425488 0 0.1770056519607103 0.33831974362286749 0 0.1770056519607103 0.33831974362286749 0 0.1818581672390053 0.32281790922797782 0 0.1657389141743941 0.32607447656151611 0 0.1818581672390053 0.32281790922797782 0 0.1707678241303611 0.31259989648156872 0 0.1657389141743941 0.32607447656151611 0 0.18371952992762389 0.30785332357736089 0 0.19635424873152091 0.31866253726922511 0 0.1818581672390053 0.32281790922797782 0 0.18371952992762389 0.30785332357736089 0 0.1818581672390053 0.32281790922797782 0 0.1707678241303611 0.31259989648156872 0 0.1707678241303611 0.31259989648156872 0 0.1657389141743941 0.32607447656151611 0 0.16084478468494731 0.31759224325908281 0 0.1657389141743941 0.32607447656151611 0 0.15632698434060879 0.32309477146443721 0 0.16084478468494731 0.31759224325908281 0 0.1657389141743941 0.32607447656151611 0 0.15632698434060879 0.32309477146443721 0 0.1534459738215358 0.33116830427909388 0 0.15847128754916129 0.30901971199088751 0 0.1707678241303611 0.31259989648156872 0 0.16084478468494731 0.31759224325908281 0 0.15847128754916129 0.30901971199088751 0 0.16084478468494731 0.31759224325908281 0 0.1531779528472626 0.31690967251270458 0 0.15632698434060879 0.32309477146443721 0 0.16084478468494731 0.31759224325908281 0 0.1531779528472626 0.31690967251270458 0 0.1770056519607103 0.33831974362286749 0 0.1657389141743941 0.32607447656151611 0 0.1619384281755652 0.34052596047808847 0 0.1657389141743941 0.32607447656151611 0 0.1619384281755652 0.34052596047808847 0 0.1534459738215358 0.33116830427909388 0 0.1619384281755652 0.34052596047808847 0 0.14537830609435001 0.34101383565047871 0 0.15416632756111201 0.34898696826244741 0 0.1619384281755652 0.34052596047808847 0 0.1534459738215358 0.33116830427909388 0 0.14537830609435001 0.34101383565047871 0 0.1534459738215358 0.33116830427909388 0 0.1427633336259623 0.33140140495610498 0 0.14842729617490411 0.32372916070978858 0 0.1534459738215358 0.33116830427909388 0 0.1427633336259623 0.33140140495610498 0 0.14537830609435001 0.34101383565047871 0 0.1427633336259623 0.33140140495610498 0 0.14537830609435001 0.34101383565047871 0 0.13654253772275141 0.33890423694427602 0 0.1483486037307668 0.31106151759990119 0 0.1531779528472626 0.31690967251270458 0 0.14487070829517959 0.31682928085866202 0 0.1531779528472626 0.31690967251270458 0 0.14842729617490411 0.32372916070978858 0 0.14487070829517959 0.31682928085866202 0 0.15632698434060879 0.32309477146443721 0 0.1534459738215358 0.33116830427909388 0 0.14842729617490411 0.32372916070978858 0 0.15632698434060879 0.32309477146443721 0 0.1531779528472626 0.31690967251270458 0 0.14842729617490411 0.32372916070978858 0 0.1427633336259623 0.33140140495610498 0 0.14842729617490411 0.32372916070978858 0 0.1402378637359267 0.32270884290342983 0 0.14842729617490411 0.32372916070978858 0 0.14487070829517959 0.31682928085866202 0 0.1402378637359267 0.32270884290342983 0 0.1483486037307668 0.31106151759990119 0 0.14130712994747449 0.31140798331507108 0 0.14487070829517959 0.31682928085866202 0 0.14130712994747449 0.31140798331507108 0 0.14487070829517959 0.31682928085866202 0 0.13528824775885559 0.3155805734405937 0 0.14487070829517959 0.31682928085866202 0 0.13528824775885559 0.3155805734405937 0 0.1402378637359267 0.32270884290342983 0 0.13528824775885559 0.3155805734405937 0 0.1330765722643745 0.32249408610517011 0 0.1402378637359267 0.32270884290342983 0 0.1330765722643745 0.32249408610517011 0 0.1402378637359267 0.32270884290342983 0 0.13309473665224339 0.33072661256584468 0 0.12375204985912221 0.32702725796552912 0 0.1330765722643745 0.32249408610517011 0 0.13309473665224339 0.33072661256584468 0 0.12375204985912221 0.32702725796552912 0 0.1330765722643745 0.32249408610517011 0 0.12817088130983889 0.317450689473041 0 0.13528824775885559 0.3155805734405937 0 0.1330765722643745 0.32249408610517011 0 0.12817088130983889 0.317450689473041 0 0.1214195525311879 0.31440901896845502 0 0.12900107104525951 0.30968741412501871 0 0.12817088130983889 0.317450689473041 0 0.12900107104525951 0.30968741412501871 0 0.13528824775885559 0.3155805734405937 0 0.12817088130983889 0.317450689473041 0 0.14537830609435001 0.34101383565047871 0 0.13654253772275141 0.33890423694427602 0 0.13685475473781181 0.34959577292381833 0 0.13654253772275141 0.33890423694427602 0 0.1260676383484185 0.3399282146226113 0 0.13685475473781181 0.34959577292381833 0 0.1427633336259623 0.33140140495610498 0 0.13654253772275141 0.33890423694427602 0 0.13309473665224339 0.33072661256584468 0 0.1427633336259623 0.33140140495610498 0 0.1402378637359267 0.32270884290342983 0 0.13309473665224339 0.33072661256584468 0 0.12375204985912221 0.32702725796552912 0 0.13309473665224339 0.33072661256584468 0 0.1260676383484185 0.3399282146226113 0 0.13654253772275141 0.33890423694427602 0 0.13309473665224339 0.33072661256584468 0 0.1260676383484185 0.3399282146226113 0 0.1232256624926347 0.35239419723674059 0 0.13685475473781181 0.34959577292381833 0 0.13271547193899449 0.36524458735671972 0 0.1232256624926347 0.35239419723674059 0 0.1260676383484185 0.3399282146226113 0 0.13685475473781181 0.34959577292381833 0 0.13685475473781181 0.34959577292381833 0 0.13271547193899449 0.36524458735671972 0 0.14990537096685039 0.36070173528474042 0 0.13271547193899449 0.36524458735671972 0 0.14727668153694909 0.37350977329143831 0 0.1384203385310763 0.3853027474406937 0 0.13271547193899449 0.36524458735671972 0 0.14727668153694909 0.37350977329143831 0 0.14990537096685039 0.36070173528474042 0 0.15975417249048229 0.36968310563447321 0 0.14727668153694909 0.37350977329143831 0 0.14990537096685039 0.36070173528474042 0 0.14537830609435001 0.34101383565047871 0 0.13685475473781181 0.34959577292381833 0 0.15416632756111201 0.34898696826244741 0 0.13685475473781181 0.34959577292381833 0 0.14990537096685039 0.36070173528474042 0 0.15416632756111201 0.34898696826244741 0 0.15196678808574959 0.39634912392256672 0 0.1402717845598023 0.40641241395674649 0 0.16129649351817349 0.40676751558544272 0 0.15196678808574959 0.39634912392256672 0 0.1384203385310763 0.3853027474406937 0 0.1402717845598023 0.40641241395674649 0 0.15196678808574959 0.39634912392256672 0 0.15611970777082879 0.38410855928095938 0 0.1384203385310763 0.3853027474406937 0 0.14727668153694909 0.37350977329143831 0 0.15611970777082879 0.38410855928095938 0 0.1384203385310763 0.3853027474406937 0 0.15975417249048229 0.36968310563447321 0 0.14727668153694909 0.37350977329143831 0 0.15611970777082879 0.38410855928095938 0 0.1231373165426977 0.3806134049577457 0 0.13271547193899449 0.36524458735671972 0 0.1384203385310763 0.3853027474406937 0 0.1231373165426977 0.3806134049577457 0 0.1384203385310763 0.3853027474406937 0 0.1271742827044339 0.39597619803598749 0 0.1384203385310763 0.3853027474406937 0 0.1271742827044339 0.39597619803598749 0 0.1402717845598023 0.40641241395674649 0 0.1162621503634904 0.41872732341568758 0 0.1271742827044339 0.39597619803598749 0 0.1402717845598023 0.40641241395674649 0 0.1162621503634904 0.41872732341568758 0 0.1402717845598023 0.40641241395674649 0 0.14380353536204241 0.43078456768362461 0 0.1162621503634904 0.41872732341568758 0 0.14380353536204241 0.43078456768362461 0 0.1205619018159948 0.44674810255646558 0 0.1162621503634904 0.41872732341568758 0 0.13914808732176639 0.43525501877606959 0 0.1162621503634904 0.41872732341568758 0 0.13914808732176639 0.43525501877606959 0 0.14380353536204241 0.43078456768362461 0 0.1402717845598023 0.40641241395674649 0 0.16129649351817349 0.40676751558544272 0 0.1583102357697074 0.42239552662274649 0 0.1402717845598023 0.40641241395674649 0 0.14380353536204241 0.43078456768362461 0 0.1583102357697074 0.42239552662274649 0 0.16129649351817349 0.40676751558544272 0 0.17483444504792359 0.42517132393635743 0 0.1767108048052333 0.40648620419478521 0 0.16129649351817349 0.40676751558544272 0 0.1583102357697074 0.42239552662274649 0 0.17483444504792359 0.42517132393635743 0 0.1583102357697074 0.42239552662274649 0 0.17483444504792359 0.42517132393635743 0 0.1713449203605947 0.44284181195156158 0 0.14380353536204241 0.43078456768362461 0 0.1713449203605947 0.44284181195156158 0 0.14380353536204241 0.43078456768362461 0 0.1583102357697074 0.42239552662274649 0 0.1713449203605947 0.44284181195156158 0 0.17483444504792359 0.42517132393635743 0 0.18216746451451801 0.43740730714955978 0 0.1713449203605947 0.44284181195156158 0 0.17483444504792359 0.42517132393635743 0 0.1713449203605947 0.44284181195156158 0 0.17483444504792359 0.42517132393635743 0 0.1894098998784805 0.41329321868770491 0 0.19020123220431809 0.42989189963497759 0 0.17483444504792359 0.42517132393635743 0 0.18216746451451801 0.43740730714955978 0 0.19020123220431809 0.42989189963497759 0 0.17483444504792359 0.42517132393635743 0 0.1767108048052333 0.40648620419478521 0 0.1894098998784805 0.41329321868770491 0 0.1767108048052333 0.40648620419478521 0 0.16971698500113649 0.39319336099264368 0 0.18829620058045249 0.39400560177177729 0 0.1767108048052333 0.40648620419478521 0 0.18829620058045249 0.39400560177177729 0 0.1894098998784805 0.41329321868770491 0 0.15196678808574959 0.39634912392256672 0 0.15611970777082879 0.38410855928095938 0 0.16971698500113649 0.39319336099264368 0 0.15196678808574959 0.39634912392256672 0 0.16129649351817349 0.40676751558544272 0 0.16971698500113649 0.39319336099264368 0 0.16129649351817349 0.40676751558544272 0 0.1767108048052333 0.40648620419478521 0 0.16971698500113649 0.39319336099264368 0 0.17637045729064621 0.37495278481954358 0 0.15975417249048229 0.36968310563447321 0 0.15611970777082879 0.38410855928095938 0 0.17637045729064621 0.37495278481954358 0 0.15611970777082879 0.38410855928095938 0 0.16971698500113649 0.39319336099264368 0 0.17637045729064621 0.37495278481954358 0 0.16971698500113649 0.39319336099264368 0 0.18829620058045249 0.39400560177177729 0 0.20200890290724041 0.36500873302905812 0 0.18829620058045249 0.39400560177177729 0 0.21022739730807871 0.38998636848418261 0 0.20200890290724041 0.36500873302905812 0 0.17637045729064621 0.37495278481954358 0 0.18829620058045249 0.39400560177177729 0 0.18829620058045249 0.39400560177177729 0 0.21022739730807871 0.38998636848418261 0 0.20498907662426999 0.40636669370009521 0 0.18829620058045249 0.39400560177177729 0 0.20498907662426999 0.40636669370009521 0 0.1894098998784805 0.41329321868770491 0 0.21022739730807871 0.38998636848418261 0 0.225418264115859 0.4045632601918206 0 0.20498907662426999 0.40636669370009521 0 0.20200890290724041 0.36500873302905812 0 0.21022739730807871 0.38998636848418261 0 0.22860253219506471 0.37841014948266538 0 0.21022739730807871 0.38998636848418261 0 0.22860253219506471 0.37841014948266538 0 0.225418264115859 0.4045632601918206 0 0.225418264115859 0.4045632601918206 0 0.2490748840761759 0.41447913741323361 0 0.25519616148288887 0.39181156593627298 0 0.22860253219506471 0.37841014948266538 0 0.225418264115859 0.4045632601918206 0 0.25519616148288887 0.39181156593627298 0 0.22860253219506471 0.37841014948266538 0 0.25519616148288887 0.39181156593627298 0 0.24305895760768401 0.36641304215893011 0 0.22860253219506471 0.37841014948266538 0 0.25519616148288887 0.39181156593627298 0 0.2490748840761759 0.41447913741323361 0 0.23040520055063371 0.42472223384156732 0 0.24517769652138269 0.43868647355565088 0 0.225418264115859 0.4045632601918206 0 0.2490748840761759 0.41447913741323361 0 0.23040520055063371 0.42472223384156732 0 0.225418264115859 0.4045632601918206 0 0.23040520055063371 0.42472223384156732 0 0.20794960100346549 0.42683021087399747 0 0.23040520055063371 0.42472223384156732 0 0.20794960100346549 0.42683021087399747 0 0.2229924843016429 0.43948176305630821 0 0.23040520055063371 0.42472223384156732 0 0.2229924843016429 0.43948176305630821 0 0.24517769652138269 0.43868647355565088 0 0.225418264115859 0.4045632601918206 0 0.20794960100346549 0.42683021087399747 0 0.20498907662426999 0.40636669370009521 0 0.20794960100346549 0.42683021087399747 0 0.20498907662426999 0.40636669370009521 0 0.1894098998784805 0.41329321868770491 0 0.20794960100346549 0.42683021087399747 0 0.19020123220431809 0.42989189963497759 0 0.19426067079655579 0.44330707928475449 0 0.20794960100346549 0.42683021087399747 0 0.1894098998784805 0.41329321868770491 0 0.19020123220431809 0.42989189963497759 0 0.18216746451451801 0.43740730714955978 0 0.19020123220431809 0.42989189963497759 0 0.19426067079655579 0.44330707928475449 0 0.19426067079655579 0.44330707928475449 0 0.1940681668251448 0.45640187690020761 0 0.18254949088188149 0.4477470207382499 0 0.19426067079655579 0.44330707928475449 0 0.1940681668251448 0.45640187690020761 0 0.20814429074563079 0.44944136850783811 0 0.1940681668251448 0.45640187690020761 0 0.20814429074563079 0.44944136850783811 0 0.2039949308663013 0.472197178379127 0 0.1940681668251448 0.45640187690020761 0 0.2039949308663013 0.472197178379127 0 0.18608081776579821 0.46867989557539208 0 0.1940681668251448 0.45640187690020761 0 0.18608081776579821 0.46867989557539208 0 0.18254949088188149 0.4477470207382499 0 0.20814429074563079 0.44944136850783811 0 0.22852149564367849 0.45772005811557609 0 0.2039949308663013 0.472197178379127 0 0.20794960100346549 0.42683021087399747 0 0.19426067079655579 0.44330707928475449 0 0.20814429074563079 0.44944136850783811 0 0.20794960100346549 0.42683021087399747 0 0.20814429074563079 0.44944136850783811 0 0.2229924843016429 0.43948176305630821 0 0.2229924843016429 0.43948176305630821 0 0.22852149564367849 0.45772005811557609 0 0.24517769652138269 0.43868647355565088 0 0.20814429074563079 0.44944136850783811 0 0.2229924843016429 0.43948176305630821 0 0.22852149564367849 0.45772005811557609 0 0.22852149564367849 0.45772005811557609 0 0.2480713074063006 0.45455858161591112 0 0.2508124586903176 0.47172026355836871 0 0.22852149564367849 0.45772005811557609 0 0.2480713074063006 0.45455858161591112 0 0.24517769652138269 0.43868647355565088 0 0.24658834009167641 0.5 0 0.2268462464291012 0.47913099520174052 0 0.2508124586903176 0.47172026355836871 0 0.22852149564367849 0.45772005811557609 0 0.2268462464291012 0.47913099520174052 0 0.2508124586903176 0.47172026355836871 0 0.22852149564367849 0.45772005811557609 0 0.2268462464291012 0.47913099520174052 0 0.2039949308663013 0.472197178379127 0 0.24658834009167641 0.5 0 0.2268462464291012 0.47913099520174052 0 0.21774471386125249 0.5 0 0.2039949308663013 0.472197178379127 0 0.18890108763082861 0.5 0 0.18608081776579821 0.46867989557539208 0 0.21774471386125249 0.5 0 0.2039949308663013 0.472197178379127 0 0.18890108763082861 0.5 0 0.2268462464291012 0.47913099520174052 0 0.21774471386125249 0.5 0 0.2039949308663013 0.472197178379127 0 0.18890108763082861 0.5 0 0.16570119088049859 0.47142090597577962 0 0.18608081776579821 0.46867989557539208 0 0.18890108763082861 0.5 0 0.1600574614004048 0.499999999999998 0 0.16570119088049859 0.47142090597577962 0 0.1600574614004048 0.499999999999998 0 0.16570119088049859 0.47142090597577962 0 0.1600574614004048 0.499999999999998 0 0.16570119088049859 0.47142090597577962 0 0.1473140710794911 0.47841155746419622 0 0.16570119088049859 0.47142090597577962 0 0.18608081776579821 0.46867989557539208 0 0.18254949088188149 0.4477470207382499 0 0.16570119088049859 0.47142090597577962 0 0.18254949088188149 0.4477470207382499 0 0.1713449203605947 0.44284181195156158 0 0.18216746451451801 0.43740730714955978 0 0.19426067079655579 0.44330707928475449 0 0.18254949088188149 0.4477470207382499 0 0.18254949088188149 0.4477470207382499 0 0.1713449203605947 0.44284181195156158 0 0.18216746451451801 0.43740730714955978 0 0.18254949088188149 0.4477470207382499 0 0.1713449203605947 0.44284181195156158 0 0.16570119088049859 0.47142090597577962 0 0.1713449203605947 0.44284181195156158 0 0.16570119088049859 0.47142090597577962 0 0.1713449203605947 0.44284181195156158 0 0.15076126992746861 0.45128164001408699 0 0.16570119088049859 0.47142090597577962 0 0.14979107830043681 0.4659705410046826 0 0.15076126992746861 0.45128164001408699 0 0.14979107830043681 0.4659705410046826 0 0.15076126992746861 0.45128164001408699 0 0.13538778131428869 0.46276806056466779 0 0.13914808732176639 0.43525501877606959 0 0.14380353536204241 0.43078456768362461 0 0.15076126992746861 0.45128164001408699 0 0.14380353536204241 0.43078456768362461 0 0.1713449203605947 0.44284181195156158 0 0.15076126992746861 0.45128164001408699 0 0.13914808732176639 0.43525501877606959 0 0.15076126992746861 0.45128164001408699 0 0.13538778131428869 0.46276806056466779 0 0.13914808732176639 0.43525501877606959 0 0.13538778131428869 0.46276806056466779 0 0.1205619018159948 0.44674810255646558 0 0.13914808732176639 0.43525501877606959 0 0.13538778131428869 0.46276806056466779 0 0.1248616532684987 0.47476888169724352 0 0.1205619018159948 0.44674810255646558 0 0.13538778131428869 0.46276806056466779 0 0.13538778131428869 0.46276806056466779 0 0.13162747530681079 0.49028110235326611 0 0.1248616532684987 0.47476888169724352 0 0.13538778131428869 0.46276806056466779 0 0.13162747530681079 0.49028110235326611 0 0.13538778131428869 0.46276806056466779 0 0.13162747530681079 0.49028110235326611 0 0.1473140710794911 0.47841155746419622 0 0.1248616532684987 0.47476888169724352 0 0.13162747530681079 0.49028110235326611 0 0.1248616532684987 0.47476888169724352 0 0.1287333349596296 0.50000000000000233 0 0.1248616532684987 0.47476888169724352 0 0.13162747530681079 0.49028110235326611 0 0.1287333349596296 0.50000000000000233 0 0.13162747530681079 0.49028110235326611 0 0.1302991587401483 0.50000000000000044 0 0.13162747530681079 0.49028110235326611 0 0.1302991587401483 0.50000000000000044 0 0.13586647714571501 0.50000000000000044 0 0.13162747530681079 0.49028110235326611 0 0.1287333349596296 0.50000000000000233 0 0.1302991587401483 0.50000000000000044 0 0.13162747530681079 0.49028110235326611 0 0.13586647714571501 0.50000000000000044 0 0.14406777576738011 0.49099847585001533 0 0.13162747530681079 0.49028110235326611 0 0.13586647714571501 0.50000000000000044 0 0.1600574614004048 0.499999999999998 0 0.13586647714571501 0.50000000000000044 0 0.14406777576738011 0.49099847585001533 0 0.1600574614004048 0.499999999999998 0 0.14406777576738011 0.49099847585001533 0 0.1473140710794911 0.47841155746419622 0 0.13162747530681079 0.49028110235326611 0 0.14406777576738011 0.49099847585001533 0 0.1473140710794911 0.47841155746419622 0 0.16570119088049859 0.47142090597577962 0 0.14979107830043681 0.4659705410046826 0 0.1473140710794911 0.47841155746419622 0 0.14979107830043681 0.4659705410046826 0 0.13538778131428869 0.46276806056466779 0 0.1473140710794911 0.47841155746419622 0 0.3484716028812469 0.46927922019571022 0 0.3639431844790027 0.47792576209206161 0 0.36215729707138089 0.45952194433731441 0 0.3484716028812469 0.46927922019571022 0 0.34825454286986979 0.4866410253547736 0 0.3639431844790027 0.47792576209206161 0 0.34825454286986979 0.4866410253547736 0 0.36196284501337178 0.5 0 0.3639431844790027 0.47792576209206161 0 0.34825454286986979 0.4866410253547736 0 0.36196284501337178 0.5 0 0.33311921878294798 0.5 0 0.36196284501337178 0.5 0 0.3639431844790027 0.47792576209206161 0 0.38120033573297152 0.48442634992442057 0 0.3639431844790027 0.47792576209206161 0 0.37844435483634198 0.4675903904274426 0 0.38120033573297152 0.48442634992442057 0 0.3639431844790027 0.47792576209206161 0 0.36215729707138089 0.45952194433731441 0 0.37844435483634198 0.4675903904274426 0 0.36215729707138089 0.45952194433731441 0 0.37809165231809289 0.44568724501072521 0 0.37844435483634198 0.4675903904274426 0 0.36215729707138089 0.45952194433731441 0 0.35494335133579169 0.44207750056399991 0 0.37809165231809289 0.44568724501072521 0 0.35494335133579169 0.44207750056399991 0 0.365542703577178 0.42914551292816783 0 0.37809165231809289 0.44568724501072521 0 0.35494335133579169 0.44207750056399991 0 0.33746945485668051 0.4332718215327816 0 0.35494335133579169 0.44207750056399991 0 0.33933393763431879 0.44574212964051668 0 0.33746945485668051 0.4332718215327816 0 0.36215729707138089 0.45952194433731441 0 0.35494335133579169 0.44207750056399991 0 0.34904963657780902 0.45457154773394731 0 0.35494335133579169 0.44207750056399991 0 0.34904963657780902 0.45457154773394731 0 0.33933393763431879 0.44574212964051668 0 0.3484716028812469 0.46927922019571022 0 0.36215729707138089 0.45952194433731441 0 0.34904963657780902 0.45457154773394731 0 0.3484716028812469 0.46927922019571022 0 0.34904963657780902 0.45457154773394731 0 0.33768006752307722 0.45817683321967928 0 0.33768006752307722 0.45817683321967928 0 0.32516604183334019 0.44948070643492349 0 0.3263791186886712 0.4718105620932988 0 0.3484716028812469 0.46927922019571022 0 0.33768006752307722 0.45817683321967928 0 0.3263791186886712 0.4718105620932988 0 0.33933393763431879 0.44574212964051668 0 0.32516604183334019 0.44948070643492349 0 0.33457771181584611 0.43369686048393857 0 0.32516604183334019 0.44948070643492349 0 0.33457771181584611 0.43369686048393857 0 0.33933393763431879 0.44574212964051668 0 0.33457771181584611 0.43369686048393857 0 0.33746945485668051 0.4332718215327816 0 0.34904963657780902 0.45457154773394731 0 0.33768006752307722 0.45817683321967928 0 0.33933393763431879 0.44574212964051668 0 0.33768006752307722 0.45817683321967928 0 0.33933393763431879 0.44574212964051668 0 0.32516604183334019 0.44948070643492349 0 0.32516604183334019 0.44948070643492349 0 0.30610823095482448 0.43788140873538328 0 0.33457771181584611 0.43369686048393857 0 0.32516604183334019 0.44948070643492349 0 0.30909376894118562 0.45443190325323968 0 0.30610823095482448 0.43788140873538328 0 0.32516604183334019 0.44948070643492349 0 0.3263791186886712 0.4718105620932988 0 0.30909376894118562 0.45443190325323968 0 0.3263791186886712 0.4718105620932988 0 0.30059931196992168 0.47005809262963882 0 0.31153103284441203 0.48323920778459489 0 0.3484716028812469 0.46927922019571022 0 0.34825454286986979 0.4866410253547736 0 0.3263791186886712 0.4718105620932988 0 0.34825454286986979 0.4866410253547736 0 0.3263791186886712 0.4718105620932988 0 0.33311921878294798 0.5 0 0.3263791186886712 0.4718105620932988 0 0.33311921878294798 0.5 0 0.31153103284441203 0.48323920778459489 0 0.33311921878294798 0.5 0 0.30427559255252412 0.5 0 0.31153103284441203 0.48323920778459489 0 0.30427559255252412 0.5 0 0.31153103284441203 0.48323920778459489 0 0.29110307967174748 0.48580921065493432 0 0.30059931196992168 0.47005809262963882 0 0.31153103284441203 0.48323920778459489 0 0.29110307967174748 0.48580921065493432 0 0.30059931196992168 0.47005809262963882 0 0.29110307967174748 0.48580921065493432 0 0.27585954767988607 0.47408041721782612 0 0.30427559255252412 0.5 0 0.29110307967174748 0.48580921065493432 0 0.27543196632210021 0.5 0 0.27543196632210021 0.5 0 0.27585954767988607 0.47408041721782612 0 0.26198527678341299 0.48673919500437729 0 0.29110307967174748 0.48580921065493432 0 0.27543196632210021 0.5 0 0.27585954767988607 0.47408041721782612 0 0.27585954767988607 0.47408041721782612 0 0.2508124586903176 0.47172026355836871 0 0.26198527678341299 0.48673919500437729 0 0.24658834009167641 0.5 0 0.2508124586903176 0.47172026355836871 0 0.26198527678341299 0.48673919500437729 0 0.24658834009167641 0.5 0 0.27543196632210021 0.5 0 0.26198527678341299 0.48673919500437729 0 0.2480713074063006 0.45455858161591112 0 0.24517769652138269 0.43868647355565088 0 0.26777357876982372 0.45010753123404867 0 0.24517769652138269 0.43868647355565088 0 0.26777357876982372 0.45010753123404867 0 0.26600993858745892 0.42808938636359573 0 0.2480713074063006 0.45455858161591112 0 0.2508124586903176 0.47172026355836871 0 0.26777357876982372 0.45010753123404867 0 0.27585954767988607 0.47408041721782612 0 0.2508124586903176 0.47172026355836871 0 0.26777357876982372 0.45010753123404867 0 0.27585954767988607 0.47408041721782612 0 0.26777357876982372 0.45010753123404867 0 0.28975077836376328 0.45156795454144122 0 0.26777357876982372 0.45010753123404867 0 0.28975077836376328 0.45156795454144122 0 0.28607917402868899 0.43188291486824332 0 0.28975077836376328 0.45156795454144122 0 0.30610823095482448 0.43788140873538328 0 0.28607917402868899 0.43188291486824332 0 0.30059931196992168 0.47005809262963882 0 0.27585954767988607 0.47408041721782612 0 0.28975077836376328 0.45156795454144122 0 0.3263791186886712 0.4718105620932988 0 0.30059931196992168 0.47005809262963882 0 0.30909376894118562 0.45443190325323968 0 0.30059931196992168 0.47005809262963882 0 0.28975077836376328 0.45156795454144122 0 0.30909376894118562 0.45443190325323968 0 0.28975077836376328 0.45156795454144122 0 0.30909376894118562 0.45443190325323968 0 0.30610823095482448 0.43788140873538328 0 0.30610823095482448 0.43788140873538328 0 0.30869255759955722 0.41877018355733042 0 0.28607917402868899 0.43188291486824332 0 0.3075810200549029 0.4073564129674252 0 0.30869255759955722 0.41877018355733042 0 0.30232024370737348 0.40459188745546998 0 0.31142364564813352 0.41093370315849659 0 0.3075810200549029 0.4073564129674252 0 0.31015955469665918 0.40201373970895371 0 0.31142364564813352 0.41093370315849659 0 0.3075810200549029 0.4073564129674252 0 0.30869255759955722 0.41877018355733042 0 0.30869255759955722 0.41877018355733042 0 0.29605666041485018 0.40551048050067168 0 0.30232024370737348 0.40459188745546998 0 0.30869255759955722 0.41877018355733042 0 0.2819443595412231 0.40529087474680159 0 0.30869255759955722 0.41877018355733042 0 0.2819443595412231 0.40529087474680159 0 0.29605666041485018 0.40551048050067168 0 0.30869255759955722 0.41877018355733042 0 0.28607917402868899 0.43188291486824332 0 0.2819443595412231 0.40529087474680159 0 0.2490748840761759 0.41447913741323361 0 0.26600993858745892 0.42808938636359573 0 0.2819443595412231 0.40529087474680159 0 0.26777357876982372 0.45010753123404867 0 0.28607917402868899 0.43188291486824332 0 0.26600993858745892 0.42808938636359573 0 0.28607917402868899 0.43188291486824332 0 0.26600993858745892 0.42808938636359573 0 0.2819443595412231 0.40529087474680159 0 0.2490748840761759 0.41447913741323361 0 0.24517769652138269 0.43868647355565088 0 0.26600993858745892 0.42808938636359573 0 0.2490748840761759 0.41447913741323361 0 0.25519616148288887 0.39181156593627298 0 0.2819443595412231 0.40529087474680159 0 0.25519616148288887 0.39181156593627298 0 0.2618259464583832 0.36726095095448358 0 0.25519616148288887 0.39181156593627298 0 0.27405714121884811 0.38409687161834088 0 0.2618259464583832 0.36726095095448358 0 0.24305895760768401 0.36641304215893011 0 0.25519616148288887 0.39181156593627298 0 0.2618259464583832 0.36726095095448358 0 0.2490748840761759 0.41447913741323361 0 0.25519616148288887 0.39181156593627298 0 0.27405714121884811 0.38409687161834088 0 0.2819443595412231 0.40529087474680159 0 0.28762179706039948 0.39125587461843808 0 0.25519616148288887 0.39181156593627298 0 0.2819443595412231 0.40529087474680159 0 0.25519616148288887 0.39181156593627298 0 0.27405714121884811 0.38409687161834088 0 0.2819443595412231 0.40529087474680159 0 0.27405714121884811 0.38409687161834088 0 0.28403056220722062 0.37531448917755911 0 0.2737626695690904 0.37327007608818358 0 0.27405714121884811 0.38409687161834088 0 0.28403056220722062 0.37531448917755911 0 0.28762179706039948 0.39125587461843808 0 0.29405085274881382 0.37834813740539031 0 0.28762179706039948 0.39125587461843808 0 0.30049862001061489 0.39881078008944609 0 0.28403056220722062 0.37531448917755911 0 0.29405085274881382 0.37834813740539031 0 0.28762179706039948 0.39125587461843808 0 0.2819443595412231 0.40529087474680159 0 0.28762179706039948 0.39125587461843808 0 0.29316512877403511 0.40022580951085568 0 0.28762179706039948 0.39125587461843808 0 0.29316512877403511 0.40022580951085568 0 0.30049862001061489 0.39881078008944609 0 0.2819443595412231 0.40529087474680159 0 0.29316512877403511 0.40022580951085568 0 0.29605666041485018 0.40551048050067168 0 0.29316512877403511 0.40022580951085568 0 0.29605666041485018 0.40551048050067168 0 0.30042223720462058 0.4004666581126537 0 0.29605666041485018 0.40551048050067168 0 0.30232024370737348 0.40459188745546998 0 0.30042223720462058 0.4004666581126537 0 0.29316512877403511 0.40022580951085568 0 0.30042223720462058 0.4004666581126537 0 0.30049862001061489 0.39881078008944609 0 0.30042223720462058 0.4004666581126537 0 0.30049862001061489 0.39881078008944609 0 0.30232024370737348 0.40459188745546998 0 0.30049862001061489 0.39881078008944609 0 0.30232024370737348 0.40459188745546998 0 0.30049862001061489 0.39881078008944609 0 0.30430913302558388 0.40020258685778032 0 0.30232024370737348 0.40459188745546998 0 0.30042223720462058 0.4004666581126537 0 0.30049862001061489 0.39881078008944609 0 0.30049862001061489 0.39881078008944609 0 0.30098622665836988 0.38824011406760628 0 0.30049862001061489 0.39881078008944609 0 0.30430913302558388 0.40020258685778032 0 0.30098622665836988 0.38824011406760628 0 0.30098622665836988 0.38824011406760628 0 0.30110064445947421 0.38575968774854158 0 0.31262554991773928 0.39787599139405988 0 0.31015955469665918 0.40201373970895371 0 0.30098622665836988 0.38824011406760628 0 0.30110064445947421 0.38575968774854158 0 0.31262554991773928 0.39787599139405988 0 0.30430913302558388 0.40020258685778032 0 0.31015955469665918 0.40201373970895371 0 0.30098622665836988 0.38824011406760628 0 0.31015955469665918 0.40201373970895371 0 0.30098622665836988 0.38824011406760628 0 0.31262554991773928 0.39787599139405988 0 0.3075810200549029 0.4073564129674252 0 0.30232024370737348 0.40459188745546998 0 0.30430913302558388 0.40020258685778032 0 0.3075810200549029 0.4073564129674252 0 0.30430913302558388 0.40020258685778032 0 0.31015955469665918 0.40201373970895371 0 0.29405085274881382 0.37834813740539031 0 0.30049862001061489 0.39881078008944609 0 0.29405085274881382 0.37834813740539031 0 0.30049862001061489 0.39881078008944609 0 0.30098622665836988 0.38824011406760628 0 0.30110064445947421 0.38575968774854158 0 0.30177514978199971 0.3711373061071076 0 0.30110064445947421 0.38575968774854158 0 0.3104817065657739 0.3858680532317833 0 0.30177514978199971 0.3711373061071076 0 0.29405085274881382 0.37834813740539031 0 0.30110064445947421 0.38575968774854158 0 0.30177514978199971 0.3711373061071076 0 0.29405085274881382 0.37834813740539031 0 0.30110064445947421 0.38575968774854158 0 0.29405085274881382 0.37834813740539031 0 0.30098622665836988 0.38824011406760628 0 0.30110064445947421 0.38575968774854158 0 0.29405085274881382 0.37834813740539031 0 0.30098622665836988 0.38824011406760628 0 0.30098622665836988 0.38824011406760628 0 0.30110064445947421 0.38575968774854158 0 0.30110064445947421 0.38575968774854158 0 0.3104817065657739 0.3858680532317833 0 0.31262554991773928 0.39787599139405988 0 0.3104817065657739 0.3858680532317833 0 0.30177514978199971 0.3711373061071076 0 0.3104817065657739 0.3858680532317833 0 0.31717345926189522 0.3709258031848055 0 0.30177514978199971 0.3711373061071076 0 0.3104817065657739 0.3858680532317833 0 0.3376156911696272 0.37620073599141618 0 0.3104817065657739 0.3858680532317833 0 0.3376156911696272 0.37620073599141618 0 0.31717345926189522 0.3709258031848055 0 0.3104817065657739 0.3858680532317833 0 0.3376156911696272 0.37620073599141618 0 0.3351802944883514 0.39738750443412002 0 0.3376156911696272 0.37620073599141618 0 0.3351802944883514 0.39738750443412002 0 0.34879159400795012 0.38769315231290841 0 0.3351802944883514 0.39738750443412002 0 0.33658962428999861 0.41133204962483783 0 0.34988972217452752 0.40801784569160632 0 0.3351802944883514 0.39738750443412002 0 0.32415045537600512 0.40999229503957763 0 0.33658962428999861 0.41133204962483783 0 0.3351802944883514 0.39738750443412002 0 0.31909953512109351 0.40044867980609039 0 0.32415045537600512 0.40999229503957763 0 0.3104817065657739 0.3858680532317833 0 0.3351802944883514 0.39738750443412002 0 0.31909953512109351 0.40044867980609039 0 0.3104817065657739 0.3858680532317833 0 0.31909953512109351 0.40044867980609039 0 0.3104817065657739 0.3858680532317833 0 0.31262554991773928 0.39787599139405988 0 0.31909953512109351 0.40044867980609039 0 0.31262554991773928 0.39787599139405988 0 0.32415045537600512 0.40999229503957763 0 0.31015955469665918 0.40201373970895371 0 0.31262554991773928 0.39787599139405988 0 0.32415045537600512 0.40999229503957763 0 0.31262554991773928 0.39787599139405988 0 0.31909953512109351 0.40044867980609039 0 0.32415045537600512 0.40999229503957763 0 0.31015955469665918 0.40201373970895371 0 0.31933288273494848 0.41578736535030097 0 0.32415045537600512 0.40999229503957763 0 0.31142364564813352 0.41093370315849659 0 0.31015955469665918 0.40201373970895371 0 0.31933288273494848 0.41578736535030097 0 0.30869255759955722 0.41877018355733042 0 0.31933288273494848 0.41578736535030097 0 0.32906281765607392 0.42006619542527468 0 0.31015955469665918 0.40201373970895371 0 0.31933288273494848 0.41578736535030097 0 0.31142364564813352 0.41093370315849659 0 0.30869255759955722 0.41877018355733042 0 0.31933288273494848 0.41578736535030097 0 0.31933288273494848 0.41578736535030097 0 0.32415045537600512 0.40999229503957763 0 0.32906281765607392 0.42006619542527468 0 0.30869255759955722 0.41877018355733042 0 0.33457771181584611 0.43369686048393857 0 0.33544075565789128 0.43224949236785898 0 0.30869255759955722 0.41877018355733042 0 0.33544075565789128 0.43224949236785898 0 0.30610823095482448 0.43788140873538328 0 0.30869255759955722 0.41877018355733042 0 0.33457771181584611 0.43369686048393857 0 0.30869255759955722 0.41877018355733042 0 0.33544075565789128 0.43224949236785898 0 0.32906281765607392 0.42006619542527468 0 0.30610823095482448 0.43788140873538328 0 0.33457771181584611 0.43369686048393857 0 0.33457771181584611 0.43369686048393857 0 0.33544075565789128 0.43224949236785898 0 0.33746945485668051 0.4332718215327816 0 0.33457771181584611 0.43369686048393857 0 0.33544075565789128 0.43224949236785898 0 0.33544075565789128 0.43224949236785898 0 0.33746945485668051 0.4332718215327816 0 0.35001853239939229 0.42365555934674631 0 0.33544075565789128 0.43224949236785898 0 0.33746945485668051 0.4332718215327816 0 0.33457771181584611 0.43369686048393857 0 0.33746945485668051 0.4332718215327816 0 0.33544075565789128 0.43224949236785898 0 0.33658962428999861 0.41133204962483783 0 0.34988972217452752 0.40801784569160632 0 0.33544075565789128 0.43224949236785898 0 0.32906281765607392 0.42006619542527468 0 0.33658962428999861 0.41133204962483783 0 0.33544075565789128 0.43224949236785898 0 0.34988972217452752 0.40801784569160632 0 0.32415045537600512 0.40999229503957763 0 0.32906281765607392 0.42006619542527468 0 0.33658962428999861 0.41133204962483783 0 0.33544075565789128 0.43224949236785898 0 0.34988972217452752 0.40801784569160632 0 0.35001853239939229 0.42365555934674631 0 0.34988972217452752 0.40801784569160632 0 0.36165970526353591 0.41519797525725338 0 0.36412400085156282 0.39702719229323191 0 0.34988972217452752 0.40801784569160632 0 0.35001853239939229 0.42365555934674631 0 0.36165970526353591 0.41519797525725338 0 0.35494335133579169 0.44207750056399991 0 0.33746945485668051 0.4332718215327816 0 0.365542703577178 0.42914551292816783 0 0.33746945485668051 0.4332718215327816 0 0.35001853239939229 0.42365555934674631 0 0.365542703577178 0.42914551292816783 0 0.33746945485668051 0.4332718215327816 0 0.365542703577178 0.42914551292816783 0 0.35001853239939229 0.42365555934674631 0 0.365542703577178 0.42914551292816783 0 0.36165970526353591 0.41519797525725338 0 0.365542703577178 0.42914551292816783 0 0.36165970526353591 0.41519797525725338 0 0.37744029411777058 0.41252948965876268 0 0.36165970526353591 0.41519797525725338 0 0.36412400085156282 0.39702719229323191 0 0.37744029411777058 0.41252948965876268 0 0.36412400085156282 0.39702719229323191 0 0.38026367080056678 0.39066664182047522 0 0.37744029411777058 0.41252948965876268 0 0.34988972217452752 0.40801784569160632 0 0.36412400085156282 0.39702719229323191 0 0.36433868869116592 0.38378619901535488 0 0.36433868869116592 0.38378619901535488 0 0.3773824667175657 0.37546563606013739 0 0.38026367080056678 0.39066664182047522 0 0.36433868869116592 0.38378619901535488 0 0.36474967577348072 0.36653341875104961 0 0.3773824667175657 0.37546563606013739 0 0.36412400085156282 0.39702719229323191 0 0.36433868869116592 0.38378619901535488 0 0.38026367080056678 0.39066664182047522 0 0.36433868869116592 0.38378619901535488 0 0.36474967577348072 0.36653341875104961 0 0.36412400085156282 0.39702719229323191 0 0.36433868869116592 0.38378619901535488 0 0.3376156911696272 0.37620073599141618 0 0.34879159400795012 0.38769315231290841 0 0.36474967577348072 0.36653341875104961 0 0.36433868869116592 0.38378619901535488 0 0.34879159400795012 0.38769315231290841 0 0.36474967577348072 0.36653341875104961 0 0.3351802944883514 0.39738750443412002 0 0.34988972217452752 0.40801784569160632 0 0.34879159400795012 0.38769315231290841 0 0.34988972217452752 0.40801784569160632 0 0.36433868869116592 0.38378619901535488 0 0.34988972217452752 0.40801784569160632 0 0.36433868869116592 0.38378619901535488 0 0.34879159400795012 0.38769315231290841 0 0.34699100967064078 0.35539672769273539 0 0.36474967577348072 0.36653341875104961 0 0.36518945593320651 0.34509967395937191 0 0.34699100967064078 0.35539672769273539 0 0.36518945593320651 0.34509967395937191 0 0.348137396692076 0.34077307725183559 0 0.3376156911696272 0.37620073599141618 0 0.34699100967064078 0.35539672769273539 0 0.36474967577348072 0.36653341875104961 0 0.3376156911696272 0.37620073599141618 0 0.36474967577348072 0.36653341875104961 0 0.36474967577348072 0.36653341875104961 0 0.36518945593320651 0.34509967395937191 0 0.36474967577348072 0.36653341875104961 0 0.36518945593320651 0.34509967395937191 0 0.3855881021147175 0.35910908792858098 0 0.36518945593320651 0.34509967395937191 0 0.36562923609293069 0.32366592916769399 0 0.36518945593320651 0.34509967395937191 0 0.36562923609293069 0.32366592916769399 0 0.348137396692076 0.34077307725183559 0 0.36518945593320651 0.34509967395937191 0 0.36562923609293069 0.32366592916769399 0 0.38128435600444488 0.32837669887387311 0 0.36562923609293069 0.32366592916769399 0 0.36606901625265492 0.30223218437601618 0 0.38242981621443428 0.31397380775534678 0 0.36562923609293069 0.32366592916769399 0 0.36606901625265492 0.30223218437601618 0 0.36562923609293069 0.32366592916769399 0 0.34238706329751362 0.32476320095938682 0 0.35183379698966949 0.31056891257481539 0 0.36562923609293069 0.32366592916769399 0 0.348137396692076 0.34077307725183559 0 0.34238706329751362 0.32476320095938682 0 0.348137396692076 0.34077307725183559 0 0.33072504187423118 0.34237289876026822 0 0.34238706329751362 0.32476320095938682 0 0.33072504187423118 0.34237289876026822 0 0.34238706329751362 0.32476320095938682 0 0.32122702449841589 0.32177081607522939 0 0.34238706329751362 0.32476320095938682 0 0.33644502425256478 0.30910566618648461 0 0.35183379698966949 0.31056891257481539 0 0.34238706329751362 0.32476320095938682 0 0.32122702449841589 0.32177081607522939 0 0.33644502425256478 0.30910566618648461 0 0.32122702449841589 0.32177081607522939 0 0.31445651652981632 0.33878768779705848 0 0.30372390616191358 0.32889084998335888 0 0.33072504187423118 0.34237289876026822 0 0.32122702449841589 0.32177081607522939 0 0.31445651652981632 0.33878768779705848 0 0.33072504187423118 0.34237289876026822 0 0.31445651652981632 0.33878768779705848 0 0.31594857135045817 0.35062531106266931 0 0.33072504187423118 0.34237289876026822 0 0.31594857135045817 0.35062531106266931 0 0.32442852787466708 0.36030442639367111 0 0.31594857135045817 0.35062531106266931 0 0.32442852787466708 0.36030442639367111 0 0.31156622091740832 0.36111849420004938 0 0.34699100967064078 0.35539672769273539 0 0.348137396692076 0.34077307725183559 0 0.33072504187423118 0.34237289876026822 0 0.34699100967064078 0.35539672769273539 0 0.33072504187423118 0.34237289876026822 0 0.32442852787466708 0.36030442639367111 0 0.3376156911696272 0.37620073599141618 0 0.34699100967064078 0.35539672769273539 0 0.32442852787466708 0.36030442639367111 0 0.3376156911696272 0.37620073599141618 0 0.32442852787466708 0.36030442639367111 0 0.31717345926189522 0.3709258031848055 0 0.32442852787466708 0.36030442639367111 0 0.31717345926189522 0.3709258031848055 0 0.31156622091740832 0.36111849420004938 0 0.30177514978199971 0.3711373061071076 0 0.30274952797195698 0.35001407804523332 0 0.31717345926189522 0.3709258031848055 0 0.31156622091740832 0.36111849420004938 0 0.30177514978199971 0.3711373061071076 0 0.31156622091740832 0.36111849420004938 0 0.30177514978199971 0.3711373061071076 0 0.30274952797195698 0.35001407804523332 0 0.30177514978199971 0.3711373061071076 0 0.30274952797195698 0.35001407804523332 0 0.29106955940472562 0.3530243656434488 0 0.31445651652981632 0.33878768779705848 0 0.31594857135045817 0.35062531106266931 0 0.30274952797195698 0.35001407804523332 0 0.31594857135045817 0.35062531106266931 0 0.31156622091740832 0.36111849420004938 0 0.30274952797195698 0.35001407804523332 0 0.29106955940472562 0.3530243656434488 0 0.28705150305193838 0.35613499197806497 0 0.28036396902745148 0.33491142517978989 0 0.28705150305193838 0.35613499197806497 0 0.28036396902745148 0.33491142517978989 0 0.28705150305193838 0.35613499197806497 0 0.27644360280618341 0.34191623842927221 0 0.28036396902745148 0.33491142517978989 0 0.29106955940472562 0.3530243656434488 0 0.28036396902745148 0.33491142517978989 0 0.30274952797195698 0.35001407804523332 0 0.29106955940472562 0.3530243656434488 0 0.29374099595638509 0.3392252011883215 0 0.28705150305193838 0.35613499197806497 0 0.28458867991473008 0.36361942358965982 0 0.27543832275303448 0.34988028840297991 0 0.29405085274881382 0.37834813740539031 0 0.28705150305193838 0.35613499197806497 0 0.28458867991473008 0.36361942358965982 0 0.29405085274881382 0.37834813740539031 0 0.28705150305193838 0.35613499197806497 0 0.30177514978199971 0.3711373061071076 0 0.29106955940472562 0.3530243656434488 0 0.29405085274881382 0.37834813740539031 0 0.30177514978199971 0.3711373061071076 0 0.28705150305193838 0.35613499197806497 0 0.30177514978199971 0.3711373061071076 0 0.29106955940472562 0.3530243656434488 0 0.28705150305193838 0.35613499197806497 0 0.29405085274881382 0.37834813740539031 0 0.28458867991473008 0.36361942358965982 0 0.28403056220722062 0.37531448917755911 0 0.2815017213106239 0.3651550498314205 0 0.27898286169525299 0.37041503512408969 0 0.29405085274881382 0.37834813740539031 0 0.2815017213106239 0.3651550498314205 0 0.28403056220722062 0.37531448917755911 0 0.29405085274881382 0.37834813740539031 0 0.2815017213106239 0.3651550498314205 0 0.29405085274881382 0.37834813740539031 0 0.28458867991473008 0.36361942358965982 0 0.2815017213106239 0.3651550498314205 0 0.28403056220722062 0.37531448917755911 0 0.27898286169525299 0.37041503512408969 0 0.2737626695690904 0.37327007608818358 0 0.27663649369407689 0.36792052539919551 0 0.2737626695690904 0.37327007608818358 0 0.27125000512352843 0.36234153133647429 0 0.27405714121884811 0.38409687161834088 0 0.2737626695690904 0.37327007608818358 0 0.2618259464583832 0.36726095095448358 0 0.2815017213106239 0.3651550498314205 0 0.27898286169525299 0.37041503512408969 0 0.27663649369407689 0.36792052539919551 0 0.27898286169525299 0.37041503512408969 0 0.27663649369407689 0.36792052539919551 0 0.2737626695690904 0.37327007608818358 0 0.2737626695690904 0.37327007608818358 0 0.27125000512352843 0.36234153133647429 0 0.2618259464583832 0.36726095095448358 0 0.27125000512352843 0.36234153133647429 0 0.26895258987243392 0.3519619622574508 0 0.2618259464583832 0.36726095095448358 0 0.2815017213106239 0.3651550498314205 0 0.27125000512352843 0.36234153133647429 0 0.26895258987243392 0.3519619622574508 0 0.2815017213106239 0.3651550498314205 0 0.27663649369407689 0.36792052539919551 0 0.27125000512352843 0.36234153133647429 0 0.28458867991473008 0.36361942358965982 0 0.2815017213106239 0.3651550498314205 0 0.27543832275303448 0.34988028840297991 0 0.2815017213106239 0.3651550498314205 0 0.26895258987243392 0.3519619622574508 0 0.28458867991473008 0.36361942358965982 0 0.27543832275303448 0.34988028840297991 0 0.26895258987243392 0.3519619622574508 0 0.2618259464583832 0.36726095095448358 0 0.2684557314338783 0.34271033597269462 0 0.2815017213106239 0.3651550498314205 0 0.27543832275303448 0.34988028840297991 0 0.26895258987243392 0.3519619622574508 0 0.28705150305193838 0.35613499197806497 0 0.27543832275303448 0.34988028840297991 0 0.27644360280618341 0.34191623842927221 0 0.27543832275303448 0.34988028840297991 0 0.2684557314338783 0.34271033597269462 0 0.27644360280618341 0.34191623842927221 0 0.27543832275303448 0.34988028840297991 0 0.26895258987243392 0.3519619622574508 0 0.2684557314338783 0.34271033597269462 0 0.2618259464583832 0.36726095095448358 0 0.2684557314338783 0.34271033597269462 0 0.24521693247762111 0.35027114815259558 0 0.2618259464583832 0.36726095095448358 0 0.2684557314338783 0.34271033597269462 0 0.24305895760768401 0.36641304215893011 0 0.24521693247762111 0.35027114815259558 0 0.2618259464583832 0.36726095095448358 0 0.24490867605631639 0.32967072069511189 0 0.26050839607327853 0.32387463406168998 0 0.25114017462525878 0.31153615041935723 0 0.26050839607327853 0.32387463406168998 0 0.25114017462525878 0.31153615041935723 0 0.26342424027676908 0.31148804944983333 0 0.24490867605631639 0.32967072069511189 0 0.26050839607327853 0.32387463406168998 0 0.2684557314338783 0.34271033597269462 0 0.24490867605631639 0.32967072069511189 0 0.24521693247762111 0.35027114815259558 0 0.2684557314338783 0.34271033597269462 0 0.26050839607327853 0.32387463406168998 0 0.2684557314338783 0.34271033597269462 0 0.27508551640937329 0.31815972099090539 0 0.2684557314338783 0.34271033597269462 0 0.27508551640937329 0.31815972099090539 0 0.2684557314338783 0.34271033597269462 0 0.27787730485363338 0.33070420273373929 0 0.27508551640937329 0.31815972099090539 0 0.2684557314338783 0.34271033597269462 0 0.27644360280618341 0.34191623842927221 0 0.27787730485363338 0.33070420273373929 0 0.27644360280618341 0.34191623842927221 0 0.28036396902745148 0.33491142517978989 0 0.27787730485363338 0.33070420273373929 0 0.28036396902745148 0.33491142517978989 0 0.27787730485363338 0.33070420273373929 0 0.28036396902745148 0.33491142517978989 0 0.27787730485363338 0.33070420273373929 0 0.27508551640937329 0.31815972099090539 0 0.28036396902745148 0.33491142517978989 0 0.27508551640937329 0.31815972099090539 0 0.26050839607327853 0.32387463406168998 0 0.27508551640937329 0.31815972099090539 0 0.26342424027676908 0.31148804944983333 0 0.27584787744150779 0.31533663815394608 0 0.27508551640937329 0.31815972099090539 0 0.2839587577339367 0.31315639516335231 0 0.27584787744150779 0.31533663815394608 0 0.27508551640937329 0.31815972099090539 0 0.28036396902745148 0.33491142517978989 0 0.27508551640937329 0.31815972099090539 0 0.28884331716543121 0.32432796479040632 0 0.27508551640937329 0.31815972099090539 0 0.2839587577339367 0.31315639516335231 0 0.28884331716543121 0.32432796479040632 0 0.2839587577339367 0.31315639516335231 0 0.28884331716543121 0.32432796479040632 0 0.29436859405188742 0.31561290386725788 0 0.28884331716543121 0.32432796479040632 0 0.29436859405188742 0.31561290386725788 0 0.30372390616191358 0.32889084998335888 0 0.29106955940472562 0.3530243656434488 0 0.28036396902745148 0.33491142517978989 0 0.29374099595638509 0.3392252011883215 0 0.28036396902745148 0.33491142517978989 0 0.28884331716543121 0.32432796479040632 0 0.29374099595638509 0.3392252011883215 0 0.28884331716543121 0.32432796479040632 0 0.29374099595638509 0.3392252011883215 0 0.30372390616191358 0.32889084998335888 0 0.30274952797195698 0.35001407804523332 0 0.29374099595638509 0.3392252011883215 0 0.30372390616191358 0.32889084998335888 0 0.31445651652981632 0.33878768779705848 0 0.30274952797195698 0.35001407804523332 0 0.30372390616191358 0.32889084998335888 0 0.30274952797195698 0.35001407804523332 0 0.30372390616191358 0.32889084998335888 0 0.29436859405188742 0.31561290386725788 0 0.30372390616191358 0.32889084998335888 0 0.30469828435187041 0.30776762192148471 0 0.32122702449841589 0.32177081607522939 0 0.30372390616191358 0.32889084998335888 0 0.30469828435187041 0.30776762192148471 0 0.30372390616191358 0.32889084998335888 0 0.30469828435187041 0.30776762192148471 0 0.30469828435187041 0.30776762192148471 0 0.29887142377560671 0.29447355700322281 0 0.31975384086217118 0.29390073052843008 0 0.30469828435187041 0.30776762192148471 0 0.29887142377560671 0.29447355700322281 0 0.29061870484628499 0.30392168747768772 0 0.29887142377560671 0.29447355700322281 0 0.29803417524575498 0.27809430922643119 0 0.31975384086217118 0.29390073052843008 0 0.29887142377560671 0.29447355700322281 0 0.28125211357195179 0.28868343586208051 0 0.29803417524575498 0.27809430922643119 0 0.29887142377560671 0.29447355700322281 0 0.28125211357195179 0.28868343586208051 0 0.29061870484628499 0.30392168747768772 0 0.29436859405188742 0.31561290386725788 0 0.30469828435187041 0.30776762192148471 0 0.29061870484628499 0.30392168747768772 0 0.2839587577339367 0.31315639516335231 0 0.29436859405188742 0.31561290386725788 0 0.29061870484628499 0.30392168747768772 0 0.28125211357195179 0.28868343586208051 0 0.29061870484628499 0.30392168747768772 0 0.27979091010679558 0.3031930520058399 0 0.2839587577339367 0.31315639516335231 0 0.29061870484628499 0.30392168747768772 0 0.27979091010679558 0.3031930520058399 0 0.27584787744150779 0.31533663815394608 0 0.2839587577339367 0.31315639516335231 0 0.27979091010679558 0.3031930520058399 0 0.27584787744150779 0.31533663815394608 0 0.27979091010679558 0.3031930520058399 0 0.26696287399916629 0.2923816923273807 0 0.27508551640937329 0.31815972099090539 0 0.26696287399916629 0.2923816923273807 0 0.27508551640937329 0.31815972099090539 0 0.26696287399916629 0.2923816923273807 0 0.26342424027676908 0.31148804944983333 0 0.27584787744150779 0.31533663815394608 0 0.27508551640937329 0.31815972099090539 0 0.26696287399916629 0.2923816923273807 0 0.28125211357195179 0.28868343586208051 0 0.26696287399916629 0.2923816923273807 0 0.26185531842249993 0.2787869231154117 0 0.28125211357195179 0.28868343586208051 0 0.27979091010679558 0.3031930520058399 0 0.26696287399916629 0.2923816923273807 0 0.2454028482605469 0.29267792886045368 0 0.26696287399916629 0.2923816923273807 0 0.26185531842249993 0.2787869231154117 0 0.24818821145747599 0.27522177653690871 0 0.2454028482605469 0.29267792886045368 0 0.26185531842249993 0.2787869231154117 0 0.26696287399916629 0.2923816923273807 0 0.25114017462525878 0.31153615041935723 0 0.26342424027676908 0.31148804944983333 0 0.2454028482605469 0.29267792886045368 0 0.26696287399916629 0.2923816923273807 0 0.25114017462525878 0.31153615041935723 0 0.25404003316197471 0.25208422786308371 0 0.25530776412370298 0.26639583896058622 0 0.27103688063193948 0.26427270241964718 0 0.24090080429007341 0.26281353644332878 0 0.25404003316197471 0.25208422786308371 0 0.25530776412370298 0.26639583896058622 0 0.25530776412370298 0.26639583896058622 0 0.26185531842249993 0.2787869231154117 0 0.27103688063193948 0.26427270241964718 0 0.24818821145747599 0.27522177653690871 0 0.25530776412370298 0.26639583896058622 0 0.26185531842249993 0.2787869231154117 0 0.28125211357195179 0.28868343586208051 0 0.26185531842249993 0.2787869231154117 0 0.27103688063193948 0.26427270241964718 0 0.25404003316197471 0.25208422786308371 0 0.27103688063193948 0.26427270241964718 0 0.27355486584907379 0.24364475180805101 0 0.27103688063193948 0.26427270241964718 0 0.29692855903906679 0.25537037528416417 0 0.27355486584907379 0.24364475180805101 0 0.27103688063193948 0.26427270241964718 0 0.29803417524575498 0.27809430922643119 0 0.29692855903906679 0.25537037528416417 0 0.28125211357195179 0.28868343586208051 0 0.27103688063193948 0.26427270241964718 0 0.29803417524575498 0.27809430922643119 0 0.29803417524575498 0.27809430922643119 0 0.29692855903906679 0.25537037528416417 0 0.32239972953691409 0.26902358330948362 0 0.29692855903906679 0.25537037528416417 0 0.32239972953691409 0.26902358330948362 0 0.32448256229391081 0.244023600812113 0 0.34859232732963041 0.2656914204712259 0 0.32448256229391081 0.244023600812113 0 0.35052125483258301 0.2434514759103418 0 0.32239972953691409 0.26902358330948362 0 0.34859232732963041 0.2656914204712259 0 0.32448256229391081 0.244023600812113 0 0.32239972953691409 0.26902358330948362 0 0.34580587121379802 0.29027056413174801 0 0.34859232732963041 0.2656914204712259 0 0.32239972953691409 0.26902358330948362 0 0.34859232732963041 0.2656914204712259 0 0.29803417524575498 0.27809430922643119 0 0.32239972953691409 0.26902358330948362 0 0.31975384086217118 0.29390073052843008 0 0.32122702449841589 0.32177081607522939 0 0.30469828435187041 0.30776762192148471 0 0.31975384086217118 0.29390073052843008 0 0.32122702449841589 0.32177081607522939 0 0.31975384086217118 0.29390073052843008 0 0.33644502425256478 0.30910566618648461 0 0.31975384086217118 0.29390073052843008 0 0.33644502425256478 0.30910566618648461 0 0.34580587121379802 0.29027056413174801 0 0.32239972953691409 0.26902358330948362 0 0.31975384086217118 0.29390073052843008 0 0.34580587121379802 0.29027056413174801 0 0.34580587121379802 0.29027056413174801 0 0.35183379698966949 0.31056891257481539 0 0.36606901625265492 0.30223218437601618 0 0.33644502425256478 0.30910566618648461 0 0.34580587121379802 0.29027056413174801 0 0.35183379698966949 0.31056891257481539 0 0.36562923609293069 0.32366592916769399 0 0.35183379698966949 0.31056891257481539 0 0.36606901625265492 0.30223218437601618 0 0.36606901625265492 0.30223218437601618 0 0.37288852905391068 0.28307277276217568 0 0.38313639778678782 0.29894980138166888 0 0.34580587121379802 0.29027056413174801 0 0.36606901625265492 0.30223218437601618 0 0.37288852905391068 0.28307277276217568 0 0.37288852905391068 0.28307277276217568 0 0.37478492512234668 0.26235925763296819 0 0.34859232732963041 0.2656914204712259 0 0.37478492512234668 0.26235925763296819 0 0.34859232732963041 0.2656914204712259 0 0.37478492512234668 0.26235925763296819 0 0.34859232732963041 0.2656914204712259 0 0.35052125483258301 0.2434514759103418 0 0.34580587121379802 0.29027056413174801 0 0.37288852905391068 0.28307277276217568 0 0.34859232732963041 0.2656914204712259 0 0.40237095019481112 0.27711100542787093 0 0.40097752291506289 0.25902709479471048 0 0.38795285511664351 0.27501277358291848 0 0.40237095019481112 0.27711100542787093 0 0.38795285511664351 0.27501277358291848 0 0.39245341439736259 0.28869000139839213 0 0.37478492512234668 0.26235925763296819 0 0.40097752291506289 0.25902709479471048 0 0.37478492512234668 0.26235925763296819 0 0.40097752291506289 0.25902709479471048 0 0.38795285511664351 0.27501277358291848 0 0.37478492512234668 0.26235925763296819 0 0.40097752291506289 0.25902709479471048 0 0.39333580902427501 0.24081282939082621 0 0.37288852905391068 0.28307277276217568 0 0.37478492512234668 0.26235925763296819 0 0.38795285511664351 0.27501277358291848 0 0.37288852905391068 0.28307277276217568 0 0.38795285511664351 0.27501277358291848 0 0.39245341439736259 0.28869000139839213 0 0.37288852905391068 0.28307277276217568 0 0.38313639778678782 0.29894980138166888 0 0.39245341439736259 0.28869000139839213 0 0.38313639778678782 0.29894980138166888 0 0.40184121301557668 0.30678024061641418 0 0.38242981621443428 0.31397380775534678 0 0.36606901625265492 0.30223218437601618 0 0.38313639778678782 0.29894980138166888 0 0.38242981621443428 0.31397380775534678 0 0.38313639778678782 0.29894980138166888 0 0.40184121301557668 0.30678024061641418 0 0.39245341439736259 0.28869000139839213 0 0.40184121301557668 0.30678024061641418 0 0.39245341439736259 0.28869000139839213 0 0.4080647950624654 0.29173952990842672 0 0.40237095019481112 0.27711100542787093 0 0.39245341439736259 0.28869000139839213 0 0.4080647950624654 0.29173952990842672 0 0.4080647950624654 0.29173952990842672 0 0.42111158276914429 0.29961990628964941 0 0.41801819212357011 0.2740782959756311 0 0.42111158276914429 0.29961990628964941 0 0.41801819212357011 0.2740782959756311 0 0.42111158276914429 0.29961990628964941 0 0.41431845905081632 0.31211616404088999 0 0.42420497341471841 0.32516151660366771 0 0.40184121301557668 0.30678024061641418 0 0.41169384258873692 0.3030193229363472 0 0.41431845905081632 0.31211616404088999 0 0.4080647950624654 0.29173952990842672 0 0.41169384258873692 0.3030193229363472 0 0.42111158276914429 0.29961990628964941 0 0.40184121301557668 0.30678024061641418 0 0.4080647950624654 0.29173952990842672 0 0.41169384258873692 0.3030193229363472 0 0.41169384258873692 0.3030193229363472 0 0.42111158276914429 0.29961990628964941 0 0.41431845905081632 0.31211616404088999 0 0.42111158276914429 0.29961990628964941 0 0.42420497341471841 0.32516151660366771 0 0.42111158276914429 0.29961990628964941 0 0.42968026012840121 0.30115694743242971 0 0.43130474666914309 0.31304161877190062 0 0.42968026012840121 0.30115694743242971 0 0.44258646999382029 0.30990113159980692 0 0.42968026012840121 0.30115694743242971 0 0.44258646999382029 0.30990113159980692 0 0.43130474666914309 0.31304161877190062 0 0.42111158276914429 0.29961990628964941 0 0.42800801910193731 0.28582653817902792 0 0.41801819212357011 0.2740782959756311 0 0.42968026012840121 0.30115694743242971 0 0.42800801910193731 0.28582653817902792 0 0.44797459424715858 0.28113195035900113 0 0.42111158276914429 0.29961990628964941 0 0.42968026012840121 0.30115694743242971 0 0.42800801910193731 0.28582653817902792 0 0.4349067289361882 0.26981889711766149 0 0.41801819212357011 0.2740782959756311 0 0.42717012070777932 0.25569493195645271 0 0.42800801910193731 0.28582653817902792 0 0.4349067289361882 0.26981889711766149 0 0.44797459424715858 0.28113195035900113 0 0.42800801910193731 0.28582653817902792 0 0.4349067289361882 0.26981889711766149 0 0.41801819212357011 0.2740782959756311 0 0.40237095019481112 0.27711100542787093 0 0.4080647950624654 0.29173952990842672 0 0.41801819212357011 0.2740782959756311 0 0.40237095019481112 0.27711100542787093 0 0.40097752291506289 0.25902709479471048 0 0.41801819212357011 0.2740782959756311 0 0.40097752291506289 0.25902709479471048 0 0.42717012070777932 0.25569493195645271 0 0.40097752291506289 0.25902709479471048 0 0.41801819212357011 0.2740782959756311 0 0.42717012070777932 0.25569493195645271 0 0.40097752291506289 0.25902709479471048 0 0.42717012070777932 0.25569493195645271 0 0.41286841049430861 0.24788583003777651 0 0.42717012070777932 0.25569493195645271 0 0.45336271850049548 0.25236276911819511 0 0.42717012070777932 0.25569493195645271 0 0.45336271850049548 0.25236276911819511 0 0.44134696414428898 0.24814556957704689 0 0.4349067289361882 0.26981889711766149 0 0.42717012070777932 0.25569493195645271 0 0.45336271850049548 0.25236276911819511 0 0.44797459424715858 0.28113195035900113 0 0.45336271850049548 0.25236276911819511 0 0.4349067289361882 0.26981889711766149 0 0.44797459424715858 0.28113195035900113 0 0.45336271850049548 0.25236276911819511 0 0.44797459424715858 0.28113195035900113 0 0.46860043072286323 0.26090172283992602 0 0.47518926652314969 0.27560515809727743 0 0.44797459424715858 0.28113195035900113 0 0.45336271850049548 0.25236276911819511 0 0.46860043072286323 0.26090172283992602 0 0.45336271850049548 0.25236276911819511 0 0.46860043072286323 0.26090172283992602 0 0.48180965237011408 0.2487438147612096 0 0.45336271850049548 0.25236276911819511 0 0.48180965237011408 0.2487438147612096 0 0.46860043072286323 0.26090172283992602 0 0.48241006781490819 0.26268970127635521 0 0.48180965237011408 0.2487438147612096 0 0.46860043072286323 0.26090172283992602 0 0.48241006781490819 0.26268970127635521 0 0.47518926652314969 0.27560515809727743 0 0.48241006781490819 0.26268970127635521 0 0.47518926652314969 0.27560515809727743 0 0.48864569132575902 0.27555399191102209 0 0.48864569132575902 0.27555399191102209 0 0.5 0.25788891558126559 0 0.5 0.28784398070901179 0 0.48241006781490819 0.26268970127635521 0 0.5 0.25788891558126559 0 0.48180965237011408 0.2487438147612096 0 0.48241006781490819 0.26268970127635521 0 0.48864569132575902 0.27555399191102209 0 0.5 0.25788891558126559 0 0.49687855588093471 0.30562269631142192 0 0.5 0.28784398070901179 0 0.5 0.31779904583675789 0 0.48491490847636098 0.30901068293115042 0 0.49687855588093471 0.30562269631142192 0 0.48562912229073679 0.29374220389120048 0 0.48491490847636098 0.30901068293115042 0 0.49687855588093471 0.30562269631142192 0 0.48893996521802741 0.32077530068026477 0 0.48864569132575902 0.27555399191102209 0 0.5 0.28784398070901179 0 0.48562912229073679 0.29374220389120048 0 0.49687855588093471 0.30562269631142192 0 0.5 0.28784398070901179 0 0.48562912229073679 0.29374220389120048 0 0.47518926652314969 0.27560515809727743 0 0.48864569132575902 0.27555399191102209 0 0.48562912229073679 0.29374220389120048 0 0.47518926652314969 0.27560515809727743 0 0.48562912229073679 0.29374220389120048 0 0.46816558308298489 0.29083511245767268 0 0.48562912229073679 0.29374220389120048 0 0.47222103054853309 0.30536857664361422 0 0.46816558308298489 0.29083511245767268 0 0.48491490847636098 0.30901068293115042 0 0.48562912229073679 0.29374220389120048 0 0.47222103054853309 0.30536857664361422 0 0.48491490847636098 0.30901068293115042 0 0.47222103054853309 0.30536857664361422 0 0.47648252662976798 0.31886183994020412 0 0.47222103054853309 0.30536857664361422 0 0.45866337291811637 0.30169365927876157 0 0.46179392227446953 0.32291451832445861 0 0.45866337291811637 0.30169365927876157 0 0.44258646999382029 0.30990113159980692 0 0.46179392227446953 0.32291451832445861 0 0.47222103054853309 0.30536857664361422 0 0.45866337291811637 0.30169365927876157 0 0.46816558308298489 0.29083511245767268 0 0.44797459424715858 0.28113195035900113 0 0.45866337291811637 0.30169365927876157 0 0.46816558308298489 0.29083511245767268 0 0.44797459424715858 0.28113195035900113 0 0.47518926652314969 0.27560515809727743 0 0.46816558308298489 0.29083511245767268 0 0.44797459424715858 0.28113195035900113 0 0.44258646999382029 0.30990113159980692 0 0.42968026012840121 0.30115694743242971 0 0.44797459424715858 0.28113195035900113 0 0.44258646999382029 0.30990113159980692 0 0.44797459424715858 0.28113195035900113 0 0.45866337291811637 0.30169365927876157 0 0.44258646999382029 0.30990113159980692 0 0.44258646999382029 0.30990113159980692 0 0.46179392227446953 0.32291451832445861 0 0.44258646999382029 0.30990113159980692 0 0.43894044703962998 0.32936859193394902 0 0.46179392227446953 0.32291451832445861 0 0.44258646999382029 0.30990113159980692 0 0.43894044703962998 0.32936859193394902 0 0.44258646999382029 0.30990113159980692 0 0.43894044703962998 0.32936859193394902 0 0.43130474666914309 0.31304161877190062 0 0.43894044703962998 0.32936859193394902 0 0.45181909328986353 0.33594590439129729 0 0.43529442408543872 0.34883605226809089 0 0.43894044703962998 0.32936859193394902 0 0.45181909328986353 0.33594590439129729 0 0.46179392227446953 0.32291451832445861 0 0.45181909328986353 0.33594590439129729 0 0.46495921083649527 0.33796731498031379 0 0.45493863887308472 0.34850758154427958 0 0.45181909328986353 0.33594590439129729 0 0.46495921083649527 0.33796731498031379 0 0.46179392227446953 0.32291451832445861 0 0.47648252662976798 0.31886183994020412 0 0.48100137455512032 0.33592790504910791 0 0.48893996521802741 0.32077530068026477 0 0.46179392227446953 0.32291451832445861 0 0.47648252662976798 0.31886183994020412 0 0.48100137455512032 0.33592790504910791 0 0.47222103054853309 0.30536857664361422 0 0.46179392227446953 0.32291451832445861 0 0.47648252662976798 0.31886183994020412 0 0.48491490847636098 0.30901068293115042 0 0.47648252662976798 0.31886183994020412 0 0.48893996521802741 0.32077530068026477 0 0.46179392227446953 0.32291451832445861 0 0.48100137455512032 0.33592790504910791 0 0.46495921083649527 0.33796731498031379 0 0.48100137455512032 0.33592790504910791 0 0.47458285366073072 0.34817911082046721 0 0.46495921083649527 0.33796731498031379 0 0.46179392227446953 0.32291451832445861 0 0.48100137455512032 0.33592790504910791 0 0.48100137455512032 0.33592790504910791 0 0.47458285366073072 0.34817911082046721 0 0.48100137455512032 0.33592790504910791 0 0.48893996521802741 0.32077530068026477 0 0.48100137455512032 0.33592790504910791 0 0.4984937498586452 0.34777929695842291 0 0.5 0.31779904583675789 0 0.48893996521802741 0.32077530068026477 0 0.4984937498586452 0.34777929695842291 0 0.5 0.31779904583675789 0 0.4984937498586452 0.34777929695842291 0 0.50000000000000433 0.34775411096450393 0 0.48100137455512032 0.33592790504910791 0 0.48893996521802741 0.32077530068026477 0 0.4984937498586452 0.34777929695842291 0 0.49687855588093471 0.30562269631142192 0 0.48893996521802741 0.32077530068026477 0 0.49687855588093471 0.30562269631142192 0 0.5 0.31779904583675789 0 0.48893996521802741 0.32077530068026477 0 0.5 0.37175840028027313 0 0.48688174284785979 0.35971936811564431 0 0.50000000000000433 0.34775411096450393 0 0.5 0.37175840028027313 0 0.48688174284785979 0.35971936811564431 0 0.48177296974371542 0.3780796821533936 0 0.48100137455512032 0.33592790504910791 0 0.4984937498586452 0.34777929695842291 0 0.47458285366073072 0.34817911082046721 0 0.48688174284785979 0.35971936811564431 0 0.4984937498586452 0.34777929695842291 0 0.47458285366073072 0.34817911082046721 0 0.48688174284785979 0.35971936811564431 0 0.4984937498586452 0.34777929695842291 0 0.50000000000000433 0.34775411096450393 0 0.4984937498586452 0.34777929695842291 0 0.47458285366073072 0.34817911082046721 0 0.4984937498586452 0.34777929695842291 0 0.50000000000000433 0.34775411096450393 0 0.48688174284785979 0.35971936811564431 0 0.47458285366073072 0.34817911082046721 0 0.46644088382406917 0.36371991056145853 0 0.47458285366073072 0.34817911082046721 0 0.46644088382406917 0.36371991056145853 0 0.46644088382406917 0.36371991056145853 0 0.45829891398740957 0.37926071030245079 0 0.48177296974371542 0.3780796821533936 0 0.48688174284785979 0.35971936811564431 0 0.46644088382406917 0.36371991056145853 0 0.48177296974371542 0.3780796821533936 0 0.46644088382406917 0.36371991056145853 0 0.45829891398740957 0.37926071030245079 0 0.46644088382406917 0.36371991056145853 0 0.45450488254489102 0.36219879314378839 0 0.45829891398740957 0.37926071030245079 0 0.46495921083649527 0.33796731498031379 0 0.47458285366073072 0.34817911082046721 0 0.45493863887308472 0.34850758154427958 0 0.47458285366073072 0.34817911082046721 0 0.45493863887308472 0.34850758154427958 0 0.47458285366073072 0.34817911082046721 0 0.46644088382406917 0.36371991056145853 0 0.45493863887308472 0.34850758154427958 0 0.46644088382406917 0.36371991056145853 0 0.45450488254489102 0.36219879314378839 0 0.45493863887308472 0.34850758154427958 0 0.45181909328986353 0.33594590439129729 0 0.45493863887308472 0.34850758154427958 0 0.43529442408543872 0.34883605226809089 0 0.45493863887308472 0.34850758154427958 0 0.44448268479035308 0.35511800724889642 0 0.43529442408543872 0.34883605226809089 0 0.45493863887308472 0.34850758154427958 0 0.43529442408543872 0.34883605226809089 0 0.45450488254489102 0.36219879314378839 0 0.45493863887308472 0.34850758154427958 0 0.44448268479035308 0.35511800724889642 0 0.44448268479035308 0.35511800724889642 0 0.44279863902385319 0.36498191861006751 0 0.43487683942449812 0.35106569067825599 0 0.44448268479035308 0.35511800724889642 0 0.43529442408543872 0.34883605226809089 0 0.43487683942449812 0.35106569067825599 0 0.45450488254489102 0.36219879314378839 0 0.44279863902385319 0.36498191861006751 0 0.45829891398740957 0.37926071030245079 0 0.44279863902385319 0.36498191861006751 0 0.45829891398740957 0.37926071030245079 0 0.45450488254489102 0.36219879314378839 0 0.44448268479035308 0.35511800724889642 0 0.44279863902385319 0.36498191861006751 0 0.42892444364691579 0.3641293946929936 0 0.42225433889660879 0.37545697575276449 0 0.43605286711449009 0.38080977408974359 0 0.44279863902385319 0.36498191861006751 0 0.42892444364691579 0.3641293946929936 0 0.43605286711449009 0.38080977408974359 0 0.44279863902385319 0.36498191861006751 0 0.42892444364691579 0.3641293946929936 0 0.42729836406029548 0.35070312691768563 0 0.42892444364691579 0.3641293946929936 0 0.41660844069210962 0.35988002802349189 0 0.42225433889660879 0.37545697575276449 0 0.41660844069210962 0.35988002802349189 0 0.40918213701441342 0.3736144609854074 0 0.42225433889660879 0.37545697575276449 0 0.41660844069210962 0.35988002802349189 0 0.40918213701441342 0.3736144609854074 0 0.40205795884979889 0.36380219258680641 0 0.40642652845595439 0.35168475710611302 0 0.41593005466970517 0.35003896004439389 0 0.41338688547046137 0.33788792813028518 0 0.41660844069210962 0.35988002802349189 0 0.40642652845595439 0.35168475710611302 0 0.40205795884979889 0.36380219258680641 0 0.41660844069210962 0.35988002802349189 0 0.40642652845595439 0.35168475710611302 0 0.41593005466970517 0.35003896004439389 0 0.41660844069210962 0.35988002802349189 0 0.41593005466970517 0.35003896004439389 0 0.42729836406029548 0.35070312691768563 0 0.42729836406029548 0.35070312691768563 0 0.41338688547046137 0.33788792813028518 0 0.41593005466970517 0.35003896004439389 0 0.42729836406029548 0.35070312691768563 0 0.41338688547046137 0.33788792813028518 0 0.42892444364691579 0.3641293946929936 0 0.41660844069210962 0.35988002802349189 0 0.42729836406029548 0.35070312691768563 0 0.42892444364691579 0.3641293946929936 0 0.42729836406029548 0.35070312691768563 0 0.44279863902385319 0.36498191861006751 0 0.42729836406029548 0.35070312691768563 0 0.43487683942449812 0.35106569067825599 0 0.44279863902385319 0.36498191861006751 0 0.42729836406029548 0.35070312691768563 0 0.43109136567724748 0.3489063315667284 0 0.43529442408543872 0.34883605226809089 0 0.42729836406029548 0.35070312691768563 0 0.43109136567724748 0.3489063315667284 0 0.43487683942449812 0.35106569067825599 0 0.43109136567724748 0.3489063315667284 0 0.43529442408543872 0.34883605226809089 0 0.43487683942449812 0.35106569067825599 0 0.43529442408543872 0.34883605226809089 0 0.43487683942449812 0.35106569067825599 0 0.42729836406029548 0.35070312691768563 0 0.42420497341471841 0.32516151660366771 0 0.43894044703962998 0.32936859193394902 0 0.43529442408543872 0.34883605226809089 0 0.43894044703962998 0.32936859193394902 0 0.43109136567724748 0.3489063315667284 0 0.43529442408543872 0.34883605226809089 0 0.42729836406029548 0.35070312691768563 0 0.43109136567724748 0.3489063315667284 0 0.42420497341471841 0.32516151660366771 0 0.43894044703962998 0.32936859193394902 0 0.43109136567724748 0.3489063315667284 0 0.42420497341471841 0.32516151660366771 0 0.43894044703962998 0.32936859193394902 0 0.43130474666914309 0.31304161877190062 0 0.42420497341471841 0.32516151660366771 0 0.42111158276914429 0.29961990628964941 0 0.43130474666914309 0.31304161877190062 0 0.42420497341471841 0.32516151660366771 0 0.40184121301557668 0.30678024061641418 0 0.41431845905081632 0.31211616404088999 0 0.41140534993910638 0.32360132811636988 0 0.41431845905081632 0.31211616404088999 0 0.42420497341471841 0.32516151660366771 0 0.41140534993910638 0.32360132811636988 0 0.42729836406029548 0.35070312691768563 0 0.42420497341471841 0.32516151660366771 0 0.41338688547046137 0.33788792813028518 0 0.42420497341471841 0.32516151660366771 0 0.41140534993910638 0.32360132811636988 0 0.41338688547046137 0.33788792813028518 0 0.41140534993910638 0.32360132811636988 0 0.41338688547046137 0.33788792813028518 0 0.39947540688062583 0.32507272934288628 0 0.41338688547046137 0.33788792813028518 0 0.39947540688062583 0.32507272934288628 0 0.40642652845595439 0.35168475710611302 0 0.41338688547046137 0.33788792813028518 0 0.39105145014164849 0.3414869239971704 0 0.41338688547046137 0.33788792813028518 0 0.39105145014164849 0.3414869239971704 0 0.39947540688062583 0.32507272934288628 0 0.40184121301557668 0.30678024061641418 0 0.41140534993910638 0.32360132811636988 0 0.39947540688062583 0.32507272934288628 0 0.40184121301557668 0.30678024061641418 0 0.39947540688062583 0.32507272934288628 0 0.38242981621443428 0.31397380775534678 0 0.36562923609293069 0.32366592916769399 0 0.38242981621443428 0.31397380775534678 0 0.38128435600444488 0.32837669887387311 0 0.39947540688062583 0.32507272934288628 0 0.38242981621443428 0.31397380775534678 0 0.38128435600444488 0.32837669887387311 0 0.39105145014164849 0.3414869239971704 0 0.39947540688062583 0.32507272934288628 0 0.38128435600444488 0.32837669887387311 0 0.36518945593320651 0.34509967395937191 0 0.39105145014164849 0.3414869239971704 0 0.38128435600444488 0.32837669887387311 0 0.36518945593320651 0.34509967395937191 0 0.39105145014164849 0.3414869239971704 0 0.3855881021147175 0.35910908792858098 0 0.36474967577348072 0.36653341875104961 0 0.3855881021147175 0.35910908792858098 0 0.3855881021147175 0.35910908792858098 0 0.39248458597179969 0.37472262889043839 0 0.3773824667175657 0.37546563606013739 0 0.36474967577348072 0.36653341875104961 0 0.3855881021147175 0.35910908792858098 0 0.3773824667175657 0.37546563606013739 0 0.40918213701441342 0.3736144609854074 0 0.39248458597179969 0.37472262889043839 0 0.40205795884979889 0.36380219258680641 0 0.3855881021147175 0.35910908792858098 0 0.39248458597179969 0.37472262889043839 0 0.40205795884979889 0.36380219258680641 0 0.40642652845595439 0.35168475710611302 0 0.39105145014164849 0.3414869239971704 0 0.3855881021147175 0.35910908792858098 0 0.40642652845595439 0.35168475710611302 0 0.3855881021147175 0.35910908792858098 0 0.40642652845595439 0.35168475710611302 0 0.3855881021147175 0.35910908792858098 0 0.40205795884979889 0.36380219258680641 0 0.39221066862400811 0.40518894945558848 0 0.39940032860097008 0.38986983405391068 0 0.41033309730305728 0.40785957742124029 0 0.40918213701441342 0.3736144609854074 0 0.39248458597179969 0.37472262889043839 0 0.39940032860097008 0.38986983405391068 0 0.39248458597179969 0.37472262889043839 0 0.39940032860097008 0.38986983405391068 0 0.38026367080056678 0.39066664182047522 0 0.39248458597179969 0.37472262889043839 0 0.3773824667175657 0.37546563606013739 0 0.38026367080056678 0.39066664182047522 0 0.39221066862400811 0.40518894945558848 0 0.39940032860097008 0.38986983405391068 0 0.38026367080056678 0.39066664182047522 0 0.39221066862400811 0.40518894945558848 0 0.38026367080056678 0.39066664182047522 0 0.37744029411777058 0.41252948965876268 0 0.39221066862400811 0.40518894945558848 0 0.37744029411777058 0.41252948965876268 0 0.39361595229767549 0.42501920432355378 0 0.365542703577178 0.42914551292816783 0 0.39361595229767549 0.42501920432355378 0 0.37809165231809289 0.44568724501072521 0 0.365542703577178 0.42914551292816783 0 0.37744029411777058 0.41252948965876268 0 0.39361595229767549 0.42501920432355378 0 0.365542703577178 0.42914551292816783 0 0.39361595229767549 0.42501920432355378 0 0.39361595229767549 0.42501920432355378 0 0.41035062152962531 0.4256058815429955 0 0.40092741287151468 0.44093224530230651 0 0.39361595229767549 0.42501920432355378 0 0.40092741287151468 0.44093224530230651 0 0.37809165231809289 0.44568724501072521 0 0.39361595229767549 0.42501920432355378 0 0.41033309730305728 0.40785957742124029 0 0.41035062152962531 0.4256058815429955 0 0.39221066862400811 0.40518894945558848 0 0.39361595229767549 0.42501920432355378 0 0.41033309730305728 0.40785957742124029 0 0.41033309730305728 0.40785957742124029 0 0.41035062152962531 0.4256058815429955 0 0.42646345733135449 0.42088686527347441 0 0.41035062152962531 0.4256058815429955 0 0.4216403136361262 0.43569606407888728 0 0.42646345733135449 0.42088686527347441 0 0.41035062152962531 0.4256058815429955 0 0.4216403136361262 0.43569606407888728 0 0.40092741287151468 0.44093224530230651 0 0.43504649219903713 0.43385430946487219 0 0.42646345733135449 0.42088686527347441 0 0.44292677264660579 0.42392515796168401 0 0.4216403136361262 0.43569606407888728 0 0.43504649219903713 0.43385430946487219 0 0.42646345733135449 0.42088686527347441 0 0.4216403136361262 0.43569606407888728 0 0.43504649219903713 0.43385430946487219 0 0.4309855774719657 0.44262377444488737 0 0.41033309730305728 0.40785957742124029 0 0.42646345733135449 0.42088686527347441 0 0.43473852811684172 0.40482082561786309 0 0.42646345733135449 0.42088686527347441 0 0.43473852811684172 0.40482082561786309 0 0.44292677264660579 0.42392515796168401 0 0.43473852811684172 0.40482082561786309 0 0.42003555557297712 0.38799376876492359 0 0.43605286711449009 0.38080977408974359 0 0.41033309730305728 0.40785957742124029 0 0.43473852811684172 0.40482082561786309 0 0.42003555557297712 0.38799376876492359 0 0.39940032860097008 0.38986983405391068 0 0.41033309730305728 0.40785957742124029 0 0.42003555557297712 0.38799376876492359 0 0.40918213701441342 0.3736144609854074 0 0.39940032860097008 0.38986983405391068 0 0.42003555557297712 0.38799376876492359 0 0.40918213701441342 0.3736144609854074 0 0.42003555557297712 0.38799376876492359 0 0.42225433889660879 0.37545697575276449 0 0.42003555557297712 0.38799376876492359 0 0.42225433889660879 0.37545697575276449 0 0.43605286711449009 0.38080977408974359 0 0.44279863902385319 0.36498191861006751 0 0.43605286711449009 0.38080977408974359 0 0.45829891398740957 0.37926071030245079 0 0.43605286711449009 0.38080977408974359 0 0.44916269767969552 0.39669925538146661 0 0.45829891398740957 0.37926071030245079 0 0.43473852811684172 0.40482082561786309 0 0.43605286711449009 0.38080977408974359 0 0.44916269767969552 0.39669925538146661 0 0.43473852811684172 0.40482082561786309 0 0.44916269767969552 0.39669925538146661 0 0.45819524916971172 0.41557138043250991 0 0.44916269767969552 0.39669925538146661 0 0.47914945699370431 0.3984681476517854 0 0.45819524916971172 0.41557138043250991 0 0.44916269767969552 0.39669925538146661 0 0.45829891398740957 0.37926071030245079 0 0.47914945699370431 0.3984681476517854 0 0.45829891398740957 0.37926071030245079 0 0.47914945699370431 0.3984681476517854 0 0.44916269767969552 0.39669925538146661 0 0.45829891398740957 0.37926071030245079 0 0.45829891398740957 0.37926071030245079 0 0.48177296974371542 0.3780796821533936 0 0.47914945699370431 0.3984681476517854 0 0.47914945699370431 0.3984681476517854 0 0.5 0.39471699264069632 0 0.49999999999999928 0.41767558500111929 0 0.48177296974371542 0.3780796821533936 0 0.47914945699370431 0.3984681476517854 0 0.5 0.39471699264069632 0 0.5 0.37175840028027313 0 0.48177296974371542 0.3780796821533936 0 0.5 0.39471699264069632 0 0.48950419912568011 0.43203648207583117 0 0.49999999999999928 0.41767558500111929 0 0.47941257652712138 0.42859526255965119 0 0.48950419912568011 0.43203648207583117 0 0.49999999999999928 0.41767558500111929 0 0.50000000000000022 0.44212157098762489 0 0.49999999999999928 0.41767558500111929 0 0.47638758820359789 0.4177788365799131 0 0.47941257652712138 0.42859526255965119 0 0.47914945699370431 0.3984681476517854 0 0.49999999999999928 0.41767558500111929 0 0.47638758820359789 0.4177788365799131 0 0.47914945699370431 0.3984681476517854 0 0.49999999999999928 0.41767558500111929 0 0.47914945699370431 0.3984681476517854 0 0.47638758820359789 0.4177788365799131 0 0.45819524916971172 0.41557138043250991 0 0.47638758820359789 0.4177788365799131 0 0.46959145424244531 0.42892785421681912 0 0.47941257652712138 0.42859526255965119 0 0.48950419912568011 0.43203648207583117 0 0.47941257652712138 0.42859526255965119 0 0.47860421997559988 0.43975350975492877 0 0.46959145424244531 0.42892785421681912 0 0.47941257652712138 0.42859526255965119 0 0.47860421997559988 0.43975350975492877 0 0.46959145424244531 0.42892785421681912 0 0.45720843995119947 0.43738544852223271 0 0.45819524916971172 0.41557138043250991 0 0.46959145424244531 0.42892785421681912 0 0.45720843995119947 0.43738544852223271 0 0.47860421997559988 0.43975350975492877 0 0.47638758820359789 0.4177788365799131 0 0.46959145424244531 0.42892785421681912 0 0.45819524916971172 0.41557138043250991 0 0.43473852811684172 0.40482082561786309 0 0.45819524916971172 0.41557138043250991 0 0.44292677264660579 0.42392515796168401 0 0.45720843995119947 0.43738544852223271 0 0.45819524916971172 0.41557138043250991 0 0.44292677264660579 0.42392515796168401 0 0.45720843995119947 0.43738544852223271 0 0.44292677264660579 0.42392515796168401 0 0.44501475256406542 0.43710487641451851 0 0.43504649219903713 0.43385430946487219 0 0.44292677264660579 0.42392515796168401 0 0.44501475256406542 0.43710487641451851 0 0.44501475256406542 0.43710487641451851 0 0.44086930591740259 0.443703986550611 0 0.44426520485267701 0.44828521544284999 0 0.43504649219903713 0.43385430946487219 0 0.44501475256406542 0.43710487641451851 0 0.44086930591740259 0.443703986550611 0 0.44576605402647751 0.45131382091928901 0 0.43097115028835131 0.45382894378787952 0 0.4371491165808723 0.44919465112914592 0 0.44086930591740259 0.443703986550611 0 0.44106718496795649 0.44783878756079798 0 0.4371491165808723 0.44919465112914592 0 0.44106718496795649 0.44783878756079798 0 0.44576605402647751 0.45131382091928901 0 0.4371491165808723 0.44919465112914592 0 0.44086930591740259 0.443703986550611 0 0.44426520485267701 0.44828521544284999 0 0.44106718496795649 0.44783878756079798 0 0.44426520485267701 0.44828521544284999 0 0.44576605402647751 0.45131382091928901 0 0.44086930591740259 0.443703986550611 0 0.44106718496795649 0.44783878756079798 0 0.44426520485267701 0.44828521544284999 0 0.45720843995119947 0.43738544852223271 0 0.44501475256406542 0.43710487641451851 0 0.44426520485267701 0.44828521544284999 0 0.44576605402647751 0.45131382091928901 0 0.44334270512280699 0.46695283516179431 0 0.45751300038554987 0.46615712058798953 0 0.44426520485267701 0.44828521544284999 0 0.45751300038554987 0.46615712058798953 0 0.44576605402647751 0.45131382091928901 0 0.44334270512280699 0.46695283516179431 0 0.42744619309891668 0.4675425472795256 0 0.44426520485267701 0.44828521544284999 0 0.44576605402647751 0.45131382091928901 0 0.45751300038554987 0.46615712058798953 0 0.44426520485267701 0.44828521544284999 0 0.45751300038554987 0.46615712058798953 0 0.47213260242633898 0.44992772785007767 0 0.44426520485267701 0.44828521544284999 0 0.47213260242633898 0.44992772785007767 0 0.45720843995119947 0.43738544852223271 0 0.47860421997559988 0.43975350975492877 0 0.45720843995119947 0.43738544852223271 0 0.44426520485267701 0.44828521544284999 0 0.47213260242633898 0.44992772785007767 0 0.47213260242633898 0.44992772785007767 0 0.47860421997559988 0.43975350975492877 0 0.50000000000000067 0.45157024025730719 0 0.45720843995119947 0.43738544852223271 0 0.47213260242633898 0.44992772785007767 0 0.47860421997559988 0.43975350975492877 0 0.47213260242633898 0.44992772785007767 0 0.48064266697128027 0.4673483066551633 0 0.50000000000000067 0.45157024025730719 0 0.45751300038554987 0.46615712058798953 0 0.47213260242633898 0.44992772785007767 0 0.48064266697128027 0.4673483066551633 0 0.48064266697128027 0.4673483066551633 0 0.5 0.46843982966384828 0 0.50000000000000067 0.45157024025730719 0 0.47860421997559988 0.43975350975492877 0 0.50000000000000022 0.44212157098762489 0 0.47860421997559988 0.43975350975492877 0 0.50000000000000067 0.45157024025730719 0 0.50000000000000022 0.44212157098762489 0 0.47213260242633898 0.44992772785007767 0 0.50000000000000067 0.45157024025730719 0 0.48950419912568011 0.43203648207583117 0 0.47860421997559988 0.43975350975492877 0 0.50000000000000022 0.44212157098762489 0 0.48834007405180069 0.49233461120087918 0 0.50000000000000222 0.48530941907038949 0 0.47076079591842229 0.48402902573312923 0 0.48834007405180069 0.49233461120087918 0 0.5 0.5 0 0.48259950028877657 0.49999999999999922 0 0.50000000000000222 0.48530941907038949 0 0.47076079591842229 0.48402902573312923 0 0.48834007405180069 0.49233461120087918 0 0.5 0.5 0 0.50000000000000222 0.48530941907038949 0 0.50000000000000222 0.48530941907038949 0 0.48785086572242647 0.47628164528063233 0 0.47076079591842229 0.48402902573312923 0 0.48064266697128027 0.4673483066551633 0 0.5 0.46843982966384828 0 0.48785086572242647 0.47628164528063233 0 0.5 0.46843982966384828 0 0.50000000000000222 0.48530941907038949 0 0.48785086572242647 0.47628164528063233 0 0.45751300038554987 0.46615712058798953 0 0.48064266697128027 0.4673483066551633 0 0.47076079591842229 0.48402902573312923 0 0.48064266697128027 0.4673483066551633 0 0.48785086572242647 0.47628164528063233 0 0.47076079591842229 0.48402902573312923 0 0.47076079591842229 0.48402902573312923 0 0.48259950028877657 0.49999999999999922 0 0.45965124302753141 0.5 0 0.48834007405180069 0.49233461120087918 0 0.47076079591842229 0.48402902573312923 0 0.48259950028877657 0.49999999999999922 0 0.47076079591842229 0.48402902573312923 0 0.48259950028877657 0.49999999999999922 0 0.47076079591842229 0.48402902573312923 0 0.45965124302753141 0.5 0 0.44264557298028417 0.48279785186037327 0 0.45751300038554987 0.46615712058798953 0 0.47076079591842229 0.48402902573312923 0 0.47076079591842229 0.48402902573312923 0 0.44264557298028417 0.48279785186037327 0 0.45751300038554987 0.46615712058798953 0 0.47076079591842229 0.48402902573312923 0 0.44264557298028417 0.48279785186037327 0 0.44334270512280699 0.46695283516179431 0 0.44264557298028417 0.48279785186037327 0 0.42744619309891668 0.4675425472795256 0 0.44334270512280699 0.46695283516179431 0 0.45751300038554987 0.46615712058798953 0 0.44264557298028417 0.48279785186037327 0 0.45965124302753141 0.5 0 0.44264557298028417 0.48279785186037327 0 0.43670298576628619 0.5 0 0.44264557298028417 0.48279785186037327 0 0.42814010978677508 0.48883471415535268 0 0.41453035004214622 0.48156667798761449 0 0.43670298576628619 0.5 0 0.42814010978677508 0.48883471415535268 0 0.41868153035838401 0.49097432677342312 0 0.44264557298028417 0.48279785186037327 0 0.43670298576628619 0.5 0 0.42814010978677508 0.48883471415535268 0 0.43670298576628619 0.5 0 0.41375472850504103 0.5 0 0.41868153035838401 0.49097432677342312 0 0.41375472850504103 0.5 0 0.41868153035838401 0.49097432677342312 0 0.40912633217135602 0.48377127363976219 0 0.42814010978677508 0.48883471415535268 0 0.41868153035838401 0.49097432677342312 0 0.41453035004214622 0.48156667798761449 0 0.41868153035838401 0.49097432677342312 0 0.40912633217135602 0.48377127363976219 0 0.41453035004214622 0.48156667798761449 0 0.40882198151684829 0.470458307354371 0 0.40912633217135602 0.48377127363976219 0 0.42744619309891668 0.4675425472795256 0 0.40912633217135602 0.48377127363976219 0 0.42744619309891668 0.4675425472795256 0 0.40912633217135602 0.48377127363976219 0 0.41453035004214622 0.48156667798761449 0 0.42744619309891668 0.4675425472795256 0 0.40882198151684829 0.470458307354371 0 0.40912633217135602 0.48377127363976219 0 0.40257181831080802 0.47789339995616598 0 0.44264557298028417 0.48279785186037327 0 0.41453035004214622 0.48156667798761449 0 0.44264557298028417 0.48279785186037327 0 0.41453035004214622 0.48156667798761449 0 0.42744619309891668 0.4675425472795256 0 0.44576605402647751 0.45131382091928901 0 0.42744619309891668 0.4675425472795256 0 0.44576605402647751 0.45131382091928901 0 0.43097115028835131 0.45382894378787952 0 0.42744619309891668 0.4675425472795256 0 0.43097115028835131 0.45382894378787952 0 0.42744619309891668 0.4675425472795256 0 0.41709851720120961 0.46055572465752248 0 0.44086930591740259 0.443703986550611 0 0.4309855774719657 0.44262377444488737 0 0.4371491165808723 0.44919465112914592 0 0.43504649219903713 0.43385430946487219 0 0.44086930591740259 0.443703986550611 0 0.4309855774719657 0.44262377444488737 0 0.43097115028835131 0.45382894378787952 0 0.4309855774719657 0.44262377444488737 0 0.4371491165808723 0.44919465112914592 0 0.43097115028835131 0.45382894378787952 0 0.4309855774719657 0.44262377444488737 0 0.41665312800777271 0.44940921386284588 0 0.4216403136361262 0.43569606407888728 0 0.4309855774719657 0.44262377444488737 0 0.41665312800777271 0.44940921386284588 0 0.41665312800777271 0.44940921386284588 0 0.4029362549212489 0.45832899449672349 0 0.40092741287151468 0.44093224530230651 0 0.4216403136361262 0.43569606407888728 0 0.41665312800777271 0.44940921386284588 0 0.40092741287151468 0.44093224530230651 0 0.40882198151684829 0.470458307354371 0 0.42744619309891668 0.4675425472795256 0 0.41709851720120961 0.46055572465752248 0 0.43097115028835131 0.45382894378787952 0 0.41665312800777271 0.44940921386284588 0 0.41709851720120961 0.46055572465752248 0 0.41665312800777271 0.44940921386284588 0 0.41709851720120961 0.46055572465752248 0 0.4029362549212489 0.45832899449672349 0 0.40882198151684829 0.470458307354371 0 0.41709851720120961 0.46055572465752248 0 0.4029362549212489 0.45832899449672349 0 0.40882198151684829 0.470458307354371 0 0.4029362549212489 0.45832899449672349 0 0.3944208343110962 0.47305259584339332 0 0.4029362549212489 0.45832899449672349 0 0.38943508825963058 0.45629052964312111 0 0.3944208343110962 0.47305259584339332 0 0.4029362549212489 0.45832899449672349 0 0.40092741287151468 0.44093224530230651 0 0.38943508825963058 0.45629052964312111 0 0.40092741287151468 0.44093224530230651 0 0.37809165231809289 0.44568724501072521 0 0.38943508825963058 0.45629052964312111 0 0.37809165231809289 0.44568724501072521 0 0.38943508825963058 0.45629052964312111 0 0.37844435483634198 0.4675903904274426 0 0.38943508825963058 0.45629052964312111 0 0.37844435483634198 0.4675903904274426 0 0.3944208343110962 0.47305259584339332 0 0.37844435483634198 0.4675903904274426 0 0.38120033573297152 0.48442634992442057 0 0.3944208343110962 0.47305259584339332 0 0.38120033573297152 0.48442634992442057 0 0.3944208343110962 0.47305259584339332 0 0.39562515835400552 0.48382872387274839 0 0.36196284501337178 0.5 0 0.38120033573297152 0.48442634992442057 0 0.39080647124379558 0.49999999999999922 0 0.38120033573297152 0.48442634992442057 0 0.39080647124379558 0.49999999999999922 0 0.39562515835400552 0.48382872387274839 0 0.40912633217135602 0.48377127363976219 0 0.39080647124379558 0.49999999999999922 0 0.40912633217135602 0.48377127363976219 0 0.39080647124379558 0.49999999999999922 0 0.39562515835400552 0.48382872387274839 0 0.41375472850504103 0.5 0 0.40912633217135602 0.48377127363976219 0 0.39080647124379558 0.49999999999999922 0 0.40912633217135602 0.48377127363976219 0 0.40257181831080802 0.47789339995616598 0 0.39562515835400552 0.48382872387274839 0 0.40882198151684829 0.470458307354371 0 0.40257181831080802 0.47789339995616598 0 0.3944208343110962 0.47305259584339332 0 0.40257181831080802 0.47789339995616598 0 0.3944208343110962 0.47305259584339332 0 0.39562515835400552 0.48382872387274839 0 0.34137977846588119 0.091947059702449957 0 0.3184977734976509 0.082531855017860187 0 0.34137977846588119 0.091947059702449957 0 0.33853514524224232 0.092154422351098803 0 0.3184977734976509 0.082531855017860187 0 0.33853514524224232 0.092154422351098803 0 0.3184977734976509 0.082531855017860187 0 0.3305269393921435 0.093893314460775035 0 0.34137977846588119 0.091947059702449957 0 0.33488127772135701 0.070909675734900868 0 0.3184977734976509 0.082531855017860187 0 0.33488127772135701 0.070909675734900868 0 0.35624300874513559 0.071190975121652081 0 0.33828509493208109 0.051113002016081502 0 0.3184977734976509 0.082531855017860187 0 0.31750720709783492 0.060828210965220328 0 0.30506359630307739 0.067813250175554993 0 0.33488127772135701 0.070909675734900868 0 0.32846421329825382 0.059059627678852658 0 0.31750720709783492 0.060828210965220328 0 0.33488127772135701 0.070909675734900868 0 0.3184977734976509 0.082531855017860187 0 0.31750720709783492 0.060828210965220328 0 0.3184977734976509 0.082531855017860187 0 0.3254096333834442 0.096971455496547829 0 0.3305269393921435 0.093893314460775035 0 0.3184977734976509 0.082531855017860187 0 0.3254096333834442 0.096971455496547829 0 0.31111548734401751 0.094174984339189319 0 0.3254096333834442 0.096971455496547829 0 0.33219394353324039 0.1121017755840282 0 0.31111548734401751 0.094174984339189319 0 0.33219394353324039 0.1121017755840282 0 0.31111548734401751 0.094174984339189319 0 0.33219394353324039 0.1121017755840282 0 0.31151194808720201 0.1150643222194616 0 0.31111548734401751 0.094174984339189319 0 0.33219394353324039 0.1121017755840282 0 0.31151194808720201 0.1150643222194616 0 0.32387679174541939 0.1297141718462434 0 0.33219394353324039 0.1121017755840282 0 0.32387679174541939 0.1297141718462434 0 0.35327239972246333 0.1300285668288671 0 0.33219394353324039 0.1121017755840282 0 0.35327239972246333 0.1300285668288671 0 0.33219394353324039 0.1121017755840282 0 0.34279585490336462 0.1026082003979065 0 0.35159211237321392 0.11222190062690381 0 0.33853514524224232 0.092154422351098803 0 0.3305269393921435 0.093893314460775035 0 0.33650548478629722 0.09727411407467923 0 0.3254096333834442 0.096971455496547829 0 0.33351858274250701 0.1005678965871936 0 0.3305269393921435 0.093893314460775035 0 0.33351858274250701 0.1005678965871936 0 0.3305269393921435 0.093893314460775035 0 0.33650548478629722 0.09727411407467923 0 0.3254096333834442 0.096971455496547829 0 0.33219394353324039 0.1121017755840282 0 0.33351858274250701 0.1005678965871936 0 0.33219394353324039 0.1121017755840282 0 0.33351858274250701 0.1005678965871936 0 0.34279585490336462 0.1026082003979065 0 0.33351858274250701 0.1005678965871936 0 0.34279585490336462 0.1026082003979065 0 0.33650548478629722 0.09727411407467923 0 0.33853514524224232 0.092154422351098803 0 0.34279585490336462 0.1026082003979065 0 0.33650548478629722 0.09727411407467923 0 0.34279585490336462 0.1026082003979065 0 0.35159211237321392 0.11222190062690381 0 0.36426178343411147 0.1013622643870397 0 0.33853514524224232 0.092154422351098803 0 0.34279585490336462 0.1026082003979065 0 0.36426178343411147 0.1013622643870397 0 0.34137977846588119 0.091947059702449957 0 0.33853514524224232 0.092154422351098803 0 0.36426178343411147 0.1013622643870397 0 0.33853514524224232 0.092154422351098803 0 0.36426178343411147 0.1013622643870397 0 0.34137977846588119 0.091947059702449957 0 0.36426178343411147 0.1013622643870397 0 0.33219394353324039 0.1121017755840282 0 0.35159211237321392 0.11222190062690381 0 0.35327239972246333 0.1300285668288671 0 0.35159211237321392 0.11222190062690381 0 0.36649271172908648 0.1176987398754743 0 0.35327239972246333 0.1300285668288671 0 0.35159211237321392 0.11222190062690381 0 0.36649271172908648 0.1176987398754743 0 0.36426178343411147 0.1013622643870397 0 0.36649271172908648 0.1176987398754743 0 0.36938385952287339 0.13266757129752671 0 0.38138511069115272 0.12353481432135879 0 0.36649271172908648 0.1176987398754743 0 0.36426178343411147 0.1013622643870397 0 0.3795225325030368 0.1068242515199407 0 0.36426178343411147 0.1013622643870397 0 0.3795225325030368 0.1068242515199407 0 0.36426178343411147 0.1013622643870397 0 0.3742009225581896 0.091268948227223284 0 0.3795225325030368 0.1068242515199407 0 0.3742009225581896 0.091268948227223284 0 0.35754778501084228 0.087847667021068221 0 0.35624300874513559 0.071190975121652081 0 0.36426178343411147 0.1013622643870397 0 0.3742009225581896 0.091268948227223284 0 0.35754778501084228 0.087847667021068221 0 0.3742009225581896 0.091268948227223284 0 0.35624300874513559 0.071190975121652081 0 0.34137977846588119 0.091947059702449957 0 0.35754778501084228 0.087847667021068221 0 0.35624300874513559 0.071190975121652081 0 0.34137977846588119 0.091947059702449957 0 0.36426178343411147 0.1013622643870397 0 0.35754778501084228 0.087847667021068221 0 0.34137977846588119 0.091947059702449957 0 0.33488127772135701 0.070909675734900868 0 0.35624300874513559 0.071190975121652081 0 0.3742009225581896 0.091268948227223284 0 0.35624300874513559 0.071190975121652081 0 0.37575225644292037 0.071709270247263784 0 0.35624300874513559 0.071190975121652081 0 0.36737709041569239 0.056764699852256018 0 0.37575225644292037 0.071709270247263784 0 0.36737709041569239 0.056764699852256018 0 0.36443667806580698 0.054513224756226962 0 0.39058826119953283 0.057913447496371839 0 0.36443667806580698 0.054513224756226962 0 0.36984281421283938 0.03924660656396721 0 0.37608467898805159 0.048096788967416412 0 0.36984281421283938 0.03924660656396721 0 0.35576481933353549 0.041718099984820838 0 0.3798040161112804 0.028996110171619349 0 0.35576481933353549 0.041718099984820838 0 0.36136411866671431 0.026161729739540451 0 0.37786156531075732 0.02725125369877367 0 0.35576481933353549 0.041718099984820838 0 0.3798040161112804 0.028996110171619349 0 0.37786156531075732 0.02725125369877367 0 0.35576481933353549 0.041718099984820838 0 0.3798040161112804 0.028996110171619349 0 0.36984281421283938 0.03924660656396721 0 0.37726993283737248 0.041439113600633092 0 0.37608467898805159 0.048096788967416412 0 0.36984281421283938 0.03924660656396721 0 0.37675727284589372 0.036323400775862158 0 0.37726993283737248 0.041439113600633092 0 0.36443667806580698 0.054513224756226962 0 0.36984281421283938 0.03924660656396721 0 0.35576481933353549 0.041718099984820838 0 0.35576481933353549 0.041718099984820838 0 0.36136411866671431 0.026161729739540451 0 0.34099279295720591 0.031691385536231111 0 0.35576481933353549 0.041718099984820838 0 0.34539840685914608 0.044617690611648012 0 0.34099279295720591 0.031691385536231111 0 0.35624300874513559 0.071190975121652081 0 0.34416591963185211 0.055615952208139578 0 0.33828509493208109 0.051113002016081502 0 0.36443667806580698 0.054513224756226962 0 0.34416591963185211 0.055615952208139578 0 0.33828509493208109 0.051113002016081502 0 0.36737709041569239 0.056764699852256018 0 0.34416591963185211 0.055615952208139578 0 0.35624300874513559 0.071190975121652081 0 0.33828509493208109 0.051113002016081502 0 0.35624300874513559 0.071190975121652081 0 0.36737709041569239 0.056764699852256018 0 0.34416591963185211 0.055615952208139578 0 0.36443667806580698 0.054513224756226962 0 0.33828509493208109 0.051113002016081502 0 0.36443667806580698 0.054513224756226962 0 0.34539840685914608 0.044617690611648012 0 0.33828509493208109 0.051113002016081502 0 0.36443667806580698 0.054513224756226962 0 0.35576481933353549 0.041718099984820838 0 0.34539840685914608 0.044617690611648012 0 0.36737709041569239 0.056764699852256018 0 0.36443667806580698 0.054513224756226962 0 0.34416591963185211 0.055615952208139578 0 0.35686418876597309 0.010252504770385159 0 0.37537418671591988 0.012891754799621079 0 0.3700201466167648 -0.002195575246397889 0 0.35686418876597309 0.010252504770385159 0 0.37786156531075732 0.02725125369877367 0 0.36136411866671431 0.026161729739540451 0 0.35686418876597309 0.010252504770385159 0 0.37786156531075732 0.02725125369877367 0 0.35686418876597309 0.010252504770385159 0 0.37537418671591988 0.012891754799621079 0 0.37786156531075732 0.02725125369877367 0 0.36136411866671431 0.026161729739540451 0 0.35686418876597309 0.010252504770385159 0 0.34167945108238768 0.015605415956853899 0 0.36136411866671431 0.026161729739540451 0 0.34167945108238768 0.015605415956853899 0 0.34099279295720591 0.031691385536231111 0 0.35686418876597309 0.010252504770385159 0 0.34167945108238768 0.015605415956853899 0 0.33586681222118892 -0.0067462441580033658 0 0.35686418876597309 0.010252504770385159 0 0.33586681222118892 -0.0067462441580033658 0 0.34167945108238768 0.015605415956853899 0 0.32490055802469708 0.021190940670656921 0 0.33586681222118892 -0.0067462441580033658 0 0.34167945108238768 0.015605415956853899 0 0.32490055802469708 0.021190940670656921 0 0.34099279295720591 0.031691385536231111 0 0.32490055802469708 0.021190940670656921 0 0.34099279295720591 0.031691385536231111 0 0.32801258046435111 0.036170166979635328 0 0.32490055802469708 0.021190940670656921 0 0.31497710433926901 0.036033128519756527 0 0.30595588987094691 0.026092456194660541 0 0.32490055802469708 0.021190940670656921 0 0.31046320235639918 0.0067575729804437252 0 0.30595588987094691 0.026092456194660541 0 0.32490055802469708 0.021190940670656921 0 0.32801258046435111 0.036170166979635328 0 0.31497710433926901 0.036033128519756527 0 0.32490055802469708 0.021190940670656921 0 0.31046320235639918 0.0067575729804437252 0 0.33586681222118892 -0.0067462441580033658 0 0.33488127772135701 0.070909675734900868 0 0.32846421329825382 0.059059627678852658 0 0.33828509493208109 0.051113002016081502 0 0.33828509493208109 0.051113002016081502 0 0.33632782521092219 0.048924662700562782 0 0.31456469921871788 0.048028881697348168 0 0.34539840685914608 0.044617690611648012 0 0.33828509493208109 0.051113002016081502 0 0.33632782521092219 0.048924662700562782 0 0.33828509493208109 0.051113002016081502 0 0.33632782521092219 0.048924662700562782 0 0.34539840685914608 0.044617690611648012 0 0.33609782728063148 0.04111054955314445 0 0.34099279295720591 0.031691385536231111 0 0.34539840685914608 0.044617690611648012 0 0.33632782521092219 0.048924662700562782 0 0.33609782728063148 0.04111054955314445 0 0.33609782728063148 0.04111054955314445 0 0.34099279295720591 0.031691385536231111 0 0.32801258046435111 0.036170166979635328 0 0.33632782521092219 0.048924662700562782 0 0.33609782728063148 0.04111054955314445 0 0.33051084790212298 0.042529329228536181 0 0.33632782521092219 0.048924662700562782 0 0.33051084790212298 0.042529329228536181 0 0.32327528761916352 0.043108517346294839 0 0.33609782728063148 0.04111054955314445 0 0.33051084790212298 0.042529329228536181 0 0.32801258046435111 0.036170166979635328 0 0.33632782521092219 0.048924662700562782 0 0.32327528761916352 0.043108517346294839 0 0.31456469921871788 0.048028881697348168 0 0.33051084790212298 0.042529329228536181 0 0.32327528761916352 0.043108517346294839 0 0.32801258046435111 0.036170166979635328 0 0.32327528761916352 0.043108517346294839 0 0.32801258046435111 0.036170166979635328 0 0.31497710433926901 0.036033128519756527 0 0.32327528761916352 0.043108517346294839 0 0.31497710433926901 0.036033128519756527 0 0.31456469921871788 0.048028881697348168 0 0.33828509493208109 0.051113002016081502 0 0.31456469921871788 0.048028881697348168 0 0.32846421329825382 0.059059627678852658 0 0.33828509493208109 0.051113002016081502 0 0.31456469921871788 0.048028881697348168 0 0.32846421329825382 0.059059627678852658 0 0.31456469921871788 0.048028881697348168 0 0.31750720709783492 0.060828210965220328 0 0.31456469921871788 0.048028881697348168 0 0.31750720709783492 0.060828210965220328 0 0.30386903740065402 0.05697431224277244 0 0.31750720709783492 0.060828210965220328 0 0.30386903740065402 0.05697431224277244 0 0.30506359630307739 0.067813250175554993 0 0.31456469921871788 0.048028881697348168 0 0.30386903740065402 0.05697431224277244 0 0.29084430350535467 0.044944761378613682 0 0.30386903740065402 0.05697431224277244 0 0.29325963230024937 0.057606978803657879 0 0.29690158384745241 0.06457818982176422 0 0.31456469921871788 0.048028881697348168 0 0.30257644158749403 0.037675663858353942 0 0.29084430350535467 0.044944761378613682 0 0.31456469921871788 0.048028881697348168 0 0.29084430350535467 0.044944761378613682 0 0.30257644158749403 0.037675663858353942 0 0.28728110375769011 0.032980092644635972 0 0.30595588987094691 0.026092456194660541 0 0.31497710433926901 0.036033128519756527 0 0.31456469921871788 0.048028881697348168 0 0.30257644158749403 0.037675663858353942 0 0.31497710433926901 0.036033128519756527 0 0.30257644158749403 0.037675663858353942 0 0.30595588987094691 0.026092456194660541 0 0.28728110375769011 0.032980092644635972 0 0.28354425329012439 0.021068516806879451 0 0.27754771987688809 0.040797440569893019 0 0.30257644158749403 0.037675663858353942 0 0.29084430350535467 0.044944761378613682 0 0.28728110375769011 0.032980092644635972 0 0.28728110375769011 0.032980092644635972 0 0.2844924432277231 0.043204628682168907 0 0.27754771987688809 0.040797440569893019 0 0.29084430350535467 0.044944761378613682 0 0.28728110375769011 0.032980092644635972 0 0.2844924432277231 0.043204628682168907 0 0.2844924432277231 0.043204628682168907 0 0.28229664577095948 0.054096220135532967 0 0.27754771987688809 0.040797440569893019 0 0.29084430350535467 0.044944761378613682 0 0.2844924432277231 0.043204628682168907 0 0.28229664577095948 0.054096220135532967 0 0.29084430350535467 0.044944761378613682 0 0.28229664577095948 0.054096220135532967 0 0.29325963230024937 0.057606978803657879 0 0.28229664577095948 0.054096220135532967 0 0.28695696052130792 0.062426000594819037 0 0.29325963230024937 0.057606978803657879 0 0.28229664577095948 0.054096220135532967 0 0.28695696052130792 0.062426000594819037 0 0.27961998430175328 0.060695812266760227 0 0.28695696052130792 0.062426000594819037 0 0.29325963230024937 0.057606978803657879 0 0.29690158384745241 0.06457818982176422 0 0.30386903740065402 0.05697431224277244 0 0.29084430350535467 0.044944761378613682 0 0.29325963230024937 0.057606978803657879 0 0.31046320235639918 0.0067575729804437252 0 0.29633736445586178 0.016145334388179639 0 0.2895407867033607 0.0013395930438658619 0 0.31046320235639918 0.0067575729804437252 0 0.30595588987094691 0.026092456194660541 0 0.29633736445586178 0.016145334388179639 0 0.28728110375769011 0.032980092644635972 0 0.29633736445586178 0.016145334388179639 0 0.28354425329012439 0.021068516806879451 0 0.28728110375769011 0.032980092644635972 0 0.30595588987094691 0.026092456194660541 0 0.29633736445586178 0.016145334388179639 0 0.29633736445586178 0.016145334388179639 0 0.28354425329012439 0.021068516806879451 0 0.2895407867033607 0.0013395930438658619 0 0.28354425329012439 0.021068516806879451 0 0.2895407867033607 0.0013395930438658619 0 0.27605408581287011 0.0090157940159830471 0 0.28354425329012439 0.021068516806879451 0 0.2895407867033607 0.0013395930438658619 0 0.2895407867033607 0.0013395930438658619 0 0.27605408581287011 0.0090157940159830471 0 0.26778398551549509 -0.0036893303100333872 0 0.27605408581287011 0.0090157940159830471 0 0.26417056773795178 0.0090152440179189393 0 0.26778398551549509 -0.0036893303100333872 0 0.27605408581287011 0.0090157940159830471 0 0.26936383070045983 0.02007531215695801 0 0.26417056773795178 0.0090152440179189393 0 0.28354425329012439 0.021068516806879451 0 0.27754771987688809 0.040797440569893019 0 0.28354425329012439 0.021068516806879451 0 0.27605408581287011 0.0090157940159830471 0 0.26936383070045983 0.02007531215695801 0 0.28354425329012439 0.021068516806879451 0 0.26936383070045983 0.02007531215695801 0 0.27332262009486957 0.033728107725222278 0 0.26936383070045983 0.02007531215695801 0 0.26667678125960848 0.028969541142501901 0 0.27332262009486957 0.033728107725222278 0 0.26936383070045983 0.02007531215695801 0 0.26667678125960848 0.028969541142501901 0 0.25978705670837199 0.02772172808684556 0 0.26667678125960848 0.028969541142501901 0 0.25978705670837199 0.02772172808684556 0 0.26423361753473251 0.034353016600981737 0 0.24818833723327199 0.02644705719899533 0 0.25978705670837199 0.02772172808684556 0 0.25442723867738032 0.016379625870619269 0 0.24818833723327199 0.02644705719899533 0 0.25978705670837199 0.02772172808684556 0 0.25704478259505842 0.035809011079610743 0 0.26936383070045983 0.02007531215695801 0 0.25978705670837199 0.02772172808684556 0 0.25442723867738032 0.016379625870619269 0 0.26936383070045983 0.02007531215695801 0 0.25442723867738032 0.016379625870619269 0 0.26417056773795178 0.0090152440179189393 0 0.25442723867738032 0.016379625870619269 0 0.26417056773795178 0.0090152440179189393 0 0.25322369798355371 0.0032948183560677501 0 0.26417056773795178 0.0090152440179189393 0 0.25322369798355371 0.0032948183560677501 0 0.26778398551549509 -0.0036893303100333872 0 0.28229664577095948 0.054096220135532967 0 0.27155118646365262 0.060526364332906778 0 0.27754771987688809 0.040797440569893019 0 0.26803735397675288 0.057537922442449492 0 0.27155118646365262 0.060526364332906778 0 0.27754771987688809 0.040797440569893019 0 0.27155118646365262 0.060526364332906778 0 0.27754771987688809 0.040797440569893019 0 0.26803735397675288 0.057537922442449492 0 0.26717674565759131 0.061414912581717808 0 0.27155118646365262 0.060526364332906778 0 0.26803735397675288 0.057537922442449492 0 0.26717674565759131 0.061414912581717808 0 0.26717674565759131 0.061414912581717808 0 0.27082486665434358 0.062915996334918609 0 0.26717674565759131 0.061414912581717808 0 0.27155118646365262 0.060526364332906778 0 0.27082486665434358 0.062915996334918609 0 0.27155118646365262 0.060526364332906778 0 0.27082486665434358 0.062915996334918609 0 0.26803735397675288 0.057537922442449492 0 0.27155118646365262 0.060526364332906778 0 0.27155118646365262 0.060526364332906778 0 0.27961998430175328 0.060695812266760227 0 0.27767514445109232 0.065734664003783444 0 0.28229664577095948 0.054096220135532967 0 0.27155118646365262 0.060526364332906778 0 0.27961998430175328 0.060695812266760227 0 0.28354425329012439 0.021068516806879451 0 0.27754771987688809 0.040797440569893019 0 0.27332262009486957 0.033728107725222278 0 0.26803735397675288 0.057537922442449492 0 0.27754771987688809 0.040797440569893019 0 0.27332262009486957 0.033728107725222278 0 0.26803735397675288 0.057537922442449492 0 0.27332262009486957 0.033728107725222278 0 0.26337349528673171 0.044011131262296957 0 0.26803735397675288 0.057537922442449492 0 0.27332262009486957 0.033728107725222278 0 0.26667678125960848 0.028969541142501901 0 0.27332262009486957 0.033728107725222278 0 0.26423361753473251 0.034353016600981737 0 0.27332262009486957 0.033728107725222278 0 0.26337349528673171 0.044011131262296957 0 0.26423361753473251 0.034353016600981737 0 0.25978705670837199 0.02772172808684556 0 0.26423361753473251 0.034353016600981737 0 0.25704478259505842 0.035809011079610743 0 0.26337349528673171 0.044011131262296957 0 0.26423361753473251 0.034353016600981737 0 0.25704478259505842 0.035809011079610743 0 0.2492733855269578 0.041579555173777823 0 0.24818833723327199 0.02644705719899533 0 0.25704478259505842 0.035809011079610743 0 0.2492733855269578 0.041579555173777823 0 0.26337349528673171 0.044011131262296957 0 0.25704478259505842 0.035809011079610743 0 0.2492733855269578 0.041579555173777823 0 0.26803735397675288 0.057537922442449492 0 0.26337349528673171 0.044011131262296957 0 0.2492733855269578 0.041579555173777823 0 0.26803735397675288 0.057537922442449492 0 0.24629062771517271 0.052820950830226497 0 0.2492733855269578 0.041579555173777823 0 0.26803735397675288 0.057537922442449492 0 0.24874122334595 0.07170785510379532 0 0.24629062771517271 0.052820950830226497 0 0.26717674565759131 0.061414912581717808 0 0.24629062771517271 0.052820950830226497 0 0.26717674565759131 0.061414912581717808 0 0.24629062771517271 0.052820950830226497 0 0.26803735397675288 0.057537922442449492 0 0.26717674565759131 0.061414912581717808 0 0.24874122334595 0.07170785510379532 0 0.26717674565759131 0.061414912581717808 0 0.26207170159221099 0.084412837492877896 0 0.26717674565759131 0.061414912581717808 0 0.26207170159221099 0.084412837492877896 0 0.26717674565759131 0.061414912581717808 0 0.26459661937193729 0.083407271434054076 0 0.26207170159221099 0.084412837492877896 0 0.24736227196270541 0.090270970101712061 0 0.24874122334595 0.07170785510379532 0 0.26207170159221099 0.084412837492877896 0 0.24736227196270541 0.090270970101712061 0 0.26207170159221099 0.084412837492877896 0 0.24736227196270541 0.090270970101712061 0 0.26016144869860108 0.09301841504440217 0 0.25459763100830068 0.096141582858552177 0 0.24736227196270541 0.090270970101712061 0 0.26207170159221099 0.084412837492877896 0 0.26016144869860108 0.09301841504440217 0 0.24736227196270541 0.090270970101712061 0 0.25459763100830068 0.096141582858552177 0 0.26459661937193729 0.083407271434054076 0 0.26207170159221099 0.084412837492877896 0 0.26207170159221099 0.084412837492877896 0 0.26016144869860108 0.09301841504440217 0 0.26459661937193729 0.083407271434054076 0 0.2619867778419176 0.09199379318438361 0 0.26207170159221099 0.084412837492877896 0 0.2619867778419176 0.09199379318438361 0 0.26016144869860108 0.09301841504440217 0 0.26459661937193729 0.083407271434054076 0 0.26207170159221099 0.084412837492877896 0 0.2619867778419176 0.09199379318438361 0 0.2619867778419176 0.09199379318438361 0 0.26016144869860108 0.09301841504440217 0 0.26459661937193729 0.083407271434054076 0 0.28765643041333783 0.074223541376674432 0 0.26459661937193729 0.083407271434054076 0 0.27601190449835611 0.084120993139366301 0 0.28765643041333783 0.074223541376674432 0 0.2619867778419176 0.09199379318438361 0 0.27601190449835611 0.084120993139366301 0 0.27597760534302263 0.093816081557894046 0 0.2619867778419176 0.09199379318438361 0 0.27601190449835611 0.084120993139366301 0 0.26459661937193729 0.083407271434054076 0 0.2619867778419176 0.09199379318438361 0 0.27601190449835611 0.084120993139366301 0 0.27601190449835611 0.084120993139366301 0 0.28527214605629803 0.093542631019163408 0 0.27597760534302263 0.093816081557894046 0 0.26459661937193729 0.083407271434054076 0 0.27082486665434358 0.062915996334918609 0 0.26717674565759131 0.061414912581717808 0 0.26459661937193729 0.083407271434054076 0 0.27082486665434358 0.062915996334918609 0 0.26459661937193729 0.083407271434054076 0 0.27082486665434358 0.062915996334918609 0 0.27767514445109232 0.065734664003783444 0 0.26459661937193729 0.083407271434054076 0 0.27767514445109232 0.065734664003783444 0 0.28765643041333783 0.074223541376674432 0 0.27155118646365262 0.060526364332906778 0 0.27082486665434358 0.062915996334918609 0 0.27767514445109232 0.065734664003783444 0 0.27082486665434358 0.062915996334918609 0 0.27767514445109232 0.065734664003783444 0 0.27155118646365262 0.060526364332906778 0 0.27767514445109232 0.065734664003783444 0 0.27767514445109232 0.065734664003783444 0 0.28765643041333783 0.074223541376674432 0 0.27767514445109232 0.065734664003783444 0 0.29306802488508721 0.072068336257275281 0 0.28695696052130792 0.062426000594819037 0 0.27961998430175328 0.060695812266760227 0 0.27767514445109232 0.065734664003783444 0 0.28695696052130792 0.062426000594819037 0 0.27767514445109232 0.065734664003783444 0 0.29306802488508721 0.072068336257275281 0 0.28695696052130792 0.062426000594819037 0 0.29306802488508721 0.072068336257275281 0 0.29690158384745241 0.06457818982176422 0 0.29561576852942001 0.073116650333272012 0 0.29306802488508721 0.072068336257275281 0 0.29561576852942001 0.073116650333272012 0 0.29306802488508721 0.072068336257275281 0 0.29003703115479512 0.076248193094349867 0 0.29306802488508721 0.072068336257275281 0 0.28765643041333783 0.074223541376674432 0 0.29306802488508721 0.072068336257275281 0 0.29003703115479512 0.076248193094349867 0 0.28765643041333783 0.074223541376674432 0 0.29561576852942001 0.073116650333272012 0 0.29003703115479512 0.076248193094349867 0 0.27767514445109232 0.065734664003783444 0 0.29306802488508721 0.072068336257275281 0 0.28765643041333783 0.074223541376674432 0 0.29003703115479512 0.076248193094349867 0 0.28765643041333783 0.074223541376674432 0 0.27601190449835611 0.084120993139366301 0 0.29003703115479512 0.076248193094349867 0 0.27601190449835611 0.084120993139366301 0 0.29003703115479512 0.076248193094349867 0 0.28765643041333783 0.074223541376674432 0 0.27601190449835611 0.084120993139366301 0 0.29003703115479512 0.076248193094349867 0 0.28870857493654689 0.086239244916881869 0 0.27601190449835611 0.084120993139366301 0 0.28870857493654689 0.086239244916881869 0 0.28527214605629803 0.093542631019163408 0 0.28870857493654689 0.086239244916881869 0 0.28527214605629803 0.093542631019163408 0 0.29246213629446111 0.095768124011444758 0 0.28870857493654689 0.086239244916881869 0 0.29698271976236568 0.089899813846382556 0 0.29246213629446111 0.095768124011444758 0 0.29003703115479512 0.076248193094349867 0 0.28870857493654689 0.086239244916881869 0 0.29698271976236568 0.089899813846382556 0 0.29561576852942001 0.073116650333272012 0 0.29003703115479512 0.076248193094349867 0 0.31111548734401751 0.094174984339189319 0 0.29003703115479512 0.076248193094349867 0 0.31111548734401751 0.094174984339189319 0 0.29003703115479512 0.076248193094349867 0 0.29698271976236568 0.089899813846382556 0 0.31111548734401751 0.094174984339189319 0 0.3184977734976509 0.082531855017860187 0 0.29561576852942001 0.073116650333272012 0 0.31111548734401751 0.094174984339189319 0 0.3184977734976509 0.082531855017860187 0 0.29561576852942001 0.073116650333272012 0 0.3184977734976509 0.082531855017860187 0 0.29561576852942001 0.073116650333272012 0 0.30506359630307739 0.067813250175554993 0 0.31750720709783492 0.060828210965220328 0 0.30506359630307739 0.067813250175554993 0 0.29306802488508721 0.072068336257275281 0 0.30506359630307739 0.067813250175554993 0 0.29690158384745241 0.06457818982176422 0 0.30386903740065402 0.05697431224277244 0 0.30506359630307739 0.067813250175554993 0 0.29690158384745241 0.06457818982176422 0 0.29306802488508721 0.072068336257275281 0 0.30506359630307739 0.067813250175554993 0 0.29561576852942001 0.073116650333272012 0 0.30506359630307739 0.067813250175554993 0 0.29561576852942001 0.073116650333272012 0 0.29306802488508721 0.072068336257275281 0 0.30506359630307739 0.067813250175554993 0 0.31151194808720201 0.1150643222194616 0 0.30247500772594699 0.1071381656543656 0 0.29129275041579278 0.1172303442398579 0 0.31151194808720201 0.1150643222194616 0 0.29622008012258699 0.12991313160987961 0 0.32387679174541939 0.1297141718462434 0 0.31151194808720201 0.1150643222194616 0 0.29129275041579278 0.1172303442398579 0 0.29622008012258699 0.12991313160987961 0 0.31151194808720201 0.1150643222194616 0 0.31111548734401751 0.094174984339189319 0 0.30247500772594699 0.1071381656543656 0 0.31111548734401751 0.094174984339189319 0 0.30128354362195031 0.098124169066782854 0 0.30247500772594699 0.1071381656543656 0 0.29698271976236568 0.089899813846382556 0 0.30128354362195031 0.098124169066782854 0 0.29246213629446111 0.095768124011444758 0 0.29698271976236568 0.089899813846382556 0 0.31111548734401751 0.094174984339189319 0 0.30128354362195031 0.098124169066782854 0 0.30128354362195031 0.098124169066782854 0 0.30247500772594699 0.1071381656543656 0 0.29260899031297011 0.10538418601464609 0 0.29260899031297011 0.10538418601464609 0 0.29246213629446111 0.095768124011444758 0 0.28702757351663483 0.1001100210532227 0 0.30128354362195031 0.098124169066782854 0 0.29260899031297011 0.10538418601464609 0 0.29246213629446111 0.095768124011444758 0 0.28527214605629803 0.093542631019163408 0 0.29246213629446111 0.095768124011444758 0 0.28702757351663483 0.1001100210532227 0 0.28527214605629803 0.093542631019163408 0 0.28702757351663483 0.1001100210532227 0 0.28108272677848523 0.099874609951530163 0 0.29260899031297011 0.10538418601464609 0 0.28356239405763972 0.106033323917978 0 0.28664880997705461 0.11131452551203889 0 0.29260899031297011 0.10538418601464609 0 0.28702757351663483 0.1001100210532227 0 0.28356239405763972 0.106033323917978 0 0.28702757351663483 0.1001100210532227 0 0.28356239405763972 0.106033323917978 0 0.28108272677848523 0.099874609951530163 0 0.28356239405763972 0.106033323917978 0 0.2814598539497668 0.10990299155730229 0 0.28664880997705461 0.11131452551203889 0 0.27786688771157569 0.1150217509861922 0 0.29622008012258699 0.12991313160987961 0 0.28664880997705461 0.11131452551203889 0 0.29129275041579278 0.1172303442398579 0 0.27786688771157569 0.1150217509861922 0 0.27786688771157569 0.1150217509861922 0 0.27913813953766042 0.12972245958528131 0 0.29622008012258699 0.12991313160987961 0 0.29129275041579278 0.1172303442398579 0 0.27786688771157569 0.1150217509861922 0 0.29622008012258699 0.12991313160987961 0 0.2814598539497668 0.10990299155730229 0 0.28664880997705461 0.11131452551203889 0 0.27786688771157569 0.1150217509861922 0 0.30247500772594699 0.1071381656543656 0 0.29260899031297011 0.10538418601464609 0 0.29129275041579278 0.1172303442398579 0 0.29260899031297011 0.10538418601464609 0 0.28664880997705461 0.11131452551203889 0 0.29129275041579278 0.1172303442398579 0 0.27418517611644572 0.1163335826691398 0 0.26638390190257438 0.1102685147937751 0 0.25655208948606423 0.10927836717886751 0 0.27786688771157569 0.1150217509861922 0 0.27418517611644572 0.1163335826691398 0 0.27913813953766042 0.12972245958528131 0 0.27418517611644572 0.1163335826691398 0 0.27248198541775659 0.12784311929978001 0 0.27913813953766042 0.12972245958528131 0 0.2814598539497668 0.10990299155730229 0 0.27786688771157569 0.1150217509861922 0 0.27702128122739278 0.10689832557857171 0 0.27786688771157569 0.1150217509861922 0 0.27418517611644572 0.1163335826691398 0 0.26638390190257438 0.1102685147937751 0 0.27418517611644572 0.1163335826691398 0 0.26888095198589312 0.11979825388229511 0 0.26487973471170051 0.1148861259760711 0 0.27418517611644572 0.1163335826691398 0 0.26888095198589312 0.11979825388229511 0 0.27248198541775659 0.12784311929978001 0 0.26888095198589312 0.11979825388229511 0 0.26519442307348812 0.1188177922564181 0 0.26487973471170051 0.1148861259760711 0 0.26888095198589312 0.11979825388229511 0 0.26562400985315288 0.1251654340079911 0 0.27248198541775659 0.12784311929978001 0 0.26888095198589312 0.11979825388229511 0 0.26519442307348812 0.1188177922564181 0 0.26562400985315288 0.1251654340079911 0 0.27786688771157569 0.1150217509861922 0 0.26638390190257438 0.1102685147937751 0 0.25872482925013801 0.09949030162923457 0 0.27786688771157569 0.1150217509861922 0 0.25872482925013801 0.09949030162923457 0 0.27786688771157569 0.1150217509861922 0 0.27150352658480642 0.1040925172930806 0 0.25872482925013801 0.09949030162923457 0 0.28527214605629803 0.093542631019163408 0 0.27597760534302263 0.093816081557894046 0 0.28108272677848523 0.099874609951530163 0 0.27597760534302263 0.093816081557894046 0 0.28108272677848523 0.099874609951530163 0 0.27461357126647679 0.10027579108255071 0 0.27786688771157569 0.1150217509861922 0 0.27702128122739278 0.10689832557857171 0 0.27150352658480642 0.1040925172930806 0 0.27461357126647679 0.10027579108255071 0 0.27702128122739278 0.10689832557857171 0 0.27150352658480642 0.1040925172930806 0 0.28356239405763972 0.106033323917978 0 0.28108272677848523 0.099874609951530163 0 0.27702128122739278 0.10689832557857171 0 0.28108272677848523 0.099874609951530163 0 0.27461357126647679 0.10027579108255071 0 0.27702128122739278 0.10689832557857171 0 0.28356239405763972 0.106033323917978 0 0.2814598539497668 0.10990299155730229 0 0.27702128122739278 0.10689832557857171 0 0.2619867778419176 0.09199379318438361 0 0.27597760534302263 0.093816081557894046 0 0.26850219741802223 0.0981363484555835 0 0.27150352658480642 0.1040925172930806 0 0.26850219741802223 0.0981363484555835 0 0.25872482925013801 0.09949030162923457 0 0.27461357126647679 0.10027579108255071 0 0.27150352658480642 0.1040925172930806 0 0.26850219741802223 0.0981363484555835 0 0.27597760534302263 0.093816081557894046 0 0.27461357126647679 0.10027579108255071 0 0.26850219741802223 0.0981363484555835 0 0.2619867778419176 0.09199379318438361 0 0.26850219741802223 0.0981363484555835 0 0.25872482925013801 0.09949030162923457 0 0.2619867778419176 0.09199379318438361 0 0.26016144869860108 0.09301841504440217 0 0.25872482925013801 0.09949030162923457 0 0.2619867778419176 0.09199379318438361 0 0.25872482925013801 0.09949030162923457 0 0.26016144869860108 0.09301841504440217 0 0.25872482925013801 0.09949030162923457 0 0.26016144869860108 0.09301841504440217 0 0.25872482925013801 0.09949030162923457 0 0.25459763100830068 0.096141582858552177 0 0.26638390190257438 0.1102685147937751 0 0.25872482925013801 0.09949030162923457 0 0.26054083413963042 0.1068609537315081 0 0.26638390190257438 0.1102685147937751 0 0.26054083413963042 0.1068609537315081 0 0.25655208948606423 0.10927836717886751 0 0.25872482925013801 0.09949030162923457 0 0.258042440935632 0.10497087790269199 0 0.26054083413963042 0.1068609537315081 0 0.25872482925013801 0.09949030162923457 0 0.258042440935632 0.10497087790269199 0 0.258042440935632 0.10497087790269199 0 0.26054083413963042 0.1068609537315081 0 0.25655208948606423 0.10927836717886751 0 0.25872482925013801 0.09949030162923457 0 0.25655208948606423 0.10927836717886751 0 0.25872482925013801 0.09949030162923457 0 0.25655208948606423 0.10927836717886751 0 0.25459763100830068 0.096141582858552177 0 0.24174744587836799 0.1033548466348798 0 0.25655208948606423 0.10927836717886751 0 0.25459763100830068 0.096141582858552177 0 0.25872482925013801 0.09949030162923457 0 0.258042440935632 0.10497087790269199 0 0.25655208948606423 0.10927836717886751 0 0.25872482925013801 0.09949030162923457 0 0.25459763100830068 0.096141582858552177 0 0.26016144869860108 0.09301841504440217 0 0.25459763100830068 0.096141582858552177 0 0.27418517611644572 0.1163335826691398 0 0.25655208948606423 0.10927836717886751 0 0.26487973471170051 0.1148861259760711 0 0.27418517611644572 0.1163335826691398 0 0.25655208948606423 0.10927836717886751 0 0.2613903323121034 0.11972876860365821 0 0.25824300399834771 0.11754386918627879 0 0.25813574029091341 0.12532111527980791 0 0.2613903323121034 0.11972876860365821 0 0.25824300399834771 0.11754386918627879 0 0.26064106818342869 0.11649387083006101 0 0.2613903323121034 0.11972876860365821 0 0.26303182906276251 0.1167652494283456 0 0.26064106818342869 0.11649387083006101 0 0.2613903323121034 0.11972876860365821 0 0.25813574029091341 0.12532111527980791 0 0.26562400985315288 0.1251654340079911 0 0.2613903323121034 0.11972876860365821 0 0.26519442307348812 0.1188177922564181 0 0.26562400985315288 0.1251654340079911 0 0.2613903323121034 0.11972876860365821 0 0.26519442307348812 0.1188177922564181 0 0.26303182906276251 0.1167652494283456 0 0.26487973471170051 0.1148861259760711 0 0.2618287337373767 0.1148464313763837 0 0.2589676606418963 0.1122376160430168 0 0.25655208948606423 0.10927836717886751 0 0.26487973471170051 0.1148861259760711 0 0.2589676606418963 0.1122376160430168 0 0.26519442307348812 0.1188177922564181 0 0.26487973471170051 0.1148861259760711 0 0.26303182906276251 0.1167652494283456 0 0.26487973471170051 0.1148861259760711 0 0.2618287337373767 0.1148464313763837 0 0.26303182906276251 0.1167652494283456 0 0.2618287337373767 0.1148464313763837 0 0.26303182906276251 0.1167652494283456 0 0.26064106818342869 0.11649387083006101 0 0.2618287337373767 0.1148464313763837 0 0.26064106818342869 0.11649387083006101 0 0.26015078570541528 0.1146524558252945 0 0.2618287337373767 0.1148464313763837 0 0.2589676606418963 0.1122376160430168 0 0.26015078570541528 0.1146524558252945 0 0.2589676606418963 0.1122376160430168 0 0.26015078570541528 0.1146524558252945 0 0.25777400528710798 0.1147846643059361 0 0.25824300399834771 0.11754386918627879 0 0.26015078570541528 0.1146524558252945 0 0.25777400528710798 0.1147846643059361 0 0.25824300399834771 0.11754386918627879 0 0.26064106818342869 0.11649387083006101 0 0.26015078570541528 0.1146524558252945 0 0.24646482385440791 0.1109165710353929 0 0.25655208948606423 0.10927836717886751 0 0.255186127323073 0.11543194682551421 0 0.25824300399834771 0.11754386918627879 0 0.25777400528710798 0.1147846643059361 0 0.255186127323073 0.11543194682551421 0 0.2589676606418963 0.1122376160430168 0 0.25777400528710798 0.1147846643059361 0 0.255186127323073 0.11543194682551421 0 0.25655208948606423 0.10927836717886751 0 0.255186127323073 0.11543194682551421 0 0.25655208948606423 0.10927836717886751 0 0.2589676606418963 0.1122376160430168 0 0.255186127323073 0.11543194682551421 0 0.255186127323073 0.11543194682551421 0 0.25238596385504641 0.12804651946228041 0 0.24420216851797599 0.1292372680552665 0 0.255186127323073 0.11543194682551421 0 0.25238596385504641 0.12804651946228041 0 0.255186127323073 0.11543194682551421 0 0.25238596385504641 0.12804651946228041 0 0.25813574029091341 0.12532111527980791 0 0.25824300399834771 0.11754386918627879 0 0.255186127323073 0.11543194682551421 0 0.25813574029091341 0.12532111527980791 0 0.25238596385504641 0.12804651946228041 0 0.25813574029091341 0.12532111527980791 0 0.26818611498992623 0.1403022215883418 0 0.24420216851797599 0.1292372680552665 0 0.26818611498992623 0.1403022215883418 0 0.24301228879775941 0.13939302681245261 0 0.24420216851797599 0.1292372680552665 0 0.26818611498992623 0.1403022215883418 0 0.24420216851797599 0.1292372680552665 0 0.25238596385504641 0.12804651946228041 0 0.26818611498992623 0.1403022215883418 0 0.25813574029091341 0.12532111527980791 0 0.26562400985315288 0.1251654340079911 0 0.26818611498992623 0.1403022215883418 0 0.27248198541775659 0.12784311929978001 0 0.26818611498992623 0.1403022215883418 0 0.27913813953766042 0.12972245958528131 0 0.26562400985315288 0.1251654340079911 0 0.27248198541775659 0.12784311929978001 0 0.26818611498992623 0.1403022215883418 0 0.26818611498992623 0.1403022215883418 0 0.27913813953766042 0.12972245958528131 0 0.28414721419066807 0.1482284927670183 0 0.26818611498992623 0.1403022215883418 0 0.26583546295036609 0.16369396270660089 0 0.28414721419066807 0.1482284927670183 0 0.26818611498992623 0.1403022215883418 0 0.25486404381895789 0.1523024957907583 0 0.26583546295036609 0.16369396270660089 0 0.24301228879775941 0.13939302681245261 0 0.26818611498992623 0.1403022215883418 0 0.25486404381895789 0.1523024957907583 0 0.2424223085377801 0.16582077205563811 0 0.25486404381895789 0.1523024957907583 0 0.26583546295036609 0.16369396270660089 0 0.2424223085377801 0.16582077205563811 0 0.26032431562704572 0.18342712708893841 0 0.26583546295036609 0.16369396270660089 0 0.26032431562704572 0.18342712708893841 0 0.27712404590978218 0.18082877805207789 0 0.26583546295036609 0.16369396270660089 0 0.27712404590978218 0.18082877805207789 0 0.26583546295036609 0.16369396270660089 0 0.28977860037431658 0.16805367250728201 0 0.26583546295036609 0.16369396270660089 0 0.28977860037431658 0.16805367250728201 0 0.28414721419066807 0.1482284927670183 0 0.27712404590978218 0.18082877805207789 0 0.28977860037431658 0.16805367250728201 0 0.29478084704188562 0.18627619782702401 0 0.28977860037431658 0.16805367250728201 0 0.29478084704188562 0.18627619782702401 0 0.31259037162619269 0.16725562300018509 0 0.29478084704188562 0.18627619782702401 0 0.31732062797233113 0.1926592597090995 0 0.31259037162619269 0.16725562300018509 0 0.28977860037431658 0.16805367250728201 0 0.29946190776947251 0.15165108642358641 0 0.31259037162619269 0.16725562300018509 0 0.29946190776947251 0.15165108642358641 0 0.31457327253359829 0.14480451223356691 0 0.31259037162619269 0.16725562300018509 0 0.29946190776947251 0.15165108642358641 0 0.29622008012258699 0.12991313160987961 0 0.31457327253359829 0.14480451223356691 0 0.29622008012258699 0.12991313160987961 0 0.31457327253359829 0.14480451223356691 0 0.29622008012258699 0.12991313160987961 0 0.32387679174541939 0.1297141718462434 0 0.31457327253359829 0.14480451223356691 0 0.27913813953766042 0.12972245958528131 0 0.29622008012258699 0.12991313160987961 0 0.28414721419066807 0.1482284927670183 0 0.29946190776947251 0.15165108642358641 0 0.29622008012258699 0.12991313160987961 0 0.28414721419066807 0.1482284927670183 0 0.28977860037431658 0.16805367250728201 0 0.29946190776947251 0.15165108642358641 0 0.28414721419066807 0.1482284927670183 0 0.27355486584907379 0.24364475180805101 0 0.25452501640087027 0.2374112721999547 0 0.26408278890255732 0.22479217687295791 0 0.25404003316197471 0.25208422786308371 0 0.27355486584907379 0.24364475180805101 0 0.25452501640087027 0.2374112721999547 0 0.24523436150048811 0.24199469982198529 0 0.25404003316197471 0.25208422786308371 0 0.25452501640087027 0.2374112721999547 0 0.24868260911088891 0.2303107595792985 0 0.2471090749199483 0.2357199094212839 0 0.25452501640087027 0.2374112721999547 0 0.24868260911088891 0.2303107595792985 0 0.25452501640087027 0.2374112721999547 0 0.26408278890255732 0.22479217687295791 0 0.24868260911088891 0.2303107595792985 0 0.26408278890255732 0.22479217687295791 0 0.25357276657721323 0.21641202867955539 0 0.27355486584907379 0.24364475180805101 0 0.26408278890255732 0.22479217687295791 0 0.28109637724199782 0.22150209212538899 0 0.26408278890255732 0.22479217687295791 0 0.28109637724199782 0.22150209212538899 0 0.27306509823529962 0.19947215684549871 0 0.26408278890255732 0.22479217687295791 0 0.25357276657721323 0.21641202867955539 0 0.27306509823529962 0.19947215684549871 0 0.25357276657721323 0.21641202867955539 0 0.25471258750952741 0.20148162901819469 0 0.27306509823529962 0.19947215684549871 0 0.25357276657721323 0.21641202867955539 0 0.27306509823529962 0.19947215684549871 0 0.2418323282778008 0.1922485172988235 0 0.26032431562704572 0.18342712708893841 0 0.25471258750952741 0.20148162901819469 0 0.26032431562704572 0.18342712708893841 0 0.25471258750952741 0.20148162901819469 0 0.27306509823529962 0.19947215684549871 0 0.26032431562704572 0.18342712708893841 0 0.27712404590978218 0.18082877805207789 0 0.27306509823529962 0.19947215684549871 0 0.29478084704188562 0.18627619782702401 0 0.27306509823529962 0.19947215684549871 0 0.29788838547339219 0.20777731020547871 0 0.27712404590978218 0.18082877805207789 0 0.29478084704188562 0.18627619782702401 0 0.27306509823529962 0.19947215684549871 0 0.29478084704188562 0.18627619782702401 0 0.29788838547339219 0.20777731020547871 0 0.31732062797233113 0.1926592597090995 0 0.29788838547339219 0.20777731020547871 0 0.31916040529159301 0.2166328624030785 0 0.31732062797233113 0.1926592597090995 0 0.28109637724199782 0.22150209212538899 0 0.27306509823529962 0.19947215684549871 0 0.29788838547339219 0.20777731020547871 0 0.28109637724199782 0.22150209212538899 0 0.29788838547339219 0.20777731020547871 0 0.29668368374297521 0.23238313674276659 0 0.27355486584907379 0.24364475180805101 0 0.28109637724199782 0.22150209212538899 0 0.29668368374297521 0.23238313674276659 0 0.29788838547339219 0.20777731020547871 0 0.29668368374297521 0.23238313674276659 0 0.31916040529159301 0.2166328624030785 0 0.29692855903906679 0.25537037528416417 0 0.29668368374297521 0.23238313674276659 0 0.32448256229391081 0.244023600812113 0 0.29692855903906679 0.25537037528416417 0 0.27355486584907379 0.24364475180805101 0 0.29668368374297521 0.23238313674276659 0 0.32448256229391081 0.244023600812113 0 0.33724611662768478 0.226971671205 0 0.35052125483258301 0.2434514759103418 0 0.32448256229391081 0.244023600812113 0 0.33724611662768478 0.226971671205 0 0.31916040529159301 0.2166328624030785 0 0.29668368374297521 0.23238313674276659 0 0.32448256229391081 0.244023600812113 0 0.31916040529159301 0.2166328624030785 0 0.33724611662768478 0.226971671205 0 0.31916040529159301 0.2166328624030785 0 0.34036716376080012 0.20191553243135291 0 0.31916040529159301 0.2166328624030785 0 0.31732062797233113 0.1926592597090995 0 0.34036716376080012 0.20191553243135291 0 0.31732062797233113 0.1926592597090995 0 0.34036716376080012 0.20191553243135291 0 0.33327910971122948 0.1769249887409369 0 0.34036716376080012 0.20191553243135291 0 0.33327910971122948 0.1769249887409369 0 0.35363051640006049 0.1838751638919715 0 0.34036716376080012 0.20191553243135291 0 0.36940151407566268 0.20038014978660379 0 0.35363051640006049 0.1838751638919715 0 0.36940151407566268 0.20038014978660379 0 0.35418005050780299 0.2186338278764331 0 0.36970064025412291 0.2313836502337521 0 0.34036716376080012 0.20191553243135291 0 0.36940151407566268 0.20038014978660379 0 0.35418005050780299 0.2186338278764331 0 0.33724611662768478 0.226971671205 0 0.34036716376080012 0.20191553243135291 0 0.35418005050780299 0.2186338278764331 0 0.33724611662768478 0.226971671205 0 0.35418005050780299 0.2186338278764331 0 0.35052125483258301 0.2434514759103418 0 0.35418005050780299 0.2186338278764331 0 0.36970064025412291 0.2313836502337521 0 0.35052125483258301 0.2434514759103418 0 0.37478492512234668 0.26235925763296819 0 0.36970064025412291 0.2313836502337521 0 0.35052125483258301 0.2434514759103418 0 0.33497932682518311 0.1519205034936916 0 0.32387679174541939 0.1297141718462434 0 0.35327239972246333 0.1300285668288671 0 0.33497932682518311 0.1519205034936916 0 0.31457327253359829 0.14480451223356691 0 0.31259037162619269 0.16725562300018509 0 0.33497932682518311 0.1519205034936916 0 0.32387679174541939 0.1297141718462434 0 0.31457327253359829 0.14480451223356691 0 0.33497932682518311 0.1519205034936916 0 0.31259037162619269 0.16725562300018509 0 0.33327910971122948 0.1769249887409369 0 0.31732062797233113 0.1926592597090995 0 0.31259037162619269 0.16725562300018509 0 0.33327910971122948 0.1769249887409369 0 0.33497932682518311 0.1519205034936916 0 0.33327910971122948 0.1769249887409369 0 0.34907151432127381 0.16521020144779211 0 0.34907151432127381 0.16521020144779211 0 0.35363051640006049 0.1838751638919715 0 0.37277469716236061 0.17385369407461371 0 0.33327910971122948 0.1769249887409369 0 0.34907151432127381 0.16521020144779211 0 0.35363051640006049 0.1838751638919715 0 0.36940151407566268 0.20038014978660379 0 0.35363051640006049 0.1838751638919715 0 0.37277469716236061 0.17385369407461371 0 0.37277469716236061 0.17385369407461371 0 0.36285879787080821 0.15032831482926681 0 0.3843829660287168 0.1587008111838667 0 0.34907151432127381 0.16521020144779211 0 0.37277469716236061 0.17385369407461371 0 0.36285879787080821 0.15032831482926681 0 0.36285879787080821 0.15032831482926681 0 0.36938385952287339 0.13266757129752671 0 0.38232915319187621 0.14145147187989651 0 0.33497932682518311 0.1519205034936916 0 0.36285879787080821 0.15032831482926681 0 0.35327239972246333 0.1300285668288671 0 0.33497932682518311 0.1519205034936916 0 0.34907151432127381 0.16521020144779211 0 0.36285879787080821 0.15032831482926681 0 0.36649271172908648 0.1176987398754743 0 0.35327239972246333 0.1300285668288671 0 0.36938385952287339 0.13266757129752671 0 0.36285879787080821 0.15032831482926681 0 0.35327239972246333 0.1300285668288671 0 0.36938385952287339 0.13266757129752671 0 0.39421974672685411 0.13240309148155921 0 0.38232915319187621 0.14145147187989651 0 0.38138511069115272 0.12353481432135879 0 0.36938385952287339 0.13266757129752671 0 0.38232915319187621 0.14145147187989651 0 0.38138511069115272 0.12353481432135879 0 0.39421974672685411 0.13240309148155921 0 0.41199731756477831 0.13352747615702071 0 0.3942733283070321 0.11371104406223111 0 0.39421974672685411 0.13240309148155921 0 0.40120830104283178 0.15077536395034899 0 0.41199731756477831 0.13352747615702071 0 0.39421974672685411 0.13240309148155921 0 0.40120830104283178 0.15077536395034899 0 0.38232915319187621 0.14145147187989651 0 0.36285879787080821 0.15032831482926681 0 0.38232915319187621 0.14145147187989651 0 0.3843829660287168 0.1587008111838667 0 0.40120830104283178 0.15077536395034899 0 0.38232915319187621 0.14145147187989651 0 0.3843829660287168 0.1587008111838667 0 0.37277469716236061 0.17385369407461371 0 0.3843829660287168 0.1587008111838667 0 0.39936082591505218 0.176604797209717 0 0.37277469716236061 0.17385369407461371 0 0.39936082591505218 0.176604797209717 0 0.38992891259608609 0.19548318162929729 0 0.40120830104283178 0.15077536395034899 0 0.39936082591505218 0.176604797209717 0 0.41410660213767347 0.1652382216241598 0 0.40120830104283178 0.15077536395034899 0 0.3843829660287168 0.1587008111838667 0 0.39936082591505218 0.176604797209717 0 0.40120830104283178 0.15077536395034899 0 0.41410660213767347 0.1652382216241598 0 0.42972130682252457 0.1533439082518103 0 0.39936082591505218 0.176604797209717 0 0.41410660213767347 0.1652382216241598 0 0.42626679864566441 0.18172907206941921 0 0.42626679864566441 0.18172907206941921 0 0.42972130682252457 0.1533439082518103 0 0.45055708181009879 0.1690731760043504 0 0.41410660213767347 0.1652382216241598 0 0.42626679864566441 0.18172907206941921 0 0.42972130682252457 0.1533439082518103 0 0.42972130682252457 0.1533439082518103 0 0.43054248402473921 0.1250848439374013 0 0.44904083753606949 0.1441389705362057 0 0.42972130682252457 0.1533439082518103 0 0.43054248402473921 0.1250848439374013 0 0.41199731756477831 0.13352747615702071 0 0.43054248402473921 0.1250848439374013 0 0.41199731756477831 0.13352747615702071 0 0.41135066019799099 0.1182158826350982 0 0.40120830104283178 0.15077536395034899 0 0.42972130682252457 0.1533439082518103 0 0.41199731756477831 0.13352747615702071 0 0.42972130682252457 0.1533439082518103 0 0.41199731756477831 0.13352747615702071 0 0.40097752291506289 0.25902709479471048 0 0.39333580902427501 0.24081282939082621 0 0.41286841049430861 0.24788583003777651 0 0.37478492512234668 0.26235925763296819 0 0.36970064025412291 0.2313836502337521 0 0.39333580902427501 0.24081282939082621 0 0.36970064025412291 0.2313836502337521 0 0.39333580902427501 0.24081282939082621 0 0.39338333076520482 0.2163019563834182 0 0.39338333076520482 0.2163019563834182 0 0.41736514745474701 0.23222376298023259 0 0.39333580902427501 0.24081282939082621 0 0.39338333076520482 0.2163019563834182 0 0.41736514745474701 0.23222376298023259 0 0.39338333076520482 0.2163019563834182 0 0.38992891259608609 0.19548318162929729 0 0.41508715600771068 0.20488700545500521 0 0.36940151407566268 0.20038014978660379 0 0.39338333076520482 0.2163019563834182 0 0.36940151407566268 0.20038014978660379 0 0.39338333076520482 0.2163019563834182 0 0.38992891259608609 0.19548318162929729 0 0.36940151407566268 0.20038014978660379 0 0.36970064025412291 0.2313836502337521 0 0.39338333076520482 0.2163019563834182 0 0.36940151407566268 0.20038014978660379 0 0.37277469716236061 0.17385369407461371 0 0.38992891259608609 0.19548318162929729 0 0.39936082591505218 0.176604797209717 0 0.38992891259608609 0.19548318162929729 0 0.41508715600771068 0.20488700545500521 0 0.39936082591505218 0.176604797209717 0 0.42626679864566441 0.18172907206941921 0 0.41508715600771068 0.20488700545500521 0 0.42626679864566441 0.18172907206941921 0 0.44140000057487638 0.20455834627575151 0 0.44473765559285833 0.18692520255949671 0 0.42626679864566441 0.18172907206941921 0 0.41508715600771068 0.20488700545500521 0 0.44140000057487638 0.20455834627575151 0 0.41508715600771068 0.20488700545500521 0 0.43790507610234408 0.2273079216372012 0 0.44140000057487638 0.20455834627575151 0 0.39338333076520482 0.2163019563834182 0 0.41508715600771068 0.20488700545500521 0 0.41736514745474701 0.23222376298023259 0 0.41508715600771068 0.20488700545500521 0 0.41736514745474701 0.23222376298023259 0 0.43790507610234408 0.2273079216372012 0 0.42717012070777932 0.25569493195645271 0 0.41736514745474701 0.23222376298023259 0 0.44134696414428898 0.24814556957704689 0 0.41736514745474701 0.23222376298023259 0 0.44134696414428898 0.24814556957704689 0 0.41736514745474701 0.23222376298023259 0 0.44134696414428898 0.24814556957704689 0 0.43790507610234408 0.2273079216372012 0 0.39333580902427501 0.24081282939082621 0 0.41736514745474701 0.23222376298023259 0 0.41286841049430861 0.24788583003777651 0 0.42717012070777932 0.25569493195645271 0 0.41736514745474701 0.23222376298023259 0 0.41286841049430861 0.24788583003777651 0 0.45336271850049548 0.25236276911819511 0 0.45602225988021539 0.23816249748875179 0 0.48180965237011408 0.2487438147612096 0 0.45336271850049548 0.25236276911819511 0 0.45602225988021539 0.23816249748875179 0 0.44134696414428898 0.24814556957704689 0 0.44600400848591359 0.23698591979390529 0 0.43790507610234408 0.2273079216372012 0 0.45336271850049548 0.25236276911819511 0 0.44134696414428898 0.24814556957704689 0 0.44600400848591359 0.23698591979390529 0 0.45336271850049548 0.25236276911819511 0 0.45602225988021539 0.23816249748875179 0 0.44600400848591359 0.23698591979390529 0 0.45602225988021539 0.23816249748875179 0 0.44600400848591359 0.23698591979390529 0 0.45492939023952461 0.2194397610932603 0 0.44600400848591359 0.23698591979390529 0 0.43790507610234408 0.2273079216372012 0 0.45492939023952461 0.2194397610932603 0 0.45602225988021539 0.23816249748875179 0 0.45492939023952461 0.2194397610932603 0 0.47419086539053962 0.2296972043723752 0 0.45492939023952461 0.2194397610932603 0 0.46072674134079361 0.19234021588846559 0 0.47847088324409548 0.2092058758105422 0 0.45492939023952461 0.2194397610932603 0 0.44140000057487638 0.20455834627575151 0 0.46072674134079361 0.19234021588846559 0 0.43790507610234408 0.2273079216372012 0 0.45492939023952461 0.2194397610932603 0 0.44140000057487638 0.20455834627575151 0 0.44140000057487638 0.20455834627575151 0 0.46072674134079361 0.19234021588846559 0 0.44473765559285833 0.18692520255949671 0 0.46072674134079361 0.19234021588846559 0 0.4812983336831132 0.1885899983914231 0 0.47847088324409548 0.2092058758105422 0 0.4812983336831132 0.1885899983914231 0 0.5 0.19797878532577309 0 0.47847088324409548 0.2092058758105422 0 0.5 0.19797878532577309 0 0.47847088324409548 0.2092058758105422 0 0.5 0.22793385045351919 0 0.47847088324409548 0.2092058758105422 0 0.47419086539053962 0.2296972043723752 0 0.5 0.22793385045351919 0 0.45492939023952461 0.2194397610932603 0 0.47847088324409548 0.2092058758105422 0 0.47419086539053962 0.2296972043723752 0 0.5 0.25788891558126559 0 0.5 0.22793385045351919 0 0.48180965237011408 0.2487438147612096 0 0.47419086539053962 0.2296972043723752 0 0.5 0.22793385045351919 0 0.48180965237011408 0.2487438147612096 0 0.45602225988021539 0.23816249748875179 0 0.47419086539053962 0.2296972043723752 0 0.48180965237011408 0.2487438147612096 0 0.46287167922105149 0.15545842773829099 0 0.44904083753606949 0.1441389705362057 0 0.45055708181009879 0.1690731760043504 0 0.46287167922105149 0.15545842773829099 0 0.46355845200513762 0.13850516077978961 0 0.47909635670674228 0.14767892477560191 0 0.46287167922105149 0.15545842773829099 0 0.46355845200513762 0.13850516077978961 0 0.44904083753606949 0.1441389705362057 0 0.46355845200513762 0.13850516077978961 0 0.47795750643906171 0.12649365297180731 0 0.4559740449914913 0.1245921335342187 0 0.46355845200513762 0.13850516077978961 0 0.44904083753606949 0.1441389705362057 0 0.4559740449914913 0.1245921335342187 0 0.43054248402473921 0.1250848439374013 0 0.44904083753606949 0.1441389705362057 0 0.4559740449914913 0.1245921335342187 0 0.42972130682252457 0.1533439082518103 0 0.44904083753606949 0.1441389705362057 0 0.45055708181009879 0.1690731760043504 0 0.42626679864566441 0.18172907206941921 0 0.45055708181009879 0.1690731760043504 0 0.44473765559285833 0.18692520255949671 0 0.46072674134079361 0.19234021588846559 0 0.45055708181009879 0.1690731760043504 0 0.44473765559285833 0.18692520255949671 0 0.46072674134079361 0.19234021588846559 0 0.45055708181009879 0.1690731760043504 0 0.4752785409050499 0.1685484481011886 0 0.46287167922105149 0.15545842773829099 0 0.45055708181009879 0.1690731760043504 0 0.4752785409050499 0.1685484481011886 0 0.45055708181009879 0.1690731760043504 0 0.4752785409050499 0.1685484481011886 0 0.46287167922105149 0.15545842773829099 0 0.4752785409050499 0.1685484481011886 0 0.47909635670674228 0.14767892477560191 0 0.46072674134079361 0.19234021588846559 0 0.4812983336831132 0.1885899983914231 0 0.4752785409050499 0.1685484481011886 0 0.4812983336831132 0.1885899983914231 0 0.4752785409050499 0.1685484481011886 0 0.50000000000000111 0.1680237201980268 0 0.4812983336831132 0.1885899983914231 0 0.5 0.19797878532577309 0 0.50000000000000111 0.1680237201980268 0 0.4752785409050499 0.1685484481011886 0 0.50000000000000111 0.1680237201980268 0 0.4752785409050499 0.1685484481011886 0 0.50000000000000111 0.1680237201980268 0 0.47909635670674228 0.14767892477560191 0 0.50000000000000111 0.1680237201980268 0 0.5 0.14405257421324749 0 0.47909635670674228 0.14767892477560191 0 0.46355845200513762 0.13850516077978961 0 0.47909635670674228 0.14767892477560191 0 0.47795750643906171 0.12649365297180731 0 0.5 0.14405257421324749 0 0.47795750643906171 0.12649365297180731 0 0.5 0.12008142822846821 0 0.5 0.14405257421324749 0 0.47909635670674228 0.14767892477560191 0 0.47795750643906171 0.12649365297180731 0 0.47795750643906171 0.12649365297180731 0 0.5 0.12008142822846821 0 0.48437617198066579 0.1083096126220475 0 0.48437617198066579 0.1083096126220475 0 0.5 0.096110282243688894 0 0.4787628640296252 0.09057766153942011 0 0.5 0.12008142822846821 0 0.48437617198066579 0.1083096126220475 0 0.5 0.096110282243688894 0 0.48437617198066579 0.1083096126220475 0 0.4787628640296252 0.09057766153942011 0 0.46516048943464161 0.10828503812685281 0 0.47795750643906171 0.12649365297180731 0 0.48437617198066579 0.1083096126220475 0 0.46516048943464161 0.10828503812685281 0 0.49999999999999389 0.072139136258909636 0 0.47264706529987838 0.068582714068275596 0 0.5 0.096110282243688894 0 0.49999999999999389 0.072139136258909636 0 0.4787628640296252 0.09057766153942011 0 0.49999999999999389 0.072139136258909636 0 0.4787628640296252 0.09057766153942011 0 0.47264706529987838 0.068582714068275596 0 0.47264706529987838 0.068582714068275596 0 0.44529413059976319 0.065026291877640793 0 0.47264706529987838 0.068582714068275596 0 0.45009241250792742 0.089848104882156193 0 0.44529413059976319 0.065026291877640793 0 0.4787628640296252 0.09057766153942011 0 0.47264706529987838 0.068582714068275596 0 0.45009241250792742 0.089848104882156193 0 0.45009241250792742 0.089848104882156193 0 0.44529413059976319 0.065026291877640793 0 0.42710943965072512 0.080764761008918995 0 0.4559740449914913 0.1245921335342187 0 0.46516048943464161 0.10828503812685281 0 0.44660059903698529 0.1095612823054605 0 0.47795750643906171 0.12649365297180731 0 0.4559740449914913 0.1245921335342187 0 0.46516048943464161 0.10828503812685281 0 0.45009241250792742 0.089848104882156193 0 0.46516048943464161 0.10828503812685281 0 0.44660059903698529 0.1095612823054605 0 0.4787628640296252 0.09057766153942011 0 0.45009241250792742 0.089848104882156193 0 0.46516048943464161 0.10828503812685281 0 0.45009241250792742 0.089848104882156193 0 0.44660059903698529 0.1095612823054605 0 0.42999027194599682 0.1018780191517587 0 0.43054248402473921 0.1250848439374013 0 0.4559740449914913 0.1245921335342187 0 0.44660059903698529 0.1095612823054605 0 0.43054248402473921 0.1250848439374013 0 0.44660059903698529 0.1095612823054605 0 0.42999027194599682 0.1018780191517587 0 0.43054248402473921 0.1250848439374013 0 0.41661501870526302 0.10782610780512 0 0.42999027194599682 0.1018780191517587 0 0.43054248402473921 0.1250848439374013 0 0.41135066019799099 0.1182158826350982 0 0.41661501870526302 0.10782610780512 0 0.43054248402473921 0.1250848439374013 0 0.41135066019799099 0.1182158826350982 0 0.41135066019799099 0.1182158826350982 0 0.41661501870526302 0.10782610780512 0 0.40605193543095291 0.1101899923625959 0 0.41199731756477831 0.13352747615702071 0 0.40856435551682457 0.1195913393650266 0 0.41135066019799099 0.1182158826350982 0 0.41661501870526302 0.10782610780512 0 0.42999027194599682 0.1018780191517587 0 0.41050144950628809 0.092342992232264526 0 0.41661501870526302 0.10782610780512 0 0.41050144950628809 0.092342992232264526 0 0.40408322644931421 0.10337105767737099 0 0.41661501870526302 0.10782610780512 0 0.40605193543095291 0.1101899923625959 0 0.40408322644931421 0.10337105767737099 0 0.45009241250792742 0.089848104882156193 0 0.42999027194599682 0.1018780191517587 0 0.42710943965072512 0.080764761008918995 0 0.42999027194599682 0.1018780191517587 0 0.42710943965072512 0.080764761008918995 0 0.41050144950628809 0.092342992232264526 0 0.44529413059976319 0.065026291877640793 0 0.42710943965072512 0.080764761008918995 0 0.41794119589964812 0.061469869687005997 0 0.44529413059976319 0.065026291877640793 0 0.41794119589964812 0.061469869687005997 0 0.42710943965072512 0.080764761008918995 0 0.40780427562880051 0.074340584248736047 0 0.41794119589964812 0.061469869687005997 0 0.42710943965072512 0.080764761008918995 0 0.40780427562880051 0.074340584248736047 0 0.41050144950628809 0.092342992232264526 0 0.41050144950628809 0.092342992232264526 0 0.39288103188780799 0.079211850819119467 0 0.39173805803946632 0.094638931286680023 0 0.40780427562880051 0.074340584248736047 0 0.41050144950628809 0.092342992232264526 0 0.39288103188780799 0.079211850819119467 0 0.40780427562880051 0.074340584248736047 0 0.39058826119953283 0.057913447496371839 0 0.41794119589964812 0.061469869687005997 0 0.40780427562880051 0.074340584248736047 0 0.39288103188780799 0.079211850819119467 0 0.39058826119953283 0.057913447496371839 0 0.39288103188780799 0.079211850819119467 0 0.37575225644292037 0.071709270247263784 0 0.39058826119953283 0.057913447496371839 0 0.3742009225581896 0.091268948227223284 0 0.39288103188780799 0.079211850819119467 0 0.39173805803946632 0.094638931286680023 0 0.3742009225581896 0.091268948227223284 0 0.39288103188780799 0.079211850819119467 0 0.37575225644292037 0.071709270247263784 0 0.3742009225581896 0.091268948227223284 0 0.39215883637124299 0.11134692133279479 0 0.39173805803946632 0.094638931286680023 0 0.3742009225581896 0.091268948227223284 0 0.39215883637124299 0.11134692133279479 0 0.3742009225581896 0.091268948227223284 0 0.3795225325030368 0.1068242515199407 0 0.39215883637124299 0.11134692133279479 0 0.3795225325030368 0.1068242515199407 0 0.39215883637124299 0.11134692133279479 0 0.3795225325030368 0.1068242515199407 0 0.38138511069115272 0.12353481432135879 0 0.3942733283070321 0.11371104406223111 0 0.36649271172908648 0.1176987398754743 0 0.3795225325030368 0.1068242515199407 0 0.38138511069115272 0.12353481432135879 0 0.39421974672685411 0.13240309148155921 0 0.38138511069115272 0.12353481432135879 0 0.3942733283070321 0.11371104406223111 0 0.3795225325030368 0.1068242515199407 0 0.3942733283070321 0.11371104406223111 0 0.3795225325030368 0.1068242515199407 0 0.39215883637124299 0.11134692133279479 0 0.3942733283070321 0.11371104406223111 0 0.41135066019799099 0.1182158826350982 0 0.39215883637124299 0.11134692133279479 0 0.40605193543095291 0.1101899923625959 0 0.41135066019799099 0.1182158826350982 0 0.39215883637124299 0.11134692133279479 0 0.3942733283070321 0.11371104406223111 0 0.41135066019799099 0.1182158826350982 0 0.39215883637124299 0.11134692133279479 0 0.41199731756477831 0.13352747615702071 0 0.40856435551682457 0.1195913393650266 0 0.3942733283070321 0.11371104406223111 0 0.41199731756477831 0.13352747615702071 0 0.3942733283070321 0.11371104406223111 0 0.40856435551682457 0.1195913393650266 0 0.41135066019799099 0.1182158826350982 0 0.3942733283070321 0.11371104406223111 0 0.39215883637124299 0.11134692133279479 0 0.3942733283070321 0.11371104406223111 0 0.40856435551682457 0.1195913393650266 0 0.3942733283070321 0.11371104406223111 0 0.39215883637124299 0.11134692133279479 0 0.40408322644931421 0.10337105767737099 0 0.39173805803946632 0.094638931286680023 0 0.39215883637124299 0.11134692133279479 0 0.40605193543095291 0.1101899923625959 0 0.40408322644931421 0.10337105767737099 0 0.41050144950628809 0.092342992232264526 0 0.40408322644931421 0.10337105767737099 0 0.39173805803946632 0.094638931286680023 0 0.4038432128890253 0.016274120358417851 0 0.39452024459155199 0.029629145094844 0 0.3798040161112804 0.028996110171619349 0 0.4038432128890253 0.016274120358417851 0 0.39452024459155199 0.029629145094844 0 0.40714332068978548 0.032011032787191827 0 0.4038432128890253 0.016274120358417851 0 0.3798040161112804 0.028996110171619349 0 0.4038432128890253 0.016274120358417851 0 0.39390920682105918 0.0040204267233196643 0 0.38813729234829519 0.016219836643301819 0 0.4038432128890253 0.016274120358417851 0 0.39390920682105918 0.0040204267233196643 0 0.40369857438468087 -0.0060371637805465179 0 0.39390920682105918 0.0040204267233196643 0 0.38212023564171321 0.001094655884648786 0 0.38813729234829519 0.016219836643301819 0 0.38212023564171321 0.001094655884648786 0 0.37537418671591988 0.012891754799621079 0 0.3700201466167648 -0.002195575246397889 0 0.38212023564171321 0.001094655884648786 0 0.37537418671591988 0.012891754799621079 0 0.38813729234829519 0.016219836643301819 0 0.38029426512156322 0.021339738828328979 0 0.38813729234829519 0.016219836643301819 0 0.3798040161112804 0.028996110171619349 0 0.4038432128890253 0.016274120358417851 0 0.38813729234829519 0.016219836643301819 0 0.3798040161112804 0.028996110171619349 0 0.37537418671591988 0.012891754799621079 0 0.38029426512156322 0.021339738828328979 0 0.37786156531075732 0.02725125369877367 0 0.37537418671591988 0.012891754799621079 0 0.38029426512156322 0.021339738828328979 0 0.38813729234829519 0.016219836643301819 0 0.39452024459155199 0.029629145094844 0 0.3798040161112804 0.028996110171619349 0 0.384792923869274 0.033192425096464057 0 0.38029426512156322 0.021339738828328979 0 0.3798040161112804 0.028996110171619349 0 0.37786156531075732 0.02725125369877367 0 0.36984281421283938 0.03924660656396721 0 0.3798040161112804 0.028996110171619349 0 0.37675727284589372 0.036323400775862158 0 0.3798040161112804 0.028996110171619349 0 0.38012370578730592 0.033949837724153123 0 0.37675727284589372 0.036323400775862158 0 0.3798040161112804 0.028996110171619349 0 0.38012370578730592 0.033949837724153123 0 0.384792923869274 0.033192425096464057 0 0.38012370578730592 0.033949837724153123 0 0.38115894465086869 0.037510150111343843 0 0.384792923869274 0.033192425096464057 0 0.38012370578730592 0.033949837724153123 0 0.38115894465086869 0.037510150111343843 0 0.37675727284589372 0.036323400775862158 0 0.38115894465086869 0.037510150111343843 0 0.37675727284589372 0.036323400775862158 0 0.37726993283737248 0.041439113600633092 0 0.37726993283737248 0.041439113600633092 0 0.38325871491723518 0.0441773091346798 0 0.37608467898805159 0.048096788967416412 0 0.38115894465086869 0.037510150111343843 0 0.37726993283737248 0.041439113600633092 0 0.38325871491723518 0.0441773091346798 0 0.38115894465086869 0.037510150111343843 0 0.38325871491723518 0.0441773091346798 0 0.38884635116990662 0.036871995634108659 0 0.38325871491723518 0.0441773091346798 0 0.38884635116990662 0.036871995634108659 0 0.39118926401298038 0.043344116461786472 0 0.39452024459155199 0.029629145094844 0 0.38884635116990662 0.036871995634108659 0 0.384792923869274 0.033192425096464057 0 0.38115894465086869 0.037510150111343843 0 0.38884635116990662 0.036871995634108659 0 0.384792923869274 0.033192425096464057 0 0.36737709041569239 0.056764699852256018 0 0.39058826119953283 0.057913447496371839 0 0.36443667806580698 0.054513224756226962 0 0.37608467898805159 0.048096788967416412 0 0.39058826119953283 0.057913447496371839 0 0.36737709041569239 0.056764699852256018 0 0.37575225644292037 0.071709270247263784 0 0.39058826119953283 0.057913447496371839 0 0.36443667806580698 0.054513224756226962 0 0.39058826119953283 0.057913447496371839 0 0.38325871491723518 0.0441773091346798 0 0.37608467898805159 0.048096788967416412 0 0.39058826119953283 0.057913447496371839 0 0.38325871491723518 0.0441773091346798 0 0.39058826119953283 0.057913447496371839 0 0.39118926401298038 0.043344116461786472 0 0.39058826119953283 0.057913447496371839 0 0.39917917489280202 0.048669550515315511 0 0.40824027372044169 0.058787065978875973 0 0.39058826119953283 0.057913447496371839 0 0.40824027372044169 0.058787065978875973 0 0.39058826119953283 0.057913447496371839 0 0.41794119589964812 0.061469869687005997 0 0.40824027372044169 0.058787065978875973 0 0.39058826119953283 0.057913447496371839 0 0.41794119589964812 0.061469869687005997 0 0.39058826119953283 0.057913447496371839 0 0.39917917489280202 0.048669550515315511 0 0.39118926401298038 0.043344116461786472 0 0.39917917489280202 0.048669550515315511 0 0.40803146459590139 0.044566129264659721 0 0.40824027372044169 0.058787065978875973 0 0.39452024459155199 0.029629145094844 0 0.38884635116990662 0.036871995634108659 0 0.39784661093515339 0.038736993374884177 0 0.39917917489280202 0.048669550515315511 0 0.39784661093515339 0.038736993374884177 0 0.39118926401298038 0.043344116461786472 0 0.38884635116990662 0.036871995634108659 0 0.39784661093515339 0.038736993374884177 0 0.39118926401298038 0.043344116461786472 0 0.39917917489280202 0.048669550515315511 0 0.39784661093515339 0.038736993374884177 0 0.40803146459590139 0.044566129264659721 0 0.39452024459155199 0.029629145094844 0 0.39784661093515339 0.038736993374884177 0 0.40714332068978548 0.032011032787191827 0 0.39784661093515339 0.038736993374884177 0 0.40714332068978548 0.032011032787191827 0 0.40803146459590139 0.044566129264659721 0 0.40714332068978548 0.032011032787191827 0 0.40803146459590139 0.044566129264659721 0 0.41964440497126981 0.040250358009145122 0 0.40803146459590139 0.044566129264659721 0 0.41964440497126981 0.040250358009145122 0 0.41733432138732551 0.050785193364838402 0 0.40714332068978548 0.032011032787191827 0 0.41964440497126981 0.040250358009145122 0 0.41891932927970088 0.026081136014491389 0 0.40824027372044169 0.058787065978875973 0 0.41733432138732551 0.050785193364838402 0 0.42589228624135061 0.059660684461379461 0 0.40824027372044169 0.058787065978875973 0 0.42589228624135061 0.059660684461379461 0 0.41794119589964812 0.061469869687005997 0 0.40824027372044169 0.058787065978875973 0 0.42589228624135061 0.059660684461379461 0 0.40803146459590139 0.044566129264659721 0 0.40824027372044169 0.058787065978875973 0 0.41733432138732551 0.050785193364838402 0 0.41964440497126981 0.040250358009145122 0 0.41733432138732551 0.050785193364838402 0 0.42647272639553008 0.050672874727357403 0 0.44529413059976319 0.065026291877640793 0 0.42589228624135061 0.059660684461379461 0 0.43583307009461808 0.053135938561971199 0 0.44529413059976319 0.065026291877640793 0 0.41794119589964812 0.061469869687005997 0 0.42589228624135061 0.059660684461379461 0 0.42589228624135061 0.059660684461379461 0 0.42647272639553008 0.050672874727357403 0 0.43583307009461808 0.053135938561971199 0 0.41733432138732551 0.050785193364838402 0 0.42589228624135061 0.059660684461379461 0 0.42647272639553008 0.050672874727357403 0 0.42647272639553008 0.050672874727357403 0 0.43583307009461808 0.053135938561971199 0 0.4340740022190257 0.043822740937536728 0 0.41964440497126981 0.040250358009145122 0 0.42987588244635011 0.033334548906864728 0 0.41891932927970088 0.026081136014491389 0 0.41964440497126981 0.040250358009145122 0 0.4340740022190257 0.043822740937536728 0 0.42987588244635011 0.033334548906864728 0 0.41964440497126981 0.040250358009145122 0 0.42647272639553008 0.050672874727357403 0 0.4340740022190257 0.043822740937536728 0 0.4340740022190257 0.043822740937536728 0 0.42987588244635011 0.033334548906864728 0 0.44528176508543132 0.032905620831071007 0 0.42987588244635011 0.033334548906864728 0 0.43184963590009789 0.021236349906575389 0 0.44528176508543132 0.032905620831071007 0 0.43184963590009789 0.021236349906575389 0 0.42259879527057942 0.015927249454054739 0 0.43188165484739188 0.01287087804949661 0 0.43184963590009789 0.021236349906575389 0 0.42259879527057942 0.015927249454054739 0 0.41891932927970088 0.026081136014491389 0 0.42987588244635011 0.033334548906864728 0 0.43184963590009789 0.021236349906575389 0 0.41891932927970088 0.026081136014491389 0 0.4038432128890253 0.016274120358417851 0 0.42259879527057942 0.015927249454054739 0 0.41891932927970088 0.026081136014491389 0 0.4038432128890253 0.016274120358417851 0 0.40714332068978548 0.032011032787191827 0 0.41891932927970088 0.026081136014491389 0 0.4038432128890253 0.016274120358417851 0 0.41402040698134779 -0.0025911497673051101 0 0.40369857438468087 -0.0060371637805465179 0 0.4038432128890253 0.016274120358417851 0 0.42788240966677021 0.003552130545216341 0 0.4038432128890253 0.016274120358417851 0 0.42101935538117791 0.0050386314779034547 0 0.41402040698134779 -0.0025911497673051101 0 0.4038432128890253 0.016274120358417851 0 0.42259879527057942 0.015927249454054739 0 0.42788240966677021 0.003552130545216341 0 0.4038432128890253 0.016274120358417851 0 0.42101935538117791 0.0050386314779034547 0 0.42788240966677021 0.003552130545216341 0 0.42788240966677021 0.003552130545216341 0 0.43188165484739188 0.01287087804949661 0 0.44740740452026229 0.01137317045841814 0 0.42259879527057942 0.015927249454054739 0 0.42788240966677021 0.003552130545216341 0 0.43188165484739188 0.01287087804949661 0 0.43184963590009789 0.021236349906575389 0 0.43188165484739188 0.01287087804949661 0 0.44740740452026229 0.01137317045841814 0 0.42788240966677021 0.003552130545216341 0 0.44740740452026229 0.01137317045841814 0 0.45192160644451512 -0.0091698592679851504 0 0.43184963590009789 0.021236349906575389 0 0.44740740452026229 0.01137317045841814 0 0.44528176508543132 0.032905620831071007 0 0.44740740452026229 0.01137317045841814 0 0.44528176508543132 0.032905620831071007 0 0.46875558315454652 0.02621282055229885 0 0.44740740452026229 0.01137317045841814 0 0.4740075662235973 0.0028935560396234419 0 0.46875558315454652 0.02621282055229885 0 0.44740740452026229 0.01137317045841814 0 0.4740075662235973 0.0028935560396234419 0 0.45192160644451512 -0.0091698592679851504 0 0.44529413059976319 0.065026291877640793 0 0.44587589901867808 0.047550444472131762 0 0.4614262583005877 0.04791767975015173 0 0.44529413059976319 0.065026291877640793 0 0.43583307009461808 0.053135938561971199 0 0.44587589901867808 0.047550444472131762 0 0.43583307009461808 0.053135938561971199 0 0.4340740022190257 0.043822740937536728 0 0.44587589901867808 0.047550444472131762 0 0.44587589901867808 0.047550444472131762 0 0.44528176508543132 0.032905620831071007 0 0.4614262583005877 0.04791767975015173 0 0.4340740022190257 0.043822740937536728 0 0.44587589901867808 0.047550444472131762 0 0.44528176508543132 0.032905620831071007 0 0.44528176508543132 0.032905620831071007 0 0.4614262583005877 0.04791767975015173 0 0.46875558315454652 0.02621282055229885 0 0.47264706529987838 0.068582714068275596 0 0.44529413059976319 0.065026291877640793 0 0.4614262583005877 0.04791767975015173 0 0.47264706529987838 0.068582714068275596 0 0.4614262583005877 0.04791767975015173 0 0.48053199367993171 0.043851827509569327 0 0.4614262583005877 0.04791767975015173 0 0.48053199367993171 0.043851827509569327 0 0.46875558315454652 0.02621282055229885 0 0.48053199367993171 0.043851827509569327 0 0.5 0.04545089247058498 0 0.5 0.018762648682260189 0 0.49999999999999389 0.072139136258909636 0 0.47264706529987838 0.068582714068275596 0 0.48053199367993171 0.043851827509569327 0 0.49999999999999389 0.072139136258909636 0 0.48053199367993171 0.043851827509569327 0 0.5 0.04545089247058498 0 0.48053199367993171 0.043851827509569327 0 0.46875558315454652 0.02621282055229885 0 0.5 0.018762648682260189 0 0.4740075662235973 0.0028935560396234419 0 0.46875558315454652 0.02621282055229885 0 0.5 0.018762648682260189 0 0.4740075662235973 0.0028935560396234419 0 0.5 0.018762648682260189 0 0.5 -0.0079255951060647756 0 0.4740075662235973 0.0028935560396234419 0 0.5 -0.0079255951060647756 0 0.47596080322225992 -0.02189184908118659 0 0.47596080322225992 -0.02189184908118659 0 0.50000000000000377 -0.034613838894389633 0 0.5 -0.0079255951060647756 0 0.47596080322225992 -0.02189184908118659 0 0.50000000000000377 -0.034613838894389633 0 0.47596080322225992 -0.02189184908118659 0 0.50000000000000377 -0.034613838894389633 0 0.48339532061042467 -0.042675677639817791 0 0.50000000000000377 -0.034613838894389633 0 0.5 -0.052291970509826757 0 0.48339532061042467 -0.042675677639817791 0 0.5 -0.052291970509826757 0 0.48378938215607542 -0.060491629721736481 0 0.49999999999999678 -0.069970102125263903 0 0.5 -0.052291970509826757 0 0.48378938215607542 -0.060491629721736481 0 0.48339532061042467 -0.042675677639817791 0 0.48378938215607542 -0.060491629721736481 0 0.47035919737641452 -0.05083356829212015 0 0.48339532061042467 -0.042675677639817791 0 0.48378938215607542 -0.060491629721736481 0 0.47035919737641452 -0.05083356829212015 0 0.46263532094350251 -0.0655193079319734 0 0.47596080322225992 -0.02189184908118659 0 0.48339532061042467 -0.042675677639817791 0 0.46122373864745198 -0.034064038759572521 0 0.47035919737641452 -0.05083356829212015 0 0.48339532061042467 -0.042675677639817791 0 0.46122373864745198 -0.034064038759572521 0 0.46122373864745198 -0.034064038759572521 0 0.45641225836005789 -0.05051217933658872 0 0.44483042593949818 -0.041063070916932051 0 0.47035919737641452 -0.05083356829212015 0 0.46122373864745198 -0.034064038759572521 0 0.45641225836005789 -0.05051217933658872 0 0.45641225836005789 -0.05051217933658872 0 0.44526353314296241 -0.062107813217869068 0 0.46263532094350251 -0.0655193079319734 0 0.47035919737641452 -0.05083356829212015 0 0.45641225836005789 -0.05051217933658872 0 0.46263532094350251 -0.0655193079319734 0 0.45641225836005789 -0.05051217933658872 0 0.44526353314296241 -0.062107813217869068 0 0.44483042593949818 -0.041063070916932051 0 0.44526353314296241 -0.062107813217869068 0 0.44483042593949818 -0.041063070916932051 0 0.42768193525564641 -0.052738548234870043 0 0.46122373864745198 -0.034064038759572521 0 0.44483042593949818 -0.041063070916932051 0 0.44260817666721519 -0.025216613737701819 0 0.44483042593949818 -0.041063070916932051 0 0.44260817666721519 -0.025216613737701819 0 0.43454865465473302 -0.032105158367880783 0 0.46122373864745198 -0.034064038759572521 0 0.44260817666721519 -0.025216613737701819 0 0.45192160644451512 -0.0091698592679851504 0 0.42788240966677021 0.003552130545216341 0 0.45192160644451512 -0.0091698592679851504 0 0.44260817666721519 -0.025216613737701819 0 0.45192160644451512 -0.0091698592679851504 0 0.43543049063324413 -0.012350052332502739 0 0.42788240966677021 0.003552130545216341 0 0.45192160644451512 -0.0091698592679851504 0 0.43543049063324413 -0.012350052332502739 0 0.4740075662235973 0.0028935560396234419 0 0.47596080322225992 -0.02189184908118659 0 0.45192160644451512 -0.0091698592679851504 0 0.47596080322225992 -0.02189184908118659 0 0.45192160644451512 -0.0091698592679851504 0 0.47596080322225992 -0.02189184908118659 0 0.46122373864745198 -0.034064038759572521 0 0.45192160644451512 -0.0091698592679851504 0 0.47621403880257929 -0.099362679963144546 0 0.45825176112352212 -0.1171944005084963 0 0.47461064769812122 -0.12772964805397971 0 0.50000000000000433 -0.1143432737178363 0 0.47621403880257929 -0.099362679963144546 0 0.47461064769812122 -0.12772964805397971 0 0.50000000000000433 -0.1143432737178363 0 0.47461064769812122 -0.12772964805397971 0 0.49999999999998102 -0.1000967699598443 0 0.47621403880257929 -0.099362679963144546 0 0.49999999999998102 -0.1000967699598443 0 0.47621403880257929 -0.099362679963144546 0 0.48785951469139027 -0.086657123706384981 0 0.50000000000000433 -0.1143432737178363 0 0.49999999999998102 -0.1000967699598443 0 0.47621403880257929 -0.099362679963144546 0 0.47621403880257929 -0.099362679963144546 0 0.48785951469139027 -0.086657123706384981 0 0.47522401996300467 -0.077198942777287505 0 0.47621403880257929 -0.099362679963144546 0 0.47522401996300467 -0.077198942777287505 0 0.46460819440086443 -0.0896918568577834 0 0.49999999999998102 -0.1000967699598443 0 0.48785951469139027 -0.086657123706384981 0 0.49999999999999678 -0.069970102125263903 0 0.49999999999999678 -0.069970102125263903 0 0.47522401996300467 -0.077198942777287505 0 0.48785951469139027 -0.086657123706384981 0 0.49999999999999678 -0.069970102125263903 0 0.47522401996300467 -0.077198942777287505 0 0.48378938215607542 -0.060491629721736481 0 0.49999999999999678 -0.069970102125263903 0 0.47522401996300467 -0.077198942777287505 0 0.48378938215607542 -0.060491629721736481 0 0.47522401996300467 -0.077198942777287505 0 0.46263532094350251 -0.0655193079319734 0 0.47522401996300467 -0.077198942777287505 0 0.46263532094350251 -0.0655193079319734 0 0.4504480399260129 -0.084427783429311939 0 0.44526353314296241 -0.062107813217869068 0 0.46263532094350251 -0.0655193079319734 0 0.4504480399260129 -0.084427783429311939 0 0.44526353314296241 -0.062107813217869068 0 0.4504480399260129 -0.084427783429311939 0 0.43069868055782679 -0.078899440675300136 0 0.4504480399260129 -0.084427783429311939 0 0.45242807760517778 -0.098628589966444233 0 0.42864211640777627 -0.097894499969741214 0 0.4504480399260129 -0.084427783429311939 0 0.42567205988902129 -0.091656624081337568 0 0.47522401996300467 -0.077198942777287505 0 0.4504480399260129 -0.084427783429311939 0 0.47522401996300467 -0.077198942777287505 0 0.4504480399260129 -0.084427783429311939 0 0.46460819440086443 -0.0896918568577834 0 0.4504480399260129 -0.084427783429311939 0 0.46460819440086443 -0.0896918568577834 0 0.45242807760517778 -0.098628589966444233 0 0.47621403880257929 -0.099362679963144546 0 0.45242807760517778 -0.098628589966444233 0 0.45825176112352212 -0.1171944005084963 0 0.47621403880257929 -0.099362679963144546 0 0.45242807760517778 -0.098628589966444233 0 0.47621403880257929 -0.099362679963144546 0 0.46460819440086443 -0.0896918568577834 0 0.45242807760517778 -0.098628589966444233 0 0.45242807760517778 -0.098628589966444233 0 0.42864211640777627 -0.097894499969741214 0 0.45242807760517778 -0.098628589966444233 0 0.43893170590200609 -0.1195052611799315 0 0.42864211640777627 -0.097894499969741214 0 0.45242807760517778 -0.098628589966444233 0 0.43893170590200609 -0.1195052611799315 0 0.45825176112352212 -0.1171944005084963 0 0.42080162445294911 -0.1170697999396166 0 0.40604313277712428 -0.1171380761358455 0 0.41368108829086198 -0.13554811058748131 0 0.42080162445294911 -0.1170697999396166 0 0.40662173914453831 -0.097214899993173481 0 0.40604313277712428 -0.1171380761358455 0 0.43893170590200609 -0.1195052611799315 0 0.42080162445294911 -0.1170697999396166 0 0.430889964195386 -0.135117951771525 0 0.43893170590200609 -0.1195052611799315 0 0.42080162445294911 -0.1170697999396166 0 0.42864211640777627 -0.097894499969741214 0 0.43893170590200609 -0.1195052611799315 0 0.42864211640777627 -0.097894499969741214 0 0.42864211640777627 -0.097894499969741214 0 0.42567205988902129 -0.091656624081337568 0 0.42864211640777627 -0.097894499969741214 0 0.40662173914453831 -0.097214899993173481 0 0.42567205988902129 -0.091656624081337568 0 0.42080162445294911 -0.1170697999396166 0 0.42864211640777627 -0.097894499969741214 0 0.40662173914453831 -0.097214899993173481 0 0.42864211640777627 -0.097894499969741214 0 0.40662173914453831 -0.097214899993173481 0 0.40662173914453831 -0.097214899993173481 0 0.42567205988902129 -0.091656624081337568 0 0.40662173914453831 -0.097214899993173481 0 0.41829766411352998 -0.087706900461061957 0 0.42567205988902129 -0.091656624081337568 0 0.40662173914453831 -0.097214899993173481 0 0.41020628866808312 -0.08357079425946129 0 0.41829766411352998 -0.087706900461061957 0 0.41020628866808312 -0.08357079425946129 0 0.42012861486432151 -0.07981881462850364 0 0.41094109939792961 -0.074512111623280808 0 0.41020628866808312 -0.08357079425946129 0 0.41094109939792961 -0.074512111623280808 0 0.40556094342569721 -0.078918860306745137 0 0.41020628866808312 -0.08357079425946129 0 0.42012861486432151 -0.07981881462850364 0 0.41829766411352998 -0.087706900461061957 0 0.42012861486432151 -0.07981881462850364 0 0.41829766411352998 -0.087706900461061957 0 0.42254342745458301 -0.084546146485576762 0 0.41829766411352998 -0.087706900461061957 0 0.42461385466063262 -0.08943412331831832 0 0.42254342745458301 -0.084546146485576762 0 0.42567205988902129 -0.091656624081337568 0 0.42461385466063262 -0.08943412331831832 0 0.43069868055782679 -0.078899440675300136 0 0.4504480399260129 -0.084427783429311939 0 0.42567205988902129 -0.091656624081337568 0 0.43069868055782679 -0.078899440675300136 0 0.4504480399260129 -0.084427783429311939 0 0.42864211640777627 -0.097894499969741214 0 0.42567205988902129 -0.091656624081337568 0 0.42567205988902129 -0.091656624081337568 0 0.42461385466063262 -0.08943412331831832 0 0.41829766411352998 -0.087706900461061957 0 0.42567205988902129 -0.091656624081337568 0 0.42461385466063262 -0.08943412331831832 0 0.42012861486432151 -0.07981881462850364 0 0.43069868055782679 -0.078899440675300136 0 0.42254342745458301 -0.084546146485576762 0 0.42461385466063262 -0.08943412331831832 0 0.43069868055782679 -0.078899440675300136 0 0.42254342745458301 -0.084546146485576762 0 0.43069868055782679 -0.078899440675300136 0 0.42085386234523608 -0.065266903626460593 0 0.41911482919747139 -0.073234494934215744 0 0.43069868055782679 -0.078899440675300136 0 0.42085386234523608 -0.065266903626460593 0 0.42768193525564641 -0.052738548234870043 0 0.44526353314296241 -0.062107813217869068 0 0.43069868055782679 -0.078899440675300136 0 0.42768193525564641 -0.052738548234870043 0 0.43069868055782679 -0.078899440675300136 0 0.42768193525564641 -0.052738548234870043 0 0.42012861486432151 -0.07981881462850364 0 0.43069868055782679 -0.078899440675300136 0 0.41911482919747139 -0.073234494934215744 0 0.42085386234523608 -0.065266903626460593 0 0.41911482919747139 -0.073234494934215744 0 0.41247118756252621 -0.068972059658544485 0 0.41911482919747139 -0.073234494934215744 0 0.41094109939792961 -0.074512111623280808 0 0.41247118756252621 -0.068972059658544485 0 0.42012861486432151 -0.07981881462850364 0 0.41911482919747139 -0.073234494934215744 0 0.41094109939792961 -0.074512111623280808 0 0.41094109939792961 -0.074512111623280808 0 0.41247118756252621 -0.068972059658544485 0 0.40519344017519737 -0.069697512887539489 0 0.42085386234523608 -0.065266903626460593 0 0.41247118756252621 -0.068972059658544485 0 0.40625270669679608 -0.06214927522122575 0 0.41247118756252621 -0.068972059658544485 0 0.40519344017519737 -0.069697512887539489 0 0.40625270669679608 -0.06214927522122575 0 0.40519344017519737 -0.069697512887539489 0 0.3909339432522656 -0.07145852807871525 0 0.40625270669679608 -0.06214927522122575 0 0.41094109939792961 -0.074512111623280808 0 0.40094221169150912 -0.074554002884685597 0 0.40556094342569721 -0.078918860306745137 0 0.40519344017519737 -0.069697512887539489 0 0.40094221169150912 -0.074554002884685597 0 0.3909339432522656 -0.07145852807871525 0 0.41094109939792961 -0.074512111623280808 0 0.40519344017519737 -0.069697512887539489 0 0.40094221169150912 -0.074554002884685597 0 0.40094221169150912 -0.074554002884685597 0 0.3909339432522656 -0.07145852807871525 0 0.39616481607021642 -0.077435810443283751 0 0.3909339432522656 -0.07145852807871525 0 0.39616481607021642 -0.077435810443283751 0 0.39262893539182381 -0.080692178350181262 0 0.39181446083091098 -0.066763706552935329 0 0.38421934743036401 -0.068446750892908373 0 0.38398729378694407 -0.058429379279077209 0 0.38421934743036401 -0.068446750892908373 0 0.37813424473731178 -0.068262582352726586 0 0.38398729378694407 -0.058429379279077209 0 0.37813424473731178 -0.068262582352726586 0 0.38294139036628899 -0.080331335386894381 0 0.37353404377441052 -0.075370636612477671 0 0.38421934743036401 -0.068446750892908373 0 0.37813424473731178 -0.068262582352726586 0 0.38294139036628899 -0.080331335386894381 0 0.39181446083091098 -0.066763706552935329 0 0.38294139036628899 -0.080331335386894381 0 0.39181446083091098 -0.066763706552935329 0 0.38421934743036401 -0.068446750892908373 0 0.38294139036628899 -0.080331335386894381 0 0.3909339432522656 -0.07145852807871525 0 0.39181446083091098 -0.066763706552935329 0 0.38294139036628899 -0.080331335386894381 0 0.38598565568847482 -0.085166122563822014 0 0.39289996883908601 -0.089154852807517448 0 0.39262893539182381 -0.080692178350181262 0 0.3909339432522656 -0.07145852807871525 0 0.38598565568847482 -0.085166122563822014 0 0.39262893539182381 -0.080692178350181262 0 0.3909339432522656 -0.07145852807871525 0 0.37406831990166722 -0.093898964220853504 0 0.3909339432522656 -0.07145852807871525 0 0.38598565568847482 -0.085166122563822014 0 0.37406831990166722 -0.093898964220853504 0 0.3909339432522656 -0.07145852807871525 0 0.38294139036628899 -0.080331335386894381 0 0.37406831990166722 -0.093898964220853504 0 0.38294139036628899 -0.080331335386894381 0 0.37406831990166722 -0.093898964220853504 0 0.38598565568847482 -0.085166122563822014 0 0.38240509603332101 -0.092127683864182172 0 0.37406831990166722 -0.093898964220853504 0 0.38240509603332101 -0.092127683864182172 0 0.39289996883908601 -0.089154852807517448 0 0.38960421283109031 -0.096689699614190994 0 0.38598565568847482 -0.085166122563822014 0 0.38240509603332101 -0.092127683864182172 0 0.39289996883908601 -0.089154852807517448 0 0.39289996883908601 -0.089154852807517448 0 0.39262893539182381 -0.080692178350181262 0 0.40015417394526698 -0.083038532459552866 0 0.39616481607021642 -0.077435810443283751 0 0.39262893539182381 -0.080692178350181262 0 0.40015417394526698 -0.083038532459552866 0 0.40094221169150912 -0.074554002884685597 0 0.40556094342569721 -0.078918860306745137 0 0.40015417394526698 -0.083038532459552866 0 0.40094221169150912 -0.074554002884685597 0 0.39616481607021642 -0.077435810443283751 0 0.40015417394526698 -0.083038532459552866 0 0.41020628866808312 -0.08357079425946129 0 0.40556094342569721 -0.078918860306745137 0 0.40015417394526698 -0.083038532459552866 0 0.40662173914453831 -0.097214899993173481 0 0.39289996883908601 -0.089154852807517448 0 0.40015417394526698 -0.083038532459552866 0 0.40662173914453831 -0.097214899993173481 0 0.41020628866808312 -0.08357079425946129 0 0.40015417394526698 -0.083038532459552866 0 0.40662173914453831 -0.097214899993173481 0 0.3851668720105898 -0.10347474583943909 0 0.38960421283109031 -0.096689699614190994 0 0.40662173914453831 -0.097214899993173481 0 0.3851668720105898 -0.10347474583943909 0 0.40662173914453831 -0.097214899993173481 0 0.39289996883908601 -0.089154852807517448 0 0.38960421283109031 -0.096689699614190994 0 0.40662173914453831 -0.097214899993173481 0 0.38960421283109031 -0.096689699614190994 0 0.40662173914453831 -0.097214899993173481 0 0.3851668720105898 -0.10347474583943909 0 0.39374350655696688 -0.1137959578468639 0 0.38960421283109031 -0.096689699614190994 0 0.37237061700676077 -0.09615783082836224 0 0.3851668720105898 -0.10347474583943909 0 0.38960421283109031 -0.096689699614190994 0 0.37237061700676077 -0.09615783082836224 0 0.38240509603332101 -0.092127683864182172 0 0.38960421283109031 -0.096689699614190994 0 0.37237061700676077 -0.09615783082836224 0 0.38240509603332101 -0.092127683864182172 0 0.37406831990166722 -0.093898964220853504 0 0.37237061700676077 -0.09615783082836224 0 0.3785150876385216 -0.1195111518185689 0 0.39374350655696688 -0.1137959578468639 0 0.39237070121405998 -0.13164091544729051 0 0.3851668720105898 -0.10347474583943909 0 0.3785150876385216 -0.1195111518185689 0 0.36371200487664068 -0.10973459168570281 0 0.3851668720105898 -0.10347474583943909 0 0.3785150876385216 -0.1195111518185689 0 0.39374350655696688 -0.1137959578468639 0 0.40662173914453831 -0.097214899993173481 0 0.39374350655696688 -0.1137959578468639 0 0.40604313277712428 -0.1171380761358455 0 0.39374350655696688 -0.1137959578468639 0 0.40604313277712428 -0.1171380761358455 0 0.39237070121405998 -0.13164091544729051 0 0.41728163952739061 -0.019334187549187701 0 0.42284227266732188 -0.010769512158268201 0 0.42466518995346408 -0.026577655794440151 0 0.41728163952739061 -0.019334187549187701 0 0.41227128108974659 -0.029924501558089681 0 0.42466518995346408 -0.026577655794440151 0 0.41227128108974659 -0.029924501558089681 0 0.40863720631140932 -0.019892986955346081 0 0.40014031603924488 -0.033106741091830219 0 0.41728163952739061 -0.019334187549187701 0 0.41227128108974659 -0.029924501558089681 0 0.40863720631140932 -0.019892986955346081 0 0.41728163952739061 -0.019334187549187701 0 0.40863720631140932 -0.019892986955346081 0 0.41436166681859882 -0.01226683791037885 0 0.40863720631140932 -0.019892986955346081 0 0.41436166681859882 -0.01226683791037885 0 0.40369857438468087 -0.0060371637805465179 0 0.42101935538117791 0.0050386314779034547 0 0.41402040698134779 -0.0025911497673051101 0 0.42284227266732188 -0.010769512158268201 0 0.41402040698134779 -0.0025911497673051101 0 0.41436166681859882 -0.01226683791037885 0 0.40369857438468087 -0.0060371637805465179 0 0.41402040698134779 -0.0025911497673051101 0 0.41436166681859882 -0.01226683791037885 0 0.42284227266732188 -0.010769512158268201 0 0.41728163952739061 -0.019334187549187701 0 0.41436166681859882 -0.01226683791037885 0 0.42284227266732188 -0.010769512158268201 0 0.42284227266732188 -0.010769512158268201 0 0.43543049063324413 -0.012350052332502739 0 0.42769414368384923 -0.02254750278133769 0 0.42101935538117791 0.0050386314779034547 0 0.42284227266732188 -0.010769512158268201 0 0.42101935538117791 0.0050386314779034547 0 0.42788240966677021 0.003552130545216341 0 0.42284227266732188 -0.010769512158268201 0 0.42788240966677021 0.003552130545216341 0 0.42284227266732188 -0.010769512158268201 0 0.43543049063324413 -0.012350052332502739 0 0.42284227266732188 -0.010769512158268201 0 0.42466518995346408 -0.026577655794440151 0 0.42284227266732188 -0.010769512158268201 0 0.42769414368384923 -0.02254750278133769 0 0.42466518995346408 -0.026577655794440151 0 0.44260817666721519 -0.025216613737701819 0 0.43543049063324413 -0.012350052332502739 0 0.42769414368384923 -0.02254750278133769 0 0.42769414368384923 -0.02254750278133769 0 0.42466518995346408 -0.026577655794440151 0 0.43454865465473302 -0.032105158367880783 0 0.42769414368384923 -0.02254750278133769 0 0.42466518995346408 -0.026577655794440151 0 0.44260817666721519 -0.025216613737701819 0 0.42769414368384923 -0.02254750278133769 0 0.43454865465473302 -0.032105158367880783 0 0.42466518995346408 -0.026577655794440151 0 0.43454865465473302 -0.032105158367880783 0 0.42768193525564641 -0.052738548234870043 0 0.42466518995346408 -0.026577655794440151 0 0.42768193525564641 -0.052738548234870043 0 0.44483042593949818 -0.041063070916932051 0 0.43454865465473302 -0.032105158367880783 0 0.42768193525564641 -0.052738548234870043 0 0.42085386234523608 -0.065266903626460593 0 0.42768193525564641 -0.052738548234870043 0 0.40779956660286398 -0.049018091936576927 0 0.42085386234523608 -0.065266903626460593 0 0.40779956660286398 -0.049018091936576927 0 0.40625270669679608 -0.06214927522122575 0 0.42466518995346408 -0.026577655794440151 0 0.42768193525564641 -0.052738548234870043 0 0.40779956660286398 -0.049018091936576927 0 0.42466518995346408 -0.026577655794440151 0 0.40779956660286398 -0.049018091936576927 0 0.41227128108974659 -0.029924501558089681 0 0.42466518995346408 -0.026577655794440151 0 0.40779956660286398 -0.049018091936576927 0 0.41227128108974659 -0.029924501558089681 0 0.40779956660286398 -0.049018091936576927 0 0.40014031603924488 -0.033106741091830219 0 0.40779956660286398 -0.049018091936576927 0 0.40014031603924488 -0.033106741091830219 0 0.3912967176308087 -0.04756724484766426 0 0.40014031603924488 -0.033106741091830219 0 0.3912967176308087 -0.04756724484766426 0 0.38547037370043469 -0.032308846426106139 0 0.3909339432522656 -0.07145852807871525 0 0.40779956660286398 -0.049018091936576927 0 0.40625270669679608 -0.06214927522122575 0 0.3909339432522656 -0.07145852807871525 0 0.39181446083091098 -0.066763706552935329 0 0.40779956660286398 -0.049018091936576927 0 0.39181446083091098 -0.066763706552935329 0 0.40779956660286398 -0.049018091936576927 0 0.3912967176308087 -0.04756724484766426 0 0.3909339432522656 -0.07145852807871525 0 0.40779956660286398 -0.049018091936576927 0 0.3912967176308087 -0.04756724484766426 0 0.38398729378694407 -0.058429379279077209 0 0.37514153202862571 -0.045861082966856079 0 0.39181446083091098 -0.066763706552935329 0 0.3912967176308087 -0.04756724484766426 0 0.38398729378694407 -0.058429379279077209 0 0.38398729378694407 -0.058429379279077209 0 0.37514153202862571 -0.045861082966856079 0 0.37192531576168952 -0.05914395824800911 0 0.37813424473731178 -0.068262582352726586 0 0.38398729378694407 -0.058429379279077209 0 0.37192531576168952 -0.05914395824800911 0 0.3912967176308087 -0.04756724484766426 0 0.38547037370043469 -0.032308846426106139 0 0.37514153202862571 -0.045861082966856079 0 0.38547037370043469 -0.032308846426106139 0 0.37514153202862571 -0.045861082966856079 0 0.36877413775607049 -0.02995327657106206 0 0.38547037370043469 -0.032308846426106139 0 0.37927030083329177 -0.015743113788958679 0 0.36877413775607049 -0.02995327657106206 0 0.38547037370043469 -0.032308846426106139 0 0.37927030083329177 -0.015743113788958679 0 0.39536675090020662 -0.019928774827198261 0 0.40014031603924488 -0.033106741091830219 0 0.38547037370043469 -0.032308846426106139 0 0.39536675090020662 -0.019928774827198261 0 0.40863720631140932 -0.019892986955346081 0 0.40014031603924488 -0.033106741091830219 0 0.39536675090020662 -0.019928774827198261 0 0.40863720631140932 -0.019892986955346081 0 0.39536675090020662 -0.019928774827198261 0 0.40369857438468087 -0.0060371637805465179 0 0.39536675090020662 -0.019928774827198261 0 0.40369857438468087 -0.0060371637805465179 0 0.39174671884158141 -0.0074493154892236006 0 0.39390920682105918 0.0040204267233196643 0 0.40369857438468087 -0.0060371637805465179 0 0.39174671884158141 -0.0074493154892236006 0 0.38212023564171321 0.001094655884648786 0 0.37927030083329177 -0.015743113788958679 0 0.39174671884158141 -0.0074493154892236006 0 0.38212023564171321 0.001094655884648786 0 0.37927030083329177 -0.015743113788958679 0 0.3700201466167648 -0.002195575246397889 0 0.37927030083329177 -0.015743113788958679 0 0.39536675090020662 -0.019928774827198261 0 0.39174671884158141 -0.0074493154892236006 0 0.39390920682105918 0.0040204267233196643 0 0.38212023564171321 0.001094655884648786 0 0.39174671884158141 -0.0074493154892236006 0 0.35686418876597309 0.010252504770385159 0 0.3700201466167648 -0.002195575246397889 0 0.35727920934793722 -0.0129667368589869 0 0.37927030083329177 -0.015743113788958679 0 0.3700201466167648 -0.002195575246397889 0 0.35727920934793722 -0.0129667368589869 0 0.36877413775607049 -0.02995327657106206 0 0.35727920934793722 -0.0129667368589869 0 0.35227314840285812 -0.03152257084722427 0 0.37927030083329177 -0.015743113788958679 0 0.36877413775607049 -0.02995327657106206 0 0.35727920934793722 -0.0129667368589869 0 0.35727920934793722 -0.0129667368589869 0 0.33875503928457851 -0.02222753562310531 0 0.35227314840285812 -0.03152257084722427 0 0.35727920934793722 -0.0129667368589869 0 0.33586681222118892 -0.0067462441580033658 0 0.33875503928457851 -0.02222753562310531 0 0.35686418876597309 0.010252504770385159 0 0.35727920934793722 -0.0129667368589869 0 0.33586681222118892 -0.0067462441580033658 0 0.33586681222118892 -0.0067462441580033658 0 0.33875503928457851 -0.02222753562310531 0 0.31486943567640469 -0.023744993086391868 0 0.33875503928457851 -0.02222753562310531 0 0.31486943567640469 -0.023744993086391868 0 0.33348659077450338 -0.036157133164920148 0 0.33875503928457851 -0.02222753562310531 0 0.33348659077450338 -0.036157133164920148 0 0.35227314840285812 -0.03152257084722427 0 0.31046320235639918 0.0067575729804437252 0 0.33586681222118892 -0.0067462441580033658 0 0.3153830815233527 -0.0087530987426132929 0 0.33586681222118892 -0.0067462441580033658 0 0.31486943567640469 -0.023744993086391868 0 0.3153830815233527 -0.0087530987426132929 0 0.33586681222118892 -0.0067462441580033658 0 0.31486943567640469 -0.023744993086391868 0 0.32115491610998381 -0.052976688016941227 0 0.32092150739102382 -0.073097043805500014 0 0.30601744289912669 -0.055409131432484229 0 0.32115491610998381 -0.052976688016941227 0 0.31197137499350902 -0.041008225260955711 0 0.30601744289912669 -0.055409131432484229 0 0.31486943567640469 -0.023744993086391868 0 0.33348659077450338 -0.036157133164920148 0 0.31197137499350902 -0.041008225260955711 0 0.32115491610998381 -0.052976688016941227 0 0.33348659077450338 -0.036157133164920148 0 0.31197137499350902 -0.041008225260955711 0 0.33348659077450338 -0.036157133164920148 0 0.3363568723602065 -0.050864743298462772 0 0.35116628403686417 -0.048621598638038131 0 0.32115491610998381 -0.052976688016941227 0 0.33348659077450338 -0.036157133164920148 0 0.3363568723602065 -0.050864743298462772 0 0.32115491610998381 -0.052976688016941227 0 0.3363568723602065 -0.050864743298462772 0 0.33388625794764348 -0.064812423232177271 0 0.3363568723602065 -0.050864743298462772 0 0.34794047334546518 -0.063974584280765273 0 0.33388625794764348 -0.064812423232177271 0 0.3363568723602065 -0.050864743298462772 0 0.35116628403686417 -0.048621598638038131 0 0.34794047334546518 -0.063974584280765273 0 0.35116628403686417 -0.048621598638038131 0 0.35914505774559541 -0.060409417065886872 0 0.36392372675137458 -0.051574144679805103 0 0.35116628403686417 -0.048621598638038131 0 0.36240463436463582 -0.041692596330413237 0 0.36392372675137458 -0.051574144679805103 0 0.35116628403686417 -0.048621598638038131 0 0.35914505774559541 -0.060409417065886872 0 0.34794047334546518 -0.063974584280765273 0 0.35116628403686417 -0.048621598638038131 0 0.35227314840285812 -0.03152257084722427 0 0.36240463436463582 -0.041692596330413237 0 0.33348659077450338 -0.036157133164920148 0 0.35116628403686417 -0.048621598638038131 0 0.35227314840285812 -0.03152257084722427 0 0.37514153202862571 -0.045861082966856079 0 0.36877413775607049 -0.02995327657106206 0 0.36240463436463582 -0.041692596330413237 0 0.36877413775607049 -0.02995327657106206 0 0.35227314840285812 -0.03152257084722427 0 0.36240463436463582 -0.041692596330413237 0 0.37514153202862571 -0.045861082966856079 0 0.36240463436463582 -0.041692596330413237 0 0.36392372675137458 -0.051574144679805103 0 0.35914505774559541 -0.060409417065886872 0 0.36392372675137458 -0.051574144679805103 0 0.37192531576168952 -0.05914395824800911 0 0.37514153202862571 -0.045861082966856079 0 0.36392372675137458 -0.051574144679805103 0 0.37192531576168952 -0.05914395824800911 0 0.37813424473731178 -0.068262582352726586 0 0.37192531576168952 -0.05914395824800911 0 0.3680772617285144 -0.06977757947088653 0 0.35914505774559541 -0.060409417065886872 0 0.37192531576168952 -0.05914395824800911 0 0.3680772617285144 -0.06977757947088653 0 0.35914505774559541 -0.060409417065886872 0 0.3680772617285144 -0.06977757947088653 0 0.35837286676988928 -0.071968688592424085 0 0.3680772617285144 -0.06977757947088653 0 0.36498327826552668 -0.083111049239403226 0 0.35837286676988928 -0.071968688592424085 0 0.3680772617285144 -0.06977757947088653 0 0.37353404377441052 -0.075370636612477671 0 0.36498327826552668 -0.083111049239403226 0 0.37813424473731178 -0.068262582352726586 0 0.3680772617285144 -0.06977757947088653 0 0.37353404377441052 -0.075370636612477671 0 0.38294139036628899 -0.080331335386894381 0 0.37353404377441052 -0.075370636612477671 0 0.36498327826552668 -0.083111049239403226 0 0.36498327826552668 -0.083111049239403226 0 0.37237061700676077 -0.09615783082836224 0 0.34241852099989789 -0.095233439592861846 0 0.38294139036628899 -0.080331335386894381 0 0.36498327826552668 -0.083111049239403226 0 0.37406831990166722 -0.093898964220853504 0 0.36498327826552668 -0.083111049239403226 0 0.37406831990166722 -0.093898964220853504 0 0.37237061700676077 -0.09615783082836224 0 0.36498327826552668 -0.083111049239403226 0 0.3449175019875389 -0.076917716904771144 0 0.34241852099989789 -0.095233439592861846 0 0.36498327826552668 -0.083111049239403226 0 0.3449175019875389 -0.076917716904771144 0 0.35837286676988928 -0.071968688592424085 0 0.3449175019875389 -0.076917716904771144 0 0.34794047334546518 -0.063974584280765273 0 0.35837286676988928 -0.071968688592424085 0 0.35914505774559541 -0.060409417065886872 0 0.34794047334546518 -0.063974584280765273 0 0.35837286676988928 -0.071968688592424085 0 0.36371200487664068 -0.10973459168570281 0 0.35664352332635268 -0.13060513793896061 0 0.36779594019891898 -0.12729788290040461 0 0.3785150876385216 -0.1195111518185689 0 0.36371200487664068 -0.10973459168570281 0 0.36779594019891898 -0.12729788290040461 0 0.36371200487664068 -0.10973459168570281 0 0.37237061700676077 -0.09615783082836224 0 0.34241852099989789 -0.095233439592861846 0 0.3851668720105898 -0.10347474583943909 0 0.36371200487664068 -0.10973459168570281 0 0.37237061700676077 -0.09615783082836224 0 0.3851668720105898 -0.10347474583943909 0 0.36371200487664068 -0.10973459168570281 0 0.36371200487664068 -0.10973459168570281 0 0.37237061700676077 -0.09615783082836224 0 0.37406831990166722 -0.093898964220853504 0 0.37237061700676077 -0.09615783082836224 0 0.36371200487664068 -0.10973459168570281 0 0.34332012240242971 -0.1020930362129598 0 0.34241852099989789 -0.095233439592861846 0 0.36371200487664068 -0.10973459168570281 0 0.35002252173753962 -0.112446561286345 0 0.34332012240242971 -0.1020930362129598 0 0.37237061700676077 -0.09615783082836224 0 0.34241852099989789 -0.095233439592861846 0 0.35002252173753962 -0.112446561286345 0 0.34025414842832208 -0.11782241666052221 0 0.34332012240242971 -0.1020930362129598 0 0.36371200487664068 -0.10973459168570281 0 0.35355367174401742 -0.1211945845718113 0 0.34779048707731292 -0.1340798558009649 0 0.36371200487664068 -0.10973459168570281 0 0.35664352332635268 -0.13060513793896061 0 0.34779048707731292 -0.1340798558009649 0 0.36371200487664068 -0.10973459168570281 0 0.34779048707731292 -0.1340798558009649 0 0.36371200487664068 -0.10973459168570281 0 0.35002252173753962 -0.112446561286345 0 0.35355367174401742 -0.1211945845718113 0 0.36371200487664068 -0.10973459168570281 0 0.35355367174401742 -0.1211945845718113 0 0.35002252173753962 -0.112446561286345 0 0.35355367174401742 -0.1211945845718113 0 0.34025414842832208 -0.11782241666052221 0 0.35355367174401742 -0.1211945845718113 0 0.34025414842832208 -0.11782241666052221 0 0.34381162934489939 -0.12854128697128539 0 0.33094534805706732 -0.1177437606496905 0 0.31854024801571379 -0.1183964408803808 0 0.33718817445421712 -0.13355179710808501 0 0.34025414842832208 -0.11782241666052221 0 0.33378984816934337 -0.1086297847084315 0 0.34332012240242971 -0.1020930362129598 0 0.33094534805706732 -0.1177437606496905 0 0.34025414842832208 -0.11782241666052221 0 0.33718817445421712 -0.13355179710808501 0 0.34025414842832208 -0.11782241666052221 0 0.34332012240242971 -0.1020930362129598 0 0.33094534805706732 -0.1177437606496905 0 0.33378984816934337 -0.1086297847084315 0 0.32495432121773932 -0.110318363891034 0 0.33094534805706732 -0.1177437606496905 0 0.34025414842832208 -0.11782241666052221 0 0.33378984816934337 -0.1086297847084315 0 0.33378984816934337 -0.1086297847084315 0 0.32725903490077729 -0.10071499943534749 0 0.32495432121773932 -0.110318363891034 0 0.33378984816934337 -0.1086297847084315 0 0.33669688161811212 -0.1016678149874002 0 0.32725903490077729 -0.10071499943534749 0 0.33378984816934337 -0.1086297847084315 0 0.34332012240242971 -0.1020930362129598 0 0.33669688161811212 -0.1016678149874002 0 0.34332012240242971 -0.1020930362129598 0 0.33669688161811212 -0.1016678149874002 0 0.34241852099989789 -0.095233439592861846 0 0.33669688161811212 -0.1016678149874002 0 0.34241852099989789 -0.095233439592861846 0 0.32725903490077729 -0.10071499943534749 0 0.34241852099989789 -0.095233439592861846 0 0.31246642499303512 -0.0943090483573608 0 0.34241852099989789 -0.095233439592861846 0 0.32725903490077729 -0.10071499943534749 0 0.31246642499303512 -0.0943090483573608 0 0.32725903490077729 -0.10071499943534749 0 0.31716114910448651 -0.10565591717263 0 0.31246642499303512 -0.0943090483573608 0 0.32725903490077729 -0.10071499943534749 0 0.31716114910448651 -0.10565591717263 0 0.32495432121773932 -0.110318363891034 0 0.33094534805706732 -0.1177437606496905 0 0.32495432121773932 -0.110318363891034 0 0.31854024801571379 -0.1183964408803808 0 0.31716114910448651 -0.10565591717263 0 0.32495432121773932 -0.110318363891034 0 0.31854024801571379 -0.1183964408803808 0 0.31716114910448651 -0.10565591717263 0 0.31854024801571379 -0.1183964408803808 0 0.30531265091832138 -0.10738965970164049 0 0.3449175019875389 -0.076917716904771144 0 0.33388625794764348 -0.064812423232177271 0 0.32092150739102382 -0.073097043805500014 0 0.3449175019875389 -0.076917716904771144 0 0.34794047334546518 -0.063974584280765273 0 0.33388625794764348 -0.064812423232177271 0 0.3449175019875389 -0.076917716904771144 0 0.34241852099989789 -0.095233439592861846 0 0.32092150739102382 -0.073097043805500014 0 0.34241852099989789 -0.095233439592861846 0 0.32092150739102382 -0.073097043805500014 0 0.31246642499303512 -0.0943090483573608 0 0.32115491610998381 -0.052976688016941227 0 0.33388625794764348 -0.064812423232177271 0 0.32092150739102382 -0.073097043805500014 0 0.32092150739102382 -0.073097043805500014 0 0.28819319405889499 -0.06706419956831737 0 0.31246642499303512 -0.0943090483573608 0 0.32092150739102382 -0.073097043805500014 0 0.28819319405889499 -0.06706419956831737 0 0.30601744289912669 -0.055409131432484229 0 0.28251432898617262 -0.093384657121855619 0 0.28819319405889499 -0.06706419956831737 0 0.31246642499303512 -0.0943090483573608 0 0.28251432898617262 -0.093384657121855619 0 0.28819319405889499 -0.06706419956831737 0 0.28251432898617262 -0.093384657121855619 0 0.28819319405889499 -0.06706419956831737 0 0.2788070763813692 -0.075616481315712358 0 0.30531265091832138 -0.10738965970164049 0 0.29209333803684512 -0.1204183792118467 0 0.30316218715013699 -0.13585617877411299 0 0.31854024801571379 -0.1183964408803808 0 0.30531265091832138 -0.10738965970164049 0 0.30316218715013699 -0.13585617877411299 0 0.30531265091832138 -0.10738965970164049 0 0.30316218715013699 -0.13585617877411299 0 0.30531265091832138 -0.10738965970164049 0 0.31246642499303512 -0.0943090483573608 0 0.2913954051317153 -0.1063448066268642 0 0.28251432898617262 -0.093384657121855619 0 0.31246642499303512 -0.0943090483573608 0 0.31716114910448651 -0.10565591717263 0 0.30531265091832138 -0.10738965970164049 0 0.31246642499303512 -0.0943090483573608 0 0.28251432898617262 -0.093384657121855619 0 0.31246642499303512 -0.0943090483573608 0 0.2913954051317153 -0.1063448066268642 0 0.28251432898617262 -0.093384657121855619 0 0.2913954051317153 -0.1063448066268642 0 0.27794998204403759 -0.11453953550188679 0 0.30531265091832138 -0.10738965970164049 0 0.2913954051317153 -0.1063448066268642 0 0.29209333803684512 -0.1204183792118467 0 0.2913954051317153 -0.1063448066268642 0 0.29209333803684512 -0.1204183792118467 0 0.27794998204403759 -0.11453953550188679 0 0.27794998204403759 -0.11453953550188679 0 0.25915390151091949 -0.11811210275817149 0 0.27338563510190422 -0.1356944138819183 0 0.29209333803684512 -0.1204183792118467 0 0.27794998204403759 -0.11453953550188679 0 0.27338563510190422 -0.1356944138819183 0 0.28251432898617262 -0.093384657121855619 0 0.27794998204403759 -0.11453953550188679 0 0.25666672159796139 -0.092586939936295867 0 0.28251432898617262 -0.093384657121855619 0 0.27794998204403759 -0.11453953550188679 0 0.25915390151091949 -0.11811210275817149 0 0.25666672159796139 -0.092586939936295867 0 0.23839025179526999 -0.1151992729885977 0 0.27794998204403759 -0.11453953550188679 0 0.25915390151091949 -0.11811210275817149 0 0.25666672159796139 -0.092586939936295867 0 0.28819319405889499 -0.06706419956831737 0 0.27512965144911827 -0.070681904186227995 0 0.27783686619476677 -0.05372527893061739 0 0.26897876163713708 -0.070467118147906876 0 0.27512965144911827 -0.070681904186227995 0 0.27783686619476677 -0.05372527893061739 0 0.26897876163713708 -0.070467118147906876 0 0.26180167325791431 -0.066706815846455908 0 0.27783686619476677 -0.05372527893061739 0 0.27067132333055188 -0.076788874412469815 0 0.26897876163713708 -0.070467118147906876 0 0.26145119023330071 -0.079000043976386408 0 0.27067132333055188 -0.076788874412469815 0 0.26897876163713708 -0.070467118147906876 0 0.2788070763813692 -0.075616481315712358 0 0.26897876163713708 -0.070467118147906876 0 0.27512965144911827 -0.070681904186227995 0 0.28819319405889499 -0.06706419956831737 0 0.2788070763813692 -0.075616481315712358 0 0.27512965144911827 -0.070681904186227995 0 0.26897876163713708 -0.070467118147906876 0 0.2788070763813692 -0.075616481315712358 0 0.26897876163713708 -0.070467118147906876 0 0.2788070763813692 -0.075616481315712358 0 0.27512965144911827 -0.070681904186227995 0 0.28251432898617262 -0.093384657121855619 0 0.25666672159796139 -0.092586939936295867 0 0.28251432898617262 -0.093384657121855619 0 0.27051227275229911 -0.08315566172012806 0 0.25666672159796139 -0.092586939936295867 0 0.28251432898617262 -0.093384657121855619 0 0.2788070763813692 -0.075616481315712358 0 0.27051227275229911 -0.08315566172012806 0 0.27067132333055188 -0.076788874412469815 0 0.27051227275229911 -0.08315566172012806 0 0.26145119023330071 -0.079000043976386408 0 0.27067132333055188 -0.076788874412469815 0 0.2788070763813692 -0.075616481315712358 0 0.27051227275229911 -0.08315566172012806 0 0.26145119023330071 -0.079000043976386408 0 0.25666672159796139 -0.092586939936295867 0 0.24423239209720191 -0.080930297464084477 0 0.27051227275229911 -0.08315566172012806 0 0.26145119023330071 -0.079000043976386408 0 0.25666672159796139 -0.092586939936295867 0 0.26180167325791431 -0.066706815846455908 0 0.25764566998465072 -0.070071372177431313 0 0.24120587699226881 -0.055916030502087773 0 0.26145119023330071 -0.079000043976386408 0 0.25764566998465072 -0.070071372177431313 0 0.24423239209720191 -0.080930297464084477 0 0.25764566998465072 -0.070071372177431313 0 0.24423239209720191 -0.080930297464084477 0 0.26897876163713708 -0.070467118147906876 0 0.26145119023330071 -0.079000043976386408 0 0.25764566998465072 -0.070071372177431313 0 0.26897876163713708 -0.070467118147906876 0 0.26180167325791431 -0.066706815846455908 0 0.25764566998465072 -0.070071372177431313 0 0.26897876163713708 -0.070467118147906876 0 0.25764566998465072 -0.070071372177431313 0 0.26897876163713708 -0.070467118147906876 0 0.26180167325791431 -0.066706815846455908 0 0.26180167325791431 -0.066706815846455908 0 0.25764566998465072 -0.070071372177431313 0 0.26180167325791431 -0.066706815846455908 0 0.26029261894245981 -0.048826031507571623 0 0.24120587699226881 -0.055916030502087773 0 0.26180167325791431 -0.066706815846455908 0 0.24120587699226881 -0.055916030502087773 0 0.26180167325791431 -0.066706815846455908 0 0.26029261894245981 -0.048826031507571623 0 0.27783686619476677 -0.05372527893061739 0 0.26180167325791431 -0.066706815846455908 0 0.27783686619476677 -0.05372527893061739 0 0.26029261894245981 -0.048826031507571623 0 0.27783686619476677 -0.05372527893061739 0 0.27031708646619812 -0.033638605470610219 0 0.27783686619476677 -0.05372527893061739 0 0.27031708646619812 -0.033638605470610219 0 0.28437966209514692 -0.033534114227583768 0 0.26029261894245981 -0.048826031507571623 0 0.27031708646619812 -0.033638605470610219 0 0.25030159180115191 -0.034143426788088307 0 0.26029261894245981 -0.048826031507571623 0 0.25030159180115191 -0.034143426788088307 0 0.24120587699226881 -0.055916030502087773 0 0.25030159180115191 -0.034143426788088307 0 0.26299580833271302 -0.019789195105520681 0 0.2464198669495459 -0.012097030270161889 0 0.27031708646619812 -0.033638605470610219 0 0.25030159180115191 -0.034143426788088307 0 0.26299580833271302 -0.019789195105520681 0 0.25322369798355371 0.0032948183560677501 0 0.26778398551549509 -0.0036893303100333872 0 0.2464198669495459 -0.012097030270161889 0 0.26299580833271302 -0.019789195105520681 0 0.26778398551549509 -0.0036893303100333872 0 0.2464198669495459 -0.012097030270161889 0 0.26299580833271302 -0.019789195105520681 0 0.26778398551549509 -0.0036893303100333872 0 0.28231604015163769 -0.018351258625531171 0 0.2895407867033607 0.0013395930438658619 0 0.26778398551549509 -0.0036893303100333872 0 0.28231604015163769 -0.018351258625531171 0 0.27031708646619812 -0.033638605470610219 0 0.26299580833271302 -0.019789195105520681 0 0.28231604015163769 -0.018351258625531171 0 0.27031708646619812 -0.033638605470610219 0 0.28231604015163769 -0.018351258625531171 0 0.28437966209514692 -0.033534114227583768 0 0.28231604015163769 -0.018351258625531171 0 0.29600028882747859 -0.03087980289019443 0 0.28437966209514692 -0.033534114227583768 0 0.28231604015163769 -0.018351258625531171 0 0.29600028882747859 -0.03087980289019443 0 0.30132541624728598 -0.01217829343577128 0 0.2895407867033607 0.0013395930438658619 0 0.28231604015163769 -0.018351258625531171 0 0.30132541624728598 -0.01217829343577128 0 0.31046320235639918 0.0067575729804437252 0 0.2895407867033607 0.0013395930438658619 0 0.30132541624728598 -0.01217829343577128 0 0.31046320235639918 0.0067575729804437252 0 0.3153830815233527 -0.0087530987426132929 0 0.30132541624728598 -0.01217829343577128 0 0.31486943567640469 -0.023744993086391868 0 0.3153830815233527 -0.0087530987426132929 0 0.30132541624728598 -0.01217829343577128 0 0.31486943567640469 -0.023744993086391868 0 0.29600028882747859 -0.03087980289019443 0 0.30132541624728598 -0.01217829343577128 0 0.31486943567640469 -0.023744993086391868 0 0.31197137499350902 -0.041008225260955711 0 0.29387205913161968 -0.04074374201477949 0 0.31486943567640469 -0.023744993086391868 0 0.29600028882747859 -0.03087980289019443 0 0.29387205913161968 -0.04074374201477949 0 0.31486943567640469 -0.023744993086391868 0 0.29387205913161968 -0.04074374201477949 0 0.31197137499350902 -0.041008225260955711 0 0.30601744289912669 -0.055409131432484229 0 0.29387205913161968 -0.04074374201477949 0 0.28819319405889499 -0.06706419956831737 0 0.27783686619476677 -0.05372527893061739 0 0.29387205913161968 -0.04074374201477949 0 0.28819319405889499 -0.06706419956831737 0 0.29387205913161968 -0.04074374201477949 0 0.27783686619476677 -0.05372527893061739 0 0.29387205913161968 -0.04074374201477949 0 0.28819319405889499 -0.06706419956831737 0 0.30601744289912669 -0.055409131432484229 0 0.29387205913161968 -0.04074374201477949 0 0.27783686619476677 -0.05372527893061739 0 0.28437966209514692 -0.033534114227583768 0 0.29387205913161968 -0.04074374201477949 0 0.29600028882747859 -0.03087980289019443 0 0.28437966209514692 -0.033534114227583768 0 0.29387205913161968 -0.04074374201477949 0 0.29600028882747859 -0.03087980289019443 0 0.29387205913161968 -0.04074374201477949 0 0.28925369461552242 -0.21547475378801551 0 0.29798535605087828 -0.20438389051808681 0 0.27851755886665591 -0.20371457102860641 0 0.28925369461552242 -0.21547475378801551 0 0.28465086540799672 -0.2254021489655588 0 0.27851755886665591 -0.20371457102860641 0 0.28925369461552242 -0.21547475378801551 0 0.29798535605087828 -0.20438389051808681 0 0.29625974568445868 -0.22722646109941139 0 0.28994099481116897 -0.19128490440727269 0 0.29798535605087828 -0.20438389051808681 0 0.29971096641729777 -0.18154131993676231 0 0.28994099481116897 -0.19128490440727269 0 0.27851755886665591 -0.20371457102860641 0 0.28355009790984409 -0.17549983614563519 0 0.28994099481116897 -0.19128490440727269 0 0.29798535605087828 -0.20438389051808681 0 0.27851755886665591 -0.20371457102860641 0 0.30866677822314281 -0.19370433905286669 0 0.29798535605087828 -0.20438389051808681 0 0.29971096641729777 -0.18154131993676231 0 0.29798535605087828 -0.20438389051808681 0 0.29971096641729777 -0.18154131993676231 0 0.30866677822314281 -0.19370433905286669 0 0.30817512199612251 -0.208018461664154 0 0.29798535605087828 -0.20438389051808681 0 0.29798535605087828 -0.20438389051808681 0 0.29625974568445868 -0.22722646109941139 0 0.30367267472900389 -0.2178556058656746 0 0.31200739898088131 -0.22851072207886541 0 0.31883562653249692 -0.20986103607638071 0 0.29798535605087828 -0.20438389051808681 0 0.30367267472900389 -0.2178556058656746 0 0.29625974568445868 -0.22722646109941139 0 0.30817512199612251 -0.208018461664154 0 0.29798535605087828 -0.20438389051808681 0 0.30367267472900389 -0.2178556058656746 0 0.30817512199612251 -0.208018461664154 0 0.30367267472900389 -0.2178556058656746 0 0.31883562653249692 -0.20986103607638071 0 0.30367267472900389 -0.2178556058656746 0 0.31883562653249692 -0.20986103607638071 0 0.31200739898088131 -0.22851072207886541 0 0.30517917142926537 -0.24716040808135001 0 0.29625974568445868 -0.22722646109941139 0 0.30367267472900389 -0.2178556058656746 0 0.31200739898088131 -0.22851072207886541 0 0.29625974568445868 -0.22722646109941139 0 0.31200739898088131 -0.22851072207886541 0 0.30517917142926537 -0.24716040808135001 0 0.30517917142926537 -0.24716040808135001 0 0.28765229627979871 -0.24304032400626949 0 0.29625974568445868 -0.22722646109941139 0 0.28765229627979871 -0.24304032400626949 0 0.29625974568445868 -0.22722646109941139 0 0.28465086540799672 -0.2254021489655588 0 0.28765229627979871 -0.24304032400626949 0 0.28465086540799672 -0.2254021489655588 0 0.27348501982346762 -0.23192930591157759 0 0.28925369461552242 -0.21547475378801551 0 0.29625974568445868 -0.22722646109941139 0 0.28465086540799672 -0.2254021489655588 0 0.28465086540799672 -0.2254021489655588 0 0.27348501982346762 -0.23192930591157759 0 0.27851755886665591 -0.20371457102860641 0 0.27348501982346762 -0.23192930591157759 0 0.25787859859726192 -0.24372773219337371 0 0.26845248078028039 -0.26014404079454911 0 0.28765229627979871 -0.24304032400626949 0 0.27348501982346762 -0.23192930591157759 0 0.26845248078028039 -0.26014404079454911 0 0.27348501982346762 -0.23192930591157759 0 0.26845248078028039 -0.26014404079454911 0 0.27348501982346762 -0.23192930591157759 0 0.25787859859726192 -0.24372773219337371 0 0.2485278721491469 -0.22983386195931649 0 0.27348501982346762 -0.23192930591157759 0 0.25806059678156651 -0.21160485628964759 0 0.2485278721491469 -0.22983386195931649 0 0.27348501982346762 -0.23192930591157759 0 0.27851755886665591 -0.20371457102860641 0 0.27348501982346762 -0.23192930591157759 0 0.25806059678156651 -0.21160485628964759 0 0.27851755886665591 -0.20371457102860641 0 0.27851755886665591 -0.20371457102860641 0 0.26140201073716351 -0.19316186481753209 0 0.27335445324682811 -0.1824409541049711 0 0.25806059678156651 -0.21160485628964759 0 0.27851755886665591 -0.20371457102860641 0 0.26140201073716351 -0.19316186481753209 0 0.27851755886665591 -0.20371457102860641 0 0.28355009790984409 -0.17549983614563519 0 0.25806059678156651 -0.21160485628964759 0 0.26140201073716351 -0.19316186481753209 0 0.24624710011957149 -0.19756578472926509 0 0.26140201073716351 -0.19316186481753209 0 0.25030889548151403 -0.1837077448593728 0 0.24624710011957149 -0.19756578472926509 0 0.25969225384889538 -0.18295045636353721 0 0.2550208565069661 -0.17514012483034949 0 0.27335445324682811 -0.1824409541049711 0 0.26140201073716351 -0.19316186481753209 0 0.25030889548151403 -0.1837077448593728 0 0.25969225384889538 -0.18295045636353721 0 0.25030889548151403 -0.1837077448593728 0 0.25969225384889538 -0.18295045636353721 0 0.2550208565069661 -0.17514012483034949 0 0.2550208565069661 -0.17514012483034949 0 0.2530488896403309 -0.16079061319898569 0 0.27335445324682811 -0.1824409541049711 0 0.26140201073716351 -0.19316186481753209 0 0.25969225384889538 -0.18295045636353721 0 0.27335445324682811 -0.1824409541049711 0 0.2530488896403309 -0.16079061319898569 0 0.272260185211738 -0.168331689764908 0 0.26878477807763418 -0.16016356734556891 0 0.2530488896403309 -0.16079061319898569 0 0.26878477807763418 -0.16016356734556891 0 0.26293682869207591 -0.15391070786642169 0 0.2530488896403309 -0.16079061319898569 0 0.27335445324682811 -0.1824409541049711 0 0.272260185211738 -0.168331689764908 0 0.27899515764395177 -0.15443660918041571 0 0.28355009790984409 -0.17549983614563519 0 0.2530488896403309 -0.16079061319898569 0 0.272260185211738 -0.168331689764908 0 0.27335445324682811 -0.1824409541049711 0 0.272260185211738 -0.168331689764908 0 0.26878477807763418 -0.16016356734556891 0 0.27899515764395177 -0.15443660918041571 0 0.272260185211738 -0.168331689764908 0 0.27335445324682811 -0.1824409541049711 0 0.28355009790984409 -0.17549983614563519 0 0.27851755886665591 -0.20371457102860641 0 0.27335445324682811 -0.1824409541049711 0 0.28355009790984409 -0.17549983614563519 0 0.25915390151091949 -0.11811210275817149 0 0.25133622254172122 -0.13557462765415079 0 0.27338563510190422 -0.1356944138819183 0 0.25133622254172122 -0.13557462765415079 0 0.27338563510190422 -0.1356944138819183 0 0.25133622254172122 -0.13557462765415079 0 0.25208407187516418 -0.1419613505697605 0 0.27338563510190422 -0.1356944138819183 0 0.26557247671991108 -0.14774187414890411 0 0.25208407187516418 -0.1419613505697605 0 0.27142481771649529 -0.14478242884651979 0 0.25208407187516418 -0.1419613505697605 0 0.27142481771649529 -0.14478242884651979 0 0.2530488896403309 -0.16079061319898569 0 0.25208407187516418 -0.1419613505697605 0 0.26293682869207591 -0.15391070786642169 0 0.26557247671991108 -0.14774187414890411 0 0.25208407187516418 -0.1419613505697605 0 0.26293682869207591 -0.15391070786642169 0 0.27899515764395177 -0.15443660918041571 0 0.27142481771649529 -0.14478242884651979 0 0.28858263695303038 -0.1472851012626637 0 0.25208407187516418 -0.1419613505697605 0 0.27142481771649529 -0.14478242884651979 0 0.27338563510190422 -0.1356944138819183 0 0.27142481771649529 -0.14478242884651979 0 0.28858263695303038 -0.1472851012626637 0 0.27142481771649529 -0.14478242884651979 0 0.27338563510190422 -0.1356944138819183 0 0.28952553314766588 -0.14199879033185039 0 0.26878477807763418 -0.16016356734556891 0 0.27009527632936597 -0.15279308215900331 0 0.27899515764395177 -0.15443660918041571 0 0.26557247671991108 -0.14774187414890411 0 0.27009527632936597 -0.15279308215900331 0 0.27142481771649529 -0.14478242884651979 0 0.26878477807763418 -0.16016356734556891 0 0.26293682869207591 -0.15391070786642169 0 0.27009527632936597 -0.15279308215900331 0 0.26557247671991108 -0.14774187414890411 0 0.26293682869207591 -0.15391070786642169 0 0.27009527632936597 -0.15279308215900331 0 0.27009527632936597 -0.15279308215900331 0 0.27899515764395177 -0.15443660918041571 0 0.27142481771649529 -0.14478242884651979 0 0.27794998204403759 -0.11453953550188679 0 0.27338563510190422 -0.1356944138819183 0 0.27142481771649529 -0.14478242884651979 0 0.27338563510190422 -0.1356944138819183 0 0.27338563510190422 -0.1356944138819183 0 0.30316218715013699 -0.13585617877411299 0 0.29209333803684512 -0.1204183792118467 0 0.27338563510190422 -0.1356944138819183 0 0.30316218715013699 -0.13585617877411299 0 0.27338563510190422 -0.1356944138819183 0 0.28952553314766588 -0.14199879033185039 0 0.30316218715013699 -0.13585617877411299 0 0.27142481771649529 -0.14478242884651979 0 0.28952553314766588 -0.14199879033185039 0 0.28858263695303038 -0.1472851012626637 0 0.28858263695303038 -0.1472851012626637 0 0.30013596324633868 -0.14897029159077979 0 0.28952553314766588 -0.14199879033185039 0 0.28858263695303038 -0.1472851012626637 0 0.30013596324633868 -0.14897029159077979 0 0.28952553314766588 -0.14199879033185039 0 0.28858263695303038 -0.1472851012626637 0 0.28858263695303038 -0.1472851012626637 0 0.30013596324633868 -0.14897029159077979 0 0.29372711844303928 -0.1600295372122347 0 0.30316218715013699 -0.13585617877411299 0 0.30143657678371732 -0.15869874935543771 0 0.30013596324633868 -0.14897029159077979 0 0.30316218715013699 -0.13585617877411299 0 0.30143657678371732 -0.15869874935543771 0 0.30316218715013699 -0.13585617877411299 0 0.30143657678371732 -0.15869874935543771 0 0.31253980123811259 -0.14771969478669131 0 0.30013596324633868 -0.14897029159077979 0 0.29372711844303928 -0.1600295372122347 0 0.30143657678371732 -0.15869874935543771 0 0.30143657678371732 -0.15869874935543771 0 0.31557079919726838 -0.1590044961535387 0 0.31253980123811259 -0.14771969478669131 0 0.28952553314766588 -0.14199879033185039 0 0.30013596324633868 -0.14897029159077979 0 0.30316218715013699 -0.13585617877411299 0 0.30316218715013699 -0.13585617877411299 0 0.31993283661344418 -0.13594728745244961 0 0.31253980123811259 -0.14771969478669131 0 0.30316218715013699 -0.13585617877411299 0 0.31993283661344418 -0.13594728745244961 0 0.28994099481116897 -0.19128490440727269 0 0.28355009790984409 -0.17549983614563519 0 0.29971096641729777 -0.18154131993676231 0 0.28355009790984409 -0.17549983614563519 0 0.29493031732226571 -0.16969370770665679 0 0.29971096641729777 -0.18154131993676231 0 0.27899515764395177 -0.15443660918041571 0 0.28858263695303038 -0.1472851012626637 0 0.28355009790984409 -0.17549983614563519 0 0.28858263695303038 -0.1472851012626637 0 0.28355009790984409 -0.17549983614563519 0 0.28858263695303038 -0.1472851012626637 0 0.28355009790984409 -0.17549983614563519 0 0.29372711844303928 -0.1600295372122347 0 0.29372711844303928 -0.1600295372122347 0 0.29493031732226571 -0.16969370770665679 0 0.30143657678371732 -0.15869874935543771 0 0.28355009790984409 -0.17549983614563519 0 0.29372711844303928 -0.1600295372122347 0 0.29493031732226571 -0.16969370770665679 0 0.30143657678371732 -0.15869874935543771 0 0.29971096641729777 -0.18154131993676231 0 0.30143657678371732 -0.15869874935543771 0 0.30809610970482848 -0.16795036279156811 0 0.29971096641729777 -0.18154131993676231 0 0.29493031732226571 -0.16969370770665679 0 0.30143657678371732 -0.15869874935543771 0 0.29971096641729777 -0.18154131993676231 0 0.30143657678371732 -0.15869874935543771 0 0.30809610970482848 -0.16795036279156811 0 0.31557079919726838 -0.1590044961535387 0 0.29971096641729777 -0.18154131993676231 0 0.31498869866721663 -0.1848028620899877 0 0.3156660964210305 -0.17255688572053399 0 0.30809610970482848 -0.16795036279156811 0 0.29971096641729777 -0.18154131993676231 0 0.3156660964210305 -0.17255688572053399 0 0.30866677822314281 -0.19370433905286669 0 0.29971096641729777 -0.18154131993676231 0 0.31498869866721663 -0.1848028620899877 0 0.32729102930978993 -0.18432716657830939 0 0.3156660964210305 -0.17255688572053399 0 0.33199725769327038 -0.160182781354547 0 0.31498869866721663 -0.1848028620899877 0 0.32729102930978993 -0.18432716657830939 0 0.3156660964210305 -0.17255688572053399 0 0.3156660964210305 -0.17255688572053399 0 0.31557079919726838 -0.1590044961535387 0 0.33199725769327038 -0.160182781354547 0 0.30809610970482848 -0.16795036279156811 0 0.3156660964210305 -0.17255688572053399 0 0.31557079919726838 -0.1590044961535387 0 0.32729102930978993 -0.18432716657830939 0 0.34572674800851178 -0.17666980330527179 0 0.34152908302092871 -0.19789605564194099 0 0.32729102930978993 -0.18432716657830939 0 0.33199725769327038 -0.160182781354547 0 0.34572674800851178 -0.17666980330527179 0 0.32729102930978993 -0.18432716657830939 0 0.33199725769327038 -0.160182781354547 0 0.31854024801571379 -0.1183964408803808 0 0.30316218715013699 -0.13585617877411299 0 0.31993283661344418 -0.13594728745244961 0 0.31993283661344418 -0.13594728745244961 0 0.32334883616376942 -0.1477785311756023 0 0.33670348607675138 -0.13603839613078461 0 0.31854024801571379 -0.1183964408803808 0 0.31993283661344418 -0.13594728745244961 0 0.33718817445421712 -0.13355179710808501 0 0.31854024801571379 -0.1183964408803808 0 0.33718817445421712 -0.13355179710808501 0 0.31557079919726838 -0.1590044961535387 0 0.33199725769327038 -0.160182781354547 0 0.32334883616376942 -0.1477785311756023 0 0.31993283661344418 -0.13594728745244961 0 0.32334883616376942 -0.1477785311756023 0 0.31253980123811259 -0.14771969478669131 0 0.31557079919726838 -0.1590044961535387 0 0.32334883616376942 -0.1477785311756023 0 0.31253980123811259 -0.14771969478669131 0 0.33199725769327038 -0.160182781354547 0 0.34027166502062639 -0.13605778071504529 0 0.33670348607675138 -0.13603839613078461 0 0.33199725769327038 -0.160182781354547 0 0.32334883616376942 -0.1477785311756023 0 0.33670348607675138 -0.13603839613078461 0 0.33199725769327038 -0.160182781354547 0 0.33670348607675138 -0.13603839613078461 0 0.31993283661344418 -0.13594728745244961 0 0.33670348607675138 -0.13603839613078461 0 0.31993283661344418 -0.13594728745244961 0 0.33670348607675138 -0.13603839613078461 0 0.33718817445421712 -0.13355179710808501 0 0.34025414842832208 -0.11782241666052221 0 0.33718817445421712 -0.13355179710808501 0 0.34381162934489939 -0.12854128697128539 0 0.34025414842832208 -0.11782241666052221 0 0.33718817445421712 -0.13355179710808501 0 0.34027166502062639 -0.13605778071504529 0 0.33670348607675138 -0.13603839613078461 0 0.33718817445421712 -0.13355179710808501 0 0.34027166502062639 -0.13605778071504529 0 0.33718817445421712 -0.13355179710808501 0 0.34027166502062639 -0.13605778071504529 0 0.33670348607675138 -0.13603839613078461 0 0.33670348607675138 -0.13603839613078461 0 0.33718817445421712 -0.13355179710808501 0 0.34027166502062639 -0.13605778071504529 0 0.33718817445421712 -0.13355179710808501 0 0.34381162934489939 -0.12854128697128539 0 0.33199725769327038 -0.160182781354547 0 0.34027166502062639 -0.13605778071504529 0 0.36359383050920879 -0.15501193774405861 0 0.35355367174401742 -0.1211945845718113 0 0.34381162934489939 -0.12854128697128539 0 0.34779048707731292 -0.1340798558009649 0 0.34027166502062639 -0.13605778071504529 0 0.34884821061351562 -0.13610437388577321 0 0.35664352332635268 -0.13060513793896061 0 0.34779048707731292 -0.1340798558009649 0 0.34884821061351562 -0.13610437388577321 0 0.34027166502062639 -0.13605778071504529 0 0.34779048707731292 -0.1340798558009649 0 0.34884821061351562 -0.13610437388577321 0 0.34027166502062639 -0.13605778071504529 0 0.34381162934489939 -0.12854128697128539 0 0.34779048707731292 -0.1340798558009649 0 0.35664352332635268 -0.13060513793896061 0 0.34884821061351562 -0.13610437388577321 0 0.36374720336072303 -0.13810563056468389 0 0.34884821061351562 -0.13610437388577321 0 0.36359383050920879 -0.15501193774405861 0 0.36374720336072303 -0.13810563056468389 0 0.34027166502062639 -0.13605778071504529 0 0.36359383050920879 -0.15501193774405861 0 0.34027166502062639 -0.13605778071504529 0 0.34884821061351562 -0.13610437388577321 0 0.36359383050920879 -0.15501193774405861 0 0.36359383050920879 -0.15501193774405861 0 0.36374720336072303 -0.13810563056468389 0 0.37656812491251679 -0.13846106794218549 0 0.3785150876385216 -0.1195111518185689 0 0.36779594019891898 -0.12729788290040461 0 0.37656812491251679 -0.13846106794218549 0 0.36374720336072303 -0.13810563056468389 0 0.36779594019891898 -0.12729788290040461 0 0.37656812491251679 -0.13846106794218549 0 0.35664352332635268 -0.13060513793896061 0 0.36374720336072303 -0.13810563056468389 0 0.36779594019891898 -0.12729788290040461 0 0.33199725769327038 -0.160182781354547 0 0.36359383050920879 -0.15501193774405861 0 0.34572674800851178 -0.17666980330527179 0 0.34572674800851178 -0.17666980330527179 0 0.36422253950936112 -0.1859310752075029 0 0.34152908302092871 -0.19789605564194099 0 0.36359383050920879 -0.15501193774405861 0 0.34572674800851178 -0.17666980330527179 0 0.36422253950936112 -0.1859310752075029 0 0.36359383050920879 -0.15501193774405861 0 0.36422253950936112 -0.1859310752075029 0 0.38691599599779503 -0.1739660947730671 0 0.36422253950936112 -0.1859310752075029 0 0.37220629557919183 -0.19612338441269381 0 0.37910290544765168 -0.18685571494790659 0 0.36422253950936112 -0.1859310752075029 0 0.37220629557919183 -0.19612338441269381 0 0.35685044422528578 -0.20027094664828951 0 0.37220629557919183 -0.19612338441269381 0 0.3556522221671049 -0.2162457527497984 0 0.35685044422528578 -0.20027094664828951 0 0.37220629557919183 -0.19612338441269381 0 0.3556522221671049 -0.2162457527497984 0 0.37273333868611941 -0.2093978965492076 0 0.3556522221671049 -0.2162457527497984 0 0.3731990688381891 -0.2228302363117915 0 0.37220629557919183 -0.19612338441269381 0 0.37273333868611941 -0.2093978965492076 0 0.3556522221671049 -0.2162457527497984 0 0.34913249600123192 -0.20719712371303781 0 0.34152908302092871 -0.19789605564194099 0 0.34144894007629428 -0.2139395960038605 0 0.3556522221671049 -0.2162457527497984 0 0.34913249600123192 -0.20719712371303781 0 0.35685044422528578 -0.20027094664828951 0 0.3556522221671049 -0.2162457527497984 0 0.34913249600123192 -0.20719712371303781 0 0.34144894007629428 -0.2139395960038605 0 0.36422253950936112 -0.1859310752075029 0 0.35685044422528578 -0.20027094664828951 0 0.34152908302092871 -0.19789605564194099 0 0.36422253950936112 -0.1859310752075029 0 0.34152908302092871 -0.19789605564194099 0 0.34913249600123192 -0.20719712371303781 0 0.35685044422528578 -0.20027094664828951 0 0.34152908302092871 -0.19789605564194099 0 0.32729102930978993 -0.18432716657830939 0 0.34152908302092871 -0.19789605564194099 0 0.32289957828838461 -0.19876131457419149 0 0.34152908302092871 -0.19789605564194099 0 0.31883562653249692 -0.20986103607638071 0 0.34152908302092871 -0.19789605564194099 0 0.34144894007629428 -0.2139395960038605 0 0.31883562653249692 -0.20986103607638071 0 0.34144894007629428 -0.2139395960038605 0 0.31883562653249692 -0.20986103607638071 0 0.32331405575278033 -0.23055000204260581 0 0.31883562653249692 -0.20986103607638071 0 0.32289957828838461 -0.19876131457419149 0 0.30817512199612251 -0.208018461664154 0 0.31883562653249692 -0.20986103607638071 0 0.32289957828838461 -0.19876131457419149 0 0.30866677822314281 -0.19370433905286669 0 0.30817512199612251 -0.208018461664154 0 0.32289957828838461 -0.19876131457419149 0 0.34152908302092871 -0.19789605564194099 0 0.31883562653249692 -0.20986103607638071 0 0.32289957828838461 -0.19876131457419149 0 0.30866677822314281 -0.19370433905286669 0 0.31498869866721663 -0.1848028620899877 0 0.32289957828838461 -0.19876131457419149 0 0.31498869866721663 -0.1848028620899877 0 0.32729102930978993 -0.18432716657830939 0 0.32289957828838461 -0.19876131457419149 0 0.30517917142926537 -0.24716040808135001 0 0.32331405575278033 -0.23055000204260581 0 0.30517917142926537 -0.24716040808135001 0 0.32331405575278033 -0.23055000204260581 0 0.322544075342931 -0.25649048942400782 0 0.31200739898088131 -0.22851072207886541 0 0.30517917142926537 -0.24716040808135001 0 0.32331405575278033 -0.23055000204260581 0 0.31200739898088131 -0.22851072207886541 0 0.31883562653249692 -0.20986103607638071 0 0.31200739898088131 -0.22851072207886541 0 0.31883562653249692 -0.20986103607638071 0 0.32331405575278033 -0.23055000204260581 0 0.34144894007629428 -0.2139395960038605 0 0.32331405575278033 -0.23055000204260581 0 0.34144894007629428 -0.2139395960038605 0 0.32331405575278033 -0.23055000204260581 0 0.33909814875501798 -0.23636812108690311 0 0.33909814875501798 -0.23636812108690311 0 0.322544075342931 -0.25649048942400782 0 0.32331405575278033 -0.23055000204260581 0 0.33909814875501798 -0.23636812108690311 0 0.322544075342931 -0.25649048942400782 0 0.33909814875501798 -0.23636812108690311 0 0.35007299243335749 -0.24785688602667111 0 0.33700232267718733 -0.25494009872172468 0 0.33909814875501798 -0.23636812108690311 0 0.322544075342931 -0.25649048942400782 0 0.33700232267718733 -0.25494009872172468 0 0.33909814875501798 -0.23636812108690311 0 0.35007299243335749 -0.24785688602667111 0 0.35471840821638012 -0.232162972911199 0 0.35007299243335749 -0.24785688602667111 0 0.35471840821638012 -0.232162972911199 0 0.36225179838031341 -0.2439392928582107 0 0.35007299243335749 -0.24785688602667111 0 0.36225179838031341 -0.2439392928582107 0 0.36124693131331159 -0.25807728632712912 0 0.3556522221671049 -0.2162457527497984 0 0.33909814875501798 -0.23636812108690311 0 0.3556522221671049 -0.2162457527497984 0 0.33909814875501798 -0.23636812108690311 0 0.35471840821638012 -0.232162972911199 0 0.3556522221671049 -0.2162457527497984 0 0.34144894007629428 -0.2139395960038605 0 0.33909814875501798 -0.23636812108690311 0 0.35471840821638012 -0.232162972911199 0 0.3731990688381891 -0.2228302363117915 0 0.36225179838031341 -0.2439392928582107 0 0.3556522221671049 -0.2162457527497984 0 0.35471840821638012 -0.232162972911199 0 0.3731990688381891 -0.2228302363117915 0 0.3731990688381891 -0.2228302363117915 0 0.36225179838031341 -0.2439392928582107 0 0.3731990688381891 -0.2228302363117915 0 0.36225179838031341 -0.2439392928582107 0 0.38186963046980549 -0.2367879359972051 0 0.36225179838031341 -0.2439392928582107 0 0.38186963046980549 -0.2367879359972051 0 0.37510228513818711 -0.25237727586059511 0 0.38186963046980549 -0.2367879359972051 0 0.39206528024080278 -0.24921397013056479 0 0.37510228513818711 -0.25237727586059511 0 0.39206528024080278 -0.24921397013056479 0 0.40137725565661481 -0.22692044649349019 0 0.4148006158986044 -0.24103970595398019 0 0.39206528024080278 -0.24921397013056479 0 0.4148006158986044 -0.24103970595398019 0 0.40884184876520419 -0.25890250189124958 0 0.38186963046980549 -0.2367879359972051 0 0.39206528024080278 -0.24921397013056479 0 0.40137725565661481 -0.22692044649349019 0 0.40137725565661481 -0.22692044649349019 0 0.39915185452682361 -0.21610044156742811 0 0.41396763236883027 -0.21470461273584779 0 0.40137725565661481 -0.22692044649349019 0 0.38700545273377529 -0.2233412248148075 0 0.39915185452682361 -0.21610044156742811 0 0.38186963046980549 -0.2367879359972051 0 0.40137725565661481 -0.22692044649349019 0 0.38700545273377529 -0.2233412248148075 0 0.3731990688381891 -0.2228302363117915 0 0.38186963046980549 -0.2367879359972051 0 0.38700545273377529 -0.2233412248148075 0 0.3731990688381891 -0.2228302363117915 0 0.38414633929606479 -0.2017211797653724 0 0.37273333868611941 -0.2093978965492076 0 0.3731990688381891 -0.2228302363117915 0 0.38414633929606479 -0.2017211797653724 0 0.3731990688381891 -0.2228302363117915 0 0.38675328488958288 -0.2095276895359276 0 0.38414633929606479 -0.2017211797653724 0 0.3731990688381891 -0.2228302363117915 0 0.38700545273377529 -0.2233412248148075 0 0.38675328488958288 -0.2095276895359276 0 0.38675328488958288 -0.2095276895359276 0 0.38414633929606479 -0.2017211797653724 0 0.39287005569986072 -0.20314648074516001 0 0.38414633929606479 -0.2017211797653724 0 0.38373621375160438 -0.1885238144486111 0 0.39509360975394031 -0.18061212321895309 0 0.38414633929606479 -0.2017211797653724 0 0.39509360975394031 -0.18061212321895309 0 0.37999921147615667 -0.19503406661491049 0 0.38373621375160438 -0.1885238144486111 0 0.37910290544765168 -0.18685571494790659 0 0.37999921147615667 -0.19503406661491049 0 0.38414633929606479 -0.2017211797653724 0 0.38373621375160438 -0.1885238144486111 0 0.37220629557919183 -0.19612338441269381 0 0.37999921147615667 -0.19503406661491049 0 0.37910290544765168 -0.18685571494790659 0 0.37220629557919183 -0.19612338441269381 0 0.37273333868611941 -0.2093978965492076 0 0.38414633929606479 -0.2017211797653724 0 0.37220629557919183 -0.19612338441269381 0 0.37999921147615667 -0.19503406661491049 0 0.38414633929606479 -0.2017211797653724 0 0.38414633929606479 -0.2017211797653724 0 0.39694758591794982 -0.18886739411602391 0 0.39509360975394031 -0.18061212321895309 0 0.39694758591794982 -0.18886739411602391 0 0.3969424320709618 -0.1972324897541754 0 0.40101572763622523 -0.19231380306325679 0 0.38414633929606479 -0.2017211797653724 0 0.39694758591794982 -0.18886739411602391 0 0.3969424320709618 -0.1972324897541754 0 0.38414633929606479 -0.2017211797653724 0 0.3969424320709618 -0.1972324897541754 0 0.39287005569986072 -0.20314648074516001 0 0.3969424320709618 -0.1972324897541754 0 0.400612395600416 -0.20053006859666331 0 0.39287005569986072 -0.20314648074516001 0 0.3969424320709618 -0.1972324897541754 0 0.4059814476455269 -0.19573306963025069 0 0.400612395600416 -0.20053006859666331 0 0.4059814476455269 -0.19573306963025069 0 0.400612395600416 -0.20053006859666331 0 0.40665564698531481 -0.2060082342570673 0 0.3969424320709618 -0.1972324897541754 0 0.4059814476455269 -0.19573306963025069 0 0.40101572763622523 -0.19231380306325679 0 0.4059814476455269 -0.19573306963025069 0 0.40101572763622523 -0.19231380306325679 0 0.40419144491046238 -0.1874222587525772 0 0.39694758591794982 -0.18886739411602391 0 0.40101572763622523 -0.19231380306325679 0 0.40419144491046238 -0.1874222587525772 0 0.38675328488958288 -0.2095276895359276 0 0.40665564698531481 -0.2060082342570673 0 0.38675328488958288 -0.2095276895359276 0 0.39915185452682361 -0.21610044156742811 0 0.40665564698531481 -0.2060082342570673 0 0.38675328488958288 -0.2095276895359276 0 0.39287005569986072 -0.20314648074516001 0 0.40665564698531481 -0.2060082342570673 0 0.38700545273377529 -0.2233412248148075 0 0.38675328488958288 -0.2095276895359276 0 0.39915185452682361 -0.21610044156742811 0 0.400612395600416 -0.20053006859666331 0 0.39287005569986072 -0.20314648074516001 0 0.40665564698531481 -0.2060082342570673 0 0.41396763236883027 -0.21470461273584779 0 0.40665564698531481 -0.2060082342570673 0 0.42655800908104652 -0.20248877897820619 0 0.40665564698531481 -0.2060082342570673 0 0.42655800908104652 -0.20248877897820619 0 0.39915185452682361 -0.21610044156742811 0 0.41396763236883027 -0.21470461273584779 0 0.40665564698531481 -0.2060082342570673 0 0.41396763236883027 -0.21470461273584779 0 0.42655800908104652 -0.20248877897820619 0 0.40665564698531481 -0.2060082342570673 0 0.41640017291144837 -0.19588579121564459 0 0.42655800908104652 -0.20248877897820619 0 0.4059814476455269 -0.19573306963025069 0 0.41640017291144837 -0.19588579121564459 0 0.41453364601533049 -0.1862870086825022 0 0.4059814476455269 -0.19573306963025069 0 0.40419144491046238 -0.1874222587525772 0 0.41453364601533049 -0.1862870086825022 0 0.4059814476455269 -0.19573306963025069 0 0.40665564698531481 -0.2060082342570673 0 0.41640017291144837 -0.19588579121564459 0 0.41640017291144837 -0.19588579121564459 0 0.42581299264578848 -0.18832250896932939 0 0.41453364601533049 -0.1862870086825022 0 0.42655800908104652 -0.20248877897820619 0 0.444302871767289 -0.18527179670816579 0 0.42581299264578848 -0.18832250896932939 0 0.42655800908104652 -0.20248877897820619 0 0.444302871767289 -0.18527179670816579 0 0.41640017291144837 -0.19588579121564459 0 0.42581299264578848 -0.18832250896932939 0 0.42655800908104652 -0.20248877897820619 0 0.42655800908104652 -0.20248877897820619 0 0.43237997939727391 -0.21969514264188619 0 0.44995934289594253 -0.19835057932979169 0 0.41396763236883027 -0.21470461273584779 0 0.42655800908104652 -0.20248877897820619 0 0.43237997939727391 -0.21969514264188619 0 0.43237997939727391 -0.21969514264188619 0 0.43199948472716282 -0.23703470349933331 0 0.4148006158986044 -0.24103970595398019 0 0.43237997939727391 -0.21969514264188619 0 0.4148006158986044 -0.24103970595398019 0 0.43199948472716282 -0.23703470349933331 0 0.4148006158986044 -0.24103970595398019 0 0.42892204251950339 -0.2594807324876427 0 0.43199948472716282 -0.23703470349933331 0 0.44338493428344739 -0.24574379201886831 0 0.42892204251950339 -0.2594807324876427 0 0.43237997939727391 -0.21969514264188619 0 0.4148006158986044 -0.24103970595398019 0 0.41563137083033092 -0.22558997695630109 0 0.41396763236883027 -0.21470461273584779 0 0.43237997939727391 -0.21969514264188619 0 0.41563137083033092 -0.22558997695630109 0 0.40137725565661481 -0.22692044649349019 0 0.4148006158986044 -0.24103970595398019 0 0.41563137083033092 -0.22558997695630109 0 0.40137725565661481 -0.22692044649349019 0 0.41396763236883027 -0.21470461273584779 0 0.40137725565661481 -0.22692044649349019 0 0.41396763236883027 -0.21470461273584779 0 0.41563137083033092 -0.22558997695630109 0 0.39237070121405998 -0.13164091544729051 0 0.39988799210863701 -0.14408364481314989 0 0.41368108829086198 -0.13554811058748131 0 0.40604313277712428 -0.1171380761358455 0 0.39237070121405998 -0.13164091544729051 0 0.41368108829086198 -0.13554811058748131 0 0.39237070121405998 -0.13164091544729051 0 0.37656812491251679 -0.13846106794218549 0 0.38605620033535121 -0.1499684147877679 0 0.3785150876385216 -0.1195111518185689 0 0.39237070121405998 -0.13164091544729051 0 0.37656812491251679 -0.13846106794218549 0 0.36359383050920879 -0.15501193774405861 0 0.37656812491251679 -0.13846106794218549 0 0.38605620033535121 -0.1499684147877679 0 0.39237070121405998 -0.13164091544729051 0 0.38605620033535121 -0.1499684147877679 0 0.39988799210863701 -0.14408364481314989 0 0.38605620033535121 -0.1499684147877679 0 0.39988799210863701 -0.14408364481314989 0 0.39700055726989097 -0.15664682800685811 0 0.39988799210863701 -0.14408364481314989 0 0.39700055726989097 -0.15664682800685811 0 0.40766935758353628 -0.1563629578155839 0 0.40291487034120532 -0.16553079014728059 0 0.39700055726989097 -0.15664682800685811 0 0.38691599599779503 -0.1739660947730671 0 0.40291487034120532 -0.16553079014728059 0 0.38691599599779503 -0.1739660947730671 0 0.40291487034120532 -0.16553079014728059 0 0.39700055726989097 -0.15664682800685811 0 0.40766935758353628 -0.1563629578155839 0 0.40291487034120532 -0.16553079014728059 0 0.40766935758353628 -0.1563629578155839 0 0.38605620033535121 -0.1499684147877679 0 0.39700055726989097 -0.15664682800685811 0 0.38691599599779503 -0.1739660947730671 0 0.36359383050920879 -0.15501193774405861 0 0.38691599599779503 -0.1739660947730671 0 0.36359383050920879 -0.15501193774405861 0 0.38605620033535121 -0.1499684147877679 0 0.38691599599779503 -0.1739660947730671 0 0.36422253950936112 -0.1859310752075029 0 0.38691599599779503 -0.1739660947730671 0 0.37910290544765168 -0.18685571494790659 0 0.36422253950936112 -0.1859310752075029 0 0.38691599599779503 -0.1739660947730671 0 0.38691599599779503 -0.1739660947730671 0 0.38753717637180268 -0.18155585423065651 0 0.39509360975394031 -0.18061212321895309 0 0.38373621375160438 -0.1885238144486111 0 0.38753717637180268 -0.18155585423065651 0 0.39509360975394031 -0.18061212321895309 0 0.38691599599779503 -0.1739660947730671 0 0.37910290544765168 -0.18685571494790659 0 0.38753717637180268 -0.18155585423065651 0 0.38373621375160438 -0.1885238144486111 0 0.37910290544765168 -0.18685571494790659 0 0.38753717637180268 -0.18155585423065651 0 0.40291487034120532 -0.16553079014728059 0 0.38691599599779503 -0.1739660947730671 0 0.39509360975394031 -0.18061212321895309 0 0.39694758591794982 -0.18886739411602391 0 0.39665445354372708 -0.18451779314135289 0 0.39509360975394031 -0.18061212321895309 0 0.39694758591794982 -0.18886739411602391 0 0.39665445354372708 -0.18451779314135289 0 0.40021252966215071 -0.18382207331845951 0 0.39665445354372708 -0.18451779314135289 0 0.39509360975394031 -0.18061212321895309 0 0.40021252966215071 -0.18382207331845951 0 0.38691599599779503 -0.1739660947730671 0 0.39509360975394031 -0.18061212321895309 0 0.40291487034120532 -0.16553079014728059 0 0.39509360975394031 -0.18061212321895309 0 0.40549068313545528 -0.17742909809594989 0 0.40291487034120532 -0.16553079014728059 0 0.39509360975394031 -0.18061212321895309 0 0.40549068313545528 -0.17742909809594989 0 0.40419144491046238 -0.1874222587525772 0 0.40021252966215071 -0.18382207331845951 0 0.39509360975394031 -0.18061212321895309 0 0.40549068313545528 -0.17742909809594989 0 0.40021252966215071 -0.18382207331845951 0 0.39694758591794982 -0.18886739411602391 0 0.40419144491046238 -0.1874222587525772 0 0.40021252966215071 -0.18382207331845951 0 0.42581299264578848 -0.18832250896932939 0 0.41453364601533049 -0.1862870086825022 0 0.42235201908535791 -0.17050045814039369 0 0.40549068313545528 -0.17742909809594989 0 0.41453364601533049 -0.1862870086825022 0 0.42235201908535791 -0.17050045814039369 0 0.40549068313545528 -0.17742909809594989 0 0.40419144491046238 -0.1874222587525772 0 0.41453364601533049 -0.1862870086825022 0 0.42235201908535791 -0.17050045814039369 0 0.44127751826325029 -0.16493106072254701 0 0.444302871767289 -0.18527179670816579 0 0.42581299264578848 -0.18832250896932939 0 0.42235201908535791 -0.17050045814039369 0 0.444302871767289 -0.18527179670816579 0 0.42235201908535791 -0.17050045814039369 0 0.42606808286872072 -0.1533234062687002 0 0.44127751826325029 -0.16493106072254701 0 0.40291487034120532 -0.16553079014728059 0 0.40766935758353628 -0.1563629578155839 0 0.42606808286872072 -0.1533234062687002 0 0.40291487034120532 -0.16553079014728059 0 0.42606808286872072 -0.1533234062687002 0 0.40291487034120532 -0.16553079014728059 0 0.42235201908535791 -0.17050045814039369 0 0.42606808286872072 -0.1533234062687002 0 0.40291487034120532 -0.16553079014728059 0 0.40549068313545528 -0.17742909809594989 0 0.42235201908535791 -0.17050045814039369 0 0.41182663021293903 -0.1473295298712288 0 0.42606808286872072 -0.1533234062687002 0 0.41368108829086198 -0.13554811058748131 0 0.40766935758353628 -0.1563629578155839 0 0.41182663021293903 -0.1473295298712288 0 0.42606808286872072 -0.1533234062687002 0 0.39988799210863701 -0.14408364481314989 0 0.40766935758353628 -0.1563629578155839 0 0.41182663021293903 -0.1473295298712288 0 0.39988799210863701 -0.14408364481314989 0 0.41182663021293903 -0.1473295298712288 0 0.41368108829086198 -0.13554811058748131 0 0.42606808286872072 -0.1533234062687002 0 0.430889964195386 -0.135117951771525 0 0.44922129539623712 -0.14111602239012119 0 0.42606808286872072 -0.1533234062687002 0 0.430889964195386 -0.135117951771525 0 0.41368108829086198 -0.13554811058748131 0 0.42080162445294911 -0.1170697999396166 0 0.430889964195386 -0.135117951771525 0 0.41368108829086198 -0.13554811058748131 0 0.45825176112352212 -0.1171944005084963 0 0.44922129539623712 -0.14111602239012119 0 0.47461064769812122 -0.12772964805397971 0 0.44922129539623712 -0.14111602239012119 0 0.47461064769812122 -0.12772964805397971 0 0.44922129539623712 -0.14111602239012119 0 0.47041229806123103 -0.14236165737458781 0 0.47461064769812122 -0.12772964805397971 0 0.43893170590200609 -0.1195052611799315 0 0.430889964195386 -0.135117951771525 0 0.44922129539623712 -0.14111602239012119 0 0.43893170590200609 -0.1195052611799315 0 0.45825176112352212 -0.1171944005084963 0 0.44922129539623712 -0.14111602239012119 0 0.43893170590200609 -0.1195052611799315 0 0.44922129539623712 -0.14111602239012119 0 0.42606808286872072 -0.1533234062687002 0 0.44922129539623712 -0.14111602239012119 0 0.44127751826325029 -0.16493106072254701 0 0.42606808286872072 -0.1533234062687002 0 0.44922129539623712 -0.14111602239012119 0 0.44922129539623712 -0.14111602239012119 0 0.46204773445353348 -0.16805481443812731 0 0.44922129539623712 -0.14111602239012119 0 0.46204773445353348 -0.16805481443812731 0 0.47041229806123103 -0.14236165737458781 0 0.44922129539623712 -0.14111602239012119 0 0.46204773445353348 -0.16805481443812731 0 0.44127751826325029 -0.16493106072254701 0 0.46204773445353348 -0.16805481443812731 0 0.44127751826325029 -0.16493106072254701 0 0.444302871767289 -0.18527179670816579 0 0.46204773445353348 -0.16805481443812731 0 0.444302871767289 -0.18527179670816579 0 0.46675991992270621 -0.1779516052682695 0 0.47013600328087812 -0.185042241033678 0 0.44995934289594253 -0.19835057932979169 0 0.444302871767289 -0.18527179670816579 0 0.46675991992270621 -0.1779516052682695 0 0.44995934289594253 -0.19835057932979169 0 0.46204773445353348 -0.16805481443812731 0 0.444302871767289 -0.18527179670816579 0 0.46675991992270621 -0.1779516052682695 0 0.46204773445353348 -0.16805481443812731 0 0.46675991992270621 -0.1779516052682695 0 0.46675991992270621 -0.1779516052682695 0 0.47013600328087812 -0.185042241033678 0 0.46675991992270621 -0.1779516052682695 0 0.48388214138120561 -0.17390417728894431 0 0.47927416581767118 -0.18397687174081401 0 0.46675991992270621 -0.1779516052682695 0 0.47013600328087812 -0.185042241033678 0 0.47927416581767118 -0.18397687174081401 0 0.48388214138120561 -0.17390417728894431 0 0.47927416581767118 -0.18397687174081401 0 0.48987334582395858 -0.18140433091368091 0 0.48987334582395858 -0.18140433091368091 0 0.5 -0.16492372169971509 0 0.5 -0.19225537639104809 0 0.48388214138120561 -0.17390417728894431 0 0.48987334582395858 -0.18140433091368091 0 0.5 -0.16492372169971509 0 0.47927416581767118 -0.18397687174081401 0 0.48987334582395858 -0.18140433091368091 0 0.48552241192915191 -0.19206174635411891 0 0.48388214138120561 -0.17390417728894431 0 0.5 -0.16492372169971509 0 0.48337995996135552 -0.1577718361383266 0 0.46675991992270621 -0.1779516052682695 0 0.48388214138120561 -0.17390417728894431 0 0.48337995996135552 -0.1577718361383266 0 0.46204773445353348 -0.16805481443812731 0 0.46675991992270621 -0.1779516052682695 0 0.48337995996135552 -0.1577718361383266 0 0.46204773445353348 -0.16805481443812731 0 0.48337995996135552 -0.1577718361383266 0 0.47713463147989749 -0.15341672773068571 0 0.46675991992270621 -0.1779516052682695 0 0.48337995996135552 -0.1577718361383266 0 0.46204773445353348 -0.16805481443812731 0 0.47713463147989749 -0.15341672773068571 0 0.46204773445353348 -0.16805481443812731 0 0.47041229806123103 -0.14236165737458781 0 0.47713463147989749 -0.15341672773068571 0 0.48337995996135552 -0.1577718361383266 0 0.47713463147989749 -0.15341672773068571 0 0.48456351921585428 -0.1397192317593817 0 0.47041229806123103 -0.14236165737458781 0 0.47713463147989749 -0.15341672773068571 0 0.48456351921585428 -0.1397192317593817 0 0.48337995996135552 -0.1577718361383266 0 0.50000000000000311 -0.1375920670083822 0 0.48456351921585428 -0.1397192317593817 0 0.5 -0.16492372169971509 0 0.48337995996135552 -0.1577718361383266 0 0.50000000000000311 -0.1375920670083822 0 0.48337995996135552 -0.1577718361383266 0 0.50000000000000311 -0.1375920670083822 0 0.50000000000000433 -0.1143432737178363 0 0.50000000000000311 -0.1375920670083822 0 0.48456351921585428 -0.1397192317593817 0 0.50000000000000433 -0.1143432737178363 0 0.48456351921585428 -0.1397192317593817 0 0.47461064769812122 -0.12772964805397971 0 0.47041229806123103 -0.14236165737458781 0 0.48456351921585428 -0.1397192317593817 0 0.47461064769812122 -0.12772964805397971 0 0.46695018322910392 -0.22473955239466681 0 0.44975785303280541 -0.2255898949688982 0 0.46528918090086291 -0.2095084705765255 0 0.46695018322910392 -0.22473955239466681 0 0.46086119099944728 -0.24298014516654151 0 0.44975785303280541 -0.2255898949688982 0 0.46086119099944728 -0.24298014516654151 0 0.44338493428344739 -0.24574379201886831 0 0.44975785303280541 -0.2255898949688982 0 0.43199948472716282 -0.23703470349933331 0 0.44338493428344739 -0.24574379201886831 0 0.44975785303280541 -0.2255898949688982 0 0.46086119099944728 -0.24298014516654151 0 0.44338493428344739 -0.24574379201886831 0 0.45165913482636821 -0.26068325523694041 0 0.43237997939727391 -0.21969514264188619 0 0.43199948472716282 -0.23703470349933331 0 0.44975785303280541 -0.2255898949688982 0 0.43237997939727391 -0.21969514264188619 0 0.44975785303280541 -0.2255898949688982 0 0.44995934289594253 -0.19835057932979169 0 0.43237997939727391 -0.21969514264188619 0 0.44995934289594253 -0.19835057932979169 0 0.42655800908104652 -0.20248877897820619 0 0.444302871767289 -0.18527179670816579 0 0.44995934289594253 -0.19835057932979169 0 0.42655800908104652 -0.20248877897820619 0 0.44995934289594253 -0.19835057932979169 0 0.46675991992270621 -0.1779516052682695 0 0.44995934289594253 -0.19835057932979169 0 0.44995934289594253 -0.19835057932979169 0 0.46774087741254722 -0.19520616284195491 0 0.47013600328087812 -0.185042241033678 0 0.44995934289594253 -0.19835057932979169 0 0.46774087741254722 -0.19520616284195491 0 0.44995934289594253 -0.19835057932979169 0 0.46774087741254722 -0.19520616284195491 0 0.46528918090086291 -0.2095084705765255 0 0.44975785303280541 -0.2255898949688982 0 0.44995934289594253 -0.19835057932979169 0 0.46528918090086291 -0.2095084705765255 0 0.46695018322910392 -0.22473955239466681 0 0.46528918090086291 -0.2095084705765255 0 0.48029579162163721 -0.21558854579597769 0 0.46528918090086291 -0.2095084705765255 0 0.47801733861628259 -0.20339364304417529 0 0.48029579162163721 -0.21558854579597769 0 0.47801733861628259 -0.20339364304417529 0 0.48029579162163721 -0.21558854579597769 0 0.48876710843341442 -0.20457726853354019 0 0.46774087741254722 -0.19520616284195491 0 0.47801733861628259 -0.20339364304417529 0 0.48552241192915191 -0.19206174635411891 0 0.47927416581767118 -0.18397687174081401 0 0.46774087741254722 -0.19520616284195491 0 0.48552241192915191 -0.19206174635411891 0 0.46774087741254722 -0.19520616284195491 0 0.48552241192915191 -0.19206174635411891 0 0.47013600328087812 -0.185042241033678 0 0.47927416581767118 -0.18397687174081401 0 0.46774087741254722 -0.19520616284195491 0 0.46774087741254722 -0.19520616284195491 0 0.46528918090086291 -0.2095084705765255 0 0.47801733861628259 -0.20339364304417529 0 0.47801733861628259 -0.20339364304417529 0 0.48552241192915191 -0.19206174635411891 0 0.48876710843341442 -0.20457726853354019 0 0.48987334582395858 -0.18140433091368091 0 0.48552241192915191 -0.19206174635411891 0 0.5 -0.19225537639104809 0 0.48552241192915191 -0.19206174635411891 0 0.5 -0.19225537639104809 0 0.48876710843341442 -0.20457726853354019 0 0.5 -0.19225537639104809 0 0.48876710843341442 -0.20457726853354019 0 0.5 -0.21958703108238101 0 0.48029579162163721 -0.21558854579597769 0 0.48876710843341442 -0.20457726853354019 0 0.5 -0.21958703108238101 0 0.5 -0.21958703108238101 0 0.48033598971293961 -0.23536730169414519 0 0.5 -0.24691868577371379 0 0.48029579162163721 -0.21558854579597769 0 0.5 -0.21958703108238101 0 0.48033598971293961 -0.23536730169414519 0 0.46695018322910392 -0.22473955239466681 0 0.46086119099944728 -0.24298014516654151 0 0.48033598971293961 -0.23536730169414519 0 0.46695018322910392 -0.22473955239466681 0 0.48029579162163721 -0.21558854579597769 0 0.48033598971293961 -0.23536730169414519 0 0.46086119099944728 -0.24298014516654151 0 0.48033598971293961 -0.23536730169414519 0 0.47450143065275591 -0.2599846894272051 0 0.48033598971293961 -0.23536730169414519 0 0.5 -0.24691868577371379 0 0.47450143065275591 -0.2599846894272051 0 0.5 -0.24691868577371379 0 0.50000000000000222 -0.27425034046504659 0 0.47450143065275591 -0.2599846894272051 0 0.50000000000000222 -0.27425034046504659 0 0.47605513413645029 -0.28008102786359129 0 0.47450143065275591 -0.2599846894272051 0 0.47605513413645029 -0.28008102786359129 0 0.47450143065275591 -0.2599846894272051 0 0.45931845050930209 -0.27772900618102819 0 0.46086119099944728 -0.24298014516654151 0 0.47450143065275591 -0.2599846894272051 0 0.45165913482636821 -0.26068325523694041 0 0.47450143065275591 -0.2599846894272051 0 0.45931845050930209 -0.27772900618102819 0 0.45165913482636821 -0.26068325523694041 0 0.45931845050930209 -0.27772900618102819 0 0.44355941821905998 -0.27577600561597132 0 0.45165913482636821 -0.26068325523694041 0 0.44338493428344739 -0.24574379201886831 0 0.45165913482636821 -0.26068325523694041 0 0.42892204251950339 -0.2594807324876427 0 0.44355941821905998 -0.27577600561597132 0 0.45165913482636821 -0.26068325523694041 0 0.42892204251950339 -0.2594807324876427 0 0.44743457629936911 -0.29125199491084608 0 0.45088585771739531 -0.31517042999936162 0 0.43686388954492023 -0.30206384222820981 0 0.45088585771739531 -0.31517042999936162 0 0.43602078127065758 -0.31524868357114688 0 0.43686388954492023 -0.30206384222820981 0 0.45931845050930209 -0.27772900618102819 0 0.44355941821905998 -0.27577600561597132 0 0.44743457629936911 -0.29125199491084608 0 0.44355941821905998 -0.27577600561597132 0 0.44743457629936911 -0.29125199491084608 0 0.42611848489587972 -0.28658767974219163 0 0.47605513413645029 -0.28008102786359129 0 0.45931845050930209 -0.27772900618102819 0 0.46516191830632447 -0.295844547827811 0 0.45931845050930209 -0.27772900618102819 0 0.44743457629936911 -0.29125199491084608 0 0.46516191830632447 -0.295844547827811 0 0.44743457629936911 -0.29125199491084608 0 0.46516191830632447 -0.295844547827811 0 0.45088585771739531 -0.31517042999936162 0 0.46516191830632447 -0.295844547827811 0 0.47218478901913252 -0.31616939882945228 0 0.45088585771739531 -0.31517042999936162 0 0.4860923945095682 -0.29520986964724988 0 0.47218478901913252 -0.31616939882945228 0 0.50000000000000222 -0.27425034046504659 0 0.4860923945095682 -0.29520986964724988 0 0.5 -0.307151228172029 0 0.46516191830632447 -0.295844547827811 0 0.4860923945095682 -0.29520986964724988 0 0.47218478901913252 -0.31616939882945228 0 0.47605513413645029 -0.28008102786359129 0 0.46516191830632447 -0.295844547827811 0 0.4860923945095682 -0.29520986964724988 0 0.50000000000000222 -0.27425034046504659 0 0.47605513413645029 -0.28008102786359129 0 0.4860923945095682 -0.29520986964724988 0 0.50000000000000222 -0.27425034046504659 0 0.4860923945095682 -0.29520986964724988 0 0.4860923945095682 -0.29520986964724988 0 0.5 -0.307151228172029 0 0.47218478901913252 -0.31616939882945228 0 0.5 -0.307151228172029 0 0.47500442815187882 -0.33618410333150461 0 0.5 -0.35237408365171952 0 0.5 -0.307151228172029 0 0.47500442815187882 -0.33618410333150461 0 0.47218478901913252 -0.31616939882945228 0 0.47500442815187882 -0.33618410333150461 0 0.5 -0.35237408365171952 0 0.46252966193221051 -0.36479181955861489 0 0.5 -0.35237408365171952 0 0.46252966193221051 -0.36479181955861489 0 0.4680243894331878 -0.39009447735167219 0 0.46252966193221051 -0.36479181955861489 0 0.44439653888602387 -0.37108278870097211 0 0.45518384933885458 -0.37953704158418422 0 0.46252966193221051 -0.36479181955861489 0 0.4490308344886651 -0.35295870566956811 0 0.45703493443123322 -0.33948916176555749 0 0.47500442815187882 -0.33618410333150461 0 0.46252966193221051 -0.36479181955861489 0 0.45703493443123322 -0.33948916176555749 0 0.46252966193221051 -0.36479181955861489 0 0.45703493443123322 -0.33948916176555749 0 0.4490308344886651 -0.35295870566956811 0 0.44439653888602387 -0.37108278870097211 0 0.43547581015886039 -0.35374612963373181 0 0.44432011104097457 -0.34600420025309703 0 0.4490308344886651 -0.35295870566956811 0 0.45042795048268808 -0.34263813410543531 0 0.4490308344886651 -0.35295870566956811 0 0.45703493443123322 -0.33948916176555749 0 0.45042795048268808 -0.34263813410543531 0 0.44432011104097457 -0.34600420025309703 0 0.4490308344886651 -0.35295870566956811 0 0.43547581015886039 -0.35374612963373181 0 0.44432011104097457 -0.34600420025309703 0 0.43877314986606192 -0.33818418946214152 0 0.43547581015886039 -0.35374612963373181 0 0.46252966193221051 -0.36479181955861489 0 0.4490308344886651 -0.35295870566956811 0 0.44439653888602387 -0.37108278870097211 0 0.47218478901913252 -0.31616939882945228 0 0.45845081404400378 -0.32484725803309861 0 0.45088585771739531 -0.31517042999936162 0 0.47218478901913252 -0.31616939882945228 0 0.45845081404400378 -0.32484725803309861 0 0.45827718352869679 -0.33712892801165451 0 0.47218478901913252 -0.31616939882945228 0 0.45827718352869679 -0.33712892801165451 0 0.45845081404400378 -0.32484725803309861 0 0.45465012105844921 -0.33200612518688721 0 0.44755831468875862 -0.32470483606049327 0 0.47500442815187882 -0.33618410333150461 0 0.45703493443123322 -0.33948916176555749 0 0.45827718352869679 -0.33712892801165451 0 0.47500442815187882 -0.33618410333150461 0 0.47218478901913252 -0.31616939882945228 0 0.45827718352869679 -0.33712892801165451 0 0.45703493443123322 -0.33948916176555749 0 0.4547926195999189 -0.33699511694280199 0 0.45042795048268808 -0.34263813410543531 0 0.45703493443123322 -0.33948916176555749 0 0.45827718352869679 -0.33712892801165451 0 0.4547926195999189 -0.33699511694280199 0 0.45845081404400378 -0.32484725803309861 0 0.45827718352869679 -0.33712892801165451 0 0.45465012105844921 -0.33200612518688721 0 0.4547926195999189 -0.33699511694280199 0 0.45465012105844921 -0.33200612518688721 0 0.45190540097192972 -0.33615439765103378 0 0.45827718352869679 -0.33712892801165451 0 0.4547926195999189 -0.33699511694280199 0 0.45465012105844921 -0.33200612518688721 0 0.45465012105844921 -0.33200612518688721 0 0.44749393872662357 -0.33307274595813069 0 0.44755831468875862 -0.32470483606049327 0 0.45465012105844921 -0.33200612518688721 0 0.44749393872662357 -0.33307274595813069 0 0.45190540097192972 -0.33615439765103378 0 0.4547926195999189 -0.33699511694280199 0 0.45042795048268808 -0.34263813410543531 0 0.45190540097192972 -0.33615439765103378 0 0.45042795048268808 -0.34263813410543531 0 0.45190540097192972 -0.33615439765103378 0 0.44691761172297523 -0.33872250108465612 0 0.44749393872662357 -0.33307274595813069 0 0.45190540097192972 -0.33615439765103378 0 0.44691761172297523 -0.33872250108465612 0 0.44432011104097457 -0.34600420025309703 0 0.45042795048268808 -0.34263813410543531 0 0.44691761172297523 -0.33872250108465612 0 0.44432011104097457 -0.34600420025309703 0 0.44691761172297523 -0.33872250108465612 0 0.43877314986606192 -0.33818418946214152 0 0.44749393872662357 -0.33307274595813069 0 0.44691761172297523 -0.33872250108465612 0 0.43877314986606192 -0.33818418946214152 0 0.44749393872662357 -0.33307274595813069 0 0.43877314986606192 -0.33818418946214152 0 0.43784837531542259 -0.32788377361433518 0 0.44749393872662357 -0.33307274595813069 0 0.43784837531542259 -0.32788377361433518 0 0.44755831468875862 -0.32470483606049327 0 0.43784837531542259 -0.32788377361433518 0 0.44755831468875862 -0.32470483606049327 0 0.43602078127065758 -0.31524868357114688 0 0.45845081404400378 -0.32484725803309861 0 0.44755831468875862 -0.32470483606049327 0 0.45088585771739531 -0.31517042999936162 0 0.44755831468875862 -0.32470483606049327 0 0.45088585771739531 -0.31517042999936162 0 0.43602078127065758 -0.31524868357114688 0 0.43784837531542259 -0.32788377361433518 0 0.42583518759170652 -0.33528639298719382 0 0.41775460495295358 -0.31793141321765611 0 0.43784837531542259 -0.32788377361433518 0 0.43602078127065758 -0.31524868357114688 0 0.41775460495295358 -0.31793141321765611 0 0.43877314986606192 -0.33818418946214152 0 0.43784837531542259 -0.32788377361433518 0 0.42583518759170652 -0.33528639298719382 0 0.43877314986606192 -0.33818418946214152 0 0.42583518759170652 -0.33528639298719382 0 0.43547581015886039 -0.35374612963373181 0 0.41250416259223432 -0.33960725990233392 0 0.41775460495295358 -0.31793141321765611 0 0.39805431729583179 -0.33510365622952631 0 0.41250416259223432 -0.33960725990233392 0 0.41775460495295358 -0.31793141321765611 0 0.42583518759170652 -0.33528639298719382 0 0.41250416259223432 -0.33960725990233392 0 0.41775460495295358 -0.31793141321765611 0 0.42583518759170652 -0.33528639298719382 0 0.41250416259223432 -0.33960725990233392 0 0.42034794007649889 -0.35298104146800569 0 0.43547581015886039 -0.35374612963373181 0 0.42034794007649889 -0.35298104146800569 0 0.42578668388574042 -0.37577956855813549 0 0.44439653888602387 -0.37108278870097211 0 0.43547581015886039 -0.35374612963373181 0 0.42578668388574042 -0.37577956855813549 0 0.42583518759170652 -0.33528639298719382 0 0.43547581015886039 -0.35374612963373181 0 0.42034794007649889 -0.35298104146800569 0 0.41250416259223432 -0.33960725990233392 0 0.42034794007649889 -0.35298104146800569 0 0.40725372023151529 -0.36128310658701179 0 0.41250416259223432 -0.33960725990233392 0 0.40725372023151529 -0.36128310658701179 0 0.40725372023151529 -0.36128310658701179 0 0.42578668388574042 -0.37577956855813549 0 0.40193856510946419 -0.3832261124550107 0 0.40725372023151529 -0.36128310658701179 0 0.42578668388574042 -0.37577956855813549 0 0.42034794007649889 -0.35298104146800569 0 0.40725372023151529 -0.36128310658701179 0 0.42578668388574042 -0.37577956855813549 0 0.40725372023151529 -0.36128310658701179 0 0.39425043507280438 -0.36432915978129837 0 0.40193856510946419 -0.3832261124550107 0 0.40725372023151529 -0.36128310658701179 0 0.40193856510946419 -0.3832261124550107 0 0.39425043507280438 -0.36432915978129837 0 0.38081427771294768 -0.36737052156009248 0 0.40193856510946419 -0.3832261124550107 0 0.40725372023151529 -0.36128310658701179 0 0.38699517723729038 -0.34543689852307891 0 0.39805431729583179 -0.33510365622952631 0 0.40725372023151529 -0.36128310658701179 0 0.39425043507280438 -0.36432915978129837 0 0.38699517723729038 -0.34543689852307891 0 0.40725372023151529 -0.36128310658701179 0 0.38699517723729038 -0.34543689852307891 0 0.41250416259223432 -0.33960725990233392 0 0.40725372023151529 -0.36128310658701179 0 0.39805431729583179 -0.33510365622952631 0 0.38699517723729038 -0.34543689852307891 0 0.38081427771294768 -0.36737052156009248 0 0.37640125955739012 -0.35149107478397351 0 0.38465179156333151 -0.34360390505586791 0 0.36805061276354478 -0.3427907498460791 0 0.39425043507280438 -0.36432915978129837 0 0.38699517723729038 -0.34543689852307891 0 0.38081427771294768 -0.36737052156009248 0 0.38699517723729038 -0.34543689852307891 0 0.37640125955739012 -0.35149107478397351 0 0.38081427771294768 -0.36737052156009248 0 0.38699517723729038 -0.34543689852307891 0 0.38465179156333151 -0.34360390505586791 0 0.38699517723729038 -0.34543689852307891 0 0.37640125955739012 -0.35149107478397351 0 0.38465179156333151 -0.34360390505586791 0 0.41775460495295358 -0.31793141321765611 0 0.39401776620237461 -0.32051644503610022 0 0.39805431729583179 -0.33510365622952631 0 0.38699517723729038 -0.34543689852307891 0 0.39401776620237461 -0.32051644503610022 0 0.39805431729583179 -0.33510365622952631 0 0.38699517723729038 -0.34543689852307891 0 0.39401776620237461 -0.32051644503610022 0 0.38465179156333151 -0.34360390505586791 0 0.37858644206980091 -0.32769985780377792 0 0.36805061276354478 -0.3427907498460791 0 0.38699517723729038 -0.34543689852307891 0 0.39401776620237461 -0.32051644503610022 0 0.38465179156333151 -0.34360390505586791 0 0.39401776620237461 -0.32051644503610022 0 0.38465179156333151 -0.34360390505586791 0 0.37858644206980091 -0.32769985780377792 0 0.39401776620237461 -0.32051644503610022 0 0.37858644206980091 -0.32769985780377792 0 0.37861767820969228 -0.30691821554646831 0 0.41775460495295358 -0.31793141321765611 0 0.39401776620237461 -0.32051644503610022 0 0.40104035516745928 -0.29559599154912142 0 0.39401776620237461 -0.32051644503610022 0 0.37861767820969228 -0.30691821554646831 0 0.40104035516745928 -0.29559599154912142 0 0.39401776620237461 -0.32051644503610022 0 0.40104035516745928 -0.29559599154912142 0 0.40104035516745928 -0.29559599154912142 0 0.38498320530945151 -0.287592927137584 0 0.39655653748852282 -0.27284147297554762 0 0.38498320530945151 -0.287592927137584 0 0.37764450162479901 -0.26965755496232408 0 0.36873774536035581 -0.28861226174546889 0 0.37861767820969228 -0.30691821554646831 0 0.40104035516745928 -0.29559599154912142 0 0.38498320530945151 -0.287592927137584 0 0.37861767820969228 -0.30691821554646831 0 0.38498320530945151 -0.287592927137584 0 0.36873774536035581 -0.28861226174546889 0 0.38498320530945151 -0.287592927137584 0 0.37764450162479901 -0.26965755496232408 0 0.39655653748852282 -0.27284147297554762 0 0.39206528024080278 -0.24921397013056479 0 0.37764450162479901 -0.26965755496232408 0 0.39655653748852282 -0.27284147297554762 0 0.39206528024080278 -0.24921397013056479 0 0.37764450162479901 -0.26965755496232408 0 0.37510228513818711 -0.25237727586059511 0 0.39206528024080278 -0.24921397013056479 0 0.39655653748852282 -0.27284147297554762 0 0.40884184876520419 -0.25890250189124958 0 0.40104035516745928 -0.29559599154912142 0 0.39655653748852282 -0.27284147297554762 0 0.4136044294752057 -0.2739163227279473 0 0.39655653748852282 -0.27284147297554762 0 0.4136044294752057 -0.2739163227279473 0 0.40884184876520419 -0.25890250189124958 0 0.4148006158986044 -0.24103970595398019 0 0.40884184876520419 -0.25890250189124958 0 0.42892204251950339 -0.2594807324876427 0 0.4136044294752057 -0.2739163227279473 0 0.40884184876520419 -0.25890250189124958 0 0.42892204251950339 -0.2594807324876427 0 0.4136044294752057 -0.2739163227279473 0 0.42892204251950339 -0.2594807324876427 0 0.42611848489587972 -0.28658767974219163 0 0.44355941821905998 -0.27577600561597132 0 0.42892204251950339 -0.2594807324876427 0 0.42611848489587972 -0.28658767974219163 0 0.44743457629936911 -0.29125199491084608 0 0.42611848489587972 -0.28658767974219163 0 0.43686388954492023 -0.30206384222820981 0 0.43602078127065758 -0.31524868357114688 0 0.41775460495295358 -0.31793141321765611 0 0.42179240152309172 -0.30222108271158582 0 0.42611848489587972 -0.28658767974219163 0 0.43686388954492023 -0.30206384222820981 0 0.42179240152309172 -0.30222108271158582 0 0.43602078127065758 -0.31524868357114688 0 0.43686388954492023 -0.30206384222820981 0 0.42179240152309172 -0.30222108271158582 0 0.41775460495295358 -0.31793141321765611 0 0.40104035516745928 -0.29559599154912142 0 0.42179240152309172 -0.30222108271158582 0 0.40104035516745928 -0.29559599154912142 0 0.4136044294752057 -0.2739163227279473 0 0.42611848489587972 -0.28658767974219163 0 0.40104035516745928 -0.29559599154912142 0 0.42611848489587972 -0.28658767974219163 0 0.42179240152309172 -0.30222108271158582 0 0.5 -0.5 0 0.478892924595126 -0.45923392689990328 0 0.5 -0.41454166856117469 0 0.5 -0.5 0 0.47943423265092072 -0.49342116463239621 0 0.40014079662082208 -0.5 0 0.43983937115661631 -0.46972557693384148 0 0.47943423265092072 -0.49342116463239621 0 0.40014079662082208 -0.5 0 0.43983937115661631 -0.46972557693384148 0 0.46715606132834708 -0.47012790102379598 0 0.47943423265092072 -0.49342116463239621 0 0.5 -0.5 0 0.47943423265092072 -0.49342116463239621 0 0.478892924595126 -0.45923392689990328 0 0.46715606132834708 -0.47012790102379598 0 0.47943423265092072 -0.49342116463239621 0 0.478892924595126 -0.45923392689990328 0 0.46715606132834708 -0.47012790102379598 0 0.47943423265092072 -0.49342116463239621 0 0.478892924595126 -0.45923392689990328 0 0.45487789000577361 -0.44683463741519602 0 0.47188936358571532 -0.4304781897668572 0 0.46715606132834708 -0.47012790102379598 0 0.45487789000577361 -0.44683463741519602 0 0.46715606132834708 -0.47012790102379598 0 0.478892924595126 -0.45923392689990328 0 0.45487789000577361 -0.44683463741519602 0 0.43983937115661631 -0.46972557693384148 0 0.46715606132834708 -0.47012790102379598 0 0.45487789000577361 -0.44683463741519602 0 0.43983937115661631 -0.46972557693384148 0 0.45487789000577361 -0.44683463741519602 0 0.43095981599733307 -0.44753658110846528 0 0.45487789000577361 -0.44683463741519602 0 0.43408281430989271 -0.43319973453275151 0 0.43095981599733307 -0.44753658110846528 0 0.45487789000577361 -0.44683463741519602 0 0.44259971868320003 -0.42354137380659601 0 0.45487789000577361 -0.44683463741519602 0 0.44259971868320003 -0.42354137380659601 0 0.43408281430989271 -0.43319973453275151 0 0.45487789000577361 -0.44683463741519602 0 0.44259971868320003 -0.42354137380659601 0 0.45959372781066021 -0.42263882295877442 0 0.44259971868320003 -0.42354137380659601 0 0.45186952978880229 -0.40983589673226128 0 0.45959372781066021 -0.42263882295877442 0 0.44259971868320003 -0.42354137380659601 0 0.45186952978880229 -0.40983589673226128 0 0.44161148704613862 -0.40579593671517361 0 0.44259971868320003 -0.42354137380659601 0 0.44161148704613862 -0.40579593671517361 0 0.43098246877755192 -0.41858878846052949 0 0.45186952978880229 -0.40983589673226128 0 0.45959372781066021 -0.42263882295877442 0 0.46285261119418991 -0.40477249250038388 0 0.45959372781066021 -0.42263882295877442 0 0.4735191169341651 -0.41539713514472942 0 0.46285261119418991 -0.40477249250038388 0 0.45959372781066021 -0.42263882295877442 0 0.47188936358571532 -0.4304781897668572 0 0.4735191169341651 -0.41539713514472942 0 0.45487789000577361 -0.44683463741519602 0 0.45959372781066021 -0.42263882295877442 0 0.47188936358571532 -0.4304781897668572 0 0.5 -0.41454166856117469 0 0.4735191169341651 -0.41539713514472942 0 0.4680243894331878 -0.39009447735167219 0 0.478892924595126 -0.45923392689990328 0 0.47188936358571532 -0.4304781897668572 0 0.5 -0.41454166856117469 0 0.47188936358571532 -0.4304781897668572 0 0.5 -0.41454166856117469 0 0.4735191169341651 -0.41539713514472942 0 0.5 -0.35237408365171952 0 0.5 -0.41454166856117469 0 0.4680243894331878 -0.39009447735167219 0 0.4735191169341651 -0.41539713514472942 0 0.4680243894331878 -0.39009447735167219 0 0.46252966193221051 -0.36479181955861489 0 0.45518384933885458 -0.37953704158418422 0 0.4680243894331878 -0.39009447735167219 0 0.45518384933885458 -0.37953704158418422 0 0.4680243894331878 -0.39009447735167219 0 0.44431964753996511 -0.39027603052925969 0 0.46252966193221051 -0.36479181955861489 0 0.4680243894331878 -0.39009447735167219 0 0.4735191169341651 -0.41539713514472942 0 0.4680243894331878 -0.39009447735167219 0 0.46285261119418991 -0.40477249250038388 0 0.4680243894331878 -0.39009447735167219 0 0.46285261119418991 -0.40477249250038388 0 0.44431964753996511 -0.39027603052925969 0 0.46285261119418991 -0.40477249250038388 0 0.44431964753996511 -0.39027603052925969 0 0.45186952978880229 -0.40983589673226128 0 0.44161148704613862 -0.40579593671517361 0 0.44431964753996511 -0.39027603052925969 0 0.45186952978880229 -0.40983589673226128 0 0.46285261119418991 -0.40477249250038388 0 0.44431964753996511 -0.39027603052925969 0 0.44439653888602387 -0.37108278870097211 0 0.44431964753996511 -0.39027603052925969 0 0.42578668388574042 -0.37577956855813549 0 0.44439653888602387 -0.37108278870097211 0 0.45518384933885458 -0.37953704158418422 0 0.44431964753996511 -0.39027603052925969 0 0.44431964753996511 -0.39027603052925969 0 0.42578668388574042 -0.37577956855813549 0 0.42627525148907153 -0.39512359141131242 0 0.44431964753996511 -0.39027603052925969 0 0.42578668388574042 -0.37577956855813549 0 0.44161148704613862 -0.40579593671517361 0 0.44431964753996511 -0.39027603052925969 0 0.42627525148907153 -0.39512359141131242 0 0.44161148704613862 -0.40579593671517361 0 0.42627525148907153 -0.39512359141131242 0 0.41380476734409732 -0.40903711363024231 0 0.41288573556315727 -0.39366710087554208 0 0.39662340998741341 -0.40516911832300972 0 0.41380476734409732 -0.40903711363024231 0 0.42627525148907153 -0.39512359141131242 0 0.41288573556315727 -0.39366710087554208 0 0.41380476734409732 -0.40903711363024231 0 0.42578668388574042 -0.37577956855813549 0 0.41288573556315727 -0.39366710087554208 0 0.40193856510946419 -0.3832261124550107 0 0.42578668388574042 -0.37577956855813549 0 0.42627525148907153 -0.39512359141131242 0 0.41288573556315727 -0.39366710087554208 0 0.38081427771294768 -0.36737052156009248 0 0.37463337818860382 -0.38930414459710588 0 0.3737028077843495 -0.38742295831448542 0 0.38081427771294768 -0.36737052156009248 0 0.38897026210220897 -0.39170162293651239 0 0.37463337818860382 -0.38930414459710588 0 0.38081427771294768 -0.36737052156009248 0 0.37463337818860382 -0.38930414459710588 0 0.38081427771294768 -0.36737052156009248 0 0.40193856510946419 -0.3832261124550107 0 0.38897026210220897 -0.39170162293651239 0 0.38599804764205609 -0.41227829054531151 0 0.37463337818860382 -0.38930414459710588 0 0.38897026210220897 -0.39170162293651239 0 0.39662340998741341 -0.40516911832300972 0 0.38599804764205609 -0.41227829054531151 0 0.38599804764205609 -0.41227829054531151 0 0.36755341006792419 -0.41442821452601158 0 0.37463337818860382 -0.38930414459710588 0 0.38897026210220897 -0.39170162293651239 0 0.38599804764205609 -0.41227829054531151 0 0.37463337818860382 -0.38930414459710588 0 0.40193856510946419 -0.3832261124550107 0 0.38897026210220897 -0.39170162293651239 0 0.39662340998741341 -0.40516911832300972 0 0.41288573556315727 -0.39366710087554208 0 0.40193856510946419 -0.3832261124550107 0 0.39662340998741341 -0.40516911832300972 0 0.40193856510946419 -0.3832261124550107 0 0.39662340998741341 -0.40516911832300972 0 0.38599804764205609 -0.41227829054531151 0 0.41380476734409732 -0.40903711363024231 0 0.39662340998741341 -0.40516911832300972 0 0.38599804764205609 -0.41227829054531151 0 0.41380476734409732 -0.40903711363024231 0 0.40147331832312588 -0.42054231308375889 0 0.38599804764205609 -0.41227829054531151 0 0.41380476734409732 -0.40903711363024231 0 0.38599804764205609 -0.41227829054531151 0 0.36755341006792419 -0.41442821452601158 0 0.38599804764205609 -0.41227829054531151 0 0.37837193070639508 -0.43074191130029282 0 0.36755341006792419 -0.41442821452601158 0 0.38599804764205609 -0.41227829054531151 0 0.37837193070639508 -0.43074191130029282 0 0.39716653888589531 -0.43485585418744782 0 0.37837193070639508 -0.43074191130029282 0 0.39716653888589531 -0.43485585418744782 0 0.38455236834147782 -0.44235831893697952 0 0.38599804764205609 -0.41227829054531151 0 0.39716653888589531 -0.43485585418744782 0 0.40147331832312588 -0.42054231308375889 0 0.38599804764205609 -0.41227829054531151 0 0.39716653888589531 -0.43485585418744782 0 0.40147331832312588 -0.42054231308375889 0 0.39716653888589531 -0.43485585418744782 0 0.40988830344794153 -0.42850982814637428 0 0.39716653888589531 -0.43485585418744782 0 0.40988830344794153 -0.42850982814637428 0 0.41424956646142452 -0.44145335337101582 0 0.40988830344794153 -0.42850982814637428 0 0.42255857874347952 -0.42798536962106742 0 0.41424956646142452 -0.44145335337101582 0 0.40147331832312588 -0.42054231308375889 0 0.40988830344794153 -0.42850982814637428 0 0.41380476734409732 -0.40903711363024231 0 0.40988830344794153 -0.42850982814637428 0 0.41380476734409732 -0.40903711363024231 0 0.42255857874347952 -0.42798536962106742 0 0.44161148704613862 -0.40579593671517361 0 0.41380476734409732 -0.40903711363024231 0 0.43098246877755192 -0.41858878846052949 0 0.44161148704613862 -0.40579593671517361 0 0.41380476734409732 -0.40903711363024231 0 0.41380476734409732 -0.40903711363024231 0 0.43098246877755192 -0.41858878846052949 0 0.42255857874347952 -0.42798536962106742 0 0.43408281430989271 -0.43319973453275151 0 0.42255857874347952 -0.42798536962106742 0 0.43095981599733307 -0.44753658110846528 0 0.44259971868320003 -0.42354137380659601 0 0.43098246877755192 -0.41858878846052949 0 0.43408281430989271 -0.43319973453275151 0 0.43098246877755192 -0.41858878846052949 0 0.43408281430989271 -0.43319973453275151 0 0.42255857874347952 -0.42798536962106742 0 0.42255857874347952 -0.42798536962106742 0 0.43095981599733307 -0.44753658110846528 0 0.41424956646142452 -0.44145335337101582 0 0.43983937115661631 -0.46972557693384148 0 0.42706067288056998 -0.45966910190407051 0 0.41707216494033877 -0.46659444091922031 0 0.43983937115661631 -0.46972557693384148 0 0.43095981599733307 -0.44753658110846528 0 0.42706067288056998 -0.45966910190407051 0 0.43095981599733307 -0.44753658110846528 0 0.42706067288056998 -0.45966910190407051 0 0.42037133942799187 -0.45481980865475502 0 0.42037133942799187 -0.45481980865475502 0 0.41707216494033877 -0.46659444091922031 0 0.40833503012973449 -0.45743341782958391 0 0.42706067288056998 -0.45966910190407051 0 0.42037133942799187 -0.45481980865475502 0 0.41707216494033877 -0.46659444091922031 0 0.41707216494033877 -0.46659444091922031 0 0.40833503012973449 -0.45743341782958391 0 0.39424227281986102 -0.46676003377889269 0 0.43095981599733307 -0.44753658110846528 0 0.42037133942799187 -0.45481980865475502 0 0.41424956646142452 -0.44145335337101582 0 0.42037133942799187 -0.45481980865475502 0 0.40833503012973449 -0.45743341782958391 0 0.41424956646142452 -0.44145335337101582 0 0.39716653888589531 -0.43485585418744782 0 0.40833503012973449 -0.45743341782958391 0 0.41424956646142452 -0.44145335337101582 0 0.39716653888589531 -0.43485585418744782 0 0.39345157537004599 -0.45057062730194619 0 0.38455236834147782 -0.44235831893697952 0 0.39716653888589531 -0.43485585418744782 0 0.40833503012973449 -0.45743341782958391 0 0.39345157537004599 -0.45057062730194619 0 0.39716653888589531 -0.43485585418744782 0 0.40833503012973449 -0.45743341782958391 0 0.39345157537004599 -0.45057062730194619 0 0.38455236834147782 -0.44235831893697952 0 0.38182359321740972 -0.45292134106576409 0 0.38455236834147782 -0.44235831893697952 0 0.38182359321740972 -0.45292134106576409 0 0.37194820352764257 -0.4427018608294464 0 0.37837193070639508 -0.43074191130029282 0 0.38455236834147782 -0.44235831893697952 0 0.37194820352764257 -0.4427018608294464 0 0.38182359321740972 -0.45292134106576409 0 0.39424227281986102 -0.46676003377889269 0 0.37141238069938332 -0.46692562663856529 0 0.39345157537004599 -0.45057062730194619 0 0.38182359321740972 -0.45292134106576409 0 0.39424227281986102 -0.46676003377889269 0 0.39424227281986102 -0.46676003377889269 0 0.37141238069938332 -0.46692562663856529 0 0.40833503012973449 -0.45743341782958391 0 0.39345157537004599 -0.45057062730194619 0 0.39424227281986102 -0.46676003377889269 0 0.41707216494033877 -0.46659444091922031 0 0.39424227281986102 -0.46676003377889269 0 0.41707216494033877 -0.46659444091922031 0 0.39424227281986102 -0.46676003377889269 0 0.40014079662082208 -0.5 0 0.39424227281986102 -0.46676003377889269 0 0.40014079662082208 -0.5 0 0.37141238069938332 -0.46692562663856529 0 0.43983937115661631 -0.46972557693384148 0 0.41707216494033877 -0.46659444091922031 0 0.40014079662082208 -0.5 0 0.40014079662082208 -0.5 0 0.32546065004022617 -0.5 0 0.3462765218470546 -0.48033279556006703 0 0.32546065004022617 -0.5 0 0.3462765218470546 -0.48033279556006703 0 0.30631021868456298 -0.48072311486568892 0 0.3462765218470546 -0.48033279556006703 0 0.32575259645842791 -0.46725681235791028 0 0.30631021868456298 -0.48072311486568892 0 0.3462765218470546 -0.48033279556006703 0 0.3485824885789055 -0.46709121949823779 0 0.32575259645842791 -0.46725681235791028 0 0.40014079662082208 -0.5 0 0.3462765218470546 -0.48033279556006703 0 0.37141238069938332 -0.46692562663856529 0 0.3462765218470546 -0.48033279556006703 0 0.3485824885789055 -0.46709121949823779 0 0.37141238069938332 -0.46692562663856529 0 0.3485824885789055 -0.46709121949823779 0 0.37141238069938332 -0.46692562663856529 0 0.35324569388809701 -0.44989359131069062 0 0.3485824885789055 -0.46709121949823779 0 0.35324569388809701 -0.44989359131069062 0 0.33806214337105372 -0.45777686618061397 0 0.38182359321740972 -0.45292134106576409 0 0.37141238069938332 -0.46692562663856529 0 0.35324569388809701 -0.44989359131069062 0 0.3485824885789055 -0.46709121949823779 0 0.37141238069938332 -0.46692562663856529 0 0.36060935802898147 -0.43906997082244181 0 0.37194820352764257 -0.4427018608294464 0 0.35324569388809701 -0.44989359131069062 0 0.38182359321740972 -0.45292134106576409 0 0.35324569388809701 -0.44989359131069062 0 0.37837193070639508 -0.43074191130029282 0 0.36060935802898147 -0.43906997082244181 0 0.37194820352764257 -0.4427018608294464 0 0.38182359321740972 -0.45292134106576409 0 0.37194820352764257 -0.4427018608294464 0 0.35324569388809701 -0.44989359131069062 0 0.36060935802898147 -0.43906997082244181 0 0.35324569388809701 -0.44989359131069062 0 0.34315104194743368 -0.43483422324315929 0 0.32466779455878442 -0.44686584155561709 0 0.32761501992215097 -0.43116249501185328 0 0.34315104194743368 -0.43483422324315929 0 0.35324569388809701 -0.44989359131069062 0 0.33806214337105372 -0.45777686618061397 0 0.32466779455878442 -0.44686584155561709 0 0.35324569388809701 -0.44989359131069062 0 0.32466779455878442 -0.44686584155561709 0 0.34315104194743368 -0.43483422324315929 0 0.35324569388809701 -0.44989359131069062 0 0.32466779455878442 -0.44686584155561709 0 0.3485824885789055 -0.46709121949823779 0 0.32575259645842791 -0.46725681235791028 0 0.3485824885789055 -0.46709121949823779 0 0.33806214337105372 -0.45777686618061397 0 0.32575259645842791 -0.46725681235791028 0 0.33806214337105372 -0.45777686618061397 0 0.32575259645842791 -0.46725681235791028 0 0.32466779455878442 -0.44686584155561709 0 0.32575259645842791 -0.46725681235791028 0 0.30904716904302271 -0.45792120175055678 0 0.30631021868456298 -0.48072311486568892 0 0.32575259645842791 -0.46725681235791028 0 0.32466779455878442 -0.44686584155561709 0 0.30904716904302271 -0.45792120175055678 0 0.32466779455878442 -0.44686584155561709 0 0.31800868577585262 -0.43516031519895321 0 0.30735360635596409 -0.43632211706289747 0 0.32466779455878442 -0.44686584155561709 0 0.32761501992215097 -0.43116249501185328 0 0.31800868577585262 -0.43516031519895321 0 0.32761501992215097 -0.43116249501185328 0 0.32339131420283213 -0.41656724990055422 0 0.31239832226651099 -0.42629080716544471 0 0.32761501992215097 -0.43116249501185328 0 0.31800868577585262 -0.43516031519895321 0 0.31239832226651099 -0.42629080716544471 0 0.31800868577585262 -0.43516031519895321 0 0.31239832226651099 -0.42629080716544471 0 0.30735360635596409 -0.43632211706289747 0 0.32339131420283213 -0.41656724990055422 0 0.31120060169272079 -0.4133373498197 0 0.31239832226651099 -0.42629080716544471 0 0.32339131420283213 -0.41656724990055422 0 0.319673984964159 -0.40346676889879052 0 0.31120060169272079 -0.4133373498197 0 0.319673984964159 -0.40346676889879052 0 0.30884060304287331 -0.40229515593698711 0 0.31120060169272079 -0.4133373498197 0 0.32339131420283213 -0.41656724990055422 0 0.33281994217864741 -0.40778505865636938 0 0.319673984964159 -0.40346676889879052 0 0.32761501992215097 -0.43116249501185328 0 0.32339131420283213 -0.41656724990055422 0 0.33796042338316851 -0.41787760036937549 0 0.32339131420283213 -0.41656724990055422 0 0.33281994217864741 -0.40778505865636938 0 0.33796042338316851 -0.41787760036937549 0 0.33281994217864741 -0.40778505865636938 0 0.33796042338316851 -0.41787760036937549 0 0.34601675315157321 -0.40486547886918423 0 0.32761501992215097 -0.43116249501185328 0 0.33796042338316851 -0.41787760036937549 0 0.34315104194743368 -0.43483422324315929 0 0.33796042338316851 -0.41787760036937549 0 0.34315104194743368 -0.43483422324315929 0 0.35231855835687692 -0.42655250224024699 0 0.36060935802898147 -0.43906997082244181 0 0.34315104194743368 -0.43483422324315929 0 0.35231855835687692 -0.42655250224024699 0 0.37837193070639508 -0.43074191130029282 0 0.36060935802898147 -0.43906997082244181 0 0.36755341006792419 -0.41442821452601158 0 0.36060935802898147 -0.43906997082244181 0 0.35231855835687692 -0.42655250224024699 0 0.36755341006792419 -0.41442821452601158 0 0.36060935802898147 -0.43906997082244181 0 0.36755341006792419 -0.41442821452601158 0 0.33796042338316851 -0.41787760036937549 0 0.35231855835687692 -0.42655250224024699 0 0.36755341006792419 -0.41442821452601158 0 0.33796042338316851 -0.41787760036937549 0 0.36755341006792419 -0.41442821452601158 0 0.34601675315157321 -0.40486547886918423 0 0.33796042338316851 -0.41787760036937549 0 0.36755341006792419 -0.41442821452601158 0 0.36755341006792419 -0.41442821452601158 0 0.34601675315157321 -0.40486547886918423 0 0.35566250251704978 -0.3975177511027051 0 0.34601675315157321 -0.40486547886918423 0 0.34667365318154342 -0.39629832909528578 0 0.35566250251704978 -0.3975177511027051 0 0.34667365318154342 -0.39629832909528578 0 0.34795812186604658 -0.38666189116531141 0 0.33705723519150399 -0.3961481952439429 0 0.34667365318154342 -0.39629832909528578 0 0.35566250251704978 -0.3975177511027051 0 0.34795812186604658 -0.38666189116531141 0 0.36755341006792419 -0.41442821452601158 0 0.35566250251704978 -0.3975177511027051 0 0.36706103815962848 -0.39187921332532882 0 0.36755341006792419 -0.41442821452601158 0 0.37463337818860382 -0.38930414459710588 0 0.36755341006792419 -0.41442821452601158 0 0.36706103815962848 -0.39187921332532882 0 0.37463337818860382 -0.38930414459710588 0 0.35566250251704978 -0.3975177511027051 0 0.36706103815962848 -0.39187921332532882 0 0.35924801608749379 -0.38543857686598643 0 0.38081427771294768 -0.36737052156009248 0 0.36848073339739068 -0.37517807712711049 0 0.3737028077843495 -0.38742295831448542 0 0.36848073339739068 -0.37517807712711049 0 0.3737028077843495 -0.38742295831448542 0 0.36599997940964812 -0.38379980358563692 0 0.36706103815962848 -0.39187921332532882 0 0.3737028077843495 -0.38742295831448542 0 0.36599997940964812 -0.38379980358563692 0 0.36706103815962848 -0.39187921332532882 0 0.37463337818860382 -0.38930414459710588 0 0.3737028077843495 -0.38742295831448542 0 0.37463337818860382 -0.38930414459710588 0 0.3737028077843495 -0.38742295831448542 0 0.36706103815962848 -0.39187921332532882 0 0.36599997940964812 -0.38379980358563692 0 0.35924801608749379 -0.38543857686598643 0 0.36599997940964812 -0.38379980358563692 0 0.36207090148421361 -0.37959838259465167 0 0.35924801608749379 -0.38543857686598643 0 0.36848073339739068 -0.37517807712711049 0 0.36599997940964812 -0.38379980358563692 0 0.36207090148421361 -0.37959838259465167 0 0.36848073339739068 -0.37517807712711049 0 0.36207090148421361 -0.37959838259465167 0 0.3554566368260581 -0.37480617727887811 0 0.36207090148421361 -0.37959838259465167 0 0.35924801608749379 -0.38543857686598643 0 0.3554566368260581 -0.37480617727887811 0 0.35924801608749379 -0.38543857686598643 0 0.34795812186604658 -0.38666189116531141 0 0.3554566368260581 -0.37480617727887811 0 0.35566250251704978 -0.3975177511027051 0 0.35924801608749379 -0.38543857686598643 0 0.34795812186604658 -0.38666189116531141 0 0.34795812186604658 -0.38666189116531141 0 0.34537995690420659 -0.3737828605913362 0 0.3554566368260581 -0.37480617727887811 0 0.34795812186604658 -0.38666189116531141 0 0.33323562740676532 -0.37769939737979058 0 0.34537995690420659 -0.3737828605913362 0 0.34795812186604658 -0.38666189116531141 0 0.33323562740676532 -0.37769939737979058 0 0.33705723519150399 -0.3961481952439429 0 0.33323562740676532 -0.37769939737979058 0 0.33705723519150399 -0.3961481952439429 0 0.319673984964159 -0.40346676889879052 0 0.33281994217864741 -0.40778505865636938 0 0.33705723519150399 -0.3961481952439429 0 0.319673984964159 -0.40346676889879052 0 0.33281994217864741 -0.40778505865636938 0 0.34601675315157321 -0.40486547886918423 0 0.33705723519150399 -0.3961481952439429 0 0.34601675315157321 -0.40486547886918423 0 0.34667365318154342 -0.39629832909528578 0 0.33705723519150399 -0.3961481952439429 0 0.33323562740676532 -0.37769939737979058 0 0.319673984964159 -0.40346676889879052 0 0.31422368515007948 -0.393427126581603 0 0.319673984964159 -0.40346676889879052 0 0.31422368515007948 -0.393427126581603 0 0.30884060304287331 -0.40229515593698711 0 0.33323562740676532 -0.37769939737979058 0 0.319673984964159 -0.40346676889879052 0 0.31422368515007948 -0.393427126581603 0 0.30591552541026101 -0.37751124227982003 0 0.32002671755222051 -0.36641101040373808 0 0.33323562740676532 -0.37769939737979058 0 0.31422368515007948 -0.393427126581603 0 0.32002671755222051 -0.36641101040373808 0 0.31422368515007948 -0.393427126581603 0 0.32002671755222051 -0.36641101040373808 0 0.30591552541026101 -0.37751124227982003 0 0.29934269892459558 -0.39453707190143028 0 0.28871394442674109 -0.38265385864092483 0 0.31422368515007948 -0.393427126581603 0 0.30591552541026101 -0.37751124227982003 0 0.29934269892459558 -0.39453707190143028 0 0.31422368515007948 -0.393427126581603 0 0.30884060304287331 -0.40229515593698711 0 0.29934269892459558 -0.39453707190143028 0 0.30884060304287331 -0.40229515593698711 0 0.29934269892459558 -0.39453707190143028 0 0.29896657827583012 -0.40866065312134409 0 0.28871394442674109 -0.38265385864092483 0 0.27786210523133942 -0.40981541802129928 0 0.29934269892459558 -0.39453707190143028 0 0.27786210523133942 -0.40981541802129928 0 0.29896657827583012 -0.40866065312134409 0 0.29934269892459558 -0.39453707190143028 0 0.28871394442674109 -0.38265385864092483 0 0.27786210523133942 -0.40981541802129928 0 0.28871394442674109 -0.38265385864092483 0 0.26416245427686541 -0.38049931320234009 0 0.26125098829365018 -0.39969694482297641 0 0.28871394442674109 -0.38265385864092483 0 0.26416245427686541 -0.38049931320234009 0 0.27571190406721402 -0.36345127203525351 0 0.26416245427686541 -0.38049931320234009 0 0.24971336314328341 -0.36520417674804972 0 0.24502858373403441 -0.39146921073642488 0 0.26416245427686541 -0.38049931320234009 0 0.26125098829365018 -0.39969694482297641 0 0.24502858373403441 -0.39146921073642488 0 0.28871394442674109 -0.38265385864092483 0 0.26125098829365018 -0.39969694482297641 0 0.27786210523133942 -0.40981541802129928 0 0.26125098829365018 -0.39969694482297641 0 0.25610826383841628 -0.42120346698794331 0 0.2333640889907381 -0.41241884790723538 0 0.26125098829365018 -0.39969694482297641 0 0.27786210523133942 -0.40981541802129928 0 0.25610826383841628 -0.42120346698794331 0 0.25610826383841628 -0.42120346698794331 0 0.26701026603593758 -0.43697697740167368 0 0.2518592606704963 -0.43815060111373921 0 0.27786210523133942 -0.40981541802129928 0 0.26701026603593758 -0.43697697740167368 0 0.28078102790119369 -0.4274552938509788 0 0.27786210523133942 -0.40981541802129928 0 0.26701026603593758 -0.43697697740167368 0 0.27786210523133942 -0.40981541802129928 0 0.25610826383841628 -0.42120346698794331 0 0.26701026603593758 -0.43697697740167368 0 0.26701026603593758 -0.43697697740167368 0 0.28078102790119369 -0.4274552938509788 0 0.27712236562531017 -0.4375193999175232 0 0.28078102790119369 -0.4274552938509788 0 0.28865243891263809 -0.43215364344327012 0 0.27712236562531017 -0.4375193999175232 0 0.28865243891263809 -0.43215364344327012 0 0.28959476197880307 -0.44168956347039928 0 0.27712236562531017 -0.4375193999175232 0 0.28865243891263809 -0.43215364344327012 0 0.29503220707493127 -0.43614369036708622 0 0.29829711678041942 -0.42866378264525379 0 0.28865243891263809 -0.43215364344327012 0 0.29503220707493127 -0.43614369036708622 0 0.28959476197880307 -0.44168956347039928 0 0.28865243891263809 -0.43215364344327012 0 0.29108715411517122 -0.42145013040837909 0 0.29829711678041942 -0.42866378264525379 0 0.28078102790119369 -0.4274552938509788 0 0.28865243891263809 -0.43215364344327012 0 0.29108715411517122 -0.42145013040837909 0 0.27786210523133942 -0.40981541802129928 0 0.28078102790119369 -0.4274552938509788 0 0.29108715411517122 -0.42145013040837909 0 0.27786210523133942 -0.40981541802129928 0 0.29108715411517122 -0.42145013040837909 0 0.29896657827583012 -0.40866065312134409 0 0.29108715411517122 -0.42145013040837909 0 0.30377653118007591 -0.4205559058691733 0 0.29896657827583012 -0.40866065312134409 0 0.30377653118007591 -0.4205559058691733 0 0.29896657827583012 -0.40866065312134409 0 0.31120060169272079 -0.4133373498197 0 0.30884060304287331 -0.40229515593698711 0 0.29896657827583012 -0.40866065312134409 0 0.31120060169272079 -0.4133373498197 0 0.30377653118007591 -0.4205559058691733 0 0.31120060169272079 -0.4133373498197 0 0.31239832226651099 -0.42629080716544471 0 0.30377653118007591 -0.4205559058691733 0 0.31239832226651099 -0.42629080716544471 0 0.29829711678041942 -0.42866378264525379 0 0.31239832226651099 -0.42629080716544471 0 0.30735360635596409 -0.43632211706289747 0 0.29829711678041942 -0.42866378264525379 0 0.29503220707493127 -0.43614369036708622 0 0.30735360635596409 -0.43632211706289747 0 0.29829711678041942 -0.42866378264525379 0 0.29108715411517122 -0.42145013040837909 0 0.30377653118007591 -0.4205559058691733 0 0.29829711678041942 -0.42866378264525379 0 0.32466779455878442 -0.44686584155561709 0 0.30904716904302271 -0.45792120175055678 0 0.29608989522947149 -0.44383809180054362 0 0.32466779455878442 -0.44686584155561709 0 0.29608989522947149 -0.44383809180054362 0 0.32466779455878442 -0.44686584155561709 0 0.30735360635596409 -0.43632211706289747 0 0.29608989522947149 -0.44383809180054362 0 0.30904716904302271 -0.45792120175055678 0 0.29860320416278402 -0.45529674645956592 0 0.29608989522947149 -0.44383809180054362 0 0.29503220707493127 -0.43614369036708622 0 0.30735360635596409 -0.43632211706289747 0 0.29608989522947149 -0.44383809180054362 0 0.30904716904302271 -0.45792120175055678 0 0.29721119201091789 -0.46522563712477349 0 0.30631021868456298 -0.48072311486568892 0 0.30904716904302271 -0.45792120175055678 0 0.29721119201091789 -0.46522563712477349 0 0.29860320416278402 -0.45529674645956592 0 0.28932919617959602 -0.45338424297023883 0 0.27756010650442758 -0.45518222858252849 0 0.28072062580449653 -0.47155582870540619 0 0.29721119201091789 -0.46522563712477349 0 0.28932919617959602 -0.45338424297023883 0 0.28072062580449653 -0.47155582870540619 0 0.29721119201091789 -0.46522563712477349 0 0.29860320416278402 -0.45529674645956592 0 0.28932919617959602 -0.45338424297023883 0 0.28932919617959602 -0.45338424297023883 0 0.28959476197880307 -0.44168956347039928 0 0.27756010650442758 -0.45518222858252849 0 0.29860320416278402 -0.45529674645956592 0 0.28932919617959602 -0.45338424297023883 0 0.29608989522947149 -0.44383809180054362 0 0.28932919617959602 -0.45338424297023883 0 0.29608989522947149 -0.44383809180054362 0 0.28959476197880307 -0.44168956347039928 0 0.29503220707493127 -0.43614369036708622 0 0.29608989522947149 -0.44383809180054362 0 0.28959476197880307 -0.44168956347039928 0 0.28959476197880307 -0.44168956347039928 0 0.26138620688844749 -0.44792543592233808 0 0.26701026603593758 -0.43697697740167368 0 0.27712236562531017 -0.4375193999175232 0 0.26138620688844749 -0.44792543592233808 0 0.28959476197880307 -0.44168956347039928 0 0.26138620688844749 -0.44792543592233808 0 0.27756010650442758 -0.45518222858252849 0 0.28959476197880307 -0.44168956347039928 0 0.27712236562531017 -0.4375193999175232 0 0.26138620688844749 -0.44792543592233808 0 0.26701026603593758 -0.43697697740167368 0 0.26138620688844749 -0.44792543592233808 0 0.2518592606704963 -0.43815060111373921 0 0.26138620688844749 -0.44792543592233808 0 0.26339579246569877 -0.46312143350125029 0 0.23317765179809191 -0.45416130837427687 0 0.26138620688844749 -0.44792543592233808 0 0.26339579246569877 -0.46312143350125029 0 0.27756010650442758 -0.45518222858252849 0 0.26339579246569877 -0.46312143350125029 0 0.27756010650442758 -0.45518222858252849 0 0.28072062580449653 -0.47155582870540619 0 0.28072062580449653 -0.47155582870540619 0 0.2532296876789632 -0.47497352743918242 0 0.27004646425256568 -0.5 0 0.26339579246569877 -0.46312143350125029 0 0.28072062580449653 -0.47155582870540619 0 0.2532296876789632 -0.47497352743918242 0 0.32546065004022617 -0.5 0 0.27004646425256568 -0.5 0 0.30631021868456298 -0.48072311486568892 0 0.28072062580449653 -0.47155582870540619 0 0.27004646425256568 -0.5 0 0.30631021868456298 -0.48072311486568892 0 0.29721119201091789 -0.46522563712477349 0 0.28072062580449653 -0.47155582870540619 0 0.30631021868456298 -0.48072311486568892 0 0.33743581475864359 -0.28536266187014298 0 0.3388307833371127 -0.27886836189579028 0 0.34706744656536048 -0.28007479224216619 0 0.33743581475864359 -0.28536266187014298 0 0.3388307833371127 -0.27886836189579028 0 0.33743581475864359 -0.28536266187014298 0 0.33163278235650262 -0.31237877804800812 0 0.33743581475864359 -0.28536266187014298 0 0.33163278235650262 -0.31237877804800812 0 0.34308905326158867 -0.30070827197480321 0 0.33743581475864359 -0.28536266187014298 0 0.33163278235650262 -0.31237877804800812 0 0.32364365619397351 -0.29600562892690968 0 0.33163278235650262 -0.31237877804800812 0 0.32364365619397351 -0.29600562892690968 0 0.30954970221622308 -0.30462347215273478 0 0.31296692944630888 -0.29314018565426941 0 0.32364365619397351 -0.29600562892690968 0 0.30954970221622308 -0.30462347215273478 0 0.31296692944630888 -0.29314018565426941 0 0.32364365619397351 -0.29600562892690968 0 0.31569414790308259 -0.28159305760617132 0 0.33743581475864359 -0.28536266187014298 0 0.32364365619397351 -0.29600562892690968 0 0.31569414790308259 -0.28159305760617132 0 0.33743581475864359 -0.28536266187014298 0 0.31569414790308259 -0.28159305760617132 0 0.33743581475864359 -0.28536266187014298 0 0.31569414790308259 -0.28159305760617132 0 0.32852563272885182 -0.27784073863383552 0 0.31569414790308259 -0.28159305760617132 0 0.31275786215232049 -0.27168837282467972 0 0.32066228436037369 -0.27402337931129878 0 0.31275786215232049 -0.27168837282467972 0 0.32001527731196461 -0.26686042829596718 0 0.31054181011664339 -0.26140137874582919 0 0.31275786215232049 -0.27168837282467972 0 0.32001527731196461 -0.26686042829596718 0 0.32066228436037369 -0.27402337931129878 0 0.32001527731196461 -0.26686042829596718 0 0.32631850170564902 -0.27213429919584042 0 0.32066228436037369 -0.27402337931129878 0 0.32001527731196461 -0.26686042829596718 0 0.32631850170564902 -0.27213429919584042 0 0.32861545200372733 -0.26431566092564712 0 0.32631850170564902 -0.27213429919584042 0 0.32066228436037369 -0.27402337931129878 0 0.32852563272885182 -0.27784073863383552 0 0.31569414790308259 -0.28159305760617132 0 0.32066228436037369 -0.27402337931129878 0 0.32852563272885182 -0.27784073863383552 0 0.30517917142926537 -0.24716040808135001 0 0.322544075342931 -0.25649048942400782 0 0.31054181011664339 -0.26140137874582919 0 0.32001527731196461 -0.26686042829596718 0 0.322544075342931 -0.25649048942400782 0 0.31054181011664339 -0.26140137874582919 0 0.32001527731196461 -0.26686042829596718 0 0.322544075342931 -0.25649048942400782 0 0.32861545200372733 -0.26431566092564712 0 0.322544075342931 -0.25649048942400782 0 0.32861545200372733 -0.26431566092564712 0 0.33700232267718733 -0.25494009872172468 0 0.32861545200372733 -0.26431566092564712 0 0.33700232267718733 -0.25494009872172468 0 0.3370936559567923 -0.26597622971595652 0 0.33700232267718733 -0.25494009872172468 0 0.3370936559567923 -0.26597622971595652 0 0.34612034525793539 -0.26165354425485998 0 0.32852563272885182 -0.27784073863383552 0 0.33374486488877292 -0.2728357791174113 0 0.3388307833371127 -0.27886836189579028 0 0.33743581475864359 -0.28536266187014298 0 0.32852563272885182 -0.27784073863383552 0 0.3388307833371127 -0.27886836189579028 0 0.32631850170564902 -0.27213429919584042 0 0.32852563272885182 -0.27784073863383552 0 0.33374486488877292 -0.2728357791174113 0 0.32631850170564902 -0.27213429919584042 0 0.32861545200372733 -0.26431566092564712 0 0.33374486488877292 -0.2728357791174113 0 0.32861545200372733 -0.26431566092564712 0 0.33374486488877292 -0.2728357791174113 0 0.3370936559567923 -0.26597622971595652 0 0.34349817463331772 -0.27223575233246988 0 0.3370936559567923 -0.26597622971595652 0 0.34612034525793539 -0.26165354425485998 0 0.33374486488877292 -0.2728357791174113 0 0.34349817463331772 -0.27223575233246988 0 0.3370936559567923 -0.26597622971595652 0 0.33374486488877292 -0.2728357791174113 0 0.34349817463331772 -0.27223575233246988 0 0.3388307833371127 -0.27886836189579028 0 0.34349817463331772 -0.27223575233246988 0 0.3388307833371127 -0.27886836189579028 0 0.34706744656536048 -0.28007479224216619 0 0.34349817463331772 -0.27223575233246988 0 0.34706744656536048 -0.28007479224216619 0 0.35711558672006172 -0.27354793744083078 0 0.34349817463331772 -0.27223575233246988 0 0.35711558672006172 -0.27354793744083078 0 0.34612034525793539 -0.26165354425485998 0 0.34706744656536048 -0.28007479224216619 0 0.35711558672006172 -0.27354793744083078 0 0.35357832102308678 -0.28816147489813743 0 0.35007299243335749 -0.24785688602667111 0 0.33700232267718733 -0.25494009872172468 0 0.34612034525793539 -0.26165354425485998 0 0.35711558672006172 -0.27354793744083078 0 0.34612034525793539 -0.26165354425485998 0 0.36124693131331159 -0.25807728632712912 0 0.35007299243335749 -0.24785688602667111 0 0.34612034525793539 -0.26165354425485998 0 0.36124693131331159 -0.25807728632712912 0 0.37764450162479901 -0.26965755496232408 0 0.37510228513818711 -0.25237727586059511 0 0.36124693131331159 -0.25807728632712912 0 0.36225179838031341 -0.2439392928582107 0 0.37510228513818711 -0.25237727586059511 0 0.36124693131331159 -0.25807728632712912 0 0.37764450162479901 -0.26965755496232408 0 0.35711558672006172 -0.27354793744083078 0 0.36124693131331159 -0.25807728632712912 0 0.37764450162479901 -0.26965755496232408 0 0.35711558672006172 -0.27354793744083078 0 0.36873774536035581 -0.28861226174546889 0 0.36873774536035581 -0.28861226174546889 0 0.35357832102308678 -0.28816147489813743 0 0.36087634202934032 -0.30211297570133377 0 0.35711558672006172 -0.27354793744083078 0 0.36873774536035581 -0.28861226174546889 0 0.35357832102308678 -0.28816147489813743 0 0.33743581475864359 -0.28536266187014298 0 0.35357832102308678 -0.28816147489813743 0 0.33743581475864359 -0.28536266187014298 0 0.34706744656536048 -0.28007479224216619 0 0.35357832102308678 -0.28816147489813743 0 0.33743581475864359 -0.28536266187014298 0 0.34308905326158867 -0.30070827197480321 0 0.35357832102308678 -0.28816147489813743 0 0.34308905326158867 -0.30070827197480321 0 0.36087634202934032 -0.30211297570133377 0 0.3603589122919777 -0.32616465434179109 0 0.34308905326158867 -0.30070827197480321 0 0.35357832102308678 -0.28816147489813743 0 0.36087634202934032 -0.30211297570133377 0 0.37861767820969228 -0.30691821554646831 0 0.36873774536035581 -0.28861226174546889 0 0.36087634202934032 -0.30211297570133377 0 0.37861767820969228 -0.30691821554646831 0 0.36087634202934032 -0.30211297570133377 0 0.3603589122919777 -0.32616465434179109 0 0.37858644206980091 -0.32769985780377792 0 0.37861767820969228 -0.30691821554646831 0 0.3603589122919777 -0.32616465434179109 0 0.37858644206980091 -0.32769985780377792 0 0.3603589122919777 -0.32616465434179109 0 0.36805061276354478 -0.3427907498460791 0 0.3603589122919777 -0.32616465434179109 0 0.34679726984937148 -0.35193202586079081 0 0.3603589122919777 -0.32616465434179109 0 0.34679726984937148 -0.35193202586079081 0 0.3423644242317993 -0.33453707324987059 0 0.3603589122919777 -0.32616465434179109 0 0.36805061276354478 -0.3427907498460791 0 0.34679726984937148 -0.35193202586079081 0 0.33163278235650262 -0.31237877804800812 0 0.34308905326158867 -0.30070827197480321 0 0.3603589122919777 -0.32616465434179109 0 0.33163278235650262 -0.31237877804800812 0 0.3603589122919777 -0.32616465434179109 0 0.3423644242317993 -0.33453707324987059 0 0.37640125955739012 -0.35149107478397351 0 0.38081427771294768 -0.36737052156009248 0 0.36600013168445039 -0.36059477107615401 0 0.36848073339739068 -0.37517807712711049 0 0.36600013168445039 -0.36059477107615401 0 0.3554566368260581 -0.37480617727887811 0 0.38081427771294768 -0.36737052156009248 0 0.36848073339739068 -0.37517807712711049 0 0.36600013168445039 -0.36059477107615401 0 0.36805061276354478 -0.3427907498460791 0 0.36600013168445039 -0.36059477107615401 0 0.34679726984937148 -0.35193202586079081 0 0.37640125955739012 -0.35149107478397351 0 0.36805061276354478 -0.3427907498460791 0 0.36600013168445039 -0.36059477107615401 0 0.36600013168445039 -0.36059477107615401 0 0.34679726984937148 -0.35193202586079081 0 0.3554566368260581 -0.37480617727887811 0 0.34679726984937148 -0.35193202586079081 0 0.34537995690420659 -0.3737828605913362 0 0.3554566368260581 -0.37480617727887811 0 0.33323562740676532 -0.37769939737979058 0 0.33171275220581908 -0.35441984147836231 0 0.32002671755222051 -0.36641101040373808 0 0.33323562740676532 -0.37769939737979058 0 0.34679726984937148 -0.35193202586079081 0 0.33323562740676532 -0.37769939737979058 0 0.34679726984937148 -0.35193202586079081 0 0.34537995690420659 -0.3737828605913362 0 0.33323562740676532 -0.37769939737979058 0 0.34679726984937148 -0.35193202586079081 0 0.33171275220581908 -0.35441984147836231 0 0.34679726984937148 -0.35193202586079081 0 0.33171275220581908 -0.35441984147836231 0 0.3423644242317993 -0.33453707324987059 0 0.33171275220581908 -0.35441984147836231 0 0.32002671755222051 -0.36641101040373808 0 0.32582974995436148 -0.33939489422587321 0 0.32002671755222051 -0.36641101040373808 0 0.32582974995436148 -0.33939489422587321 0 0.31500009593534162 -0.35119999692538878 0 0.32002671755222051 -0.36641101040373808 0 0.32582974995436148 -0.33939489422587321 0 0.33163278235650262 -0.31237877804800812 0 0.32582974995436148 -0.33939489422587321 0 0.33163278235650262 -0.31237877804800812 0 0.3423644242317993 -0.33453707324987059 0 0.32582974995436148 -0.33939489422587321 0 0.33171275220581908 -0.35441984147836231 0 0.3423644242317993 -0.33453707324987059 0 0.32582974995436148 -0.33939489422587321 0 0.31500009593534162 -0.35119999692538878 0 0.32582974995436148 -0.33939489422587321 0 0.31041762281754448 -0.32833073988017608 0 0.33163278235650262 -0.31237877804800812 0 0.32582974995436148 -0.33939489422587321 0 0.31041762281754448 -0.32833073988017608 0 0.33163278235650262 -0.31237877804800812 0 0.31041762281754448 -0.32833073988017608 0 0.30954970221622308 -0.30462347215273478 0 0.31041762281754448 -0.32833073988017608 0 0.29592063247569211 -0.31558436997640987 0 0.30954970221622308 -0.30462347215273478 0 0.31041762281754448 -0.32833073988017608 0 0.29132656616613523 -0.33188180257029998 0 0.29592063247569211 -0.31558436997640987 0 0.31041762281754448 -0.32833073988017608 0 0.29132656616613523 -0.33188180257029998 0 0.29956578362214281 -0.35549229926055048 0 0.31041762281754448 -0.32833073988017608 0 0.29956578362214281 -0.35549229926055048 0 0.29132656616613523 -0.33188180257029998 0 0.28219501787468609 -0.34702129220438421 0 0.27282035448602859 -0.33554085100614839 0 0.29132656616613523 -0.33188180257029998 0 0.29592063247569211 -0.31558436997640987 0 0.27986439667319313 -0.31630171845149863 0 0.29132656616613523 -0.33188180257029998 0 0.27986439667319313 -0.31630171845149863 0 0.27282035448602859 -0.33554085100614839 0 0.30591552541026101 -0.37751124227982003 0 0.28871394442674109 -0.38265385864092483 0 0.29956578362214281 -0.35549229926055048 0 0.30591552541026101 -0.37751124227982003 0 0.32002671755222051 -0.36641101040373808 0 0.29956578362214281 -0.35549229926055048 0 0.31500009593534162 -0.35119999692538878 0 0.32002671755222051 -0.36641101040373808 0 0.29956578362214281 -0.35549229926055048 0 0.31500009593534162 -0.35119999692538878 0 0.31041762281754448 -0.32833073988017608 0 0.29956578362214281 -0.35549229926055048 0 0.29956578362214281 -0.35549229926055048 0 0.28219501787468609 -0.34702129220438421 0 0.27571190406721402 -0.36345127203525351 0 0.29132656616613523 -0.33188180257029998 0 0.29956578362214281 -0.35549229926055048 0 0.28219501787468609 -0.34702129220438421 0 0.28871394442674109 -0.38265385864092483 0 0.29956578362214281 -0.35549229926055048 0 0.27571190406721402 -0.36345127203525351 0 0.28871394442674109 -0.38265385864092483 0 0.29956578362214281 -0.35549229926055048 0 0.28219501787468609 -0.34702129220438421 0 0.27571190406721402 -0.36345127203525351 0 0.2669677564247489 -0.35003134695070198 0 0.28219501787468609 -0.34702129220438421 0 0.2669677564247489 -0.35003134695070198 0 0.27282035448602859 -0.33554085100614839 0 0.2669677564247489 -0.35003134695070198 0 0.2543981425525324 -0.33893914275967452 0 0.24971336314328341 -0.36520417674804972 0 0.2543981425525324 -0.33893914275967452 0 0.24971336314328341 -0.36520417674804972 0 0.26416245427686541 -0.38049931320234009 0 0.27571190406721402 -0.36345127203525351 0 0.24971336314328341 -0.36520417674804972 0 0.27571190406721402 -0.36345127203525351 0 0.2669677564247489 -0.35003134695070198 0 0.24971336314328341 -0.36520417674804972 0 0.27986439667319313 -0.31630171845149863 0 0.27282035448602859 -0.33554085100614839 0 0.27986439667319313 -0.31630171845149863 0 0.27282035448602859 -0.33554085100614839 0 0.2590829219617814 -0.31267410877129931 0 0.2669677564247489 -0.35003134695070198 0 0.27282035448602859 -0.33554085100614839 0 0.2543981425525324 -0.33893914275967452 0 0.27282035448602859 -0.33554085100614839 0 0.2543981425525324 -0.33893914275967452 0 0.2590829219617814 -0.31267410877129931 0 0.2543981425525324 -0.33893914275967452 0 0.2590829219617814 -0.31267410877129931 0 0.24087195768162309 -0.32614810142562012 0 0.2543981425525324 -0.33893914275967452 0 0.2590829219617814 -0.31267410877129931 0 0.2590829219617814 -0.31267410877129931 0 0.26376770137103039 -0.2864090747829241 0 0.27385105082646688 -0.29718155094811333 0 0.2590829219617814 -0.31267410877129931 0 0.26376770137103039 -0.2864090747829241 0 0.24821325608307901 -0.29522124281265988 0 0.2590829219617814 -0.31267410877129931 0 0.26376770137103039 -0.2864090747829241 0 0.26376770137103039 -0.2864090747829241 0 0.24785603391849151 -0.27709942466880599 0 0.24821325608307901 -0.29522124281265988 0 0.26376770137103039 -0.2864090747829241 0 0.27275834958840189 -0.28372268528309152 0 0.2724225943816766 -0.27409056785933389 0 0.26376770137103039 -0.2864090747829241 0 0.27275834958840189 -0.28372268528309152 0 0.27385105082646688 -0.29718155094811333 0 0.28072449650403741 -0.28691913250301798 0 0.27385105082646688 -0.29718155094811333 0 0.2869084388603575 -0.29706258589684881 0 0.27275834958840189 -0.28372268528309152 0 0.28072449650403741 -0.28691913250301798 0 0.27385105082646688 -0.29718155094811333 0 0.27275834958840189 -0.28372268528309152 0 0.28072449650403741 -0.28691913250301798 0 0.27996448038040939 -0.28063895974691061 0 0.27986439667319313 -0.31630171845149863 0 0.2590829219617814 -0.31267410877129931 0 0.27385105082646688 -0.29718155094811333 0 0.27986439667319313 -0.31630171845149863 0 0.27385105082646688 -0.29718155094811333 0 0.2869084388603575 -0.29706258589684881 0 0.27986439667319313 -0.31630171845149863 0 0.2869084388603575 -0.29706258589684881 0 0.29592063247569211 -0.31558436997640987 0 0.27986439667319313 -0.31630171845149863 0 0.2869084388603575 -0.29706258589684881 0 0.2869084388603575 -0.29706258589684881 0 0.30298021147195658 -0.29033858393126172 0 0.29395248104752192 -0.27782345334219888 0 0.28072449650403741 -0.28691913250301798 0 0.2869084388603575 -0.29706258589684881 0 0.29395248104752192 -0.27782345334219888 0 0.2869084388603575 -0.29706258589684881 0 0.29395248104752192 -0.27782345334219888 0 0.28072449650403741 -0.28691913250301798 0 0.29395248104752192 -0.27782345334219888 0 0.27996448038040939 -0.28063895974691061 0 0.31569414790308259 -0.28159305760617132 0 0.30298021147195658 -0.29033858393126172 0 0.29395248104752192 -0.27782345334219888 0 0.31296692944630888 -0.29314018565426941 0 0.31569414790308259 -0.28159305760617132 0 0.30298021147195658 -0.29033858393126172 0 0.31296692944630888 -0.29314018565426941 0 0.30298021147195658 -0.29033858393126172 0 0.30954970221622308 -0.30462347215273478 0 0.2869084388603575 -0.29706258589684881 0 0.30298021147195658 -0.29033858393126172 0 0.30954970221622308 -0.30462347215273478 0 0.29592063247569211 -0.31558436997640987 0 0.2869084388603575 -0.29706258589684881 0 0.30954970221622308 -0.30462347215273478 0 0.30517917142926537 -0.24716040808135001 0 0.31054181011664339 -0.26140137874582919 0 0.2976408850071105 -0.26774945168120262 0 0.30517917142926537 -0.24716040808135001 0 0.2976408850071105 -0.26774945168120262 0 0.31275786215232049 -0.27168837282467972 0 0.2976408850071105 -0.26774945168120262 0 0.29395248104752192 -0.27782345334219888 0 0.31275786215232049 -0.27168837282467972 0 0.2976408850071105 -0.26774945168120262 0 0.31275786215232049 -0.27168837282467972 0 0.31054181011664339 -0.26140137874582919 0 0.2976408850071105 -0.26774945168120262 0 0.31569414790308259 -0.28159305760617132 0 0.29395248104752192 -0.27782345334219888 0 0.31569414790308259 -0.28159305760617132 0 0.31275786215232049 -0.27168837282467972 0 0.29395248104752192 -0.27782345334219888 0 0.2976408850071105 -0.26774945168120262 0 0.28600938745522969 -0.26471871668720698 0 0.2976408850071105 -0.26774945168120262 0 0.29395248104752192 -0.27782345334219888 0 0.29395248104752192 -0.27782345334219888 0 0.27996448038040939 -0.28063895974691061 0 0.2724225943816766 -0.27409056785933389 0 0.29395248104752192 -0.27782345334219888 0 0.28600938745522969 -0.26471871668720698 0 0.27658132089261911 -0.27335422882897692 0 0.2976408850071105 -0.26774945168120262 0 0.29395248104752192 -0.27782345334219888 0 0.28600938745522969 -0.26471871668720698 0 0.29395248104752192 -0.27782345334219888 0 0.2724225943816766 -0.27409056785933389 0 0.28600938745522969 -0.26471871668720698 0 0.27658132089261911 -0.27335422882897692 0 0.30517917142926537 -0.24716040808135001 0 0.28600938745522969 -0.26471871668720698 0 0.30517917142926537 -0.24716040808135001 0 0.2976408850071105 -0.26774945168120262 0 0.28600938745522969 -0.26471871668720698 0 0.30517917142926537 -0.24716040808135001 0 0.28765229627979871 -0.24304032400626949 0 0.28600938745522969 -0.26471871668720698 0 0.28600938745522969 -0.26471871668720698 0 0.26845248078028039 -0.26014404079454911 0 0.28765229627979871 -0.24304032400626949 0 0.28600938745522969 -0.26471871668720698 0 0.26845248078028039 -0.26014404079454911 0 0.26376770137103039 -0.2864090747829241 0 0.26845248078028039 -0.26014404079454911 0 0.2724225943816766 -0.27409056785933389 0 0.28600938745522969 -0.26471871668720698 0 0.26845248078028039 -0.26014404079454911 0 0.27658132089261911 -0.27335422882897692 0 0.26376770137103039 -0.2864090747829241 0 0.26845248078028039 -0.26014404079454911 0 0.29395248104752192 -0.27782345334219888 0 0.27658132089261911 -0.27335422882897692 0 0.2724225943816766 -0.27409056785933389 0 0.27275834958840189 -0.28372268528309152 0 0.27996448038040939 -0.28063895974691061 0 0.2724225943816766 -0.27409056785933389 0 0.26845248078028039 -0.26014404079454911 0 0.27658132089261911 -0.27335422882897692 0 0.2724225943816766 -0.27409056785933389 0 0.26376770137103039 -0.2864090747829241 0 0.26845248078028039 -0.26014404079454911 0 0.24785603391849151 -0.27709942466880599 0 0.26845248078028039 -0.26014404079454911 0 0.2410490216361528 -0.25300372010805161 0 0.26845248078028039 -0.26014404079454911 0 0.2410490216361528 -0.25300372010805161 0 0.24785603391849151 -0.27709942466880599 0 0.25787859859726192 -0.24372773219337371 0 0.26845248078028039 -0.26014404079454911 0 0.2410490216361528 -0.25300372010805161 0 0.2410490216361528 -0.25300372010805161 0 0.24785603391849151 -0.27709942466880599 0 0.23139485578507429 -0.27647983237136509 0 0.23139485578507429 -0.27647983237136509 0 0.2171028506536257 -0.26700629366950379 0 0.21674952071488601 -0.28686299221921707 0 0.2410490216361528 -0.25300372010805161 0 0.23139485578507429 -0.27647983237136509 0 0.2171028506536257 -0.26700629366950379 0 0.2410490216361528 -0.25300372010805161 0 0.2171028506536257 -0.26700629366950379 0 0.2136455624920251 -0.24586339942155419 0 0.2171028506536257 -0.26700629366950379 0 0.1960217485778272 -0.26205501631648559 0 0.2136455624920251 -0.24586339942155419 0 0.2171028506536257 -0.26700629366950379 0 0.2037572178097509 -0.27803645254629672 0 0.1960217485778272 -0.26205501631648559 0 0.2171028506536257 -0.26700629366950379 0 0.2037572178097509 -0.27803645254629672 0 0.21674952071488601 -0.28686299221921707 0 0.2037572178097509 -0.27803645254629672 0 0.1960217485778272 -0.26205501631648559 0 0.18672217274589489 -0.28463667424064248 0 0.1960217485778272 -0.26205501631648559 0 0.2136455624920251 -0.24586339942155419 0 0.1970165427207646 -0.2431475676051908 0 0.1960217485778272 -0.26205501631648559 0 0.1970165427207646 -0.2431475676051908 0 0.18013525364959199 -0.24590787480667409 0 0.19163287831415901 -0.30538761534618902 0 0.20219697373587131 -0.29192032270869461 0 0.2153952098199983 -0.30425933719731207 0 0.2037572178097509 -0.27803645254629672 0 0.20219697373587131 -0.29192032270869461 0 0.18672217274589489 -0.28463667424064248 0 0.19163287831415901 -0.30538761534618902 0 0.20219697373587131 -0.29192032270869461 0 0.18672217274589489 -0.28463667424064248 0 0.20219697373587131 -0.29192032270869461 0 0.21674952071488601 -0.28686299221921707 0 0.2153952098199983 -0.30425933719731207 0 0.2037572178097509 -0.27803645254629672 0 0.20219697373587131 -0.29192032270869461 0 0.21674952071488601 -0.28686299221921707 0 0.19163287831415901 -0.30538761534618902 0 0.2153952098199983 -0.30425933719731207 0 0.20381788977078771 -0.32236963909420019 0 0.2153952098199983 -0.30425933719731207 0 0.2333373149176502 -0.29099433783704243 0 0.2370223082464416 -0.30892926800322767 0 0.2153952098199983 -0.30425933719731207 0 0.2370223082464416 -0.30892926800322767 0 0.22300958304019269 -0.32335118517261402 0 0.21674952071488601 -0.28686299221921707 0 0.2153952098199983 -0.30425933719731207 0 0.2333373149176502 -0.29099433783704243 0 0.23139485578507429 -0.27647983237136509 0 0.21674952071488601 -0.28686299221921707 0 0.2333373149176502 -0.29099433783704243 0 0.24785603391849151 -0.27709942466880599 0 0.2333373149176502 -0.29099433783704243 0 0.24821325608307901 -0.29522124281265988 0 0.24785603391849151 -0.27709942466880599 0 0.23139485578507429 -0.27647983237136509 0 0.2333373149176502 -0.29099433783704243 0 0.2333373149176502 -0.29099433783704243 0 0.24821325608307901 -0.29522124281265988 0 0.2370223082464416 -0.30892926800322767 0 0.2590829219617814 -0.31267410877129931 0 0.24821325608307901 -0.29522124281265988 0 0.2370223082464416 -0.30892926800322767 0 0.2590829219617814 -0.31267410877129931 0 0.2370223082464416 -0.30892926800322767 0 0.24087195768162309 -0.32614810142562012 0 0.2543981425525324 -0.33893914275967452 0 0.24087195768162309 -0.32614810142562012 0 0.2308468326071676 -0.34684680242128502 0 0.24087195768162309 -0.32614810142562012 0 0.22300958304019269 -0.32335118517261402 0 0.2308468326071676 -0.34684680242128502 0 0.22300958304019269 -0.32335118517261402 0 0.2308468326071676 -0.34684680242128502 0 0.21275128108028149 -0.33749920242868869 0 0.2370223082464416 -0.30892926800322767 0 0.24087195768162309 -0.32614810142562012 0 0.22300958304019269 -0.32335118517261402 0 0.24971336314328341 -0.36520417674804972 0 0.2308468326071676 -0.34684680242128502 0 0.229200177642885 -0.36995291413531828 0 0.2543981425525324 -0.33893914275967452 0 0.24971336314328341 -0.36520417674804972 0 0.2308468326071676 -0.34684680242128502 0 0.229200177642885 -0.36995291413531828 0 0.20725651587090471 -0.36571099534901208 0 0.22031030243082139 -0.38906492162812378 0 0.2308468326071676 -0.34684680242128502 0 0.229200177642885 -0.36995291413531828 0 0.20725651587090471 -0.36571099534901208 0 0.2308468326071676 -0.34684680242128502 0 0.20725651587090471 -0.36571099534901208 0 0.21275128108028149 -0.33749920242868869 0 0.20725651587090471 -0.36571099534901208 0 0.21275128108028149 -0.33749920242868869 0 0.194202729310988 -0.34235706906990038 0 0.20725651587090471 -0.36571099534901208 0 0.194202729310988 -0.34235706906990038 0 0.180238718969634 -0.3612454971324468 0 0.20725651587090471 -0.36571099534901208 0 0.194202729310988 -0.34235706906990038 0 0.20725651587090471 -0.36571099534901208 0 0.19261827162763251 -0.374541644607297 0 0.180238718969634 -0.3612454971324468 0 0.22300958304019269 -0.32335118517261402 0 0.20381788977078771 -0.32236963909420019 0 0.21275128108028149 -0.33749920242868869 0 0.2153952098199983 -0.30425933719731207 0 0.22300958304019269 -0.32335118517261402 0 0.20381788977078771 -0.32236963909420019 0 0.20381788977078771 -0.32236963909420019 0 0.21275128108028149 -0.33749920242868869 0 0.194202729310988 -0.34235706906990038 0 0.20381788977078771 -0.32236963909420019 0 0.194202729310988 -0.34235706906990038 0 0.18384400034678741 -0.32250280289756078 0 0.19163287831415901 -0.30538761534618902 0 0.20381788977078771 -0.32236963909420019 0 0.18384400034678741 -0.32250280289756078 0 0.18384400034678741 -0.32250280289756078 0 0.17702055828029431 -0.33666004199980942 0 0.15719449589681389 -0.32866913917705798 0 0.194202729310988 -0.34235706906990038 0 0.18384400034678741 -0.32250280289756078 0 0.17702055828029431 -0.33666004199980942 0 0.15719449589681389 -0.32866913917705798 0 0.16581699513551909 -0.35306125248096398 0 0.17702055828029431 -0.33666004199980942 0 0.15719449589681389 -0.32866913917705798 0 0.16581699513551909 -0.35306125248096398 0 0.18384400034678741 -0.32250280289756078 0 0.15719449589681389 -0.32866913917705798 0 0.17186855286937899 -0.30453082832045192 0 0.180238718969634 -0.3612454971324468 0 0.1834568796589737 -0.38583095226508418 0 0.17443949437422429 -0.37745336578486988 0 0.180238718969634 -0.3612454971324468 0 0.16581699513551909 -0.35306125248096398 0 0.17443949437422429 -0.37745336578486988 0 0.180238718969634 -0.3612454971324468 0 0.1834568796589737 -0.38583095226508418 0 0.19261827162763251 -0.374541644607297 0 0.180238718969634 -0.3612454971324468 0 0.1834568796589737 -0.38583095226508418 0 0.17702055828029431 -0.33666004199980942 0 0.180238718969634 -0.3612454971324468 0 0.16581699513551909 -0.35306125248096398 0 0.17702055828029431 -0.33666004199980942 0 0.180238718969634 -0.3612454971324468 0 0.194202729310988 -0.34235706906990038 0 0.17702055828029431 -0.33666004199980942 0 0.180238718969634 -0.3612454971324468 0 0.16581699513551909 -0.35306125248096398 0 0.1602354860011011 -0.36875954027416918 0 0.14952990885070691 -0.36034775620209553 0 0.16581699513551909 -0.35306125248096398 0 0.17443949437422429 -0.37745336578486988 0 0.16581699513551909 -0.35306125248096398 0 0.1602354860011011 -0.36875954027416918 0 0.17443949437422429 -0.37745336578486988 0 0.1602354860011011 -0.36875954027416918 0 0.14673951295096799 -0.37363029079717242 0 0.14952990885070691 -0.36034775620209553 0 0.16581699513551909 -0.35306125248096398 0 0.14952990885070691 -0.36034775620209553 0 0.144826286403443 -0.34676284914488159 0 0.14952990885070691 -0.36034775620209553 0 0.144826286403443 -0.34676284914488159 0 0.12334710111447229 -0.36406834251145731 0 0.144826286403443 -0.34676284914488159 0 0.12334710111447229 -0.36406834251145731 0 0.144826286403443 -0.34676284914488159 0 0.12334710111447229 -0.36406834251145731 0 0.11573058637367541 -0.34380091622275832 0 0.13273239812562251 -0.3803535413873157 0 0.1208593498238435 -0.38006314209191833 0 0.12334710111447229 -0.36406834251145731 0 0.14673951295096799 -0.37363029079717242 0 0.14952990885070691 -0.36034775620209553 0 0.12334710111447229 -0.36406834251145731 0 0.14673951295096799 -0.37363029079717242 0 0.13273239812562251 -0.3803535413873157 0 0.12334710111447229 -0.36406834251145731 0 0.15719449589681389 -0.32866913917705798 0 0.13978194378111039 -0.33004063130878142 0 0.14857199665810869 -0.30427702587315197 0 0.15719449589681389 -0.32866913917705798 0 0.14857199665810869 -0.30427702587315197 0 0.15719449589681389 -0.32866913917705798 0 0.144826286403443 -0.34676284914488159 0 0.13978194378111039 -0.33004063130878142 0 0.15719449589681389 -0.32866913917705798 0 0.16581699513551909 -0.35306125248096398 0 0.144826286403443 -0.34676284914488159 0 0.13978194378111039 -0.33004063130878142 0 0.1249111379911398 -0.32186001205002218 0 0.11573058637367541 -0.34380091622275832 0 0.144826286403443 -0.34676284914488159 0 0.13978194378111039 -0.33004063130878142 0 0.11573058637367541 -0.34380091622275832 0 0.13978194378111039 -0.33004063130878142 0 0.14857199665810869 -0.30427702587315197 0 0.1249111379911398 -0.32186001205002218 0 0.14857199665810869 -0.30427702587315197 0 0.13584279120622419 -0.29064916595208462 0 0.1212075847983899 -0.30357596212866123 0 0.14857199665810869 -0.30427702587315197 0 0.1212075847983899 -0.30357596212866123 0 0.1249111379911398 -0.32186001205002218 0 0.14857199665810869 -0.30427702587315197 0 0.14941647374314521 -0.28066083506566319 0 0.1659314811884508 -0.28303851802095531 0 0.14857199665810869 -0.30427702587315197 0 0.13584279120622419 -0.29064916595208462 0 0.14941647374314521 -0.28066083506566319 0 0.13554841089854469 -0.28148943716570812 0 0.13584279120622419 -0.29064916595208462 0 0.14941647374314521 -0.28066083506566319 0 0.13554841089854469 -0.28148943716570812 0 0.13584279120622419 -0.29064916595208462 0 0.1176113560141319 -0.2851589593963586 0 0.1376178273856396 -0.2676878026278281 0 0.13932302263067731 -0.26948878824872591 0 0.1176113560141319 -0.2851589593963586 0 0.13554841089854469 -0.28148943716570812 0 0.13932302263067731 -0.26948878824872591 0 0.1176113560141319 -0.2851589593963586 0 0.13932302263067731 -0.26948878824872591 0 0.1176113560141319 -0.2851589593963586 0 0.1376178273856396 -0.2676878026278281 0 0.1200034520355143 -0.24749468667538321 0 0.1376178273856396 -0.2676878026278281 0 0.1200034520355143 -0.24749468667538321 0 0.1412434604122122 -0.24631040783256791 0 0.1376178273856396 -0.2676878026278281 0 0.16103468924722281 -0.25381861710109321 0 0.1412434604122122 -0.24631040783256791 0 0.1376178273856396 -0.2676878026278281 0 0.13932302263067731 -0.26948878824872591 0 0.16103468924722281 -0.25381861710109321 0 0.13932302263067731 -0.26948878824872591 0 0.16103468924722281 -0.25381861710109321 0 0.13932302263067731 -0.26948878824872591 0 0.14941647374314521 -0.28066083506566319 0 0.16103468924722281 -0.25381861710109321 0 0.13554841089854469 -0.28148943716570812 0 0.13932302263067731 -0.26948878824872591 0 0.14941647374314521 -0.28066083506566319 0 0.14941647374314521 -0.28066083506566319 0 0.16103468924722281 -0.25381861710109321 0 0.1659314811884508 -0.28303851802095531 0 0.16103468924722281 -0.25381861710109321 0 0.1779690690817976 -0.26589134009717008 0 0.1659314811884508 -0.28303851802095531 0 0.16103468924722281 -0.25381861710109321 0 0.1779690690817976 -0.26589134009717008 0 0.18013525364959199 -0.24590787480667409 0 0.1960217485778272 -0.26205501631648559 0 0.1779690690817976 -0.26589134009717008 0 0.18013525364959199 -0.24590787480667409 0 0.1960217485778272 -0.26205501631648559 0 0.1779690690817976 -0.26589134009717008 0 0.18672217274589489 -0.28463667424064248 0 0.1779690690817976 -0.26589134009717008 0 0.18672217274589489 -0.28463667424064248 0 0.1659314811884508 -0.28303851802095531 0 0.18672217274589489 -0.28463667424064248 0 0.17186855286937899 -0.30453082832045192 0 0.1659314811884508 -0.28303851802095531 0 0.19163287831415901 -0.30538761534618902 0 0.18384400034678741 -0.32250280289756078 0 0.17186855286937899 -0.30453082832045192 0 0.19163287831415901 -0.30538761534618902 0 0.18672217274589489 -0.28463667424064248 0 0.17186855286937899 -0.30453082832045192 0 0.14857199665810869 -0.30427702587315197 0 0.17186855286937899 -0.30453082832045192 0 0.1659314811884508 -0.28303851802095531 0 0.15719449589681389 -0.32866913917705798 0 0.14857199665810869 -0.30427702587315197 0 0.17186855286937899 -0.30453082832045192 0 0.27004646425256568 -0.5 0 0.19840125792562099 -0.499999999999995 0 0.2258071254777905 -0.47806137695806639 0 0.19840125792562099 -0.499999999999995 0 0.1955652389629654 -0.47833395417678298 0 0.19840125792562099 -0.499999999999995 0 0.1955652389629654 -0.47833395417678298 0 0.1857239970351309 -0.48926605560099218 0 0.1955652389629654 -0.47833395417678298 0 0.2258071254777905 -0.47806137695806639 0 0.20496909670773639 -0.46039718082621561 0 0.19840125792562099 -0.499999999999995 0 0.1955652389629654 -0.47833395417678298 0 0.2258071254777905 -0.47806137695806639 0 0.2532296876789632 -0.47497352743918242 0 0.27004646425256568 -0.5 0 0.2258071254777905 -0.47806137695806639 0 0.2532296876789632 -0.47497352743918242 0 0.2258071254777905 -0.47806137695806639 0 0.23317765179809191 -0.45416130837427687 0 0.2258071254777905 -0.47806137695806639 0 0.23317765179809191 -0.45416130837427687 0 0.20496909670773639 -0.46039718082621561 0 0.23317765179809191 -0.45416130837427687 0 0.20496909670773639 -0.46039718082621561 0 0.26339579246569877 -0.46312143350125029 0 0.2532296876789632 -0.47497352743918242 0 0.23317765179809191 -0.45416130837427687 0 0.26138620688844749 -0.44792543592233808 0 0.2518592606704963 -0.43815060111373921 0 0.23317765179809191 -0.45416130837427687 0 0.26138620688844749 -0.44792543592233808 0 0.23317765179809191 -0.45416130837427687 0 0.2518592606704963 -0.43815060111373921 0 0.23317765179809191 -0.45416130837427687 0 0.24161391479158839 -0.43048581688246368 0 0.23317765179809191 -0.45416130837427687 0 0.21274467024756119 -0.44537306322652892 0 0.22596778666418391 -0.43195218695593612 0 0.23317765179809191 -0.45416130837427687 0 0.22596778666418391 -0.43195218695593612 0 0.24161391479158839 -0.43048581688246368 0 0.20738663592967541 -0.43977689630152639 0 0.21274467024756119 -0.44537306322652892 0 0.21231789143938981 -0.43260924517595267 0 0.20738663592967541 -0.43977689630152639 0 0.20306963394956029 -0.44528763306514119 0 0.2014143480821905 -0.43583764373848299 0 0.20738663592967541 -0.43977689630152639 0 0.21274467024756119 -0.44537306322652892 0 0.20306963394956029 -0.44528763306514119 0 0.21274467024756119 -0.44537306322652892 0 0.20306963394956029 -0.44528763306514119 0 0.20202636709778779 -0.45196992376671852 0 0.21274467024756119 -0.44537306322652892 0 0.20496909670773639 -0.46039718082621561 0 0.20202636709778779 -0.45196992376671852 0 0.23317765179809191 -0.45416130837427687 0 0.21274467024756119 -0.44537306322652892 0 0.20496909670773639 -0.46039718082621561 0 0.1955652389629654 -0.47833395417678298 0 0.20496909670773639 -0.46039718082621561 0 0.1927292200003092 -0.45666790835357102 0 0.1955652389629654 -0.47833395417678298 0 0.1927292200003092 -0.45666790835357102 0 0.1955652389629654 -0.47833395417678298 0 0.19047701204926121 -0.46094242075341862 0 0.1927292200003092 -0.45666790835357102 0 0.20496909670773639 -0.46039718082621561 0 0.1927292200003092 -0.45666790835357102 0 0.20202636709778779 -0.45196992376671852 0 0.19047701204926121 -0.46094242075341862 0 0.1927292200003092 -0.45666790835357102 0 0.1876592352144193 -0.45673372923780892 0 0.1927292200003092 -0.45666790835357102 0 0.1876592352144193 -0.45673372923780892 0 0.18777566972406101 -0.44981142861604279 0 0.1927292200003092 -0.45666790835357102 0 0.19595067699787469 -0.4453334870477933 0 0.18989320103765239 -0.43500186253035911 0 0.1927292200003092 -0.45666790835357102 0 0.18989320103765239 -0.43500186253035911 0 0.1927292200003092 -0.45666790835357102 0 0.18777566972406101 -0.44981142861604279 0 0.18989320103765239 -0.43500186253035911 0 0.19521760998379711 -0.43854214036159178 0 0.19595067699787469 -0.4453334870477933 0 0.1916906899727929 -0.43609695451772118 0 0.19595067699787469 -0.4453334870477933 0 0.1916906899727929 -0.43609695451772118 0 0.18989320103765239 -0.43500186253035911 0 0.19521760998379711 -0.43854214036159178 0 0.19821003569121751 -0.44088076654097252 0 0.19595067699787469 -0.4453334870477933 0 0.19821003569121751 -0.44088076654097252 0 0.20306963394956029 -0.44528763306514119 0 0.19595067699787469 -0.4453334870477933 0 0.19821003569121751 -0.44088076654097252 0 0.20306963394956029 -0.44528763306514119 0 0.2014143480821905 -0.43583764373848299 0 0.19521760998379711 -0.43854214036159178 0 0.19821003569121751 -0.44088076654097252 0 0.19632921389935129 -0.43529695882979857 0 0.20306963394956029 -0.44528763306514119 0 0.20202636709778779 -0.45196992376671852 0 0.19595067699787469 -0.4453334870477933 0 0.1927292200003092 -0.45666790835357102 0 0.20202636709778779 -0.45196992376671852 0 0.19595067699787469 -0.4453334870477933 0 0.18989320103765239 -0.43500186253035911 0 0.193210065479164 -0.42351508711829272 0 0.18667504034831339 -0.41041640739772162 0 0.18989320103765239 -0.43500186253035911 0 0.18667504034831339 -0.41041640739772162 0 0.1973860855611401 -0.42692030526330021 0 0.193210065479164 -0.42351508711829272 0 0.19846083006015189 -0.42045811652912207 0 0.1973860855611401 -0.42692030526330021 0 0.19846083006015189 -0.42045811652912207 0 0.20326441538295181 -0.42746054266679712 0 0.1973860855611401 -0.42692030526330021 0 0.19826447490927249 -0.43151164360587502 0 0.20326441538295181 -0.42746054266679712 0 0.2014143480821905 -0.43583764373848299 0 0.19826447490927249 -0.43151164360587502 0 0.20326441538295181 -0.42746054266679712 0 0.19821003569121751 -0.44088076654097252 0 0.2014143480821905 -0.43583764373848299 0 0.19632921389935129 -0.43529695882979857 0 0.2014143480821905 -0.43583764373848299 0 0.19632921389935129 -0.43529695882979857 0 0.19826447490927249 -0.43151164360587502 0 0.19632921389935129 -0.43529695882979857 0 0.19826447490927249 -0.43151164360587502 0 0.1929283116207289 -0.43204276753099607 0 0.1973860855611401 -0.42692030526330021 0 0.19826447490927249 -0.43151164360587502 0 0.1929283116207289 -0.43204276753099607 0 0.1929283116207289 -0.43204276753099607 0 0.18989320103765239 -0.43500186253035911 0 0.193210065479164 -0.42351508711829272 0 0.19521760998379711 -0.43854214036159178 0 0.19632921389935129 -0.43529695882979857 0 0.19377820557052011 -0.43520734882518619 0 0.19521760998379711 -0.43854214036159178 0 0.19377820557052011 -0.43520734882518619 0 0.1916906899727929 -0.43609695451772118 0 0.19632921389935129 -0.43529695882979857 0 0.1929283116207289 -0.43204276753099607 0 0.19377820557052011 -0.43520734882518619 0 0.1929283116207289 -0.43204276753099607 0 0.19210490899723079 -0.4345610298626873 0 0.18989320103765239 -0.43500186253035911 0 0.19377820557052011 -0.43520734882518619 0 0.19210490899723079 -0.4345610298626873 0 0.1916906899727929 -0.43609695451772118 0 0.1929283116207289 -0.43204276753099607 0 0.19377820557052011 -0.43520734882518619 0 0.19210490899723079 -0.4345610298626873 0 0.1916906899727929 -0.43609695451772118 0 0.18989320103765239 -0.43500186253035911 0 0.19210490899723079 -0.4345610298626873 0 0.1916906899727929 -0.43609695451772118 0 0.18989320103765239 -0.43500186253035911 0 0.1973860855611401 -0.42692030526330021 0 0.1929283116207289 -0.43204276753099607 0 0.193210065479164 -0.42351508711829272 0 0.193210065479164 -0.42351508711829272 0 0.1939169242469973 -0.41625106345825691 0 0.18667504034831339 -0.41041640739772162 0 0.193210065479164 -0.42351508711829272 0 0.1939169242469973 -0.41625106345825691 0 0.19846083006015189 -0.42045811652912207 0 0.1968341740193896 -0.41150644481021997 0 0.19418069224578771 -0.40518464808912641 0 0.18667504034831339 -0.41041640739772162 0 0.1939169242469973 -0.41625106345825691 0 0.1968341740193896 -0.41150644481021997 0 0.18667504034831339 -0.41041640739772162 0 0.1968341740193896 -0.41150644481021997 0 0.20469814770209749 -0.41520386531910081 0 0.20485234226760879 -0.40188257102108682 0 0.19846083006015189 -0.42045811652912207 0 0.20469814770209749 -0.41520386531910081 0 0.20326441538295181 -0.42746054266679712 0 0.1939169242469973 -0.41625106345825691 0 0.1968341740193896 -0.41150644481021997 0 0.19846083006015189 -0.42045811652912207 0 0.1968341740193896 -0.41150644481021997 0 0.19846083006015189 -0.42045811652912207 0 0.20469814770209749 -0.41520386531910081 0 0.20469814770209749 -0.41520386531910081 0 0.21626227209603979 -0.41615869782113413 0 0.20326441538295181 -0.42746054266679712 0 0.20469814770209749 -0.41520386531910081 0 0.21626227209603979 -0.41615869782113413 0 0.20485234226760879 -0.40188257102108682 0 0.21626227209603979 -0.41615869782113413 0 0.20326441538295181 -0.42746054266679712 0 0.21231789143938981 -0.43260924517595267 0 0.21626227209603979 -0.41615869782113413 0 0.21231789143938981 -0.43260924517595267 0 0.22596778666418391 -0.43195218695593612 0 0.20738663592967541 -0.43977689630152639 0 0.2014143480821905 -0.43583764373848299 0 0.21231789143938981 -0.43260924517595267 0 0.2014143480821905 -0.43583764373848299 0 0.20326441538295181 -0.42746054266679712 0 0.21231789143938981 -0.43260924517595267 0 0.21274467024756119 -0.44537306322652892 0 0.21231789143938981 -0.43260924517595267 0 0.22596778666418391 -0.43195218695593612 0 0.22596778666418391 -0.43195218695593612 0 0.24161391479158839 -0.43048581688246368 0 0.2333640889907381 -0.41241884790723538 0 0.25610826383841628 -0.42120346698794331 0 0.2518592606704963 -0.43815060111373921 0 0.24161391479158839 -0.43048581688246368 0 0.25610826383841628 -0.42120346698794331 0 0.24161391479158839 -0.43048581688246368 0 0.2333640889907381 -0.41241884790723538 0 0.21626227209603979 -0.41615869782113413 0 0.22596778666418391 -0.43195218695593612 0 0.2333640889907381 -0.41241884790723538 0 0.2333640889907381 -0.41241884790723538 0 0.24502858373403441 -0.39146921073642488 0 0.22031030243082139 -0.38906492162812378 0 0.21626227209603979 -0.41615869782113413 0 0.2333640889907381 -0.41241884790723538 0 0.22031030243082139 -0.38906492162812378 0 0.2333640889907381 -0.41241884790723538 0 0.22031030243082139 -0.38906492162812378 0 0.26125098829365018 -0.39969694482297641 0 0.2333640889907381 -0.41241884790723538 0 0.24502858373403441 -0.39146921073642488 0 0.24971336314328341 -0.36520417674804972 0 0.24502858373403441 -0.39146921073642488 0 0.24971336314328341 -0.36520417674804972 0 0.229200177642885 -0.36995291413531828 0 0.24502858373403441 -0.39146921073642488 0 0.229200177642885 -0.36995291413531828 0 0.24502858373403441 -0.39146921073642488 0 0.22031030243082139 -0.38906492162812378 0 0.20725651587090471 -0.36571099534901208 0 0.22031030243082139 -0.38906492162812378 0 0.19952097201101759 -0.38537913368264481 0 0.20725651587090471 -0.36571099534901208 0 0.22031030243082139 -0.38906492162812378 0 0.21626227209603979 -0.41615869782113413 0 0.22031030243082139 -0.38906492162812378 0 0.20485234226760879 -0.40188257102108682 0 0.22031030243082139 -0.38906492162812378 0 0.20485234226760879 -0.40188257102108682 0 0.19952097201101759 -0.38537913368264481 0 0.20485234226760879 -0.40188257102108682 0 0.19159455078491761 -0.39726910731705511 0 0.19952097201101759 -0.38537913368264481 0 0.1968341740193896 -0.41150644481021997 0 0.20485234226760879 -0.40188257102108682 0 0.19418069224578771 -0.40518464808912641 0 0.20485234226760879 -0.40188257102108682 0 0.19418069224578771 -0.40518464808912641 0 0.19159455078491761 -0.39726910731705511 0 0.19418069224578771 -0.40518464808912641 0 0.19159455078491761 -0.39726910731705511 0 0.18667504034831339 -0.41041640739772162 0 0.20725651587090471 -0.36571099534901208 0 0.19261827162763251 -0.374541644607297 0 0.19952097201101759 -0.38537913368264481 0 0.19261827162763251 -0.374541644607297 0 0.19952097201101759 -0.38537913368264481 0 0.1834568796589737 -0.38583095226508418 0 0.19159455078491761 -0.39726910731705511 0 0.19952097201101759 -0.38537913368264481 0 0.1834568796589737 -0.38583095226508418 0 0.17443949437422429 -0.37745336578486988 0 0.18306199361292941 -0.40184547908877583 0 0.1834568796589737 -0.38583095226508418 0 0.17443949437422429 -0.37745336578486988 0 0.18306199361292941 -0.40184547908877583 0 0.17443949437422429 -0.37745336578486988 0 0.18306199361292941 -0.40184547908877583 0 0.1699565165384864 -0.39219147373696051 0 0.19159455078491761 -0.39726910731705511 0 0.1834568796589737 -0.38583095226508418 0 0.18667504034831339 -0.41041640739772162 0 0.1834568796589737 -0.38583095226508418 0 0.18667504034831339 -0.41041640739772162 0 0.1834568796589737 -0.38583095226508418 0 0.18306199361292941 -0.40184547908877583 0 0.18667504034831339 -0.41041640739772162 0 0.18306199361292941 -0.40184547908877583 0 0.1699565165384864 -0.39219147373696051 0 0.17103987791038719 -0.40450309618882169 0 0.18306199361292941 -0.40184547908877583 0 0.17103987791038719 -0.40450309618882169 0 0.1814131781600461 -0.40758752999736902 0 0.1699565165384864 -0.39219147373696051 0 0.17103987791038719 -0.40450309618882169 0 0.15993177942481909 -0.39557864441750712 0 0.17103987791038719 -0.40450309618882169 0 0.15993177942481909 -0.39557864441750712 0 0.14638679418839309 -0.40849626541203388 0 0.1699565165384864 -0.39219147373696051 0 0.15993177942481909 -0.39557864441750712 0 0.1595700277473481 -0.38298567724053401 0 0.17443949437422429 -0.37745336578486988 0 0.1699565165384864 -0.39219147373696051 0 0.1595700277473481 -0.38298567724053401 0 0.1602354860011011 -0.36875954027416918 0 0.17443949437422429 -0.37745336578486988 0 0.1595700277473481 -0.38298567724053401 0 0.1602354860011011 -0.36875954027416918 0 0.14673951295096799 -0.37363029079717242 0 0.1595700277473481 -0.38298567724053401 0 0.14673951295096799 -0.37363029079717242 0 0.1595700277473481 -0.38298567724053401 0 0.14586341328622179 -0.39002728499933198 0 0.14673951295096799 -0.37363029079717242 0 0.14586341328622179 -0.39002728499933198 0 0.13273239812562251 -0.3803535413873157 0 0.15993177942481909 -0.39557864441750712 0 0.1595700277473481 -0.38298567724053401 0 0.14586341328622179 -0.39002728499933198 0 0.14586341328622179 -0.39002728499933198 0 0.13273239812562251 -0.3803535413873157 0 0.12412735500694751 -0.39493505064503392 0 0.13273239812562251 -0.3803535413873157 0 0.12412735500694751 -0.39493505064503392 0 0.1208593498238435 -0.38006314209191833 0 0.14586341328622179 -0.39002728499933198 0 0.14638679418839309 -0.40849626541203388 0 0.12412735500694751 -0.39493505064503392 0 0.14638679418839309 -0.40849626541203388 0 0.1185943653130178 -0.41089393958744808 0 0.12412735500694751 -0.39493505064503392 0 0.14638679418839309 -0.40849626541203388 0 0.12412735500694751 -0.39493505064503392 0 0.15993177942481909 -0.39557864441750712 0 0.14586341328622179 -0.39002728499933198 0 0.14638679418839309 -0.40849626541203388 0 0.14638679418839309 -0.40849626541203388 0 0.12945713117598301 -0.42527718494859718 0 0.1185943653130178 -0.41089393958744808 0 0.12945713117598301 -0.42527718494859718 0 0.1521605439778134 -0.43517333823265708 0 0.13567485458578729 -0.448289196286278 0 0.14638679418839309 -0.40849626541203388 0 0.12945713117598301 -0.42527718494859718 0 0.1521605439778134 -0.43517333823265708 0 0.14638679418839309 -0.40849626541203388 0 0.1521605439778134 -0.43517333823265708 0 0.16864623336983819 -0.42205748017903449 0 0.1521605439778134 -0.43517333823265708 0 0.16864623336983819 -0.42205748017903449 0 0.1521605439778134 -0.43517333823265708 0 0.16864623336983819 -0.42205748017903449 0 0.16573483381671769 -0.43911683261624462 0 0.16864623336983819 -0.42205748017903449 0 0.17670256027174869 -0.43608133600128551 0 0.16573483381671769 -0.43911683261624462 0 0.17103987791038719 -0.40450309618882169 0 0.14638679418839309 -0.40849626541203388 0 0.16962733287145829 -0.41306172809692981 0 0.14638679418839309 -0.40849626541203388 0 0.16864623336983819 -0.42205748017903449 0 0.14638679418839309 -0.40849626541203388 0 0.16864623336983819 -0.42205748017903449 0 0.16962733287145829 -0.41306172809692981 0 0.16864623336983819 -0.42205748017903449 0 0.17965678171287719 -0.41329759239238029 0 0.18989320103765239 -0.43500186253035911 0 0.17965678171287719 -0.41329759239238029 0 0.18667504034831339 -0.41041640739772162 0 0.16864623336983819 -0.42205748017903449 0 0.16962733287145829 -0.41306172809692981 0 0.17965678171287719 -0.41329759239238029 0 0.17103987791038719 -0.40450309618882169 0 0.16962733287145829 -0.41306172809692981 0 0.17965678171287719 -0.41329759239238029 0 0.17103987791038719 -0.40450309618882169 0 0.17965678171287719 -0.41329759239238029 0 0.1814131781600461 -0.40758752999736902 0 0.18306199361292941 -0.40184547908877583 0 0.1814131781600461 -0.40758752999736902 0 0.18667504034831339 -0.41041640739772162 0 0.17965678171287719 -0.41329759239238029 0 0.1814131781600461 -0.40758752999736902 0 0.18667504034831339 -0.41041640739772162 0 0.18989320103765239 -0.43500186253035911 0 0.16864623336983819 -0.42205748017903449 0 0.18989320103765239 -0.43500186253035911 0 0.16864623336983819 -0.42205748017903449 0 0.17965678171287719 -0.41329759239238029 0 0.18989320103765239 -0.43500186253035911 0 0.16864623336983819 -0.42205748017903449 0 0.17670256027174869 -0.43608133600128551 0 0.18989320103765239 -0.43500186253035911 0 0.17670256027174869 -0.43608133600128551 0 0.18208037526260021 -0.440172852945236 0 0.17851738694434799 -0.45081987712854771 0 0.17618275988476059 -0.44374183802639611 0 0.18401323307134959 -0.44581129240036288 0 0.17851738694434799 -0.45081987712854771 0 0.1776998484129505 -0.456552179461992 0 0.17120073938054131 -0.45123220200337888 0 0.17851738694434799 -0.45081987712854771 0 0.17618275988476059 -0.44374183802639611 0 0.17120073938054131 -0.45123220200337888 0 0.17670256027174869 -0.43608133600128551 0 0.17618275988476059 -0.44374183802639611 0 0.16573483381671769 -0.43911683261624462 0 0.17670256027174869 -0.43608133600128551 0 0.17618275988476059 -0.44374183802639611 0 0.18208037526260021 -0.440172852945236 0 0.18989320103765239 -0.43500186253035911 0 0.18208037526260021 -0.440172852945236 0 0.18401323307134959 -0.44581129240036288 0 0.18777566972406101 -0.44981142861604279 0 0.18989320103765239 -0.43500186253035911 0 0.18401323307134959 -0.44581129240036288 0 0.17618275988476059 -0.44374183802639611 0 0.18208037526260021 -0.440172852945236 0 0.18401323307134959 -0.44581129240036288 0 0.18777566972406101 -0.44981142861604279 0 0.18401323307134959 -0.44581129240036288 0 0.18385690407389799 -0.45446609953290928 0 0.17851738694434799 -0.45081987712854771 0 0.18401323307134959 -0.44581129240036288 0 0.18385690407389799 -0.45446609953290928 0 0.19047701204926121 -0.46094242075341862 0 0.1876592352144193 -0.45673372923780892 0 0.1806900259799068 -0.46227126151247672 0 0.1876592352144193 -0.45673372923780892 0 0.18777566972406101 -0.44981142861604279 0 0.18385690407389799 -0.45446609953290928 0 0.19047701204926121 -0.46094242075341862 0 0.1806900259799068 -0.46227126151247672 0 0.17298031468751371 -0.48047121037671059 0 0.1876592352144193 -0.45673372923780892 0 0.18385690407389799 -0.45446609953290928 0 0.1806900259799068 -0.46227126151247672 0 0.18385690407389799 -0.45446609953290928 0 0.1806900259799068 -0.46227126151247672 0 0.1776998484129505 -0.456552179461992 0 0.17851738694434799 -0.45081987712854771 0 0.18385690407389799 -0.45446609953290928 0 0.1776998484129505 -0.456552179461992 0 0.1806900259799068 -0.46227126151247672 0 0.1776998484129505 -0.456552179461992 0 0.17146684144139809 -0.46446192971202138 0 0.1776998484129505 -0.456552179461992 0 0.17146684144139809 -0.46446192971202138 0 0.17120073938054131 -0.45123220200337888 0 0.17146684144139809 -0.46446192971202138 0 0.15759213853868431 -0.45113306297151079 0 0.14900727366634989 -0.46501884712825781 0 0.17146684144139809 -0.46446192971202138 0 0.15759213853868431 -0.45113306297151079 0 0.17120073938054131 -0.45123220200337888 0 0.1521605439778134 -0.43517333823265708 0 0.15759213853868431 -0.45113306297151079 0 0.16573483381671769 -0.43911683261624462 0 0.15759213853868431 -0.45113306297151079 0 0.17120073938054131 -0.45123220200337888 0 0.16573483381671769 -0.43911683261624462 0 0.17618275988476059 -0.44374183802639611 0 0.17120073938054131 -0.45123220200337888 0 0.16573483381671769 -0.43911683261624462 0 0.1521605439778134 -0.43517333823265708 0 0.15759213853868431 -0.45113306297151079 0 0.13567485458578729 -0.448289196286278 0 0.1521605439778134 -0.43517333823265708 0 0.13567485458578729 -0.448289196286278 0 0.13567485458578729 -0.448289196286278 0 0.1191891651937612 -0.46140505433989892 0 0.12203304576274319 -0.43975504748265359 0 0.12945713117598301 -0.42527718494859718 0 0.13567485458578729 -0.448289196286278 0 0.12203304576274319 -0.43975504748265359 0 0.13567485458578729 -0.448289196286278 0 0.1191891651937612 -0.46140505433989892 0 0.13567485458578729 -0.448289196286278 0 0.13480127744719991 -0.46410976413563299 0 0.1191891651937612 -0.46140505433989892 0 0.13567485458578729 -0.448289196286278 0 0.13480127744719991 -0.46410976413563299 0 0.14900727366634989 -0.46501884712825781 0 0.15759213853868431 -0.45113306297151079 0 0.13567485458578729 -0.448289196286278 0 0.14900727366634989 -0.46501884712825781 0 0.14900727366634989 -0.46501884712825781 0 0.15577652408963519 -0.48266000469618581 0 0.13873200589539489 -0.47945912496791759 0 0.13480127744719991 -0.46410976413563299 0 0.14900727366634989 -0.46501884712825781 0 0.13873200589539489 -0.47945912496791759 0 0.13480127744719991 -0.46410976413563299 0 0.13873200589539489 -0.47945912496791759 0 0.11801755443736479 -0.48060781756800708 0 0.13873200589539489 -0.47945912496791759 0 0.13581988522262109 -0.50000000000000244 0 0.11801755443736479 -0.48060781756800708 0 0.13581988522262109 -0.50000000000000244 0 0.11801755443736479 -0.48060781756800708 0 0.15577652408963519 -0.48266000469618581 0 0.13873200589539489 -0.47945912496791759 0 0.13581988522262109 -0.50000000000000244 0 0.15577652408963519 -0.48266000469618581 0 0.13581988522262109 -0.50000000000000244 0 0.15548361732576529 -0.50000000000000178 0 0.15577652408963519 -0.48266000469618581 0 0.15548361732576529 -0.50000000000000178 0 0.17298031468751371 -0.48047121037671059 0 0.15548361732576529 -0.50000000000000178 0 0.17298031468751371 -0.48047121037671059 0 0.1769424376256932 -0.5 0 0.15548361732576529 -0.50000000000000178 0 0.17298031468751371 -0.48047121037671059 0 0.17146684144139809 -0.46446192971202138 0 0.15577652408963519 -0.48266000469618581 0 0.17298031468751371 -0.48047121037671059 0 0.17146684144139809 -0.46446192971202138 0 0.14900727366634989 -0.46501884712825781 0 0.15577652408963519 -0.48266000469618581 0 0.19047701204926121 -0.46094242075341862 0 0.17298031468751371 -0.48047121037671059 0 0.1806900259799068 -0.46227126151247672 0 0.17146684144139809 -0.46446192971202138 0 0.17298031468751371 -0.48047121037671059 0 0.1955652389629654 -0.47833395417678298 0 0.19047701204926121 -0.46094242075341862 0 0.17298031468751371 -0.48047121037671059 0 0.1955652389629654 -0.47833395417678298 0 0.17298031468751371 -0.48047121037671059 0 0.1857239970351309 -0.48926605560099218 0 0.19840125792562099 -0.499999999999995 0 0.1857239970351309 -0.48926605560099218 0 0.1769424376256932 -0.5 0 0.17298031468751371 -0.48047121037671059 0 0.1857239970351309 -0.48926605560099218 0 0.1769424376256932 -0.5 0 0.074737975103940479 -0.48487994098964171 0 0.071046826552429457 -0.50000000000000733 0 0.059434139084113012 -0.47963991399004141 0 0.071046826552429457 -0.50000000000000733 0 0.059434139084113012 -0.47963991399004141 0 0.074737975103940479 -0.48487994098964171 0 0.05802097188470097 -0.46975988197928431 0 0.059434139084113012 -0.47963991399004141 0 0.074737975103940479 -0.48487994098964171 0 0.071955909258469009 -0.46877079283141743 0 0.05802097188470097 -0.46975988197928431 0 0.074737975103940479 -0.48487994098964171 0 0.071955909258469009 -0.46877079283141743 0 0.082737354296077953 -0.47427357099325013 0 0.074737975103940479 -0.48487994098964171 0 0.05802097188470097 -0.46975988197928431 0 0.074737975103940479 -0.48487994098964171 0 0.082737354296077953 -0.47427357099325013 0 0.094811061721812542 -0.48112121468145302 0 0.082737354296077953 -0.47427357099325013 0 0.094811061721812542 -0.48112121468145302 0 0.1002152236521098 -0.46121563513601083 0 0.074737975103940479 -0.48487994098964171 0 0.091454978323179614 -0.49999999999999939 0 0.094811061721812542 -0.48112121468145302 0 0.074737975103940479 -0.48487994098964171 0 0.091454978323179614 -0.49999999999999939 0 0.074737975103940479 -0.48487994098964171 0 0.071046826552429457 -0.50000000000000733 0 0.091454978323179614 -0.49999999999999939 0 0.1136374317729003 -0.5 0 0.11801755443736479 -0.48060781756800708 0 0.094811061721812542 -0.48112121468145302 0 0.091454978323179614 -0.49999999999999939 0 0.1136374317729003 -0.5 0 0.094811061721812542 -0.48112121468145302 0 0.13581988522262109 -0.50000000000000244 0 0.1136374317729003 -0.5 0 0.11801755443736479 -0.48060781756800708 0 0.11801755443736479 -0.48060781756800708 0 0.094811061721812542 -0.48112121468145302 0 0.1002152236521098 -0.46121563513601083 0 0.11801755443736479 -0.48060781756800708 0 0.1002152236521098 -0.46121563513601083 0 0.1002152236521098 -0.46121563513601083 0 0.1191891651937612 -0.46140505433989892 0 0.1082504500781146 -0.44478934181291102 0 0.11801755443736479 -0.48060781756800708 0 0.1002152236521098 -0.46121563513601083 0 0.1191891651937612 -0.46140505433989892 0 0.13480127744719991 -0.46410976413563299 0 0.11801755443736479 -0.48060781756800708 0 0.1191891651937612 -0.46140505433989892 0 0.1191891651937612 -0.46140505433989892 0 0.12203304576274319 -0.43975504748265359 0 0.1082504500781146 -0.44478934181291102 0 0.1002152236521098 -0.46121563513601083 0 0.1082504500781146 -0.44478934181291102 0 0.082412892866854714 -0.44182345270401441 0 0.1002152236521098 -0.46121563513601083 0 0.082412892866854714 -0.44182345270401441 0 0.082737354296077953 -0.47427357099325013 0 0.1002152236521098 -0.46121563513601083 0 0.07989865607697158 -0.46093656822545309 0 0.1002152236521098 -0.46121563513601083 0 0.082412892866854714 -0.44182345270401441 0 0.07989865607697158 -0.46093656822545309 0 0.071955909258469009 -0.46877079283141743 0 0.082737354296077953 -0.47427357099325013 0 0.07989865607697158 -0.46093656822545309 0 0.071955909258469009 -0.46877079283141743 0 0.07989865607697158 -0.46093656822545309 0 0.064942869781788204 -0.45298741250561531 0 0.071955909258469009 -0.46877079283141743 0 0.064942869781788204 -0.45298741250561531 0 0.05802097188470097 -0.46975988197928431 0 0.082412892866854714 -0.44182345270401441 0 0.07989865607697158 -0.46093656822545309 0 0.064942869781788204 -0.45298741250561531 0 0.082412892866854714 -0.44182345270401441 0 0.064942869781788204 -0.45298741250561531 0 0.064610562081599654 -0.42243127027201799 0 0.082412892866854714 -0.44182345270401441 0 0.064610562081599654 -0.42243127027201799 0 0.085410796704641828 -0.41553833344022301 0 0.082412892866854714 -0.44182345270401441 0 0.064610562081599654 -0.42243127027201799 0 0.064610562081599654 -0.42243127027201799 0 0.085410796704641828 -0.41553833344022301 0 0.071260751408415451 -0.40583032332525898 0 0.082412892866854714 -0.44182345270401441 0 0.085410796704641828 -0.41553833344022301 0 0.10565257718969159 -0.42402980380391259 0 0.1082504500781146 -0.44478934181291102 0 0.10565257718969159 -0.42402980380391259 0 0.1082504500781146 -0.44478934181291102 0 0.082412892866854714 -0.44182345270401441 0 0.10565257718969159 -0.42402980380391259 0 0.12203304576274319 -0.43975504748265359 0 0.1082504500781146 -0.44478934181291102 0 0.10565257718969159 -0.42402980380391259 0 0.12945713117598301 -0.42527718494859718 0 0.12203304576274319 -0.43975504748265359 0 0.10565257718969159 -0.42402980380391259 0 0.12945713117598301 -0.42527718494859718 0 0.10565257718969159 -0.42402980380391259 0 0.1185943653130178 -0.41089393958744808 0 0.10565257718969159 -0.42402980380391259 0 0.10305470430126849 -0.40327026579491432 0 0.10565257718969159 -0.42402980380391259 0 0.1185943653130178 -0.41089393958744808 0 0.10305470430126849 -0.40327026579491432 0 0.085410796704641828 -0.41553833344022301 0 0.10565257718969159 -0.42402980380391259 0 0.10305470430126849 -0.40327026579491432 0 0.10305470430126849 -0.40327026579491432 0 0.1092296532162271 -0.39195520602732847 0 0.1018679158255022 -0.38137383587803358 0 0.10305470430126849 -0.40327026579491432 0 0.1018679158255022 -0.38137383587803358 0 0.084827885114816814 -0.39510276155480978 0 0.10305470430126849 -0.40327026579491432 0 0.1018679158255022 -0.38137383587803358 0 0.1185943653130178 -0.41089393958744808 0 0.10305470430126849 -0.40327026579491432 0 0.1092296532162271 -0.39195520602732847 0 0.1185943653130178 -0.41089393958744808 0 0.1092296532162271 -0.39195520602732847 0 0.12412735500694751 -0.39493505064503392 0 0.12412735500694751 -0.39493505064503392 0 0.1208593498238435 -0.38006314209191833 0 0.1018679158255022 -0.38137383587803358 0 0.1092296532162271 -0.39195520602732847 0 0.12412735500694751 -0.39493505064503392 0 0.1018679158255022 -0.38137383587803358 0 0.12412735500694751 -0.39493505064503392 0 0.1018679158255022 -0.38137383587803358 0 0.1208593498238435 -0.38006314209191833 0 0.1018679158255022 -0.38137383587803358 0 0.12334710111447229 -0.36406834251145731 0 0.1018679158255022 -0.38137383587803358 0 0.1001863568717406 -0.38034937241650962 0 0.10879209213087419 -0.36797725762153549 0 0.1018679158255022 -0.38137383587803358 0 0.1001863568717406 -0.38034937241650962 0 0.092680417082859706 -0.38189565836938699 0 0.1018679158255022 -0.38137383587803358 0 0.1001863568717406 -0.38034937241650962 0 0.1001863568717406 -0.38034937241650962 0 0.092680417082859706 -0.38189565836938699 0 0.078941289569781151 -0.36740614783332631 0 0.1018679158255022 -0.38137383587803358 0 0.084827885114816814 -0.39510276155480978 0 0.1018679158255022 -0.38137383587803358 0 0.092680417082859706 -0.38189565836938699 0 0.084827885114816814 -0.39510276155480978 0 0.083667078469080447 -0.3817485906143725 0 0.076461538166658155 -0.38231907318138902 0 0.078941289569781151 -0.36740614783332631 0 0.092680417082859706 -0.38189565836938699 0 0.083667078469080447 -0.3817485906143725 0 0.078941289569781151 -0.36740614783332631 0 0.084827885114816814 -0.39510276155480978 0 0.073546264855348126 -0.39398280964304111 0 0.076461538166658155 -0.38231907318138902 0 0.083667078469080447 -0.3817485906143725 0 0.084827885114816814 -0.39510276155480978 0 0.076461538166658155 -0.38231907318138902 0 0.092680417082859706 -0.38189565836938699 0 0.083667078469080447 -0.3817485906143725 0 0.084827885114816814 -0.39510276155480978 0 0.085410796704641828 -0.41553833344022301 0 0.10305470430126849 -0.40327026579491432 0 0.084827885114816814 -0.39510276155480978 0 0.085410796704641828 -0.41553833344022301 0 0.084827885114816814 -0.39510276155480978 0 0.071260751408415451 -0.40583032332525898 0 0.084827885114816814 -0.39510276155480978 0 0.073546264855348126 -0.39398280964304111 0 0.071260751408415451 -0.40583032332525898 0 0.073546264855348126 -0.39398280964304111 0 0.071260751408415451 -0.40583032332525898 0 0.061634884731502082 -0.39267908051070671 0 0.076461538166658155 -0.38231907318138902 0 0.061634884731502082 -0.39267908051070671 0 0.076461538166658155 -0.38231907318138902 0 0.061634884731502082 -0.39267908051070671 0 0.061904282875925747 -0.37237526148823941 0 0.073546264855348126 -0.39398280964304111 0 0.076461538166658155 -0.38231907318138902 0 0.061634884731502082 -0.39267908051070671 0 0.051370350477500881 -0.3764161884637201 0 0.045801185216693012 -0.38580832539780119 0 0.043663507306638913 -0.36868104746756258 0 0.051370350477500881 -0.3764161884637201 0 0.061634884731502082 -0.39267908051070671 0 0.045801185216693012 -0.38580832539780119 0 0.051370350477500881 -0.3764161884637201 0 0.061634884731502082 -0.39267908051070671 0 0.061904282875925747 -0.37237526148823941 0 0.071260751408415451 -0.40583032332525898 0 0.061634884731502082 -0.39267908051070671 0 0.04680823129634433 -0.40303908784002201 0 0.061634884731502082 -0.39267908051070671 0 0.04680823129634433 -0.40303908784002201 0 0.045801185216693012 -0.38580832539780119 0 0.061634884731502082 -0.39267908051070671 0 0.04680823129634433 -0.40303908784002201 0 0.04680823129634433 -0.40303908784002201 0 0.02837172461734 -0.38295609391969199 0 0.04680823129634433 -0.40303908784002201 0 0.02837172461734 -0.38295609391969199 0 0.028215565298714249 -0.40094151263492078 0 0.045801185216693012 -0.38580832539780119 0 0.02837172461734 -0.38295609391969199 0 0.043663507306638913 -0.36868104746756258 0 0.04680823129634433 -0.40303908784002201 0 0.045801185216693012 -0.38580832539780119 0 0.02837172461734 -0.38295609391969199 0 0.02837172461734 -0.38295609391969199 0 0.0122991559467155 -0.37891225603134221 0 0.011208636448502229 -0.39508796301279092 0 -0.002178803782163227 -0.37161627006544062 0 0.0122991559467155 -0.37891225603134221 0 0.011208636448502229 -0.39508796301279092 0 -0.002178803782163227 -0.37161627006544062 0 0.011208636448502229 -0.39508796301279092 0 -0.002178803782163227 -0.37161627006544062 0 -0.0066930742226519926 -0.39143820132839208 0 0.011208636448502229 -0.39508796301279092 0 -0.001728596279610697 -0.40597762003102339 0 0.011208636448502229 -0.39508796301279092 0 0.0082246319185010179 -0.41465428951275207 0 -0.0066930742226519926 -0.39143820132839208 0 -0.001728596279610697 -0.40597762003102339 0 0.011208636448502229 -0.39508796301279092 0 0.011208636448502229 -0.39508796301279092 0 0.028215565298714249 -0.40094151263492078 0 0.024596076679173799 -0.41855965596013778 0 0.02837172461734 -0.38295609391969199 0 0.011208636448502229 -0.39508796301279092 0 0.028215565298714249 -0.40094151263492078 0 0.011208636448502229 -0.39508796301279092 0 0.024596076679173799 -0.41855965596013778 0 0.011208636448502229 -0.39508796301279092 0 0.024596076679173799 -0.41855965596013778 0 0.0082246319185010179 -0.41465428951275207 0 0.024596076679173799 -0.41855965596013778 0 0.0082246319185010179 -0.41465428951275207 0 0.01039378864355619 -0.42848339288335913 0 -0.009537301248459449 -0.42510302968362512 0 0.0082246319185010179 -0.41465428951275207 0 0.01039378864355619 -0.42848339288335913 0 0.024596076679173799 -0.41855965596013778 0 0.036208764147486278 -0.43891974197010591 0 0.024596076679173799 -0.41855965596013778 0 0.036208764147486278 -0.43891974197010591 0 0.020713539006084219 -0.44010250100644183 0 0.024596076679173799 -0.41855965596013778 0 0.01039378864355619 -0.42848339288335913 0 0.020713539006084219 -0.44010250100644183 0 0.024596076679173799 -0.41855965596013778 0 0.01039378864355619 -0.42848339288335913 0 0.024596076679173799 -0.41855965596013778 0 0.043950702345966319 -0.42295947833088071 0 0.036208764147486278 -0.43891974197010591 0 0.043950702345966319 -0.42295947833088071 0 0.051347790295756007 -0.43901682978775403 0 0.036208764147486278 -0.43891974197010591 0 0.04680823129634433 -0.40303908784002201 0 0.024596076679173799 -0.41855965596013778 0 0.04680823129634433 -0.40303908784002201 0 0.028215565298714249 -0.40094151263492078 0 0.024596076679173799 -0.41855965596013778 0 0.04680823129634433 -0.40303908784002201 0 0.024596076679173799 -0.41855965596013778 0 0.043950702345966319 -0.42295947833088071 0 0.064610562081599654 -0.42243127027201799 0 0.071260751408415451 -0.40583032332525898 0 0.04680823129634433 -0.40303908784002201 0 0.064610562081599654 -0.42243127027201799 0 0.04680823129634433 -0.40303908784002201 0 0.064610562081599654 -0.42243127027201799 0 0.04680823129634433 -0.40303908784002201 0 0.043950702345966319 -0.42295947833088071 0 0.064610562081599654 -0.42243127027201799 0 0.043950702345966319 -0.42295947833088071 0 0.051347790295756007 -0.43901682978775403 0 0.064942869781788204 -0.45298741250561531 0 0.064610562081599654 -0.42243127027201799 0 0.051347790295756007 -0.43901682978775403 0 0.064942869781788204 -0.45298741250561531 0 0.051347790295756007 -0.43901682978775403 0 0.047821451615799627 -0.45927982798007361 0 0.064942869781788204 -0.45298741250561531 0 0.047821451615799627 -0.45927982798007361 0 0.05802097188470097 -0.46975988197928431 0 0.047821451615799627 -0.45927982798007361 0 0.023714967739582489 -0.4565662814222432 0 0.032020960621095843 -0.47777188036233098 0 0.047821451615799627 -0.45927982798007361 0 0.036208764147486278 -0.43891974197010591 0 0.051347790295756007 -0.43901682978775403 0 0.047821451615799627 -0.45927982798007361 0 0.036208764147486278 -0.43891974197010591 0 0.047821451615799627 -0.45927982798007361 0 0.036208764147486278 -0.43891974197010591 0 0.023714967739582489 -0.4565662814222432 0 0.036208764147486278 -0.43891974197010591 0 0.020713539006084219 -0.44010250100644183 0 0.023714967739582489 -0.4565662814222432 0 -0.0013374034004768371 -0.44947558896604423 0 0.01039378864355619 -0.42848339288335913 0 0.020713539006084219 -0.44010250100644183 0 -0.0013374034004768371 -0.44947558896604423 0 0.020713539006084219 -0.44010250100644183 0 0.023714967739582489 -0.4565662814222432 0 -0.0013374034004768371 -0.44947558896604423 0 0.0068624944475057766 -0.47384814824846327 0 -0.0013374034004768371 -0.44947558896604423 0 0.023714967739582489 -0.4565662814222432 0 0.0068624944475057766 -0.47384814824846327 0 0.023714967739582489 -0.4565662814222432 0 0.0068624944475057766 -0.47384814824846327 0 0.032020960621095843 -0.47777188036233098 0 0.0068624944475057766 -0.47384814824846327 0 0.0150623922954884 -0.49822070753088238 0 0.032020960621095843 -0.47777188036233098 0 -0.015217900669161011 -0.5 0 0.0024053695883212941 -0.48891336768777249 0 0.013537008404702511 -0.5 0 0.0068624944475057766 -0.47384814824846327 0 0.0024053695883212941 -0.48891336768777249 0 0.0150623922954884 -0.49822070753088238 0 0.0068624944475057766 -0.47384814824846327 0 0.0150623922954884 -0.49822070753088238 0 0.0024053695883212941 -0.48891336768777249 0 0.0150623922954884 -0.49822070753088238 0 0.013537008404702511 -0.5 0 0.0150623922954884 -0.49822070753088238 0 0.013537008404702511 -0.5 0 0.042291917478565873 -0.5 0 0.0150623922954884 -0.49822070753088238 0 0.042291917478565873 -0.5 0 0.032020960621095843 -0.47777188036233098 0 0.042291917478565873 -0.5 0 0.032020960621095843 -0.47777188036233098 0 0.059434139084113012 -0.47963991399004141 0 0.047821451615799627 -0.45927982798007361 0 0.032020960621095843 -0.47777188036233098 0 0.059434139084113012 -0.47963991399004141 0 0.047821451615799627 -0.45927982798007361 0 0.05802097188470097 -0.46975988197928431 0 0.059434139084113012 -0.47963991399004141 0 0.047821451615799627 -0.45927982798007361 0 0.059434139084113012 -0.47963991399004141 0 0.071046826552429457 -0.50000000000000733 0 0.042291917478565873 -0.5 0 0.059434139084113012 -0.47963991399004141 0 0.078456545354339768 -0.28525100698693651 0 0.075192778843485145 -0.3004755496101415 0 0.095899689397586599 -0.3008291305439913 0 0.078456545354339768 -0.28525100698693651 0 0.095711127176573443 -0.2751242682777974 0 0.095899689397586599 -0.3008291305439913 0 0.075192778843485145 -0.3004755496101415 0 0.095899689397586599 -0.3008291305439913 0 0.074188022781041252 -0.31649930169162399 0 0.095899689397586599 -0.3008291305439913 0 0.074188022781041252 -0.31649930169162399 0 0.075192778843485145 -0.3004755496101415 0 0.074188022781041252 -0.31649930169162399 0 0.058270312985904418 -0.30816514798469019 0 0.075192778843485145 -0.3004755496101415 0 0.068995976747761104 -0.2945131319279734 0 0.058270312985904418 -0.30816514798469019 0 0.068995976747761104 -0.2945131319279734 0 0.064064269807315097 -0.28416082313012542 0 0.058270312985904418 -0.30816514798469019 0 0.078456545354339768 -0.28525100698693651 0 0.075192778843485145 -0.3004755496101415 0 0.068995976747761104 -0.2945131319279734 0 0.078456545354339768 -0.28525100698693651 0 0.068995976747761104 -0.2945131319279734 0 0.064064269807315097 -0.28416082313012542 0 0.064064269807315097 -0.28416082313012542 0 0.069858226628725775 -0.26015649827556059 0 0.078456545354339768 -0.28525100698693651 0 0.064064269807315097 -0.28416082313012542 0 0.069858226628725775 -0.26015649827556059 0 0.069858226628725775 -0.26015649827556059 0 0.095711127176573443 -0.2751242682777974 0 0.096521476943682558 -0.25181800011133371 0 0.078456545354339768 -0.28525100698693651 0 0.069858226628725775 -0.26015649827556059 0 0.095711127176573443 -0.2751242682777974 0 0.095711127176573443 -0.2751242682777974 0 0.114720785939063 -0.26575264298982931 0 0.1176113560141319 -0.2851589593963586 0 0.095711127176573443 -0.2751242682777974 0 0.096521476943682558 -0.25181800011133371 0 0.114720785939063 -0.26575264298982931 0 0.1376178273856396 -0.2676878026278281 0 0.114720785939063 -0.26575264298982931 0 0.1200034520355143 -0.24749468667538321 0 0.096521476943682558 -0.25181800011133371 0 0.114720785939063 -0.26575264298982931 0 0.1200034520355143 -0.24749468667538321 0 0.1376178273856396 -0.2676878026278281 0 0.114720785939063 -0.26575264298982931 0 0.1176113560141319 -0.2851589593963586 0 0.13584279120622419 -0.29064916595208462 0 0.1176113560141319 -0.2851589593963586 0 0.1212075847983899 -0.30357596212866123 0 0.1176113560141319 -0.2851589593963586 0 0.095899689397586599 -0.3008291305439913 0 0.1212075847983899 -0.30357596212866123 0 0.1176113560141319 -0.2851589593963586 0 0.095899689397586599 -0.3008291305439913 0 0.095711127176573443 -0.2751242682777974 0 0.1176113560141319 -0.2851589593963586 0 0.095899689397586599 -0.3008291305439913 0 0.095899689397586599 -0.3008291305439913 0 0.1212075847983899 -0.30357596212866123 0 0.1047724191350739 -0.31963875894108951 0 0.1212075847983899 -0.30357596212866123 0 0.1249111379911398 -0.32186001205002218 0 0.1047724191350739 -0.31963875894108951 0 0.1249111379911398 -0.32186001205002218 0 0.1047724191350739 -0.31963875894108951 0 0.11573058637367541 -0.34380091622275832 0 0.094619564876377599 -0.33586527524184762 0 0.1047724191350739 -0.31963875894108951 0 0.11573058637367541 -0.34380091622275832 0 0.094619564876377599 -0.33586527524184762 0 0.1047724191350739 -0.31963875894108951 0 0.086339338786571823 -0.32698567366184278 0 0.095899689397586599 -0.3008291305439913 0 0.1047724191350739 -0.31963875894108951 0 0.086339338786571823 -0.32698567366184278 0 0.1018679158255022 -0.38137383587803358 0 0.12334710111447229 -0.36406834251145731 0 0.1018679158255022 -0.38137383587803358 0 0.12334710111447229 -0.36406834251145731 0 0.10879209213087419 -0.36797725762153549 0 0.12334710111447229 -0.36406834251145731 0 0.11573058637367541 -0.34380091622275832 0 0.10879209213087419 -0.36797725762153549 0 0.11573058637367541 -0.34380091622275832 0 0.097402960874061584 -0.35810732382917831 0 0.10879209213087419 -0.36797725762153549 0 0.094619564876377599 -0.33586527524184762 0 0.11573058637367541 -0.34380091622275832 0 0.097402960874061584 -0.35810732382917831 0 0.094619564876377599 -0.33586527524184762 0 0.097402960874061584 -0.35810732382917831 0 0.1001863568717406 -0.38034937241650962 0 0.097402960874061584 -0.35810732382917831 0 0.1001863568717406 -0.38034937241650962 0 0.097402960874061584 -0.35810732382917831 0 0.10879209213087419 -0.36797725762153549 0 0.1001863568717406 -0.38034937241650962 0 0.097402960874061584 -0.35810732382917831 0 0.078941289569781151 -0.36740614783332631 0 0.1001863568717406 -0.38034937241650962 0 0.078941289569781151 -0.36740614783332631 0 0.094619564876377599 -0.33586527524184762 0 0.097402960874061584 -0.35810732382917831 0 0.084740357312199394 -0.34701535865000288 0 0.078941289569781151 -0.36740614783332631 0 0.084740357312199394 -0.34701535865000288 0 0.072564810466095128 -0.35396504242622201 0 0.097402960874061584 -0.35810732382917831 0 0.078941289569781151 -0.36740614783332631 0 0.084740357312199394 -0.34701535865000288 0 0.078941289569781151 -0.36740614783332631 0 0.072564810466095128 -0.35396504242622201 0 0.057696222267823373 -0.35446292325014028 0 0.084740357312199394 -0.34701535865000288 0 0.072564810466095128 -0.35396504242622201 0 0.073102422775426085 -0.33909783780230318 0 0.064643683218506637 -0.34920539315333932 0 0.072564810466095128 -0.35396504242622201 0 0.073102422775426085 -0.33909783780230318 0 0.064643683218506637 -0.34920539315333932 0 0.072564810466095128 -0.35396504242622201 0 0.057696222267823373 -0.35446292325014028 0 0.078941289569781151 -0.36740614783332631 0 0.057696222267823373 -0.35446292325014028 0 0.076461538166658155 -0.38231907318138902 0 0.078941289569781151 -0.36740614783332631 0 0.061904282875925747 -0.37237526148823941 0 0.078941289569781151 -0.36740614783332631 0 0.061904282875925747 -0.37237526148823941 0 0.057696222267823373 -0.35446292325014028 0 0.095899689397586599 -0.3008291305439913 0 0.086339338786571823 -0.32698567366184278 0 0.074188022781041252 -0.31649930169162399 0 0.094619564876377599 -0.33586527524184762 0 0.084740357312199394 -0.34701535865000288 0 0.086339338786571823 -0.32698567366184278 0 0.084740357312199394 -0.34701535865000288 0 0.086339338786571823 -0.32698567366184278 0 0.073102422775426085 -0.33909783780230318 0 0.073102422775426085 -0.33909783780230318 0 0.074188022781041252 -0.31649930169162399 0 0.052476356164494947 -0.33216947283925541 0 0.064643683218506637 -0.34920539315333932 0 0.073102422775426085 -0.33909783780230318 0 0.060945063747813971 -0.34285112352430303 0 0.074188022781041252 -0.31649930169162399 0 0.052476356164494947 -0.33216947283925541 0 0.086339338786571823 -0.32698567366184278 0 0.073102422775426085 -0.33909783780230318 0 0.074188022781041252 -0.31649930169162399 0 0.052476356164494947 -0.33216947283925541 0 0.058270312985904418 -0.30816514798469019 0 0.052476356164494947 -0.33216947283925541 0 0.044648526871603783 -0.31770081170742831 0 0.058270312985904418 -0.30816514798469019 0 0.074188022781041252 -0.31649930169162399 0 0.052476356164494947 -0.33216947283925541 0 0.058270312985904418 -0.30816514798469019 0 0.052476356164494947 -0.33216947283925541 0 0.047583047975914103 -0.35244241635483559 0 0.073102422775426085 -0.33909783780230318 0 0.060945063747813971 -0.34285112352430303 0 0.052476356164494947 -0.33216947283925541 0 0.060945063747813971 -0.34285112352430303 0 0.052476356164494947 -0.33216947283925541 0 0.054181307711507642 -0.34983992205818981 0 0.052476356164494947 -0.33216947283925541 0 0.04071506683574927 -0.34065806194451792 0 0.047583047975914103 -0.35244241635483559 0 0.052476356164494947 -0.33216947283925541 0 0.04071506683574927 -0.34065806194451792 0 0.044648526871603783 -0.31770081170742831 0 0.04071506683574927 -0.34065806194451792 0 0.03015636661650286 -0.3225410253719756 0 0.04071506683574927 -0.34065806194451792 0 0.03015636661650286 -0.3225410253719756 0 0.02636863849756152 -0.33688388254537838 0 0.052476356164494947 -0.33216947283925541 0 0.04071506683574927 -0.34065806194451792 0 0.04071506683574927 -0.34065806194451792 0 0.044648526871603783 -0.31770081170742831 0 0.03015636661650286 -0.3225410253719756 0 0.044648526871603783 -0.31770081170742831 0 0.03015636661650286 -0.3225410253719756 0 0.034491627806478041 -0.30853974567073322 0 0.061904282875925747 -0.37237526148823941 0 0.053259535722039633 -0.3641180164926533 0 0.057696222267823373 -0.35446292325014028 0 0.051370350477500881 -0.3764161884637201 0 0.053259535722039633 -0.3641180164926533 0 0.043663507306638913 -0.36868104746756258 0 0.051370350477500881 -0.3764161884637201 0 0.061904282875925747 -0.37237526148823941 0 0.053259535722039633 -0.3641180164926533 0 0.053259535722039633 -0.3641180164926533 0 0.048773826387857627 -0.3544856011778737 0 0.043663507306638913 -0.36868104746756258 0 0.052476356164494947 -0.33216947283925541 0 0.047583047975914103 -0.35244241635483559 0 0.054181307711507642 -0.34983992205818981 0 0.053259535722039633 -0.3641180164926533 0 0.053244657324237762 -0.3582642649149802 0 0.048773826387857627 -0.3544856011778737 0 0.053244657324237762 -0.3582642649149802 0 0.048773826387857627 -0.3544856011778737 0 0.054181307711507642 -0.34983992205818981 0 0.048773826387857627 -0.3544856011778737 0 0.047583047975914103 -0.35244241635483559 0 0.054181307711507642 -0.34983992205818981 0 0.048773826387857627 -0.3544856011778737 0 0.047583047975914103 -0.35244241635483559 0 0.053259535722039633 -0.3641180164926533 0 0.053244657324237762 -0.3582642649149802 0 0.057696222267823373 -0.35446292325014028 0 0.053244657324237762 -0.3582642649149802 0 0.057696222267823373 -0.35446292325014028 0 0.054181307711507642 -0.34983992205818981 0 0.064643683218506637 -0.34920539315333932 0 0.057696222267823373 -0.35446292325014028 0 0.054181307711507642 -0.34983992205818981 0 0.064643683218506637 -0.34920539315333932 0 0.060945063747813971 -0.34285112352430303 0 0.054181307711507642 -0.34983992205818981 0 0.048773826387857627 -0.3544856011778737 0 0.047583047975914103 -0.35244241635483559 0 0.043663507306638913 -0.36868104746756258 0 0.04071506683574927 -0.34065806194451792 0 0.047583047975914103 -0.35244241635483559 0 0.04071506683574927 -0.34065806194451792 0 0.047583047975914103 -0.35244241635483559 0 0.03985573710467899 -0.35136837444597901 0 0.04071506683574927 -0.34065806194451792 0 0.03985573710467899 -0.35136837444597901 0 0.03205896378917665 -0.35434441690964041 0 0.04071506683574927 -0.34065806194451792 0 0.03205896378917665 -0.35434441690964041 0 0.025431496553892478 -0.35168882095041942 0 0.04071506683574927 -0.34065806194451792 0 0.025431496553892478 -0.35168882095041942 0 0.03985573710467899 -0.35136837444597901 0 0.03205896378917665 -0.35434441690964041 0 0.039065869817875902 -0.35802860257492208 0 0.047583047975914103 -0.35244241635483559 0 0.03985573710467899 -0.35136837444597901 0 0.039065869817875902 -0.35802860257492208 0 0.02837172461734 -0.38295609391969199 0 0.033371525452051833 -0.36592480980272157 0 0.043663507306638913 -0.36868104746756258 0 0.047583047975914103 -0.35244241635483559 0 0.039065869817875902 -0.35802860257492208 0 0.043663507306638913 -0.36868104746756258 0 0.047583047975914103 -0.35244241635483559 0 0.043663507306638913 -0.36868104746756258 0 0.039065869817875902 -0.35802860257492208 0 0.033371525452051833 -0.36592480980272157 0 0.043663507306638913 -0.36868104746756258 0 0.03205896378917665 -0.35434441690964041 0 0.039065869817875902 -0.35802860257492208 0 0.033371525452051833 -0.36592480980272157 0 0.02837172461734 -0.38295609391969199 0 0.0099352179383349771 -0.36287309999936251 0 0.02837172461734 -0.38295609391969199 0 0.023697561729227701 -0.3656138881417908 0 0.0099352179383349771 -0.36287309999936251 0 0.02837172461734 -0.38295609391969199 0 0.033371525452051833 -0.36592480980272157 0 0.023697561729227701 -0.3656138881417908 0 0.02837172461734 -0.38295609391969199 0 0.0122991559467155 -0.37891225603134221 0 0.0099352179383349771 -0.36287309999936251 0 0.03205896378917665 -0.35434441690964041 0 0.033371525452051833 -0.36592480980272157 0 0.023697561729227701 -0.3656138881417908 0 0.023697561729227701 -0.3656138881417908 0 0.025431496553892478 -0.35168882095041942 0 0.0099352179383349771 -0.36287309999936251 0 0.025431496553892478 -0.35168882095041942 0 0.0075807645751098419 -0.34453611388615663 0 0.025431496553892478 -0.35168882095041942 0 0.0075807645751098419 -0.34453611388615663 0 0.02636863849756152 -0.33688388254537838 0 0.025431496553892478 -0.35168882095041942 0 0.0099352179383349771 -0.36287309999936251 0 0.03205896378917665 -0.35434441690964041 0 0.023697561729227701 -0.3656138881417908 0 0.025431496553892478 -0.35168882095041942 0 0.03205896378917665 -0.35434441690964041 0 0.025431496553892478 -0.35168882095041942 0 -0.0096343958099064687 -0.34155580596031437 0 0.0099352179383349771 -0.36287309999936251 0 -0.0096343958099064687 -0.34155580596031437 0 0.0075807645751098419 -0.34453611388615663 0 0.0099352179383349771 -0.36287309999936251 0 0.025431496553892478 -0.35168882095041942 0 0.0075807645751098419 -0.34453611388615663 0 0.0099352179383349771 -0.36287309999936251 0 -0.002178803782163227 -0.37161627006544062 0 0.0122991559467155 -0.37891225603134221 0 0.0099352179383349771 -0.36287309999936251 0 -0.0070150904897389628 -0.35875101633193152 0 -0.002178803782163227 -0.37161627006544062 0 0.0099352179383349771 -0.36287309999936251 0 -0.002178803782163227 -0.37161627006544062 0 0.0099352179383349771 -0.36287309999936251 0 0.03015636661650286 -0.3225410253719756 0 0.019597666397256509 -0.30442398879943339 0 0.03015636661650286 -0.3225410253719756 0 0.014793392922354411 -0.31628120652474823 0 0.019597666397256509 -0.30442398879943339 0 0.03015636661650286 -0.3225410253719756 0 0.01453256369494863 -0.32953892791496292 0 0.014793392922354411 -0.31628120652474823 0 0.03015636661650286 -0.3225410253719756 0 0.02636863849756152 -0.33688388254537838 0 0.01453256369494863 -0.32953892791496292 0 0.0075807645751098419 -0.34453611388615663 0 0.02636863849756152 -0.33688388254537838 0 0.01453256369494863 -0.32953892791496292 0 0.04071506683574927 -0.34065806194451792 0 0.025431496553892478 -0.35168882095041942 0 0.02636863849756152 -0.33688388254537838 0 0.0075807645751098419 -0.34453611388615663 0 0.01453256369494863 -0.32953892791496292 0 0.0034794820758208261 -0.33361449123698089 0 -0.010269967403673339 -0.33738340682189533 0 0.0075807645751098419 -0.34453611388615663 0 0.0034794820758208261 -0.33361449123698089 0 0.01453256369494863 -0.32953892791496292 0 0.0034794820758208261 -0.33361449123698089 0 0.001904989571353899 -0.32214434476741449 0 0.001904989571353899 -0.32214434476741449 0 0.014793392922354411 -0.31628120652474823 0 0.0019518825097332619 -0.30029273945570772 0 0.01453256369494863 -0.32953892791496292 0 0.001904989571353899 -0.32214434476741449 0 0.014793392922354411 -0.31628120652474823 0 0.0019518825097332619 -0.30029273945570772 0 0.0090389661780101715 -0.28630695222689118 0 0.019597666397256509 -0.30442398879943339 0 0.014793392922354411 -0.31628120652474823 0 0.0019518825097332619 -0.30029273945570772 0 0.019597666397256509 -0.30442398879943339 0 -0.0020851015340006161 -0.28052611142458661 0 0.0019518825097332619 -0.30029273945570772 0 0.0090389661780101715 -0.28630695222689118 0 0.0090389661780101715 -0.28630695222689118 0 0.019597666397256509 -0.30442398879943339 0 0.0090389661780101715 -0.28630695222689118 0 0.019597666397256509 -0.30442398879943339 0 0.033821918158706138 -0.27707393290215671 0 0.03015636661650286 -0.3225410253719756 0 0.019597666397256509 -0.30442398879943339 0 0.034491627806478041 -0.30853974567073322 0 0.019597666397256509 -0.30442398879943339 0 0.034491627806478041 -0.30853974567073322 0 0.043330632548044458 -0.29475484461045087 0 0.044648526871603783 -0.31770081170742831 0 0.034491627806478041 -0.30853974567073322 0 0.043330632548044458 -0.29475484461045087 0 0.019597666397256509 -0.30442398879943339 0 0.043330632548044458 -0.29475484461045087 0 0.033821918158706138 -0.27707393290215671 0 0.043330632548044458 -0.29475484461045087 0 0.062049371387241412 -0.28749956346879602 0 0.033821918158706138 -0.27707393290215671 0 0.064064269807315097 -0.28416082313012542 0 0.058270312985904418 -0.30816514798469019 0 0.062049371387241412 -0.28749956346879602 0 0.033821918158706138 -0.27707393290215671 0 0.064064269807315097 -0.28416082313012542 0 0.062049371387241412 -0.28749956346879602 0 0.058270312985904418 -0.30816514798469019 0 0.043330632548044458 -0.29475484461045087 0 0.062049371387241412 -0.28749956346879602 0 0.058270312985904418 -0.30816514798469019 0 0.044648526871603783 -0.31770081170742831 0 0.043330632548044458 -0.29475484461045087 0 0.058270312985904418 -0.30816514798469019 0 0.069858226628725775 -0.26015649827556059 0 0.051624075113339378 -0.26919050519125598 0 0.046498349670861652 -0.24826912251879649 0 0.064064269807315097 -0.28416082313012542 0 0.069858226628725775 -0.26015649827556059 0 0.051624075113339378 -0.26919050519125598 0 0.062049371387241412 -0.28749956346879602 0 0.051624075113339378 -0.26919050519125598 0 0.033821918158706138 -0.27707393290215671 0 0.064064269807315097 -0.28416082313012542 0 0.062049371387241412 -0.28749956346879602 0 0.051624075113339378 -0.26919050519125598 0 0.051624075113339378 -0.26919050519125598 0 0.033821918158706138 -0.27707393290215671 0 0.034240698289148337 -0.25967273023798509 0 0.051624075113339378 -0.26919050519125598 0 0.034240698289148337 -0.25967273023798509 0 0.046498349670861652 -0.24826912251879649 0 0.034240698289148337 -0.25967273023798509 0 0.02296875629887114 -0.2464092256209898 0 0.046498349670861652 -0.24826912251879649 0 0.034240698289148337 -0.25967273023798509 0 0.0055944649301708496 -0.26664830233551728 0 0.02296875629887114 -0.2464092256209898 0 0.0090389661780101715 -0.28630695222689118 0 0.033821918158706138 -0.27707393290215671 0 0.0055944649301708496 -0.26664830233551728 0 0.033821918158706138 -0.27707393290215671 0 0.034240698289148337 -0.25967273023798509 0 0.0055944649301708496 -0.26664830233551728 0 0.033821918158706138 -0.27707393290215671 0 0.0055944649301708496 -0.26664830233551728 0 -0.0020851015340006161 -0.28052611142458661 0 0.0090389661780101715 -0.28630695222689118 0 0.0055944649301708496 -0.26664830233551728 0 0.0055944649301708496 -0.26664830233551728 0 0.0055632338660241776 -0.24332209518663511 0 0.02296875629887114 -0.2464092256209898 0 -0.0080727856436109482 -0.2481099565327444 0 0.0055944649301708496 -0.26664830233551728 0 0.0055632338660241776 -0.24332209518663511 0 0.0055632338660241776 -0.24332209518663511 0 0.0032521440618358652 -0.23009641691855939 0 0.019268989126464159 -0.2308348024940351 0 -0.0084819670471955304 -0.2367225590632196 0 0.0055632338660241776 -0.24332209518663511 0 0.0032521440618358652 -0.23009641691855939 0 -0.0075276580997289226 -0.21896018305478171 0 0.0032521440618358652 -0.23009641691855939 0 0.012041166441398349 -0.21677938876306921 0 0.0032521440618358652 -0.23009641691855939 0 0.019268989126464159 -0.2308348024940351 0 0.012041166441398349 -0.21677938876306921 0 0.019268989126464159 -0.2308348024940351 0 0.028464877365028059 -0.21915571909051779 0 0.012041166441398349 -0.21677938876306921 0 0.019268989126464159 -0.2308348024940351 0 0.028464877365028059 -0.21915571909051779 0 0.041174919052571327 -0.22964645066930789 0 0.0055632338660241776 -0.24332209518663511 0 0.019268989126464159 -0.2308348024940351 0 0.02296875629887114 -0.2464092256209898 0 0.019268989126464159 -0.2308348024940351 0 0.02296875629887114 -0.2464092256209898 0 0.041174919052571327 -0.22964645066930789 0 -0.0075276580997289226 -0.21896018305478171 0 0.003555539334036632 -0.19934620758084881 0 0.012041166441398349 -0.21677938876306921 0 0.003555539334036632 -0.19934620758084881 0 0.012041166441398349 -0.21677938876306921 0 0.02523310686075431 -0.20228300343967229 0 0.028464877365028059 -0.21915571909051779 0 0.012041166441398349 -0.21677938876306921 0 0.02523310686075431 -0.20228300343967229 0 0.02523310686075431 -0.20228300343967229 0 0.033125333554059701 -0.1865598477748947 0 0.018588522793563201 -0.18166153924030251 0 0.003555539334036632 -0.19934620758084881 0 0.02523310686075431 -0.20228300343967229 0 0.018588522793563201 -0.18166153924030251 0 0.048648578511840943 -0.20623258170594561 0 0.049880579816306267 -0.17970719815632741 0 0.033125333554059701 -0.1865598477748947 0 0.02523310686075431 -0.20228300343967229 0 0.048648578511840943 -0.20623258170594561 0 0.033125333554059701 -0.1865598477748947 0 0.028464877365028059 -0.21915571909051779 0 0.02523310686075431 -0.20228300343967229 0 0.048648578511840943 -0.20623258170594561 0 0.028464877365028059 -0.21915571909051779 0 0.048648578511840943 -0.20623258170594561 0 0.041174919052571327 -0.22964645066930789 0 0.048648578511840943 -0.20623258170594561 0 0.059757914812518881 -0.22869522271940709 0 0.066598585428591164 -0.21133354617687591 0 0.048648578511840943 -0.20623258170594561 0 0.067160325985138131 -0.18691533881804831 0 0.049880579816306267 -0.17970719815632741 0 0.048648578511840943 -0.20623258170594561 0 0.066598585428591164 -0.21133354617687591 0 0.067160325985138131 -0.18691533881804831 0 0.069858226628725775 -0.26015649827556059 0 0.046498349670861652 -0.24826912251879649 0 0.059757914812518881 -0.22869522271940709 0 0.02296875629887114 -0.2464092256209898 0 0.046498349670861652 -0.24826912251879649 0 0.041174919052571327 -0.22964645066930789 0 0.048648578511840943 -0.20623258170594561 0 0.041174919052571327 -0.22964645066930789 0 0.059757914812518881 -0.22869522271940709 0 0.046498349670861652 -0.24826912251879649 0 0.041174919052571327 -0.22964645066930789 0 0.059757914812518881 -0.22869522271940709 0 0.069858226628725775 -0.26015649827556059 0 0.059757914812518881 -0.22869522271940709 0 0.080941623453078815 -0.2334444244951252 0 0.069858226628725775 -0.26015649827556059 0 0.096521476943682558 -0.25181800011133371 0 0.080941623453078815 -0.2334444244951252 0 0.096521476943682558 -0.25181800011133371 0 0.080941623453078815 -0.2334444244951252 0 0.102389076685389 -0.22730157072293841 0 0.080941623453078815 -0.2334444244951252 0 0.084774701335263575 -0.20710845477049339 0 0.102389076685389 -0.22730157072293841 0 0.059757914812518881 -0.22869522271940709 0 0.080941623453078815 -0.2334444244951252 0 0.066598585428591164 -0.21133354617687591 0 0.080941623453078815 -0.2334444244951252 0 0.066598585428591164 -0.21133354617687591 0 0.084774701335263575 -0.20710845477049339 0 0.084774701335263575 -0.20710845477049339 0 0.067160325985138131 -0.18691533881804831 0 0.066598585428591164 -0.21133354617687591 0 0.084774701335263575 -0.20710845477049339 0 0.067160325985138131 -0.18691533881804831 0 0.092537347032927528 -0.18889969997864839 0 0.084774701335263575 -0.20710845477049339 0 0.067160325985138131 -0.18691533881804831 0 0.084774701335263575 -0.20710845477049339 0 0.102389076685389 -0.22730157072293841 0 0.084774701335263575 -0.20710845477049339 0 0.10575093398731179 -0.20517541990618701 0 0.102389076685389 -0.22730157072293841 0 0.092537347032927528 -0.18889969997864839 0 0.10575093398731179 -0.20517541990618701 0 0.11404320040195411 -0.17785048998131209 0 0.092537347032927528 -0.18889969997864839 0 0.084774701335263575 -0.20710845477049339 0 0.10575093398731179 -0.20517541990618701 0 0.10575093398731179 -0.20517541990618701 0 0.11404320040195411 -0.17785048998131209 0 0.12592289232087811 -0.19910656028939411 0 0.10575093398731179 -0.20517541990618701 0 0.1284413173888232 -0.22347585252773641 0 0.12592289232087811 -0.19910656028939411 0 0.10575093398731179 -0.20517541990618701 0 0.102389076685389 -0.22730157072293841 0 0.1284413173888232 -0.22347585252773641 0 0.1200034520355143 -0.24749468667538321 0 0.102389076685389 -0.22730157072293841 0 0.1284413173888232 -0.22347585252773641 0 0.1200034520355143 -0.24749468667538321 0 0.102389076685389 -0.22730157072293841 0 0.096521476943682558 -0.25181800011133371 0 0.1200034520355143 -0.24749468667538321 0 0.102389076685389 -0.22730157072293841 0 0.099885875260422058 -0.15149088269105351 0 0.1161887790728692 -0.1476769396888597 0 0.1105045846919957 -0.16013033574144619 0 0.099885875260422058 -0.15149088269105351 0 0.099597293261818404 -0.1347502866929414 0 0.1161887790728692 -0.1476769396888597 0 0.099597293261818404 -0.1347502866929414 0 0.1161887790728692 -0.1476769396888597 0 0.099597293261818404 -0.1347502866929414 0 0.1047785765018954 -0.13712350701568179 0 0.1161887790728692 -0.1476769396888597 0 0.099597293261818404 -0.1347502866929414 0 0.093527805260815264 -0.13002146576964491 0 0.104312872852085 -0.12243825994362539 0 0.099597293261818404 -0.1347502866929414 0 0.093527805260815264 -0.13002146576964491 0 0.099597293261818404 -0.1347502866929414 0 0.093527805260815264 -0.13002146576964491 0 0.092996203934319052 -0.1329056080468716 0 0.099597293261818404 -0.1347502866929414 0 0.1088944047617572 -0.13480079442927331 0 0.104312872852085 -0.12243825994362539 0 0.099597293261818404 -0.1347502866929414 0 0.1047785765018954 -0.13712350701568179 0 0.1088944047617572 -0.13480079442927331 0 0.099597293261818404 -0.1347502866929414 0 0.1088944047617572 -0.13480079442927331 0 0.1047785765018954 -0.13712350701568179 0 0.1088944047617572 -0.13480079442927331 0 0.1088944047617572 -0.13480079442927331 0 0.1161887790728692 -0.1476769396888597 0 0.13638976604354719 -0.13495016646355951 0 0.1088944047617572 -0.13480079442927331 0 0.12800820934211829 -0.12401417466047961 0 0.13638976604354719 -0.13495016646355951 0 0.1047785765018954 -0.13712350701568179 0 0.1088944047617572 -0.13480079442927331 0 0.1161887790728692 -0.1476769396888597 0 0.1088944047617572 -0.13480079442927331 0 0.104312872852085 -0.12243825994362539 0 0.12800820934211829 -0.12401417466047961 0 0.1088944047617572 -0.13480079442927331 0 0.12800820934211829 -0.12401417466047961 0 0.1088944047617572 -0.13480079442927331 0 0.13638976604354719 -0.13495016646355951 0 0.1161887790728692 -0.1476769396888597 0 0.1105045846919957 -0.16013033574144619 0 0.1305387904294309 -0.15561497697083931 0 0.1105045846919957 -0.16013033574144619 0 0.11404320040195411 -0.17785048998131209 0 0.1305387904294309 -0.15561497697083931 0 0.092537347032927528 -0.18889969997864839 0 0.11404320040195411 -0.17785048998131209 0 0.090957573454969964 -0.1674487964172009 0 0.1105045846919957 -0.16013033574144619 0 0.11404320040195411 -0.17785048998131209 0 0.090957573454969964 -0.1674487964172009 0 0.099885875260422058 -0.15149088269105351 0 0.1105045846919957 -0.16013033574144619 0 0.090957573454969964 -0.1674487964172009 0 0.099885875260422058 -0.15149088269105351 0 0.090957573454969964 -0.1674487964172009 0 0.080257725164813276 -0.1505404030764457 0 0.090957573454969964 -0.1674487964172009 0 0.065342325237630991 -0.1650228072456788 0 0.080257725164813276 -0.1505404030764457 0 0.092537347032927528 -0.18889969997864839 0 0.090957573454969964 -0.1674487964172009 0 0.067160325985138131 -0.18691533881804831 0 0.090957573454969964 -0.1674487964172009 0 0.067160325985138131 -0.18691533881804831 0 0.065342325237630991 -0.1650228072456788 0 0.065342325237630991 -0.1650228072456788 0 0.080257725164813276 -0.1505404030764457 0 0.056224073158944461 -0.14994265306170279 0 0.080257725164813276 -0.1505404030764457 0 0.069539210615093855 -0.1345869923500955 0 0.056224073158944461 -0.14994265306170279 0 0.099885875260422058 -0.15149088269105351 0 0.099597293261818404 -0.1347502866929414 0 0.080257725164813276 -0.1505404030764457 0 0.099597293261818404 -0.1347502866929414 0 0.080257725164813276 -0.1505404030764457 0 0.069539210615093855 -0.1345869923500955 0 0.099597293261818404 -0.1347502866929414 0 0.092996203934319052 -0.1329056080468716 0 0.069539210615093855 -0.1345869923500955 0 0.099597293261818404 -0.1347502866929414 0 0.069539210615093855 -0.1345869923500955 0 0.092996203934319052 -0.1329056080468716 0 0.069539210615093855 -0.1345869923500955 0 0.079322302472514483 -0.11895376470488229 0 0.093527805260815264 -0.13002146576964491 0 0.092996203934319052 -0.1329056080468716 0 0.079322302472514483 -0.11895376470488229 0 0.093527805260815264 -0.13002146576964491 0 0.092996203934319052 -0.1329056080468716 0 0.069539210615093855 -0.1345869923500955 0 0.052298963826290519 -0.1211548808236817 0 0.066569319149528045 -0.1206454253796948 0 0.069539210615093855 -0.1345869923500955 0 0.039481127968369292 -0.1344236980072451 0 0.052298963826290519 -0.1211548808236817 0 0.069539210615093855 -0.1345869923500955 0 0.056224073158944461 -0.14994265306170279 0 0.039481127968369292 -0.1344236980072451 0 0.069539210615093855 -0.1345869923500955 0 0.039481127968369292 -0.1344236980072451 0 0.056224073158944461 -0.14994265306170279 0 0.038811693183881758 -0.15444647348478721 0 0.047368807546727579 -0.16279517251764489 0 0.056224073158944461 -0.14994265306170279 0 0.038811693183881758 -0.15444647348478721 0 0.039481127968369292 -0.1344236980072451 0 0.038811693183881758 -0.15444647348478721 0 0.039481127968369292 -0.1344236980072451 0 0.019056913867763529 -0.155566515408149 0 0.034777770017858589 -0.1343981464191871 0 0.039481127968369292 -0.1344236980072451 0 0.022320289212787989 -0.1422177528203018 0 0.034777770017858589 -0.1343981464191871 0 0.039481127968369292 -0.1344236980072451 0 0.034777770017858589 -0.1343981464191871 0 0.029299678594365521 -0.12697140115214181 0 0.037800108132664212 -0.12348471533883321 0 0.034777770017858589 -0.1343981464191871 0 0.039481127968369292 -0.1344236980072451 0 0.037800108132664212 -0.12348471533883321 0 0.039481127968369292 -0.1344236980072451 0 0.052298963826290519 -0.1211548808236817 0 0.039481127968369292 -0.1344236980072451 0 0.052298963826290519 -0.1211548808236817 0 0.037800108132664212 -0.12348471533883321 0 0.067160325985138131 -0.18691533881804831 0 0.065342325237630991 -0.1650228072456788 0 0.049880579816306267 -0.17970719815632741 0 0.065342325237630991 -0.1650228072456788 0 0.049880579816306267 -0.17970719815632741 0 0.047368807546727579 -0.16279517251764489 0 0.065342325237630991 -0.1650228072456788 0 0.056224073158944461 -0.14994265306170279 0 0.047368807546727579 -0.16279517251764489 0 0.049880579816306267 -0.17970719815632741 0 0.047368807546727579 -0.16279517251764489 0 0.031927543377605602 -0.16950432842919569 0 0.038811693183881758 -0.15444647348478721 0 0.047368807546727579 -0.16279517251764489 0 0.031927543377605602 -0.16950432842919569 0 0.049880579816306267 -0.17970719815632741 0 0.031927543377605602 -0.16950432842919569 0 0.033125333554059701 -0.1865598477748947 0 0.031927543377605602 -0.16950432842919569 0 0.033125333554059701 -0.1865598477748947 0 0.018588522793563201 -0.18166153924030251 0 0.031927543377605602 -0.16950432842919569 0 0.018588522793563201 -0.18166153924030251 0 0.019056913867763529 -0.155566515408149 0 0.038811693183881758 -0.15444647348478721 0 0.031927543377605602 -0.16950432842919569 0 0.019056913867763529 -0.155566515408149 0 -0.0013673002328405961 -0.1767093328090546 0 0.018588522793563201 -0.18166153924030251 0 0.019056913867763529 -0.155566515408149 0 -0.0013673002328405961 -0.1767093328090546 0 0.019056913867763529 -0.155566515408149 0 -0.0013673002328405961 -0.1767093328090546 0 0.019056913867763529 -0.155566515408149 0 0.0027310736070901482 -0.15493719994590471 0 -0.0013673002328405961 -0.1767093328090546 0 0.003555539334036632 -0.19934620758084881 0 0.018588522793563201 -0.18166153924030251 0 0.020222670022858619 -0.12863691797839069 0 0.022320289212787989 -0.1422177528203018 0 0.0088678229424013627 -0.13941235935176011 0 0.020222670022858619 -0.12863691797839069 0 0.02665510196196769 -0.1330560545925053 0 0.022320289212787989 -0.1422177528203018 0 0.034777770017858589 -0.1343981464191871 0 0.029299678594365521 -0.12697140115214181 0 0.02665510196196769 -0.1330560545925053 0 0.020222670022858619 -0.12863691797839069 0 0.029299678594365521 -0.12697140115214181 0 0.02665510196196769 -0.1330560545925053 0 0.034777770017858589 -0.1343981464191871 0 0.02665510196196769 -0.1330560545925053 0 0.022320289212787989 -0.1422177528203018 0 0.039481127968369292 -0.1344236980072451 0 0.019056913867763529 -0.155566515408149 0 0.019056913867763529 -0.155566515408149 0 0.022320289212787989 -0.1422177528203018 0 0.0088678229424013627 -0.13941235935176011 0 0.039481127968369292 -0.1344236980072451 0 0.019056913867763529 -0.155566515408149 0 0.022320289212787989 -0.1422177528203018 0 0.019056913867763529 -0.155566515408149 0 0.0027310736070901482 -0.15493719994590471 0 0.0088678229424013627 -0.13941235935176011 0 0.020222670022858619 -0.12863691797839069 0 0.0088678229424013627 -0.13941235935176011 0 0.0015243557028834459 -0.11711868301268021 0 0.020222670022858619 -0.12863691797839069 0 0.0015243557028834459 -0.11711868301268021 0 0.0144479962461943 -0.1082343501681014 0 0.020222670022858619 -0.12863691797839069 0 0.02728947708542654 -0.1146689930447462 0 0.0144479962461943 -0.1082343501681014 0 0.020222670022858619 -0.12863691797839069 0 0.029299678594365521 -0.12697140115214181 0 0.02728947708542654 -0.1146689930447462 0 0.0144479962461943 -0.1082343501681014 0 0.01674231050701382 -0.093658367309864349 0 0.03170108987002046 -0.10050694789866579 0 0.02728947708542654 -0.1146689930447462 0 0.0144479962461943 -0.1082343501681014 0 0.03170108987002046 -0.10050694789866579 0 0.01674231050701382 -0.093658367309864349 0 0.02745527456064175 -0.089089442263575569 0 0.03170108987002046 -0.10050694789866579 0 0.0144479962461943 -0.1082343501681014 0 0.001856719827670471 -0.098182337095309047 0 0.01674231050701382 -0.093658367309864349 0 0.0015243557028834459 -0.11711868301268021 0 0.0144479962461943 -0.1082343501681014 0 0.001856719827670471 -0.098182337095309047 0 0.001856719827670471 -0.098182337095309047 0 0.0065051428120863272 -0.082127796022149757 0 0.01674231050701382 -0.093658367309864349 0 0.0065051428120863272 -0.082127796022149757 0 0.018539693253586439 -0.071597204448153262 0 0.01731060528333208 -0.084118202510935727 0 0.0065051428120863272 -0.082127796022149757 0 0.01674231050701382 -0.093658367309864349 0 0.01731060528333208 -0.084118202510935727 0 0.0065051428120863272 -0.082127796022149757 0 0.018539693253586439 -0.071597204448153262 0 0.00035237720396625368 -0.061086817302918282 0 0.018539693253586439 -0.071597204448153262 0 0.00035237720396625368 -0.061086817302918282 0 0.029337839486141829 -0.062098975348790997 0 0.018539693253586439 -0.071597204448153262 0 0.036998616429076953 -0.080413518666692163 0 0.029337839486141829 -0.062098975348790997 0 0.018539693253586439 -0.071597204448153262 0 0.039278739387756327 -0.087755278287702396 0 0.018539693253586439 -0.071597204448153262 0 0.02745527456064175 -0.089089442263575569 0 0.039278739387756327 -0.087755278287702396 0 0.018539693253586439 -0.071597204448153262 0 0.01731060528333208 -0.084118202510935727 0 0.02745527456064175 -0.089089442263575569 0 0.01674231050701382 -0.093658367309864349 0 0.01731060528333208 -0.084118202510935727 0 0.02745527456064175 -0.089089442263575569 0 0.018539693253586439 -0.071597204448153262 0 0.036998616429076953 -0.080413518666692163 0 0.039278739387756327 -0.087755278287702396 0 0.02745527456064175 -0.089089442263575569 0 0.039278739387756327 -0.087755278287702396 0 0.036114206476440321 -0.094502097047588079 0 0.036998616429076953 -0.080413518666692163 0 0.039278739387756327 -0.087755278287702396 0 0.050747139898636717 -0.081209848062237813 0 0.058323301768317432 -0.063111133394663815 0 0.029337839486141829 -0.062098975348790997 0 0.036998616429076953 -0.080413518666692163 0 0.058323301768317432 -0.063111133394663815 0 0.029337839486141829 -0.062098975348790997 0 0.036998616429076953 -0.080413518666692163 0 0.058323301768317432 -0.063111133394663815 0 0.058323301768317432 -0.063111133394663815 0 0.050747139898636717 -0.081209848062237813 0 0.060228637404373828 -0.081759239016750626 0 0.036998616429076953 -0.080413518666692163 0 0.058323301768317432 -0.063111133394663815 0 0.050747139898636717 -0.081209848062237813 0 0.039278739387756327 -0.087755278287702396 0 0.050747139898636717 -0.081209848062237813 0 0.060818353003097771 -0.090653503469919336 0 0.050747139898636717 -0.081209848062237813 0 0.060228637404373828 -0.081759239016750626 0 0.060818353003097771 -0.090653503469919336 0 0.060017785521926562 -0.10391335212725129 0 0.042153090511964017 -0.099193769589441219 0 0.043653631303676513 -0.1092911725859987 0 0.060017785521926562 -0.10391335212725129 0 0.043653631303676513 -0.1092911725859987 0 0.039278739387756327 -0.087755278287702396 0 0.060818353003097771 -0.090653503469919336 0 0.060017785521926562 -0.10391335212725129 0 0.060017785521926562 -0.10391335212725129 0 0.053375718786791107 -0.1112883554404277 0 0.043653631303676513 -0.1092911725859987 0 0.039278739387756327 -0.087755278287702396 0 0.060017785521926562 -0.10391335212725129 0 0.039278739387756327 -0.087755278287702396 0 0.060017785521926562 -0.10391335212725129 0 0.042153090511964017 -0.099193769589441219 0 0.060017785521926562 -0.10391335212725129 0 0.053375718786791107 -0.1112883554404277 0 0.065116799684213397 -0.10788606364011991 0 0.052298963826290519 -0.1211548808236817 0 0.066569319149528045 -0.1206454253796948 0 0.065116799684213397 -0.10788606364011991 0 0.052298963826290519 -0.1211548808236817 0 0.065116799684213397 -0.10788606364011991 0 0.052298963826290519 -0.1211548808236817 0 0.053375718786791107 -0.1112883554404277 0 0.065116799684213397 -0.10788606364011991 0 0.052298963826290519 -0.1211548808236817 0 0.053375718786791107 -0.1112883554404277 0 0.043653631303676513 -0.1092911725859987 0 0.02728947708542654 -0.1146689930447462 0 0.037800108132664212 -0.12348471533883321 0 0.043653631303676513 -0.1092911725859987 0 0.02728947708542654 -0.1146689930447462 0 0.043653631303676513 -0.1092911725859987 0 0.052298963826290519 -0.1211548808236817 0 0.037800108132664212 -0.12348471533883321 0 0.043653631303676513 -0.1092911725859987 0 0.029299678594365521 -0.12697140115214181 0 0.02728947708542654 -0.1146689930447462 0 0.037800108132664212 -0.12348471533883321 0 0.02728947708542654 -0.1146689930447462 0 0.03170108987002046 -0.10050694789866579 0 0.043653631303676513 -0.1092911725859987 0 0.036114206476440321 -0.094502097047588079 0 0.03170108987002046 -0.10050694789866579 0 0.042153090511964017 -0.099193769589441219 0 0.02745527456064175 -0.089089442263575569 0 0.036114206476440321 -0.094502097047588079 0 0.03170108987002046 -0.10050694789866579 0 0.039278739387756327 -0.087755278287702396 0 0.036114206476440321 -0.094502097047588079 0 0.042153090511964017 -0.099193769589441219 0 0.03170108987002046 -0.10050694789866579 0 0.042153090511964017 -0.099193769589441219 0 0.043653631303676513 -0.1092911725859987 0 0.025695344612614111 0.0095801541182225364 0 0.02812452509478746 -0.0099579005571815878 0 0.006935528729737548 -0.0054826371559186567 0 0.02812452509478746 -0.0099579005571815878 0 0.006935528729737548 -0.0054826371559186567 0 0.01889941714368459 -0.025130787452367569 0 0.006935528729737548 -0.0054826371559186567 0 0.0027408304473846411 -0.028176541972939319 0 0.01889941714368459 -0.025130787452367569 0 0.02812452509478746 -0.0099579005571815878 0 0.01889941714368459 -0.025130787452367569 0 0.035567370731091272 -0.02454493013615917 0 0.01889941714368459 -0.025130787452367569 0 0.02846567832778216 -0.042756626880165419 0 0.035567370731091272 -0.02454493013615917 0 0.01889941714368459 -0.025130787452367569 0 0.02846567832778216 -0.042756626880165419 0 0.0096258971738255473 -0.043108802377643002 0 0.02846567832778216 -0.042756626880165419 0 0.0096258971738255473 -0.043108802377643002 0 0.016945448047928951 -0.052262805477379423 0 0.01889941714368459 -0.025130787452367569 0 0.0096258971738255473 -0.043108802377643002 0 -0.01026660782967455 -0.041229232136501717 0 0.0027408304473846411 -0.028176541972939319 0 0.0096258971738255473 -0.043108802377643002 0 0.0027408304473846411 -0.028176541972939319 0 0.01889941714368459 -0.025130787452367569 0 0.0096258971738255473 -0.043108802377643002 0 0.0096258971738255473 -0.043108802377643002 0 0.00035237720396625368 -0.061086817302918282 0 0.016945448047928951 -0.052262805477379423 0 0.00035237720396625368 -0.061086817302918282 0 0.016945448047928951 -0.052262805477379423 0 0.029337839486141829 -0.062098975348790997 0 0.0096258971738255473 -0.043108802377643002 0 0.00035237720396625368 -0.061086817302918282 0 0.00035237720396625368 -0.061086817302918282 0 0.029337839486141829 -0.062098975348790997 0 0.02846567832778216 -0.042756626880165419 0 0.016945448047928951 -0.052262805477379423 0 0.029337839486141829 -0.062098975348790997 0 0.02846567832778216 -0.042756626880165419 0 0.029337839486141829 -0.062098975348790997 0 0.044041605111135473 -0.049431168693685697 0 0.058323301768317432 -0.063111133394663815 0 0.029337839486141829 -0.062098975348790997 0 0.044041605111135473 -0.049431168693685697 0 0.058323301768317432 -0.063111133394663815 0 0.044041605111135473 -0.049431168693685697 0 0.059903341899081253 -0.040049795258846832 0 0.059903341899081253 -0.040049795258846832 0 0.045154502468205723 -0.035444412579530127 0 0.052999286202529479 -0.022291816621987929 0 0.044041605111135473 -0.049431168693685697 0 0.059903341899081253 -0.040049795258846832 0 0.045154502468205723 -0.035444412579530127 0 0.02846567832778216 -0.042756626880165419 0 0.044041605111135473 -0.049431168693685697 0 0.045154502468205723 -0.035444412579530127 0 0.02846567832778216 -0.042756626880165419 0 0.045154502468205723 -0.035444412579530127 0 0.035567370731091272 -0.02454493013615917 0 0.045154502468205723 -0.035444412579530127 0 0.035567370731091272 -0.02454493013615917 0 0.052999286202529479 -0.022291816621987929 0 0.035567370731091272 -0.02454493013615917 0 0.052999286202529479 -0.022291816621987929 0 0.04138045704507981 -0.013293391242584921 0 0.02812452509478746 -0.0099579005571815878 0 0.035567370731091272 -0.02454493013615917 0 0.04138045704507981 -0.013293391242584921 0 0.059903341899081253 -0.040049795258846832 0 0.052999286202529479 -0.022291816621987929 0 0.073093181043766914 -0.026775388104941698 0 0.052999286202529479 -0.022291816621987929 0 0.049896637954744763 -0.0073960790217490677 0 0.04138045704507981 -0.013293391242584921 0 0.052999286202529479 -0.022291816621987929 0 0.049896637954744763 -0.0073960790217490677 0 0.066530330394949447 -0.012320269852860621 0 0.049896637954744763 -0.0073960790217490677 0 0.040314465242246092 -0.002276229875846851 0 0.04138045704507981 -0.013293391242584921 0 0.025695344612614111 0.0095801541182225364 0 0.02812452509478746 -0.0099579005571815878 0 0.040314465242246092 -0.002276229875846851 0 0.046640351189982193 0.001482106492276504 0 0.049896637954744763 -0.0073960790217490677 0 0.040314465242246092 -0.002276229875846851 0 0.02812452509478746 -0.0099579005571815878 0 0.040314465242246092 -0.002276229875846851 0 0.04138045704507981 -0.013293391242584921 0 0.075461568133428525 0.0044331687040122013 0 0.081703970602104437 -0.011974759962048749 0 0.098011391193308373 -0.0056982583262641584 0 0.075461568133428525 0.0044331687040122013 0 0.049896637954744763 -0.0073960790217490677 0 0.075461568133428525 0.0044331687040122013 0 0.049896637954744763 -0.0073960790217490677 0 0.066530330394949447 -0.012320269852860621 0 0.075461568133428525 0.0044331687040122013 0 0.081703970602104437 -0.011974759962048749 0 0.066530330394949447 -0.012320269852860621 0 0.081703970602104437 -0.011974759962048749 0 0.066530330394949447 -0.012320269852860621 0 0.073093181043766914 -0.026775388104941698 0 0.052999286202529479 -0.022291816621987929 0 0.066530330394949447 -0.012320269852860621 0 0.073093181043766914 -0.026775388104941698 0 0.081703970602104437 -0.011974759962048749 0 0.097837743661838034 -0.031049975793767819 0 0.098011391193308373 -0.0056982583262641584 0 0.081703970602104437 -0.011974759962048749 0 0.073093181043766914 -0.026775388104941698 0 0.097837743661838034 -0.031049975793767819 0 0.078080522715077566 -0.047080554594215653 0 0.097861902682226248 -0.045151270938537998 0 0.097837743661838034 -0.031049975793767819 0 0.073093181043766914 -0.026775388104941698 0 0.078080522715077566 -0.047080554594215653 0 0.097837743661838034 -0.031049975793767819 0 0.078080522715077566 -0.047080554594215653 0 0.097837743661838034 -0.031049975793767819 0 0.059903341899081253 -0.040049795258846832 0 0.073093181043766914 -0.026775388104941698 0 0.078080522715077566 -0.047080554594215653 0 0.058323301768317432 -0.063111133394663815 0 0.078080522715077566 -0.047080554594215653 0 0.058323301768317432 -0.063111133394663815 0 0.059903341899081253 -0.040049795258846832 0 0.078080522715077566 -0.047080554594215653 0 0.058323301768317432 -0.063111133394663815 0 0.078080522715077566 -0.047080554594215653 0 0.081939961595450139 -0.063935815506958552 0 0.078080522715077566 -0.047080554594215653 0 0.094142039140793971 -0.055881476276546937 0 0.081939961595450139 -0.063935815506958552 0 0.078080522715077566 -0.047080554594215653 0 0.094142039140793971 -0.055881476276546937 0 0.097861902682226248 -0.045151270938537998 0 0.094142039140793971 -0.055881476276546937 0 0.081939961595450139 -0.063935815506958552 0 0.1067368008806147 -0.064801708903802782 0 0.094142039140793971 -0.055881476276546937 0 0.1075629424949773 -0.053875431803618333 0 0.097861902682226248 -0.045151270938537998 0 0.094142039140793971 -0.055881476276546937 0 0.1075629424949773 -0.053875431803618333 0 0.1067368008806147 -0.064801708903802782 0 0.1075629424949773 -0.053875431803618333 0 0.1067368008806147 -0.064801708903802782 0 0.1075629424949773 -0.053875431803618333 0 0.1232921759667842 -0.047663851323270827 0 0.1067368008806147 -0.064801708903802782 0 0.1232921759667842 -0.047663851323270827 0 0.1067368008806147 -0.064801708903802782 0 0.1075629424949773 -0.053875431803618333 0 0.1232921759667842 -0.047663851323270827 0 0.1109518143893137 -0.039435966374661548 0 0.1232921759667842 -0.047663851323270827 0 0.1067368008806147 -0.064801708903802782 0 0.13548767730717889 -0.06580567532731052 0 0.1232921759667842 -0.047663851323270827 0 0.1109518143893137 -0.039435966374661548 0 0.124582941869709 -0.030507807285028901 0 0.1109518143893137 -0.039435966374661548 0 0.097861902682226248 -0.045151270938537998 0 0.097837743661838034 -0.031049975793767819 0 0.1075629424949773 -0.053875431803618333 0 0.1109518143893137 -0.039435966374661548 0 0.097861902682226248 -0.045151270938537998 0 0.097837743661838034 -0.031049975793767819 0 0.1175949646085984 -0.015019396993320021 0 0.097837743661838034 -0.031049975793767819 0 0.1175949646085984 -0.015019396993320021 0 0.098011391193308373 -0.0056982583262641584 0 0.1109518143893137 -0.039435966374661548 0 0.097837743661838034 -0.031049975793767819 0 0.1175949646085984 -0.015019396993320021 0 0.1109518143893137 -0.039435966374661548 0 0.124582941869709 -0.030507807285028901 0 0.1175949646085984 -0.015019396993320021 0 0.124582941869709 -0.030507807285028901 0 0.1175949646085984 -0.015019396993320021 0 0.13165260102391191 -0.019660205177744808 0 0.11882011836095251 0.0065886106746579649 0 0.1175949646085984 -0.015019396993320021 0 0.098011391193308373 -0.0056982583262641584 0 0.11882011836095251 0.0065886106746579649 0 0.13735218555535891 0.001011181807127467 0 0.1175949646085984 -0.015019396993320021 0 0.073111172643960082 -0.099610417542301155 0 0.10058413041743761 -0.090581864498492995 0 0.088608598291174498 -0.101420796185217 0 0.073111172643960082 -0.099610417542301155 0 0.10058413041743761 -0.090581864498492995 0 0.083297568291202648 -0.10670285905343881 0 0.088608598291174498 -0.101420796185217 0 0.073111172643960082 -0.099610417542301155 0 0.083297568291202648 -0.10670285905343881 0 0.088608598291174498 -0.101420796185217 0 0.097441521812097198 -0.10878804364663471 0 0.093527805260815264 -0.13002146576964491 0 0.079322302472514483 -0.11895376470488229 0 0.097441521812097198 -0.10878804364663471 0 0.083297568291202648 -0.10670285905343881 0 0.079322302472514483 -0.11895376470488229 0 0.097441521812097198 -0.10878804364663471 0 0.093527805260815264 -0.13002146576964491 0 0.079322302472514483 -0.11895376470488229 0 0.079322302472514483 -0.11895376470488229 0 0.065116799684213397 -0.10788606364011991 0 0.083297568291202648 -0.10670285905343881 0 0.079322302472514483 -0.11895376470488229 0 0.065116799684213397 -0.10788606364011991 0 0.079322302472514483 -0.11895376470488229 0 0.066569319149528045 -0.1206454253796948 0 0.065116799684213397 -0.10788606364011991 0 0.069539210615093855 -0.1345869923500955 0 0.079322302472514483 -0.11895376470488229 0 0.066569319149528045 -0.1206454253796948 0 0.060017785521926562 -0.10391335212725129 0 0.065116799684213397 -0.10788606364011991 0 0.060017785521926562 -0.10391335212725129 0 0.073111172643960082 -0.099610417542301155 0 0.065116799684213397 -0.10788606364011991 0 0.073111172643960082 -0.099610417542301155 0 0.083297568291202648 -0.10670285905343881 0 0.065116799684213397 -0.10788606364011991 0 0.073111172643960082 -0.099610417542301155 0 0.060017785521926562 -0.10391335212725129 0 0.065116799684213397 -0.10788606364011991 0 0.073111172643960082 -0.099610417542301155 0 0.060818353003097771 -0.090653503469919336 0 0.060017785521926562 -0.10391335212725129 0 0.073111172643960082 -0.099610417542301155 0 0.060818353003097771 -0.090653503469919336 0 0.073111172643960082 -0.099610417542301155 0 0.074211161232423301 -0.082716200610011378 0 0.060228637404373828 -0.081759239016750626 0 0.060818353003097771 -0.090653503469919336 0 0.074211161232423301 -0.082716200610011378 0 0.058323301768317432 -0.063111133394663815 0 0.081939961595450139 -0.063935815506958552 0 0.058323301768317432 -0.063111133394663815 0 0.074211161232423301 -0.082716200610011378 0 0.081939961595450139 -0.063935815506958552 0 0.058323301768317432 -0.063111133394663815 0 0.060228637404373828 -0.081759239016750626 0 0.074211161232423301 -0.082716200610011378 0 0.074211161232423301 -0.082716200610011378 0 0.081939961595450139 -0.063935815506958552 0 0.089190063779311518 -0.082965808471458069 0 0.081939961595450139 -0.063935815506958552 0 0.089190063779311518 -0.082965808471458069 0 0.1052689549146623 -0.0663211994006144 0 0.073111172643960082 -0.099610417542301155 0 0.074211161232423301 -0.082716200610011378 0 0.089190063779311518 -0.082965808471458069 0 0.073111172643960082 -0.099610417542301155 0 0.089190063779311518 -0.082965808471458069 0 0.073111172643960082 -0.099610417542301155 0 0.089190063779311518 -0.082965808471458069 0 0.10058413041743761 -0.090581864498492995 0 0.089190063779311518 -0.082965808471458069 0 0.1017080788123951 -0.087804556385465471 0 0.1052689549146623 -0.0663211994006144 0 0.089190063779311518 -0.082965808471458069 0 0.10058413041743761 -0.090581864498492995 0 0.1017080788123951 -0.087804556385465471 0 0.1017080788123951 -0.087804556385465471 0 0.1084674426683357 -0.077888137089068013 0 0.1052689549146623 -0.0663211994006144 0 0.089190063779311518 -0.082965808471458069 0 0.1052689549146623 -0.0663211994006144 0 0.081939961595450139 -0.063935815506958552 0 0.1067368008806147 -0.064801708903802782 0 0.1052689549146623 -0.0663211994006144 0 0.081939961595450139 -0.063935815506958552 0 0.1067368008806147 -0.064801708903802782 0 0.1017080788123951 -0.087804556385465471 0 0.1052689549146623 -0.0663211994006144 0 0.1084674426683357 -0.077888137089068013 0 0.1067368008806147 -0.064801708903802782 0 0.1052689549146623 -0.0663211994006144 0 0.1067368008806147 -0.064801708903802782 0 0.1052689549146623 -0.0663211994006144 0 0.1067368008806147 -0.064801708903802782 0 0.13548767730717889 -0.06580567532731052 0 0.1084674426683357 -0.077888137089068013 0 0.1067368008806147 -0.064801708903802782 0 0.1232061248222129 -0.075206297362028066 0 0.1067368008806147 -0.064801708903802782 0 0.1232061248222129 -0.075206297362028066 0 0.13548767730717889 -0.06580567532731052 0 0.1017080788123951 -0.087804556385465471 0 0.1084674426683357 -0.077888137089068013 0 0.1272797878356694 -0.088593758706814907 0 0.1017080788123951 -0.087804556385465471 0 0.1272797878356694 -0.088593758706814907 0 0.1084674426683357 -0.077888137089068013 0 0.1232061248222129 -0.075206297362028066 0 0.1272797878356694 -0.088593758706814907 0 0.1017080788123951 -0.087804556385465471 0 0.11567178204704499 -0.10568275569041199 0 0.1272797878356694 -0.088593758706814907 0 0.1017080788123951 -0.087804556385465471 0 0.11567178204704499 -0.10568275569041199 0 0.097441521812097198 -0.10878804364663471 0 0.1017080788123951 -0.087804556385465471 0 0.097441521812097198 -0.10878804364663471 0 0.088608598291174498 -0.101420796185217 0 0.10058413041743761 -0.090581864498492995 0 0.097441521812097198 -0.10878804364663471 0 0.10058413041743761 -0.090581864498492995 0 0.1017080788123951 -0.087804556385465471 0 0.097441521812097198 -0.10878804364663471 0 0.093527805260815264 -0.13002146576964491 0 0.097441521812097198 -0.10878804364663471 0 0.104312872852085 -0.12243825994362539 0 0.093527805260815264 -0.13002146576964491 0 0.097441521812097198 -0.10878804364663471 0 0.11567178204704499 -0.10568275569041199 0 0.097441521812097198 -0.10878804364663471 0 0.104312872852085 -0.12243825994362539 0 0.11567178204704499 -0.10568275569041199 0 0.104312872852085 -0.12243825994362539 0 0.12800820934211829 -0.12401417466047961 0 0.12800820934211829 -0.12401417466047961 0 0.14712201392247631 -0.1132275548916801 0 0.13655559816636781 -0.1031347463460832 0 0.12800820934211829 -0.12401417466047961 0 0.14712201392247631 -0.1132275548916801 0 0.11567178204704499 -0.10568275569041199 0 0.12800820934211829 -0.12401417466047961 0 0.13655559816636781 -0.1031347463460832 0 0.12800820934211829 -0.12401417466047961 0 0.14712201392247631 -0.1132275548916801 0 0.1486045981545247 -0.12747252536747111 0 0.14712201392247631 -0.1132275548916801 0 0.16095359288685571 -0.1184472051676727 0 0.1486045981545247 -0.12747252536747111 0 0.15146120268426411 -0.099532086410862586 0 0.13655559816636781 -0.1031347463460832 0 0.1528514968589437 -0.089382961028164357 0 0.14712201392247631 -0.1132275548916801 0 0.15146120268426411 -0.099532086410862586 0 0.16623581850283431 -0.10244093512288061 0 0.14712201392247631 -0.1132275548916801 0 0.15146120268426411 -0.099532086410862586 0 0.13655559816636781 -0.1031347463460832 0 0.11567178204704499 -0.10568275569041199 0 0.13655559816636781 -0.1031347463460832 0 0.1272797878356694 -0.088593758706814907 0 0.1272797878356694 -0.088593758706814907 0 0.13805891541926751 -0.078942206783145619 0 0.1528514968589437 -0.089382961028164357 0 0.1272797878356694 -0.088593758706814907 0 0.1528514968589437 -0.089382961028164357 0 0.13655559816636781 -0.1031347463460832 0 0.1272797878356694 -0.088593758706814907 0 0.1528514968589437 -0.089382961028164357 0 0.1232061248222129 -0.075206297362028066 0 0.1272797878356694 -0.088593758706814907 0 0.13805891541926751 -0.078942206783145619 0 0.1232061248222129 -0.075206297362028066 0 0.13805891541926751 -0.078942206783145619 0 0.13548767730717889 -0.06580567532731052 0 0.13548767730717889 -0.06580567532731052 0 0.16423855373374319 -0.066809641750814969 0 0.13548767730717889 -0.06580567532731052 0 0.1516507619880918 -0.076739651506421189 0 0.16423855373374319 -0.066809641750814969 0 0.13548767730717889 -0.06580567532731052 0 0.16423855373374319 -0.066809641750814969 0 0.16004124225532049 -0.061841453839887157 0 0.13805891541926751 -0.078942206783145619 0 0.13548767730717889 -0.06580567532731052 0 0.1516507619880918 -0.076739651506421189 0 0.13805891541926751 -0.078942206783145619 0 0.1516507619880918 -0.076739651506421189 0 0.1528514968589437 -0.089382961028164357 0 0.15146120268426411 -0.099532086410862586 0 0.1528514968589437 -0.089382961028164357 0 0.15581646250916109 -0.090151240212135456 0 0.1528514968589437 -0.089382961028164357 0 0.15581646250916109 -0.090151240212135456 0 0.17842320588221819 -0.090172163349513806 0 0.1528514968589437 -0.089382961028164357 0 0.17842320588221819 -0.090172163349513806 0 0.15581646250916109 -0.090151240212135456 0 0.16859491992305889 -0.093070393687126218 0 0.17842320588221819 -0.090172163349513806 0 0.1528514968589437 -0.089382961028164357 0 0.1653897445003264 -0.079862578323319361 0 0.17842320588221819 -0.090172163349513806 0 0.1516507619880918 -0.076739651506421189 0 0.1528514968589437 -0.089382961028164357 0 0.1653897445003264 -0.079862578323319361 0 0.1516507619880918 -0.076739651506421189 0 0.1653897445003264 -0.079862578323319361 0 0.16423855373374319 -0.066809641750814969 0 0.1653897445003264 -0.079862578323319361 0 0.16423855373374319 -0.066809641750814969 0 0.17833356117891219 -0.077628002067558224 0 0.16423855373374319 -0.066809641750814969 0 0.1727598808088672 -0.056322389892066158 0 0.1929894301603077 -0.067813608174319001 0 0.16423855373374319 -0.066809641750814969 0 0.1929894301603077 -0.067813608174319001 0 0.16423855373374319 -0.066809641750814969 0 0.17833356117891219 -0.077628002067558224 0 0.1929894301603077 -0.067813608174319001 0 0.17833356117891219 -0.077628002067558224 0 0.19040307974074269 -0.080139672987034255 0 0.1929894301603077 -0.067813608174319001 0 0.16859491992305889 -0.093070393687126218 0 0.17842320588221819 -0.090172163349513806 0 0.17335524666804841 -0.094081054567607611 0 0.17842320588221819 -0.090172163349513806 0 0.17824607109877541 -0.095663109832525739 0 0.17335524666804841 -0.094081054567607611 0 0.1653897445003264 -0.079862578323319361 0 0.17833356117891219 -0.077628002067558224 0 0.17842320588221819 -0.090172163349513806 0 0.17833356117891219 -0.077628002067558224 0 0.1854866420256687 -0.084161575248007242 0 0.19040307974074269 -0.080139672987034255 0 0.17833356117891219 -0.077628002067558224 0 0.17842320588221819 -0.090172163349513806 0 0.1854866420256687 -0.084161575248007242 0 0.18404025852736719 -0.096743595743047278 0 0.18504385230606449 -0.10434071571553651 0 0.19243594079672521 -0.096163448387799222 0 0.17824607109877541 -0.095663109832525739 0 0.18504385230606449 -0.10434071571553651 0 0.16623581850283431 -0.10244093512288061 0 0.18504385230606449 -0.10434071571553651 0 0.18014950107347269 -0.1188522098678762 0 0.16623581850283431 -0.10244093512288061 0 0.18404025852736719 -0.096743595743047278 0 0.17824607109877541 -0.095663109832525739 0 0.18504385230606449 -0.10434071571553651 0 0.17842320588221819 -0.090172163349513806 0 0.18404025852736719 -0.096743595743047278 0 0.19243594079672521 -0.096163448387799222 0 0.17842320588221819 -0.090172163349513806 0 0.18404025852736719 -0.096743595743047278 0 0.17824607109877541 -0.095663109832525739 0 0.17824607109877541 -0.095663109832525739 0 0.17335524666804841 -0.094081054567607611 0 0.16623581850283431 -0.10244093512288061 0 0.17824607109877541 -0.095663109832525739 0 0.16623581850283431 -0.10244093512288061 0 0.18504385230606449 -0.10434071571553651 0 0.18014950107347269 -0.1188522098678762 0 0.1922879604253335 -0.1099500278873989 0 0.18014950107347269 -0.1188522098678762 0 0.16623581850283431 -0.10244093512288061 0 0.18014950107347269 -0.1188522098678762 0 0.16095359288685571 -0.1184472051676727 0 0.16623581850283431 -0.10244093512288061 0 0.14712201392247631 -0.1132275548916801 0 0.16095359288685571 -0.1184472051676727 0 0.16623581850283431 -0.10244093512288061 0 0.18014950107347269 -0.1188522098678762 0 0.16095359288685571 -0.1184472051676727 0 0.16265603278097029 -0.1302428005884553 0 0.14712201392247631 -0.1132275548916801 0 0.16623581850283431 -0.10244093512288061 0 0.15581646250916109 -0.090151240212135456 0 0.16859491992305889 -0.093070393687126218 0 0.16623581850283431 -0.10244093512288061 0 0.15146120268426411 -0.099532086410862586 0 0.15581646250916109 -0.090151240212135456 0 0.16623581850283431 -0.10244093512288061 0 0.15581646250916109 -0.090151240212135456 0 0.16623581850283431 -0.10244093512288061 0 0.16859491992305889 -0.093070393687126218 0 0.17335524666804841 -0.094081054567607611 0 0.16623581850283431 -0.10244093512288061 0 0.13735218555535891 0.001011181807127467 0 0.1449152044553462 -0.019939696741877431 0 0.14216046477152491 0.0049125148476896544 0 0.15727218843160701 -0.01758578836774349 0 0.15849764294065671 -0.0060544572746906826 0 0.14216046477152491 0.0049125148476896544 0 0.15727218843160701 -0.01758578836774349 0 0.14216046477152491 0.0049125148476896544 0 0.1449152044553462 -0.019939696741877431 0 0.15727218843160701 -0.01758578836774349 0 0.14216046477152491 0.0049125148476896544 0 0.13735218555535891 0.001011181807127467 0 0.1449152044553462 -0.019939696741877431 0 0.13735218555535891 0.001011181807127467 0 0.1175949646085984 -0.015019396993320021 0 0.13735218555535891 0.001011181807127467 0 0.1175949646085984 -0.015019396993320021 0 0.13165260102391191 -0.019660205177744808 0 0.13735218555535891 0.001011181807127467 0 0.13165260102391191 -0.019660205177744808 0 0.1449152044553462 -0.019939696741877431 0 0.13165260102391191 -0.019660205177744808 0 0.13984755105295521 -0.030525993742740402 0 0.1449152044553462 -0.019939696741877431 0 0.124582941869709 -0.030507807285028901 0 0.13165260102391191 -0.019660205177744808 0 0.13984755105295521 -0.030525993742740402 0 0.1449152044553462 -0.019939696741877431 0 0.15247822335533329 -0.040890575290882317 0 0.15727218843160701 -0.01758578836774349 0 0.13984755105295521 -0.030525993742740402 0 0.1449152044553462 -0.019939696741877431 0 0.15247822335533329 -0.040890575290882317 0 0.1449152044553462 -0.019939696741877431 0 0.15247822335533329 -0.040890575290882317 0 0.15247822335533329 -0.040890575290882317 0 0.1379109625223634 -0.045605004272587249 0 0.14629243763992239 -0.054068479542427092 0 0.13984755105295521 -0.030525993742740402 0 0.15247822335533329 -0.040890575290882317 0 0.1379109625223634 -0.045605004272587249 0 0.1232921759667842 -0.047663851323270827 0 0.13984755105295521 -0.030525993742740402 0 0.1379109625223634 -0.045605004272587249 0 0.1232921759667842 -0.047663851323270827 0 0.124582941869709 -0.030507807285028901 0 0.13984755105295521 -0.030525993742740402 0 0.1232921759667842 -0.047663851323270827 0 0.13984755105295521 -0.030525993742740402 0 0.1232921759667842 -0.047663851323270827 0 0.13548767730717889 -0.06580567532731052 0 0.1379109625223634 -0.045605004272587249 0 0.13548767730717889 -0.06580567532731052 0 0.1379109625223634 -0.045605004272587249 0 0.14629243763992239 -0.054068479542427092 0 0.13548767730717889 -0.06580567532731052 0 0.14629243763992239 -0.054068479542427092 0 0.16004124225532049 -0.061841453839887157 0 0.15247822335533329 -0.040890575290882317 0 0.14629243763992239 -0.054068479542427092 0 0.16004124225532049 -0.061841453839887157 0 0.15247822335533329 -0.040890575290882317 0 0.16004124225532049 -0.061841453839887157 0 0.1644158146278025 -0.049784627651503079 0 0.1644158146278025 -0.049784627651503079 0 0.1727598808088672 -0.056322389892066158 0 0.1723839120916891 -0.040084091583176683 0 0.15247822335533329 -0.040890575290882317 0 0.16004124225532049 -0.061841453839887157 0 0.16423855373374319 -0.066809641750814969 0 0.16004124225532049 -0.061841453839887157 0 0.1727598808088672 -0.056322389892066158 0 0.16004124225532049 -0.061841453839887157 0 0.1644158146278025 -0.049784627651503079 0 0.1727598808088672 -0.056322389892066158 0 0.1727598808088672 -0.056322389892066158 0 0.18434240851125541 -0.050289724698312777 0 0.1723839120916891 -0.040084091583176683 0 0.1727598808088672 -0.056322389892066158 0 0.18434240851125541 -0.050289724698312777 0 0.1929894301603077 -0.067813608174319001 0 0.1723839120916891 -0.040084091583176683 0 0.18077822909658589 -0.032018797610549231 0 0.17598651952492231 -0.0227560541305885 0 0.18434240851125541 -0.050289724698312777 0 0.1723839120916891 -0.040084091583176683 0 0.18674227588606429 -0.037749552466939278 0 0.1723839120916891 -0.040084091583176683 0 0.18674227588606429 -0.037749552466939278 0 0.18077822909658589 -0.032018797610549231 0 0.18674227588606429 -0.037749552466939278 0 0.18077822909658589 -0.032018797610549231 0 0.18610830639217099 -0.030062433202775862 0 0.15247822335533329 -0.040890575290882317 0 0.1723839120916891 -0.040084091583176683 0 0.15727218843160701 -0.01758578836774349 0 0.15247822335533329 -0.040890575290882317 0 0.1644158146278025 -0.049784627651503079 0 0.1723839120916891 -0.040084091583176683 0 0.1723839120916891 -0.040084091583176683 0 0.15727218843160701 -0.01758578836774349 0 0.1723839120916891 -0.040084091583176683 0 0.1668946229318731 -0.019675061199070819 0 0.17598651952492231 -0.0227560541305885 0 0.1723839120916891 -0.040084091583176683 0 0.15727218843160701 -0.01758578836774349 0 0.1668946229318731 -0.019675061199070819 0 0.1668946229318731 -0.019675061199070819 0 0.17598651952492231 -0.0227560541305885 0 0.16985348277487761 -0.0099868764823510571 0 0.18077822909658589 -0.032018797610549231 0 0.18438258456793261 -0.021379302004443181 0 0.17598651952492231 -0.0227560541305885 0 0.18077822909658589 -0.032018797610549231 0 0.18610830639217099 -0.030062433202775862 0 0.18438258456793261 -0.021379302004443181 0 0.18438258456793261 -0.021379302004443181 0 0.17598651952492231 -0.0227560541305885 0 0.17878486519392331 -0.011645355321630489 0 0.17598651952492231 -0.0227560541305885 0 0.17878486519392331 -0.011645355321630489 0 0.16985348277487761 -0.0099868764823510571 0 0.17878486519392331 -0.011645355321630489 0 0.17506184651935949 -0.0021247232161890161 0 0.16985348277487761 -0.0099868764823510571 0 0.18438258456793261 -0.021379302004443181 0 0.17878486519392331 -0.011645355321630489 0 0.18863989258252481 -0.001979820774580698 0 0.17878486519392331 -0.011645355321630489 0 0.17506184651935949 -0.0021247232161890161 0 0.18863989258252481 -0.001979820774580698 0 0.1628037813635097 0.0015330777282007481 0 0.17506184651935949 -0.0021247232161890161 0 0.16985348277487761 -0.0099868764823510571 0 0.1668946229318731 -0.019675061199070819 0 0.16985348277487761 -0.0099868764823510571 0 0.15849764294065671 -0.0060544572746906826 0 0.15727218843160701 -0.01758578836774349 0 0.1668946229318731 -0.019675061199070819 0 0.15849764294065671 -0.0060544572746906826 0 0.1628037813635097 0.0015330777282007481 0 0.16985348277487761 -0.0099868764823510571 0 0.15849764294065671 -0.0060544572746906826 0 0.1628037813635097 0.0015330777282007481 0 0.15453230216132671 0.0032055715019124438 0 0.15849764294065671 -0.0060544572746906826 0 0.21174544862736719 0.0096628206364345465 0 0.20589386385567829 -0.0063134785331596111 0 0.2185782736923042 -0.0038367730406402641 0 0.20589386385567829 -0.0063134785331596111 0 0.2185782736923042 -0.0038367730406402641 0 0.2199828155312514 -0.0225516893132638 0 0.20589386385567829 -0.0063134785331596111 0 0.18863989258252481 -0.001979820774580698 0 0.1936475112771239 -0.030998707124919651 0 0.20589386385567829 -0.0063134785331596111 0 0.1936475112771239 -0.030998707124919651 0 0.20001428446098229 -0.034334459813343092 0 0.18863989258252481 -0.001979820774580698 0 0.1936475112771239 -0.030998707124919651 0 0.20589386385567829 -0.0063134785331596111 0 0.20001428446098229 -0.034334459813343092 0 0.18438258456793261 -0.021379302004443181 0 0.18863989258252481 -0.001979820774580698 0 0.1936475112771239 -0.030998707124919651 0 0.18610830639217099 -0.030062433202775862 0 0.18438258456793261 -0.021379302004443181 0 0.1936475112771239 -0.030998707124919651 0 0.20589386385567829 -0.0063134785331596111 0 0.20001428446098229 -0.034334459813343092 0 0.2199828155312514 -0.0225516893132638 0 0.20001428446098229 -0.034334459813343092 0 0.22061008072662569 -0.045125245157715169 0 0.20001428446098229 -0.034334459813343092 0 0.22061008072662569 -0.045125245157715169 0 0.2199828155312514 -0.0225516893132638 0 0.20001428446098229 -0.034334459813343092 0 0.19683654360934791 -0.049478981375062181 0 0.22061008072662569 -0.045125245157715169 0 0.1936475112771239 -0.030998707124919651 0 0.19683654360934791 -0.049478981375062181 0 0.18674227588606429 -0.037749552466939278 0 0.1936475112771239 -0.030998707124919651 0 0.19683654360934791 -0.049478981375062181 0 0.1936475112771239 -0.030998707124919651 0 0.20001428446098229 -0.034334459813343092 0 0.19683654360934791 -0.049478981375062181 0 0.1936475112771239 -0.030998707124919651 0 0.20001428446098229 -0.034334459813343092 0 0.18674227588606429 -0.037749552466939278 0 0.18610830639217099 -0.030062433202775862 0 0.1936475112771239 -0.030998707124919651 0 0.18434240851125541 -0.050289724698312777 0 0.18674227588606429 -0.037749552466939278 0 0.19683654360934791 -0.049478981375062181 0 0.20001428446098229 -0.034334459813343092 0 0.19683654360934791 -0.049478981375062181 0 0.19683654360934791 -0.049478981375062181 0 0.1929894301603077 -0.067813608174319001 0 0.2000429458732931 -0.068059913463883598 0 0.19683654360934791 -0.049478981375062181 0 0.21158346953455981 -0.057932445704329483 0 0.2000429458732931 -0.068059913463883598 0 0.19683654360934791 -0.049478981375062181 0 0.2000429458732931 -0.068059913463883598 0 0.19683654360934791 -0.049478981375062181 0 0.1929894301603077 -0.067813608174319001 0 0.18434240851125541 -0.050289724698312777 0 0.19683654360934791 -0.049478981375062181 0 0.1929894301603077 -0.067813608174319001 0 0.19683654360934791 -0.049478981375062181 0 0.21158346953455981 -0.057932445704329483 0 0.22061008072662569 -0.045125245157715169 0 0.24120587699226881 -0.055916030502087773 0 0.22061008072662569 -0.045125245157715169 0 0.2288443079289719 -0.069065642820655804 0 0.21158346953455981 -0.057932445704329483 0 0.22061008072662569 -0.045125245157715169 0 0.2288443079289719 -0.069065642820655804 0 0.24120587699226881 -0.055916030502087773 0 0.22061008072662569 -0.045125245157715169 0 0.25030159180115191 -0.034143426788088307 0 0.24120587699226881 -0.055916030502087773 0 0.23430517811137791 -0.037629801295311363 0 0.25030159180115191 -0.034143426788088307 0 0.23430517811137791 -0.037629801295311363 0 0.23651070060392609 -0.023431292744830981 0 0.22061008072662569 -0.045125245157715169 0 0.23430517811137791 -0.037629801295311363 0 0.2199828155312514 -0.0225516893132638 0 0.24120587699226881 -0.055916030502087773 0 0.22061008072662569 -0.045125245157715169 0 0.23430517811137791 -0.037629801295311363 0 0.2199828155312514 -0.0225516893132638 0 0.23651070060392609 -0.023431292744830981 0 0.2300866381754704 -0.0072438550720441714 0 0.23430517811137791 -0.037629801295311363 0 0.2199828155312514 -0.0225516893132638 0 0.23651070060392609 -0.023431292744830981 0 0.25030159180115191 -0.034143426788088307 0 0.23651070060392609 -0.023431292744830981 0 0.2464198669495459 -0.012097030270161889 0 0.23790413247208811 0.0091049515404343275 0 0.2464198669495459 -0.012097030270161889 0 0.2300866381754704 -0.0072438550720441714 0 0.23651070060392609 -0.023431292744830981 0 0.2464198669495459 -0.012097030270161889 0 0.2300866381754704 -0.0072438550720441714 0 0.2185782736923042 -0.0038367730406402641 0 0.2199828155312514 -0.0225516893132638 0 0.2300866381754704 -0.0072438550720441714 0 0.22518260227175371 0.0072623370788317187 0 0.2185782736923042 -0.0038367730406402641 0 0.2300866381754704 -0.0072438550720441714 0 0.20666963866093291 -0.1113398018781358 0 0.20399491490549271 -0.090961365670864353 0 0.20666963866093291 -0.1113398018781358 0 0.23081911420975029 -0.091789222750733895 0 0.20666963866093291 -0.1113398018781358 0 0.20399491490549271 -0.090961365670864353 0 0.23081911420975029 -0.091789222750733895 0 0.2184940671700534 -0.12394732724419751 0 0.20666963866093291 -0.1113398018781358 0 0.22056261316880149 -0.1108234873110058 0 0.2184940671700534 -0.12394732724419751 0 0.20975191972323501 -0.12432290509972491 0 0.20666963866093291 -0.1113398018781358 0 0.2184940671700534 -0.12394732724419751 0 0.20666963866093291 -0.1113398018781358 0 0.20975191972323501 -0.12432290509972491 0 0.20666963866093291 -0.1113398018781358 0 0.1971408692894723 -0.1190539635876471 0 0.20975191972323501 -0.12432290509972491 0 0.20666963866093291 -0.1113398018781358 0 0.18014950107347269 -0.1188522098678762 0 0.1971408692894723 -0.1190539635876471 0 0.19406318364410949 -0.13526348461287321 0 0.20666963866093291 -0.1113398018781358 0 0.1971408692894723 -0.1190539635876471 0 0.18014950107347269 -0.1188522098678762 0 0.1971408692894723 -0.1190539635876471 0 0.1922879604253335 -0.1099500278873989 0 0.20666963866093291 -0.1113398018781358 0 0.1971408692894723 -0.1190539635876471 0 0.1922879604253335 -0.1099500278873989 0 0.20666963866093291 -0.1113398018781358 0 0.19243594079672521 -0.096163448387799222 0 0.20399491490549271 -0.090961365670864353 0 0.18504385230606449 -0.10434071571553651 0 0.1922879604253335 -0.1099500278873989 0 0.19243594079672521 -0.096163448387799222 0 0.20666963866093291 -0.1113398018781358 0 0.1922879604253335 -0.1099500278873989 0 0.19243594079672521 -0.096163448387799222 0 0.20666963866093291 -0.1113398018781358 0 0.19243594079672521 -0.096163448387799222 0 0.1854866420256687 -0.084161575248007242 0 0.19040307974074269 -0.080139672987034255 0 0.20399491490549271 -0.090961365670864353 0 0.17842320588221819 -0.090172163349513806 0 0.19243594079672521 -0.096163448387799222 0 0.20399491490549271 -0.090961365670864353 0 0.17842320588221819 -0.090172163349513806 0 0.20399491490549271 -0.090961365670864353 0 0.17842320588221819 -0.090172163349513806 0 0.1854866420256687 -0.084161575248007242 0 0.20399491490549271 -0.090961365670864353 0 0.2000429458732931 -0.068059913463883598 0 0.20399491490549271 -0.090961365670864353 0 0.19040307974074269 -0.080139672987034255 0 0.2000429458732931 -0.068059913463883598 0 0.20399491490549271 -0.090961365670864353 0 0.19040307974074269 -0.080139672987034255 0 0.1929894301603077 -0.067813608174319001 0 0.2000429458732931 -0.068059913463883598 0 0.19040307974074269 -0.080139672987034255 0 0.1929894301603077 -0.067813608174319001 0 0.1929894301603077 -0.067813608174319001 0 0.2000429458732931 -0.068059913463883598 0 0.2000429458732931 -0.068059913463883598 0 0.2288443079289719 -0.069065642820655804 0 0.2000429458732931 -0.068059913463883598 0 0.21771238563745279 -0.081480669998114597 0 0.2288443079289719 -0.069065642820655804 0 0.21158346953455981 -0.057932445704329483 0 0.2000429458732931 -0.068059913463883598 0 0.2288443079289719 -0.069065642820655804 0 0.2000429458732931 -0.068059913463883598 0 0.20399491490549271 -0.090961365670864353 0 0.21771238563745279 -0.081480669998114597 0 0.20399491490549271 -0.090961365670864353 0 0.21771238563745279 -0.081480669998114597 0 0.23081911420975029 -0.091789222750733895 0 0.20399491490549271 -0.090961365670864353 0 0.23081911420975029 -0.091789222750733895 0 0.21771238563745279 -0.081480669998114597 0 0.23081911420975029 -0.091789222750733895 0 0.2288443079289719 -0.069065642820655804 0 0.25764566998465072 -0.070071372177431313 0 0.24120587699226881 -0.055916030502087773 0 0.2288443079289719 -0.069065642820655804 0 0.25764566998465072 -0.070071372177431313 0 0.2288443079289719 -0.069065642820655804 0 0.25764566998465072 -0.070071372177431313 0 0.2288443079289719 -0.069065642820655804 0 0.24423239209720191 -0.080930297464084477 0 0.25666672159796139 -0.092586939936295867 0 0.23081911420975029 -0.091789222750733895 0 0.23081911420975029 -0.091789222750733895 0 0.2288443079289719 -0.069065642820655804 0 0.24423239209720191 -0.080930297464084477 0 0.25666672159796139 -0.092586939936295867 0 0.23081911420975029 -0.091789222750733895 0 0.24423239209720191 -0.080930297464084477 0 0.23081911420975029 -0.091789222750733895 0 0.24423239209720191 -0.080930297464084477 0 0.25666672159796139 -0.092586939936295867 0 0.23081911420975029 -0.091789222750733895 0 0.23839025179526999 -0.1151992729885977 0 0.20666963866093291 -0.1113398018781358 0 0.23081911420975029 -0.091789222750733895 0 0.22056261316880149 -0.1108234873110058 0 0.23081911420975029 -0.091789222750733895 0 0.22056261316880149 -0.1108234873110058 0 0.23839025179526999 -0.1151992729885977 0 0.2184940671700534 -0.12394732724419751 0 0.22056261316880149 -0.1108234873110058 0 0.23839025179526999 -0.1151992729885977 0 0.2184940671700534 -0.12394732724419751 0 0.23839025179526999 -0.1151992729885977 0 0.22928680998153819 -0.13545484142638689 0 0.25915390151091949 -0.11811210275817149 0 0.25133622254172122 -0.13557462765415079 0 0.23839025179526999 -0.1151992729885977 0 0.25133622254172122 -0.13557462765415079 0 0.25208407187516418 -0.1419613505697605 0 0.23274332603383319 -0.13914027229300069 0 0.25133622254172122 -0.13557462765415079 0 0.23839025179526999 -0.1151992729885977 0 0.22928680998153819 -0.13545484142638689 0 0.25133622254172122 -0.13557462765415079 0 0.22928680998153819 -0.13545484142638689 0 0.25133622254172122 -0.13557462765415079 0 0.23274332603383319 -0.13914027229300069 0 0.22928680998153819 -0.13545484142638689 0 0.25208407187516418 -0.1419613505697605 0 0.23274332603383319 -0.13914027229300069 0 0.2530488896403309 -0.16079061319898569 0 0.23274332603383319 -0.13914027229300069 0 0.2530488896403309 -0.16079061319898569 0 0.23274332603383319 -0.13914027229300069 0 0.2334622085995452 -0.15779257262933219 0 0.2530488896403309 -0.16079061319898569 0 0.25208407187516418 -0.1419613505697605 0 0.23274332603383319 -0.13914027229300069 0 0.22694604844669111 -0.15137512496012309 0 0.2202725953444182 -0.1456731206256075 0 0.22100128495381829 -0.16152072110389429 0 0.22694604844669111 -0.15137512496012309 0 0.23274332603383319 -0.13914027229300069 0 0.2334622085995452 -0.15779257262933219 0 0.22694604844669111 -0.15137512496012309 0 0.2202725953444182 -0.1456731206256075 0 0.23274332603383319 -0.13914027229300069 0 0.23274332603383319 -0.13914027229300069 0 0.20959101376118139 -0.13576323162740581 0 0.22928680998153819 -0.13545484142638689 0 0.2116749968128239 -0.1353591630196288 0 0.23274332603383319 -0.13914027229300069 0 0.22928680998153819 -0.13545484142638689 0 0.2116749968128239 -0.1353591630196288 0 0.2184940671700534 -0.12394732724419751 0 0.22928680998153819 -0.13545484142638689 0 0.2116749968128239 -0.1353591630196288 0 0.2202725953444182 -0.1456731206256075 0 0.23274332603383319 -0.13914027229300069 0 0.20959101376118139 -0.13576323162740581 0 0.23274332603383319 -0.13914027229300069 0 0.22928680998153819 -0.13545484142638689 0 0.2184940671700534 -0.12394732724419751 0 0.22928680998153819 -0.13545484142638689 0 0.23274332603383319 -0.13914027229300069 0 0.20959101376118139 -0.13576323162740581 0 0.2116749968128239 -0.1353591630196288 0 0.20975191972323501 -0.12432290509972491 0 0.2116749968128239 -0.1353591630196288 0 0.19406318364410949 -0.13526348461287321 0 0.2184940671700534 -0.12394732724419751 0 0.20975191972323501 -0.12432290509972491 0 0.2116749968128239 -0.1353591630196288 0 0.20959101376118139 -0.13576323162740581 0 0.2116749968128239 -0.1353591630196288 0 0.19406318364410949 -0.13526348461287321 0 0.2202725953444182 -0.1456731206256075 0 0.21077041390333781 -0.15496976615408631 0 0.22100128495381829 -0.16152072110389429 0 0.2202725953444182 -0.1456731206256075 0 0.20959101376118139 -0.13576323162740581 0 0.21077041390333781 -0.15496976615408631 0 0.20959101376118139 -0.13576323162740581 0 0.21077041390333781 -0.15496976615408631 0 0.19406318364410949 -0.13526348461287321 0 0.21077041390333781 -0.15496976615408631 0 0.19019323353294471 -0.15547991582157239 0 0.19406318364410949 -0.13526348461287321 0 0.21077041390333781 -0.15496976615408631 0 0.19406318364410949 -0.13526348461287321 0 0.20975191972323501 -0.12432290509972491 0 0.1971408692894723 -0.1190539635876471 0 0.19406318364410949 -0.13526348461287321 0 0.2116749968128239 -0.1353591630196288 0 0.19406318364410949 -0.13526348461287321 0 0.2064216300685435 -0.1763378775815001 0 0.19333004299069351 -0.19482382871724169 0 0.185888281266576 -0.1738959907954824 0 0.21077041390333781 -0.15496976615408631 0 0.19019323353294471 -0.15547991582157239 0 0.2064216300685435 -0.1763378775815001 0 0.19019323353294471 -0.15547991582157239 0 0.2064216300685435 -0.1763378775815001 0 0.185888281266576 -0.1738959907954824 0 0.21077041390333781 -0.15496976615408631 0 0.2064216300685435 -0.1763378775815001 0 0.22100128495381829 -0.16152072110389429 0 0.2064216300685435 -0.1763378775815001 0 0.22637928715471201 -0.1750627007060517 0 0.22100128495381829 -0.16152072110389429 0 0.2064216300685435 -0.1763378775815001 0 0.22637928715471201 -0.1750627007060517 0 0.2213864998634191 -0.19074186604973761 0 0.22637928715471201 -0.1750627007060517 0 0.2363010186387848 -0.18586727398715949 0 0.2213864998634191 -0.19074186604973761 0 0.22637928715471201 -0.1750627007060517 0 0.22100128495381829 -0.16152072110389429 0 0.2334622085995452 -0.15779257262933219 0 0.22637928715471201 -0.1750627007060517 0 0.2334622085995452 -0.15779257262933219 0 0.24133419147104179 -0.17110858194103351 0 0.22694604844669111 -0.15137512496012309 0 0.22100128495381829 -0.16152072110389429 0 0.2334622085995452 -0.15779257262933219 0 0.2530488896403309 -0.16079061319898569 0 0.2334622085995452 -0.15779257262933219 0 0.24133419147104179 -0.17110858194103351 0 0.2550208565069661 -0.17514012483034949 0 0.2530488896403309 -0.16079061319898569 0 0.24133419147104179 -0.17110858194103351 0 0.22637928715471201 -0.1750627007060517 0 0.24133419147104179 -0.17110858194103351 0 0.2363010186387848 -0.18586727398715949 0 0.25030889548151403 -0.1837077448593728 0 0.2550208565069661 -0.17514012483034949 0 0.24133419147104179 -0.17110858194103351 0 0.25030889548151403 -0.1837077448593728 0 0.24133419147104179 -0.17110858194103351 0 0.2363010186387848 -0.18586727398715949 0 0.25030889548151403 -0.1837077448593728 0 0.2363010186387848 -0.18586727398715949 0 0.24624710011957149 -0.19756578472926509 0 0.2363010186387848 -0.18586727398715949 0 0.24624710011957149 -0.19756578472926509 0 0.23232272155890341 -0.19906227567560569 0 0.24624710011957149 -0.19756578472926509 0 0.2390873575194972 -0.2119906927462733 0 0.23232272155890341 -0.19906227567560569 0 0.25806059678156651 -0.21160485628964759 0 0.24624710011957149 -0.19756578472926509 0 0.2390873575194972 -0.2119906927462733 0 0.25806059678156651 -0.21160485628964759 0 0.2390873575194972 -0.2119906927462733 0 0.2485278721491469 -0.22983386195931649 0 0.22156570902884701 -0.2081716276760221 0 0.2275965143199381 -0.22680811778712909 0 0.21130945108473639 -0.22000441216527869 0 0.2390873575194972 -0.2119906927462733 0 0.22156570902884701 -0.2081716276760221 0 0.23232272155890341 -0.19906227567560569 0 0.2390873575194972 -0.2119906927462733 0 0.22156570902884701 -0.2081716276760221 0 0.2275965143199381 -0.22680811778712909 0 0.22156570902884701 -0.2081716276760221 0 0.2213864998634191 -0.19074186604973761 0 0.23232272155890341 -0.19906227567560569 0 0.2363010186387848 -0.18586727398715949 0 0.2213864998634191 -0.19074186604973761 0 0.23232272155890341 -0.19906227567560569 0 0.2410490216361528 -0.25300372010805161 0 0.2485278721491469 -0.22983386195931649 0 0.2275965143199381 -0.22680811778712909 0 0.25787859859726192 -0.24372773219337371 0 0.2410490216361528 -0.25300372010805161 0 0.2485278721491469 -0.22983386195931649 0 0.2390873575194972 -0.2119906927462733 0 0.2485278721491469 -0.22983386195931649 0 0.2275965143199381 -0.22680811778712909 0 0.2410490216361528 -0.25300372010805161 0 0.2275965143199381 -0.22680811778712909 0 0.2136455624920251 -0.24586339942155419 0 0.2410490216361528 -0.25300372010805161 0 0.2136455624920251 -0.24586339942155419 0 0.2136455624920251 -0.24586339942155419 0 0.1995187067769538 -0.22648505830905971 0 0.1970165427207646 -0.2431475676051908 0 0.2275965143199381 -0.22680811778712909 0 0.2136455624920251 -0.24586339942155419 0 0.21130945108473639 -0.22000441216527869 0 0.2136455624920251 -0.24586339942155419 0 0.21130945108473639 -0.22000441216527869 0 0.1995187067769538 -0.22648505830905971 0 0.1995187067769538 -0.22648505830905971 0 0.1970165427207646 -0.2431475676051908 0 0.1843931124890181 -0.23269732176232691 0 0.21130945108473639 -0.22000441216527869 0 0.1995187067769538 -0.22648505830905971 0 0.19847161958806309 -0.21206345826637629 0 0.2064216300685435 -0.1763378775815001 0 0.2213864998634191 -0.19074186604973761 0 0.20705859430259141 -0.20063481153153051 0 0.22156570902884701 -0.2081716276760221 0 0.2213864998634191 -0.19074186604973761 0 0.20705859430259141 -0.20063481153153051 0 0.22156570902884701 -0.2081716276760221 0 0.21130945108473639 -0.22000441216527869 0 0.20705859430259141 -0.20063481153153051 0 0.21130945108473639 -0.22000441216527869 0 0.20705859430259141 -0.20063481153153051 0 0.19847161958806309 -0.21206345826637629 0 0.19847161958806309 -0.21206345826637629 0 0.19333004299069351 -0.19482382871724169 0 0.184507054165965 -0.21658659277756609 0 0.1995187067769538 -0.22648505830905971 0 0.19847161958806309 -0.21206345826637629 0 0.184507054165965 -0.21658659277756609 0 0.20705859430259141 -0.20063481153153051 0 0.19847161958806309 -0.21206345826637629 0 0.19333004299069351 -0.19482382871724169 0 0.2064216300685435 -0.1763378775815001 0 0.20705859430259141 -0.20063481153153051 0 0.19333004299069351 -0.19482382871724169 0 0.1776330785524223 -0.18942424135099509 0 0.184507054165965 -0.21658659277756609 0 0.16837846483810831 -0.20319749351435479 0 0.19333004299069351 -0.19482382871724169 0 0.1776330785524223 -0.18942424135099509 0 0.184507054165965 -0.21658659277756609 0 0.1776330785524223 -0.18942424135099509 0 0.184507054165965 -0.21658659277756609 0 0.184507054165965 -0.21658659277756609 0 0.1749867686249286 -0.21735889230250449 0 0.16837846483810831 -0.20319749351435479 0 0.1749867686249286 -0.21735889230250449 0 0.16837846483810831 -0.20319749351435479 0 0.15045483047290331 -0.2082327262959493 0 0.1749867686249286 -0.21735889230250449 0 0.15045483047290331 -0.2082327262959493 0 0.1749867686249286 -0.21735889230250449 0 0.16226861639455931 -0.22172210758959859 0 0.15045483047290331 -0.2082327262959493 0 0.16837846483810831 -0.20319749351435479 0 0.15045483047290331 -0.2082327262959493 0 0.15431059237432221 -0.18438501484475869 0 0.1776330785524223 -0.18942424135099509 0 0.16837846483810831 -0.20319749351435479 0 0.15431059237432221 -0.18438501484475869 0 0.1970165427207646 -0.2431475676051908 0 0.18013525364959199 -0.24590787480667409 0 0.1843931124890181 -0.23269732176232691 0 0.18013525364959199 -0.24590787480667409 0 0.1843931124890181 -0.23269732176232691 0 0.17030829067285161 -0.2305872157882054 0 0.1995187067769538 -0.22648505830905971 0 0.1749867686249286 -0.21735889230250449 0 0.1995187067769538 -0.22648505830905971 0 0.1749867686249286 -0.21735889230250449 0 0.1843931124890181 -0.23269732176232691 0 0.1995187067769538 -0.22648505830905971 0 0.184507054165965 -0.21658659277756609 0 0.1749867686249286 -0.21735889230250449 0 0.1749867686249286 -0.21735889230250449 0 0.1843931124890181 -0.23269732176232691 0 0.17030829067285161 -0.2305872157882054 0 0.16226861639455931 -0.22172210758959859 0 0.17030829067285161 -0.2305872157882054 0 0.15332457580755371 -0.23070959597173549 0 0.1749867686249286 -0.21735889230250449 0 0.16226861639455931 -0.22172210758959859 0 0.17030829067285161 -0.2305872157882054 0 0.16103468924722281 -0.25381861710109321 0 0.18013525364959199 -0.24590787480667409 0 0.17030829067285161 -0.2305872157882054 0 0.16103468924722281 -0.25381861710109321 0 0.17030829067285161 -0.2305872157882054 0 0.15332457580755371 -0.23070959597173549 0 0.16103468924722281 -0.25381861710109321 0 0.1412434604122122 -0.24631040783256791 0 0.15332457580755371 -0.23070959597173549 0 0.1412434604122122 -0.24631040783256791 0 0.15332457580755371 -0.23070959597173549 0 0.1284413173888232 -0.22347585252773641 0 0.15332457580755371 -0.23070959597173549 0 0.1284413173888232 -0.22347585252773641 0 0.15045483047290331 -0.2082327262959493 0 0.16226861639455931 -0.22172210758959859 0 0.15332457580755371 -0.23070959597173549 0 0.15045483047290331 -0.2082327262959493 0 0.1200034520355143 -0.24749468667538321 0 0.1412434604122122 -0.24631040783256791 0 0.1284413173888232 -0.22347585252773641 0 0.15045483047290331 -0.2082327262959493 0 0.12592289232087811 -0.19910656028939411 0 0.15431059237432221 -0.18438501484475869 0 0.15045483047290331 -0.2082327262959493 0 0.12592289232087811 -0.19910656028939411 0 0.1284413173888232 -0.22347585252773641 0 0.15045483047290331 -0.2082327262959493 0 0.12592289232087811 -0.19910656028939411 0 0.11404320040195411 -0.17785048998131209 0 0.12592289232087811 -0.19910656028939411 0 0.1362427207560932 -0.1734399905344442 0 0.12592289232087811 -0.19910656028939411 0 0.1362427207560932 -0.1734399905344442 0 0.15431059237432221 -0.18438501484475869 0 0.1362427207560932 -0.1734399905344442 0 0.15431059237432221 -0.18438501484475869 0 0.1498051255961938 -0.157092757972084 0 0.11404320040195411 -0.17785048998131209 0 0.1362427207560932 -0.1734399905344442 0 0.1305387904294309 -0.15561497697083931 0 0.1362427207560932 -0.1734399905344442 0 0.1498051255961938 -0.157092757972084 0 0.1305387904294309 -0.15561497697083931 0 0.1498051255961938 -0.157092757972084 0 0.1305387904294309 -0.15561497697083931 0 0.13638976604354719 -0.13495016646355951 0 0.1161887790728692 -0.1476769396888597 0 0.1305387904294309 -0.15561497697083931 0 0.13638976604354719 -0.13495016646355951 0 0.12800820934211829 -0.12401417466047961 0 0.13638976604354719 -0.13495016646355951 0 0.1486045981545247 -0.12747252536747111 0 0.13638976604354719 -0.13495016646355951 0 0.16388512732533739 -0.13509953849785281 0 0.13638976604354719 -0.13495016646355951 0 0.1486045981545247 -0.12747252536747111 0 0.16388512732533739 -0.13509953849785281 0 0.1498051255961938 -0.157092757972084 0 0.13638976604354719 -0.13495016646355951 0 0.16388512732533739 -0.13509953849785281 0 0.16388512732533739 -0.13509953849785281 0 0.17075910293887969 -0.16226188992442411 0 0.1498051255961938 -0.157092757972084 0 0.16388512732533739 -0.13509953849785281 0 0.17075910293887969 -0.16226188992442411 0 0.18014950107347269 -0.1188522098678762 0 0.16265603278097029 -0.1302428005884553 0 0.16388512732533739 -0.13509953849785281 0 0.16095359288685571 -0.1184472051676727 0 0.1486045981545247 -0.12747252536747111 0 0.16265603278097029 -0.1302428005884553 0 0.1486045981545247 -0.12747252536747111 0 0.16265603278097029 -0.1302428005884553 0 0.16388512732533739 -0.13509953849785281 0 0.16265603278097029 -0.1302428005884553 0 0.16388512732533739 -0.13509953849785281 0 0.19406318364410949 -0.13526348461287321 0 0.16388512732533739 -0.13509953849785281 0 0.18014950107347269 -0.1188522098678762 0 0.19406318364410949 -0.13526348461287321 0 0.18014950107347269 -0.1188522098678762 0 0.19406318364410949 -0.13526348461287321 0 0.16388512732533739 -0.13509953849785281 0 0.19019323353294471 -0.15547991582157239 0 0.16388512732533739 -0.13509953849785281 0 0.17075910293887969 -0.16226188992442411 0 0.19019323353294471 -0.15547991582157239 0 0.19406318364410949 -0.13526348461287321 0 0.16388512732533739 -0.13509953849785281 0 0.19019323353294471 -0.15547991582157239 0 0.185888281266576 -0.1738959907954824 0 0.17075910293887969 -0.16226188992442411 0 0.1776330785524223 -0.18942424135099509 0 0.185888281266576 -0.1738959907954824 0 0.17075910293887969 -0.16226188992442411 0 0.1776330785524223 -0.18942424135099509 0 0.17075910293887969 -0.16226188992442411 0 0.19333004299069351 -0.19482382871724169 0 0.1776330785524223 -0.18942424135099509 0 0.185888281266576 -0.1738959907954824 0 0.1776330785524223 -0.18942424135099509 0 0.15431059237432221 -0.18438501484475869 0 0.17075910293887969 -0.16226188992442411 0 0.15431059237432221 -0.18438501484475869 0 0.1498051255961938 -0.157092757972084 0 0.17075910293887969 -0.16226188992442411 0 
</DataArray>
</Points>
<Cells>
<DataArray type="UInt32" Name="connectivity" format="ascii">
0 1 2 3 4 5 6 7 8 9 10 11 12 13 14 15 16 17 18 19 20 21 22 23 24 25 26 27 28 29 30 31 32 33 34 35 36 37 38 39 40 41 42 43 44 45 46 47 48 49 50 51 52 53 54 55 56 57 58 59 60 61 62 63 64 65 66 67 68 69 70 71 72 73 74 75 76 77 78 79 80 81 82 83 84 85 86 87 88 89 90 91 92 93 94 95 96 97 98 99 100 101 102 103 104 105 106 107 108 109 110 111 112 113 114 115 116 117 118 119 120 121 122 123 124 125 126 127 128 129 130 131 132 133 134 135 136 137 138 139 140 141 142 143 144 145 146 147 148 149 150 151 152 153 154 155 156 157 158 159 160 161 162 163 164 165 166 167 168 169 170 171 172 173 174 175 176 177 178 179 180 181 182 183 184 185 186 187 188 189 190 191 192 193 194 195 196 197 198 199 200 201 202 203 204 205 206 207 208 209 210 211 212 213 214 215 216 217 218 219 220 221 222 223 224 225 226 227 228 229 230 231 232 233 234 235 236 237 238 239 240 241 242 243 244 245 246 247 248 249 250 251 252 253 254 255 256 257 258 259 260 261 262 263 264 265 266 267 268 269 270 271 272 273 274 275 276 277 278 279 280 281 282 283 284 285 286 287 288 289 290 291 292 293 294 295 296 297 298 299 300 301 302 303 304 305 306 307 308 309 310 311 312 313 314 315 316 317 318 319 320 321 322 323 324 325 326 327 328 329 330 331 332 333 334 335 336 337 338 339 340 341 342 343 344 345 346 347 348 349 350 351 352 353 354 355 356 357 358 359 360 361 362 363 364 365 366 367 368 369 370 371 372 373 374 375 376 377 378 379 380 381 382 383 384 385 386 387 388 389 390 391 392 393 394 395 396 397 398 399 400 401 402 403 404 405 406 407 408 409 410 411 412 413 414 415 416 417 418 419 420 421 422 423 424 425 426 427 428 429 430 431 432 433 434 435 436 437 438 439 440 441 442 443 444 445 446 447 448 449 450 451 452 453 454 455 456 457 458 459 460 461 462 463 464 465 466 467 468 469 470 471 472 473 474 475 476 477 478 479 480 481 482 483 484 485 486 487 488 489 490 491 492 493 494 495 496 497 498 499 500 501 502 503 504 505 506 507 508 509 510 511 512 513 514 515 516 517 518 519 520 521 522 523 524 525 526 527 528 529 530 531 532 533 534 535 536 537 538 539 540 541 542 543 544 545 546 547 548 549 550 551 552 553 554 555 556 557 558 559 560 561 562 563 564 565 566 567 568 569 570 571 572 573 574 575 576 577 578 579 580 581 582 583 584 585 586 587 588 589 590 591 592 593 594 595 596 597 598 599 600 601 602 603 604 605 606 607 608 609 610 611 612 613 614 615 616 617 618 619 620 621 622 623 624 625 626 627 628 629 630 631 632 633 634 635 636 637 638 639 640 641 642 643 644 645 646 647 648 649 650 651 652 653 654 655 656 657 658 659 660 661 662 663 664 665 666 667 668 669 670 671 672 673 674 675 676 677 678 679 680 681 682 683 684 685 686 687 688 689 690 691 692 693 694 695 696 697 698 699 700 701 702 703 704 705 706 707 708 709 710 711 712 713 714 715 716 717 718 719 720 721 722 723 724 725 726 727 728 729 730 731 732 733 734 735 736 737 738 739 740 741 742 743 744 745 746 747 748 749 750 751 752 753 754 755 756 757 758 759 760 761 762 763 764 765 766 767 768 769 770 771 772 773 774 775 776 777 778 779 780 781 782 783 784 785 786 787 788 789 790 791 792 793 794 795 796 797 798 799 800 801 802 803 804 805 806 807 808 809 810 811 812 813 814 815 816 817 818 819 820 821 822 823 824 825 826 827 828 829 830 831 832 833 834 835 836 837 838 839 840 841 842 843 844 845 846 847 848 849 850 851 852 853 854 855 856 857 858 859 860 861 862 863 864 865 866 867 868 869 870 871 872 873 874 875 876 877 878 879 880 881 882 883 884 885 886 887 888 889 890 891 892 893 894 895 896 897 898 899 900 901 902 903 904 905 906 907 908 909 910 911 912 913 914 915 916 917 918 919 920 921 922 923 924 925 926 927 928 929 930 931 932 933 934 935 936 937 938 939 940 941 942 943 944 945 946 947 948 949 950 951 952 953 954 955 956 957 958 959 960 961 962 963 964 965 966 967 968 969 970 971 972 973 974 975 976 977 978 979 980 981 982 983 984 985 986 987 988 989 990 991 992 993 994 995 996 997 998 999 1000 1001 1002 1003 1004 1005 1006 1007 1008 1009 1010 1011 1012 1013 1014 1015 1016 1017 1018 1019 1020 1021 1022 1023 1024 1025 1026 1027 1028 1029 1030 1031 1032 1033 1034 1035 1036 1037 1038 1039 1040 1041 1042 1043 1044 1045 1046 1047 1048 1049 1050 1051 1052 1053 1054 1055 1056 1057 1058 1059 1060 1061 1062 1063 1064 1065 1066 1067 1068 1069 1070 1071 1072 1073 1074 1075 1076 1077 1078 1079 1080 1081 1082 1083 1084 1085 1086 1087 1088 1089 1090 1091 1092 1093 1094 1095 1096 1097 1098 1099 1100 1101 1102 1103 1104 1105 1106 1107 1108 1109 1110 1111 1112 1113 1114 1115 1116 1117 1118 1119 1120 1121 1122 1123 1124 1125 1126 1127 1128 1129 1130 1131 1132 1133 1134 1135 1136 1137 1138 1139 1140 1141 1142 1143 1144 1145 1146 1147 1148 1149 1150 1151 1152 1153 1154 1155 1156 1157 1158 1159 1160 1161 1162 1163 1164 1165 1166 1167 1168 1169 1170 1171 1172 1173 1174 1175 1176 1177 1178 1179 1180 1181 1182 1183 1184 1185 1186 1187 1188 1189 1190 1191 1192 1193 1194 1195 1196 1197 1198 1199 1200 1201 1202 1203 1204 1205 1206 1207 1208 1209 1210 1211 1212 1213 1214 1215 1216 1217 1218 1219 1220 1221 1222 1223 1224 1225 1226 1227 1228 1229 1230 1231 1232 1233 1234 1235 1236 1237 1238 1239 1240 1241 1242 1243 1244 1245 1246 1247 1248 1249 1250 1251 1252 1253 1254 1255 1256 1257 1258 1259 1260 1261 1262 1263 1264 1265 1266 1267 1268 1269 1270 1271 1272 1273 1274 1275 1276 1277 1278 1279 1280 1281 1282 1283 1284 1285 1286 1287 1288 1289 1290 1291 1292 1293 1294 1295 1296 1297 1298 1299 1300 1301 1302 1303 1304 1305 1306 1307 1308 1309 1310 1311 1312 1313 1314 1315 1316 1317 1318 1319 1320 1321 1322 1323 1324 1325 1326 1327 1328 1329 1330 1331 1332 1333 1334 1335 1336 1337 1338 1339 1340 1341 1342 1343 1344 1345 1346 1347 1348 1349 1350 1351 1352 1353 1354 1355 1356 1357 1358 1359 1360 1361 1362 1363 1364 1365 1366 1367 1368 1369 1370 1371 1372 1373 1374 1375 1376 1377 1378 1379 1380 1381 1382 1383 1384 1385 1386 1387 1388 1389 1390 1391 1392 1393 1394 1395 1396 1397 1398 1399 1400 1401 1402 1403 1404 1405 1406 1407 1408 1409 1410 1411 1412 1413 1414 1415 1416 1417 1418 1419 1420 1421 1422 1423 1424 1425 1426 1427 1428 1429 1430 1431 1432 1433 1434 1435 1436 1437 1438 1439 1440 1441 1442 1443 1444 1445 1446 1447 1448 1449 1450 1451 1452 1453 1454 1455 1456 1457 1458 1459 1460 1461 1462 1463 1464 1465 1466 1467 1468 1469 1470 1471 1472 1473 1474 1475 1476 1477 1478 1479 1480 1481 1482 1483 1484 1485 1486 1487 1488 1489 1490 1491 1492 1493 1494 1495 1496 1497 1498 1499 1500 1501 1502 1503 1504 1505 1506 1507 1508 1509 1510 1511 1512 1513 1514 1515 1516 1517 1518 1519 1520 1521 1522 1523 1524 1525 1526 1527 1528 1529 1530 1531 1532 1533 1534 1535 1536 1537 1538 1539 1540 1541 1542 1543 1544 1545 1546 1547 1548 1549 1550 1551 1552 1553 1554 1555 1556 1557 1558 1559 1560 1561 1562 1563 1564 1565 1566 1567 1568 1569 1570 1571 1572 1573 1574 1575 1576 1577 1578 1579 1580 1581 1582 1583 1584 1585 1586 1587 1588 1589 1590 1591 1592 1593 1594 1595 1596 1597 1598 1599 1600 1601 1602 1603 1604 1605 1606 1607 1608 1609 1610 1611 1612 1613 1614 1615 1616 1617 1618 1619 1620 1621 1622 1623 1624 1625 1626 1627 1628 1629 1630 1631 1632 1633 1634 1635 1636 1637 1638 1639 1640 1641 1642 1643 1644 1645 1646 1647 1648 1649 1650 1651 1652 1653 1654 1655 1656 1657 1658 1659 1660 1661 1662 1663 1664 1665 1666 1667 1668 1669 1670 1671 1672 1673 1674 1675 1676 1677 1678 1679 1680 1681 1682 1683 1684 1685 1686 1687 1688 1689 1690 1691 1692 1693 1694 1695 1696 1697 1698 1699 1700 1701 1702 1703 1704 1705 1706 1707 1708 1709 1710 1711 1712 1713 1714 1715 1716 1717 1718 1719 1720 1721 1722 1723 1724 1725 1726 1727 1728 1729 1730 1731 1732 1733 1734 1735 1736 1737 1738 1739 1740 1741 1742 1743 1744 1745 1746 1747 1748 1749 1750 1751 1752 1753 1754 1755 1756 1757 1758 1759 1760 1761 1762 1763 1764 1765 1766 1767 1768 1769 1770 1771 1772 1773 1774 1775 1776 1777 1778 1779 1780 1781 1782 1783 1784 1785 1786 1787 1788 1789 1790 1791 1792 1793 1794 1795 1796 1797 1798 1799 1800 1801 1802 1803 1804 1805 1806 1807 1808 1809 1810 1811 1812 1813 1814 1815 1816 1817 1818 1819 1820 1821 1822 1823 1824 1825 1826 1827 1828 1829 1830 1831 1832 1833 1834 1835 1836 1837 1838 1839 1840 1841 1842 1843 1844 1845 1846 1847 1848 1849 1850 1851 1852 1853 1854 1855 1856 1857 1858 1859 1860 1861 1862 1863 1864 1865 1866 1867 1868 1869 1870 1871 1872 1873 1874 1875 1876 1877 1878 1879 1880 1881 1882 1883 1884 1885 1886 1887 1888 1889 1890 1891 1892 1893 1894 1895 1896 1897 1898 1899 1900 1901 1902 1903 1904 1905 1906 1907 1908 1909 1910 1911 1912 1913 1914 1915 1916 1917 1918 1919 1920 1921 1922 1923 1924 1925 1926 1927 1928 1929 1930 1931 1932 1933 1934 1935 1936 1937 1938 1939 1940 1941 1942 1943 1944 1945 1946 1947 1948 1949 1950 1951 1952 1953 1954 1955 1956 1957 1958 1959 1960 1961 1962 1963 1964 1965 1966 1967 1968 1969 1970 1971 1972 1973 1974 1975 1976 1977 1978 1979 1980 1981 1982 1983 1984 1985 1986 1987 1988 1989 1990 1991 1992 1993 1994 1995 1996 1997 1998 1999 2000 2001 2002 2003 2004 2005 2006 2007 2008 2009 2010 2011 2012 2013 2014 2015 2016 2017 2018 2019 2020 2021 2022 2023 2024 2025 2026 2027 2028 2029 2030 2031 2032 2033 2034 2035 2036 2037 2038 2039 2040 2041 2042 2043 2044 2045 2046 2047 2048 2049 2050 2051 2052 2053 2054 2055 2056 2057 2058 2059 2060 2061 2062 2063 2064 2065 2066 2067 2068 2069 2070 2071 2072 2073 2074 2075 2076 2077 2078 2079 2080 2081 2082 2083 2084 2085 2086 2087 2088 2089 2090 2091 2092 2093 2094 2095 2096 2097 2098 2099 2100 2101 2102 2103 2104 2105 2106 2107 2108 2109 2110 2111 2112 2113 2114 2115 2116 2117 2118 2119 2120 2121 2122 2123 2124 2125 2126 2127 2128 2129 2130 2131 2132 2133 2134 2135 2136 2137 2138 2139 2140 2141 2142 2143 2144 2145 2146 2147 2148 2149 2150 2151 2152 2153 2154 2155 2156 2157 2158 2159 2160 2161 2162 2163 2164 2165 2166 2167 2168 2169 2170 2171 2172 2173 2174 2175 2176 2177 2178 2179 2180 2181 2182 2183 2184 2185 2186 2187 2188 2189 2190 2191 2192 2193 2194 2195 2196 2197 2198 2199 2200 2201 2202 2203 2204 2205 2206 2207 2208 2209 2210 2211 2212 2213 2214 2215 2216 2217 2218 2219 2220 2221 2222 2223 2224 2225 2226 2227 2228 2229 2230 2231 2232 2233 2234 2235 2236 2237 2238 2239 2240 2241 2242 2243 2244 2245 2246 2247 2248 2249 2250 2251 2252 2253 2254 2255 2256 2257 2258 2259 2260 2261 2262 2263 2264 2265 2266 2267 2268 2269 2270 2271 2272 2273 2274 2275 2276 2277 2278 2279 2280 2281 2282 2283 2284 2285 2286 2287 2288 2289 2290 2291 2292 2293 2294 2295 2296 2297 2298 2299 2300 2301 2302 2303 2304 2305 2306 2307 2308 2309 2310 2311 2312 2313 2314 2315 2316 2317 2318 2319 2320 2321 2322 2323 2324 2325 2326 2327 2328 2329 2330 2331 2332 2333 2334 2335 2336 2337 2338 2339 2340 2341 2342 2343 2344 2345 2346 2347 2348 2349 2350 2351 2352 2353 2354 2355 2356 2357 2358 2359 2360 2361 2362 2363 2364 2365 2366 2367 2368 2369 2370 2371 2372 2373 2374 2375 2376 2377 2378 2379 2380 2381 2382 2383 2384 2385 2386 2387 2388 2389 2390 2391 2392 2393 2394 2395 2396 2397 2398 2399 2400 2401 2402 2403 2404 2405 2406 2407 2408 2409 2410 2411 2412 2413 2414 2415 2416 2417 2418 2419 2420 2421 2422 2423 2424 2425 2426 2427 2428 2429 2430 2431 2432 2433 2434 2435 2436 2437 2438 2439 2440 2441 2442 2443 2444 2445 2446 2447 2448 2449 2450 2451 2452 2453 2454 2455 2456 2457 2458 2459 2460 2461 2462 2463 2464 2465 2466 2467 2468 2469 2470 2471 2472 2473 2474 2475 2476 2477 2478 2479 2480 2481 2482 2483 2484 2485 2486 2487 2488 2489 2490 2491 2492 2493 2494 2495 2496 2497 2498 2499 2500 2501 2502 2503 2504 2505 2506 2507 2508 2509 2510 2511 2512 2513 2514 2515 2516 2517 2518 2519 2520 2521 2522 2523 2524 2525 2526 2527 2528 2529 2530 2531 2532 2533 2534 2535 2536 2537 2538 2539 2540 2541 2542 2543 2544 2545 2546 2547 2548 2549 2550 2551 2552 2553 2554 2555 2556 2557 2558 2559 2560 2561 2562 2563 2564 2565 2566 2567 2568 2569 2570 2571 2572 2573 2574 2575 2576 2577 2578 2579 2580 2581 2582 2583 2584 2585 2586 2587 2588 2589 2590 2591 2592 2593 2594 2595 2596 2597 2598 2599 2600 2601 2602 2603 2604 2605 2606 2607 2608 2609 2610 2611 2612 2613 2614 2615 2616 2617 2618 2619 2620 2621 2622 2623 2624 2625 2626 2627 2628 2629 2630 2631 2632 2633 2634 2635 2636 2637 2638 2639 2640 2641 2642 2643 2644 2645 2646 2647 2648 2649 2650 2651 2652 2653 2654 2655 2656 2657 2658 2659 2660 2661 2662 2663 2664 2665 2666 2667 2668 2669 2670 2671 2672 2673 2674 2675 2676 2677 2678 2679 2680 2681 2682 2683 2684 2685 2686 2687 2688 2689 2690 2691 2692 2693 2694 2695 2696 2697 2698 2699 2700 2701 2702 2703 2704 2705 2706 2707 2708 2709 2710 2711 2712 2713 2714 2715 2716 2717 2718 2719 2720 2721 2722 2723 2724 2725 2726 2727 2728 2729 2730 2731 2732 2733 2734 2735 2736 2737 2738 2739 2740 2741 2742 2743 2744 2745 2746 2747 2748 2749 2750 2751 2752 2753 2754 2755 2756 2757 2758 2759 2760 2761 2762 2763 2764 2765 2766 2767 2768 2769 2770 2771 2772 2773 2774 2775 2776 2777 2778 2779 2780 2781 2782 2783 2784 2785 2786 2787 2788 2789 2790 2791 2792 2793 2794 2795 2796 2797 2798 2799 2800 2801 2802 2803 2804 2805 2806 2807 2808 2809 2810 2811 2812 2813 2814 2815 2816 2817 2818 2819 2820 2821 2822 2823 2824 2825 2826 2827 2828 2829 2830 2831 2832 2833 2834 2835 2836 2837 2838 2839 2840 2841 2842 2843 2844 2845 2846 2847 2848 2849 2850 2851 2852 2853 2854 2855 2856 2857 2858 2859 2860 2861 2862 2863 2864 2865 2866 2867 2868 2869 2870 2871 2872 2873 2874 2875 2876 2877 2878 2879 2880 2881 2882 2883 2884 2885 2886 2887 2888 2889 2890 2891 2892 2893 2894 2895 2896 2897 2898 2899 2900 2901 2902 2903 2904 2905 2906 2907 2908 2909 2910 2911 2912 2913 2914 2915 2916 2917 2918 2919 2920 2921 2922 2923 2924 2925 2926 2927 2928 2929 2930 2931 2932 2933 2934 2935 2936 2937 2938 2939 2940 2941 2942 2943 2944 2945 2946 2947 2948 2949 2950 2951 2952 2953 2954 2955 2956 2957 2958 2959 2960 2961 2962 2963 2964 2965 2966 2967 2968 2969 2970 2971 2972 2973 2974 2975 2976 2977 2978 2979 2980 2981 2982 2983 2984 2985 2986 2987 2988 2989 2990 2991 2992 2993 2994 2995 2996 2997 2998 2999 3000 3001 3002 3003 3004 3005 3006 3007 3008 3009 3010 3011 3012 3013 3014 3015 3016 3017 3018 3019 3020 3021 3022 3023 3024 3025 3026 3027 3028 3029 3030 3031 3032 3033 3034 3035 3036 3037 3038 3039 3040 3041 3042 3043 3044 3045 3046 3047 3048 3049 3050 3051 3052 3053 3054 3055 3056 3057 3058 3059 3060 3061 3062 3063 3064 3065 3066 3067 3068 3069 3070 3071 3072 3073 3074 3075 3076 3077 3078 3079 3080 3081 3082 3083 3084 3085 3086 3087 3088 3089 3090 3091 3092 3093 3094 3095 3096 3097 3098 3099 3100 3101 3102 3103 3104 3105 3106 3107 3108 3109 3110 3111 3112 3113 3114 3115 3116 3117 3118 3119 3120 3121 3122 3123 3124 3125 3126 3127 3128 3129 3130 3131 3132 3133 3134 3135 3136 3137 3138 3139 3140 3141 3142 3143 3144 3145 3146 3147 3148 3149 3150 3151 3152 3153 3154 3155 3156 3157 3158 3159 3160 3161 3162 3163 3164 3165 3166 3167 3168 3169 3170 3171 3172 3173 3174 3175 3176 3177 3178 3179 3180 3181 3182 3183 3184 3185 3186 3187 3188 3189 3190 3191 3192 3193 3194 3195 3196 3197 3198 3199 3200 3201 3202 3203 3204 3205 3206 3207 3208 3209 3210 3211 3212 3213 3214 3215 3216 3217 3218 3219 3220 3221 3222 3223 3224 3225 3226 3227 3228 3229 3230 3231 3232 3233 3234 3235 3236 3237 3238 3239 3240 3241 3242 3243 3244 3245 3246 3247 3248 3249 3250 3251 3252 3253 3254 3255 3256 3257 3258 3259 3260 3261 3262 3263 3264 3265 3266 3267 3268 3269 3270 3271 3272 3273 3274 3275 3276 3277 3278 3279 3280 3281 3282 3283 3284 3285 3286 3287 3288 3289 3290 3291 3292 3293 3294 3295 3296 3297 3298 3299 3300 3301 3302 3303 3304 3305 3306 3307 3308 3309 3310 3311 3312 3313 3314 3315 3316 3317 3318 3319 3320 3321 3322 3323 3324 3325 3326 3327 3328 3329 3330 3331 3332 3333 3334 3335 3336 3337 3338 3339 3340 3341 3342 3343 3344 3345 3346 3347 3348 3349 3350 3351 3352 3353 3354 3355 3356 3357 3358 3359 3360 3361 3362 3363 3364 3365 3366 3367 3368 3369 3370 3371 3372 3373 3374 3375 3376 3377 3378 3379 3380 3381 3382 3383 3384 3385 3386 3387 3388 3389 3390 3391 3392 3393 3394 3395 3396 3397 3398 3399 3400 3401 3402 3403 3404 3405 3406 3407 3408 3409 3410 3411 3412 3413 3414 3415 3416 3417 3418 3419 3420 3421 3422 3423 3424 3425 3426 3427 3428 3429 3430 3431 3432 3433 3434 3435 3436 3437 3438 3439 3440 3441 3442 3443 3444 3445 3446 3447 3448 3449 3450 3451 3452 3453 3454 3455 3456 3457 3458 3459 3460 3461 3462 3463 3464 3465 3466 3467 3468 3469 3470 3471 3472 3473 3474 3475 3476 3477 3478 3479 3480 3481 3482 3483 3484 3485 3486 3487 3488 3489 3490 3491 3492 3493 3494 3495 3496 3497 3498 3499 3500 3501 3502 3503 3504 3505 3506 3507 3508 3509 3510 3511 3512 3513 3514 3515 3516 3517 3518 3519 3520 3521 3522 3523 3524 3525 3526 3527 3528 3529 3530 3531 3532 3533 3534 3535 3536 3537 3538 3539 3540 3541 3542 3543 3544 3545 3546 3547 3548 3549 3550 3551 3552 3553 3554 3555 3556 3557 3558 3559 3560 3561 3562 3563 3564 3565 3566 3567 3568 3569 3570 3571 3572 3573 3574 3575 3576 3577 3578 3579 3580 3581 3582 3583 3584 3585 3586 3587 3588 3589 3590 3591 3592 3593 3594 3595 3596 3597 3598 3599 3600 3601 3602 3603 3604 3605 3606 3607 3608 3609 3610 3611 3612 3613 3614 3615 3616 3617 3618 3619 3620 3621 3622 3623 3624 3625 3626 3627 3628 3629 3630 3631 3632 3633 3634 3635 3636 3637 3638 3639 3640 3641 3642 3643 3644 3645 3646 3647 3648 3649 3650 3651 3652 3653 3654 3655 3656 3657 3658 3659 3660 3661 3662 3663 3664 3665 3666 3667 3668 3669 3670 3671 3672 3673 3674 3675 3676 3677 3678 3679 3680 3681 3682 3683 3684 3685 3686 3687 3688 3689 3690 3691 3692 3693 3694 3695 3696 3697 3698 3699 3700 3701 3702 3703 3704 3705 3706 3707 3708 3709 3710 3711 3712 3713 3714 3715 3716 3717 3718 3719 3720 3721 3722 3723 3724 3725 3726 3727 3728 3729 3730 3731 3732 3733 3734 3735 3736 3737 3738 3739 3740 3741 3742 3743 3744 3745 3746 3747 3748 3749 3750 3751 3752 3753 3754 3755 3756 3757 3758 3759 3760 3761 3762 3763 3764 3765 3766 3767 3768 3769 3770 3771 3772 3773 3774 3775 3776 3777 3778 3779 3780 3781 3782 3783 3784 3785 3786 3787 3788 3789 3790 3791 3792 3793 3794 3795 3796 3797 3798 3799 3800 3801 3802 3803 3804 3805 3806 3807 3808 3809 3810 3811 3812 3813 3814 3815 3816 3817 3818 3819 3820 3821 3822 3823 3824 3825 3826 3827 3828 3829 3830 3831 3832 3833 3834 3835 3836 3837 3838 3839 3840 3841 3842 3843 3844 3845 3846 3847 3848 3849 3850 3851 3852 3853 3854 3855 3856 3857 3858 3859 3860 3861 3862 3863 3864 3865 3866 3867 3868 3869 3870 3871 3872 3873 3874 3875 3876 3877 3878 3879 3880 3881 3882 3883 3884 3885 3886 3887 3888 3889 3890 3891 3892 3893 3894 3895 3896 3897 3898 3899 3900 3901 3902 3903 3904 3905 3906 3907 3908 3909 3910 3911 3912 3913 3914 3915 3916 3917 3918 3919 3920 3921 3922 3923 3924 3925 3926 3927 3928 3929 3930 3931 3932 3933 3934 3935 3936 3937 3938 3939 3940 3941 3942 3943 3944 3945 3946 3947 3948 3949 3950 3951 3952 3953 3954 3955 3956 3957 3958 3959 3960 3961 3962 3963 3964 3965 3966 3967 3968 3969 3970 3971 3972 3973 3974 3975 3976 3977 3978 3979 3980 3981 3982 3983 3984 3985 3986 3987 3988 3989 3990 3991 3992 3993 3994 3995 3996 3997 3998 3999 4000 4001 4002 4003 4004 4005 4006 4007 4008 4009 4010 4011 4012 4013 4014 4015 4016 4017 4018 4019 4020 4021 4022 4023 4024 4025 4026 4027 4028 4029 4030 4031 4032 4033 4034 4035 4036 4037 4038 4039 4040 4041 4042 4043 4044 4045 4046 4047 4048 4049 4050 4051 4052 4053 4054 4055 4056 4057 4058 4059 4060 4061 4062 4063 4064 4065 4066 4067 4068 4069 4070 4071 4072 4073 4074 4075 4076 4077 4078 4079 4080 4081 4082 4083 4084 4085 4086 4087 4088 4089 4090 4091 4092 4093 4094 4095 4096 4097 4098 4099 4100 4101 4102 4103 4104 4105 4106 4107 4108 4109 4110 4111 4112 4113 4114 4115 4116 4117 4118 4119 4120 4121 4122 4123 4124 4125 4126 4127 4128 4129 4130 4131 4132 4133 4134 4135 4136 4137 4138 4139 4140 4141 4142 4143 4144 4145 4146 4147 4148 4149 4150 4151 4152 4153 4154 4155 4156 4157 4158 4159 4160 4161 4162 4163 4164 4165 4166 4167 4168 4169 4170 4171 4172 4173 4174 4175 4176 4177 4178 4179 4180 4181 4182 4183 4184 4185 4186 4187 4188 4189 4190 4191 4192 4193 4194 4195 4196 4197 4198 4199 4200 4201 4202 4203 4204 4205 4206 4207 4208 4209 4210 4211 4212 4213 4214 4215 4216 4217 4218 4219 4220 4221 4222 4223 4224 4225 4226 4227 4228 4229 4230 4231 4232 4233 4234 4235 4236 4237 4238 4239 4240 4241 4242 4243 4244 4245 4246 4247 4248 4249 4250 4251 4252 4253 4254 4255 4256 4257 4258 4259 4260 4261 4262 4263 4264 4265 4266 4267 4268 4269 4270 4271 4272 4273 4274 4275 4276 4277 4278 4279 4280 4281 4282 4283 4284 4285 4286 4287 4288 4289 4290 4291 4292 4293 4294 4295 4296 4297 4298 4299 4300 4301 4302 4303 4304 4305 4306 4307 4308 4309 4310 4311 4312 4313 4314 4315 4316 4317 4318 4319 4320 4321 4322 4323 4324 4325 4326 4327 4328 4329 4330 4331 4332 4333 4334 4335 4336 4337 4338 4339 4340 4341 4342 4343 4344 4345 4346 4347 4348 4349 4350 4351 4352 4353 4354 4355 4356 4357 4358 4359 4360 4361 4362 4363 4364 4365 4366 4367 4368 4369 4370 4371 4372 4373 4374 4375 4376 4377 4378 4379 4380 4381 4382 4383 4384 4385 4386 4387 4388 4389 4390 4391 4392 4393 4394 4395 4396 4397 4398 4399 4400 4401 4402 4403 4404 4405 4406 4407 4408 4409 4410 4411 4412 4413 4414 4415 4416 4417 4418 4419 4420 4421 4422 4423 4424 4425 4426 4427 4428 4429 4430 4431 4432 4433 4434 4435 4436 4437 4438 4439 4440 4441 4442 4443 4444 4445 4446 4447 4448 4449 4450 4451 4452 4453 4454 4455 4456 4457 4458 4459 4460 4461 4462 4463 4464 4465 4466 4467 4468 4469 4470 4471 4472 4473 4474 4475 4476 4477 4478 4479 4480 4481 4482 4483 4484 4485 4486 4487 4488 4489 4490 4491 4492 4493 4494 4495 4496 4497 4498 4499 4500 4501 4502 4503 4504 4505 4506 4507 4508 4509 4510 4511 4512 4513 4514 4515 4516 4517 4518 4519 4520 4521 4522 4523 4524 4525 4526 4527 4528 4529 4530 4531 4532 4533 4534 4535 4536 4537 4538 4539 4540 4541 4542 4543 4544 4545 4546 4547 4548 4549 4550 4551 4552 4553 4554 4555 4556 4557 4558 4559 4560 4561 4562 4563 4564 4565 4566 4567 4568 4569 4570 4571 4572 4573 4574 4575 4576 4577 4578 4579 4580 4581 4582 4583 4584 4585 4586 4587 4588 4589 4590 4591 4592 4593 4594 4595 4596 4597 4598 4599 4600 4601 4602 4603 4604 4605 4606 4607 4608 4609 4610 4611 4612 4613 4614 4615 4616 4617 4618 4619 4620 4621 4622 4623 4624 4625 4626 4627 4628 4629 4630 4631 4632 4633 4634 4635 4636 4637 4638 4639 4640 4641 4642 4643 4644 4645 4646 4647 4648 4649 4650 4651 4652 4653 4654 4655 4656 4657 4658 4659 4660 4661 4662 4663 4664 4665 4666 4667 4668 4669 4670 4671 4672 4673 4674 4675 4676 4677 4678 4679 4680 4681 4682 4683 4684 4685 4686 4687 4688 4689 4690 4691 4692 4693 4694 4695 4696 4697 4698 4699 4700 4701 4702 4703 4704 4705 4706 4707 4708 4709 4710 4711 4712 4713 4714 4715 4716 4717 4718 4719 4720 4721 4722 4723 4724 4725 4726 4727 4728 4729 4730 4731 4732 4733 4734 4735 4736 4737 4738 4739 4740 4741 4742 4743 4744 4745 4746 4747 4748 4749 4750 4751 4752 4753 4754 4755 4756 4757 4758 4759 4760 4761 4762 4763 4764 4765 4766 4767 4768 4769 4770 4771 4772 4773 4774 4775 4776 4777 4778 4779 4780 4781 4782 4783 4784 4785 4786 4787 4788 4789 4790 4791 4792 4793 4794 4795 4796 4797 4798 4799 4800 4801 4802 4803 4804 4805 4806 4807 4808 4809 4810 4811 4812 4813 4814 4815 4816 4817 4818 4819 4820 4821 4822 4823 4824 4825 4826 4827 4828 4829 4830 4831 4832 4833 4834 4835 4836 4837 4838 4839 4840 4841 4842 4843 4844 4845 4846 4847 4848 4849 4850 4851 4852 4853 4854 4855 4856 4857 4858 4859 4860 4861 4862 4863 4864 4865 4866 4867 4868 4869 4870 4871 4872 4873 4874 4875 4876 4877 4878 4879 4880 4881 4882 4883 4884 4885 4886 4887 4888 4889 4890 4891 4892 4893 4894 4895 4896 4897 4898 4899 4900 4901 4902 4903 4904 4905 4906 4907 4908 4909 4910 4911 4912 4913 4914 4915 4916 4917 4918 4919 4920 4921 4922 4923 4924 4925 4926 4927 4928 4929 4930 4931 4932 4933 4934 4935 4936 4937 4938 4939 4940 4941 4942 4943 4944 4945 4946 4947 4948 4949 4950 4951 4952 4953 4954 4955 4956 4957 4958 4959 4960 4961 4962 4963 4964 4965 4966 4967 4968 4969 4970 4971 4972 4973 4974 4975 4976 4977 4978 4979 4980 4981 4982 4983 4984 4985 4986 4987 4988 4989 4990 4991 4992 4993 4994 4995 4996 4997 4998 4999 5000 5001 5002 5003 5004 5005 5006 5007 5008 5009 5010 5011 5012 5013 5014 5015 5016 5017 5018 5019 5020 5021 5022 5023 5024 5025 5026 5027 5028 5029 5030 5031 5032 5033 5034 5035 5036 5037 5038 5039 5040 5041 5042 5043 5044 5045 5046 5047 5048 5049 5050 5051 5052 5053 5054 5055 5056 5057 5058 5059 5060 5061 5062 5063 5064 5065 5066 5067 5068 5069 5070 5071 5072 5073 5074 5075 5076 5077 5078 5079 5080 5081 5082 5083 5084 5085 5086 5087 5088 5089 5090 5091 5092 5093 5094 5095 5096 5097 5098 5099 5100 5101 5102 5103 5104 5105 5106 5107 5108 5109 5110 5111 5112 5113 5114 5115 5116 5117 5118 5119 5120 5121 5122 5123 5124 5125 5126 5127 5128 5129 5130 5131 5132 5133 5134 5135 5136 5137 5138 5139 5140 5141 5142 5143 5144 5145 5146 5147 5148 5149 5150 5151 5152 5153 5154 5155 5156 5157 5158 5159 5160 5161 5162 5163 5164 5165 5166 5167 5168 5169 5170 5171 5172 5173 5174 5175 5176 5177 5178 5179 5180 5181 5182 5183 5184 5185 5186 5187 5188 5189 5190 5191 5192 5193 5194 5195 5196 5197 5198 5199 5200 5201 5202 5203 5204 5205 5206 5207 5208 5209 5210 5211 5212 5213 5214 5215 5216 5217 5218 5219 5220 5221 5222 5223 5224 5225 5226 5227 5228 5229 5230 5231 5232 5233 5234 5235 5236 5237 5238 5239 5240 5241 5242 5243 5244 5245 5246 5247 5248 5249 5250 5251 5252 5253 5254 5255 5256 5257 5258 5259 5260 5261 5262 5263 5264 5265 5266 5267 5268 5269 5270 5271 5272 5273 5274 5275 5276 5277 5278 5279 5280 5281 5282 5283 5284 5285 5286 5287 5288 5289 5290 5291 5292 5293 5294 5295 5296 5297 5298 5299 5300 5301 5302 5303 5304 5305 5306 5307 5308 5309 5310 5311 5312 5313 5314 5315 5316 5317 5318 5319 5320 5321 5322 5323 5324 5325 5326 5327 5328 5329 5330 5331 5332 5333 5334 5335 5336 5337 5338 5339 5340 5341 5342 5343 5344 5345 5346 5347 5348 5349 5350 5351 5352 5353 5354 5355 5356 5357 5358 5359 5360 5361 5362 5363 5364 5365 5366 5367 5368 5369 5370 5371 5372 5373 5374 5375 5376 5377 5378 5379 5380 5381 5382 5383 5384 5385 5386 5387 5388 5389 5390 5391 5392 5393 5394 5395 5396 5397 5398 5399 5400 5401 5402 5403 5404 5405 5406 5407 5408 5409 5410 5411 5412 5413 5414 5415 5416 5417 5418 5419 5420 5421 5422 5423 5424 5425 5426 5427 5428 5429 5430 5431 5432 5433 5434 5435 5436 5437 5438 5439 5440 5441 5442 5443 5444 5445 5446 5447 5448 5449 5450 5451 5452 5453 5454 5455 5456 5457 5458 5459 5460 5461 5462 5463 5464 5465 5466 5467 5468 5469 5470 5471 5472 5473 5474 5475 5476 5477 5478 5479 5480 5481 5482 5483 5484 5485 5486 5487 5488 5489 5490 5491 5492 5493 5494 5495 5496 5497 5498 5499 5500 5501 5502 5503 5504 5505 5506 5507 5508 5509 5510 5511 5512 5513 5514 5515 5516 5517 5518 5519 5520 5521 5522 5523 5524 5525 5526 5527 5528 5529 5530 5531 5532 5533 5534 5535 5536 5537 5538 5539 5540 5541 5542 5543 5544 5545 5546 5547 5548 5549 5550 5551 5552 5553 5554 5555 5556 5557 5558 5559 5560 5561 5562 5563 5564 5565 5566 5567 5568 5569 5570 5571 5572 5573 5574 5575 5576 5577 5578 5579 5580 5581 5582 5583 5584 5585 5586 5587 5588 5589 5590 5591 5592 5593 5594 5595 5596 5597 5598 5599 5600 5601 5602 5603 5604 5605 5606 5607 5608 5609 5610 5611 5612 5613 5614 5615 5616 5617 5618 5619 5620 5621 5622 5623 5624 5625 5626 5627 5628 5629 5630 5631 5632 5633 5634 5635 5636 5637 5638 5639 5640 5641 5642 5643 5644 5645 5646 5647 5648 5649 5650 5651 5652 5653 5654 5655 5656 5657 5658 5659 5660 5661 5662 5663 5664 5665 5666 5667 5668 5669 5670 5671 5672 5673 5674 5675 5676 5677 5678 5679 5680 5681 5682 5683 5684 5685 5686 5687 5688 5689 5690 5691 5692 5693 5694 5695 5696 5697 5698 5699 5700 5701 5702 5703 5704 5705 5706 5707 5708 5709 5710 5711 5712 5713 5714 5715 5716 5717 5718 5719 5720 5721 5722 5723 5724 5725 5726 5727 5728 5729 5730 5731 5732 5733 5734 5735 5736 5737 5738 5739 5740 5741 5742 5743 5744 5745 5746 5747 5748 5749 5750 5751 5752 5753 5754 5755 5756 5757 5758 5759 5760 5761 5762 5763 5764 5765 5766 5767 5768 5769 5770 5771 5772 5773 5774 5775 5776 5777 5778 5779 5780 5781 5782 5783 5784 5785 5786 5787 5788 5789 5790 5791 5792 5793 5794 5795 5796 5797 5798 5799 5800 5801 5802 5803 5804 5805 5806 5807 5808 5809 5810 5811 5812 5813 5814 5815 5816 5817 5818 5819 5820 5821 5822 5823 5824 5825 5826 5827 5828 5829 5830 5831 5832 5833 5834 5835 5836 5837 5838 5839 5840 5841 5842 5843 5844 5845 5846 5847 5848 5849 5850 5851 5852 5853 5854 5855 5856 5857 5858 5859 5860 5861 5862 5863 5864 5865 5866 5867 5868 5869 5870 5871 5872 5873 5874 5875 5876 5877 5878 5879 5880 5881 5882 5883 5884 5885 5886 5887 5888 5889 5890 5891 5892 5893 5894 5895 5896 5897 5898 5899 5900 5901 5902 5903 5904 5905 5906 5907 5908 5909 5910 5911 5912 5913 5914 5915 5916 5917 5918 5919 5920 5921 5922 5923 5924 5925 5926 5927 5928 5929 5930 5931 5932 5933 5934 5935 5936 5937 5938 5939 5940 5941 5942 5943 5944 5945 5946 5947 5948 5949 5950 5951 5952 5953 5954 5955 5956 5957 5958 5959 5960 5961 5962 5963 5964 5965 5966 5967 5968 5969 5970 5971 5972 5973 5974 5975 5976 5977 5978 5979 5980 5981 5982 5983 5984 5985 5986 5987 5988 5989 5990 5991 5992 5993 5994 5995 5996 5997 5998 5999 6000 6001 6002 6003 6004 6005 6006 6007 6008 6009 6010 6011 6012 6013 6014 6015 6016 6017 6018 6019 6020 6021 6022 6023 6024 6025 6026 6027 6028 6029 6030 6031 6032 6033 6034 6035 6036 6037 6038 6039 6040 6041 6042 6043 6044 6045 6046 6047 6048 6049 6050 6051 6052 6053 6054 6055 6056 6057 6058 6059 6060 6061 6062 6063 6064 6065 6066 6067 6068 6069 6070 6071 6072 6073 6074 6075 6076 6077 6078 6079 6080 6081 6082 6083 6084 6085 6086 6087 6088 6089 6090 6091 6092 6093 6094 6095 6096 6097 6098 6099 6100 6101 6102 6103 6104 6105 6106 6107 6108 6109 6110 6111 6112 6113 6114 6115 6116 6117 6118 6119 6120 6121 6122 6123 6124 6125 6126 6127 6128 6129 6130 6131 6132 6133 6134 6135 6136 6137 6138 6139 6140 6141 6142 6143 6144 6145 6146 6147 6148 6149 6150 6151 6152 6153 6154 6155 6156 6157 6158 6159 6160 6161 6162 6163 6164 6165 6166 6167 6168 6169 6170 6171 6172 6173 6174 6175 6176 6177 6178 6179 6180 6181 6182 6183 6184 6185 6186 6187 6188 6189 6190 6191 6192 6193 6194 6195 6196 6197 6198 6199 6200 6201 6202 6203 6204 6205 6206 6207 6208 6209 6210 6211 6212 6213 6214 6215 6216 6217 6218 6219 6220 6221 6222 6223 6224 6225 6226 6227 6228 6229 6230 6231 6232 6233 6234 6235 6236 6237 6238 6239 6240 6241 6242 6243 6244 6245 6246 6247 6248 6249 6250 6251 6252 6253 6254 6255 6256 6257 6258 6259 6260 6261 6262 6263 6264 6265 6266 6267 6268 6269 6270 6271 6272 6273 6274 6275 6276 6277 6278 6279 6280 6281 6282 6283 6284 6285 6286 6287 6288 6289 6290 6291 6292 6293 6294 6295 6296 6297 6298 6299 6300 6301 6302 6303 6304 6305 6306 6307 6308 6309 6310 6311 6312 6313 6314 6315 6316 6317 6318 6319 6320 6321 6322 6323 6324 6325 6326 6327 6328 6329 6330 6331 6332 6333 6334 6335 6336 6337 6338 6339 6340 6341 6342 6343 6344 6345 6346 6347 6348 6349 6350 6351 6352 6353 6354 6355 6356 6357 6358 6359 6360 6361 6362 6363 6364 6365 6366 6367 6368 6369 6370 6371 6372 6373 6374 6375 6376 6377 6378 6379 6380 6381 6382 6383 6384 6385 6386 6387 6388 6389 6390 6391 6392 6393 6394 6395 6396 6397 6398 6399 6400 6401 6402 6403 6404 6405 6406 6407 6408 6409 6410 6411 6412 6413 6414 6415 6416 6417 6418 6419 6420 6421 6422 6423 6424 6425 6426 6427 6428 6429 6430 6431 6432 6433 6434 6435 6436 6437 6438 6439 6440 6441 6442 6443 6444 6445 6446 6447 6448 6449 6450 6451 6452 6453 6454 6455 6456 6457 6458 6459 6460 6461 6462 6463 6464 6465 6466 6467 6468 6469 6470 6471 6472 6473 6474 6475 6476 6477 6478 6479 6480 6481 6482 6483 6484 6485 6486 6487 6488 6489 6490 6491 6492 6493 6494 6495 6496 6497 6498 6499 6500 6501 6502 6503 6504 6505 6506 6507 6508 6509 6510 6511 6512 6513 6514 6515 6516 6517 6518 6519 6520 6521 6522 6523 6524 6525 6526 6527 6528 6529 6530 6531 6532 6533 6534 6535 6536 6537 6538 6539 6540 6541 6542 6543 6544 6545 6546 6547 6548 6549 6550 6551 6552 6553 6554 6555 6556 6557 6558 6559 6560 6561 6562 6563 6564 6565 6566 6567 6568 6569 6570 6571 6572 6573 6574 6575 6576 6577 6578 6579 6580 6581 6582 6583 6584 6585 6586 6587 6588 6589 6590 6591 6592 6593 6594 6595 6596 6597 6598 6599 6600 6601 6602 6603 6604 6605 6606 6607 6608 6609 6610 6611 6612 6613 6614 6615 6616 6617 6618 6619 6620 6621 6622 6623 6624 6625 6626 6627 6628 6629 6630 6631 6632 6633 6634 6635 6636 6637 6638 6639 6640 6641 6642 6643 6644 6645 6646 6647 6648 6649 6650 6651 6652 6653 6654 6655 6656 6657 6658 6659 6660 6661 6662 6663 6664 6665 6666 6667 6668 6669 6670 6671 6672 6673 6674 6675 6676 6677 6678 6679 6680 6681 6682 6683 6684 6685 6686 6687 6688 6689 6690 6691 6692 6693 6694 6695 6696 6697 6698 6699 6700 6701 6702 6703 6704 6705 6706 6707 6708 6709 6710 6711 6712 6713 6714 6715 6716 6717 6718 6719 6720 6721 6722 6723 6724 6725 6726 6727 6728 6729 6730 6731 6732 6733 6734 6735 6736 6737 6738 6739 6740 6741 6742 6743 6744 6745 6746 6747 6748 6749 6750 6751 6752 6753 6754 6755 6756 6757 6758 6759 6760 6761 6762 6763 6764 6765 6766 6767 6768 6769 6770 6771 6772 6773 6774 6775 6776 6777 6778 6779 6780 6781 6782 6783 6784 6785 6786 6787 6788 6789 6790 6791 6792 6793 6794 6795 6796 6797 6798 6799 6800 6801 6802 6803 6804 6805 6806 6807 6808 6809 6810 6811 6812 6813 6814 6815 6816 6817 6818 6819 6820 6821 6822 6823 6824 6825 6826 6827 6828 6829 6830 6831 6832 6833 6834 6835 6836 6837 6838 6839 6840 6841 6842 6843 6844 6845 6846 6847 6848 6849 6850 6851 6852 6853 6854 6855 6856 6857 6858 6859 6860 6861 6862 6863 6864 6865 6866 6867 6868 6869 6870 6871 6872 6873 6874 6875 6876 6877 6878 6879 6880 6881 6882 6883 6884 6885 6886 6887 6888 6889 6890 6891 6892 6893 6894 6895 6896 6897 6898 6899 6900 6901 6902 6903 6904 6905 6906 6907 6908 6909 6910 6911 6912 6913 6914 6915 6916 6917 6918 6919 6920 6921 6922 6923 6924 6925 6926 6927 6928 6929 6930 6931 6932 6933 6934 6935 6936 6937 6938 6939 6940 6941 6942 6943 6944 6945 6946 6947 6948 6949 6950 6951 6952 6953 6954 6955 6956 6957 6958 6959 6960 6961 6962 6963 6964 6965 6966 6967 6968 6969 6970 6971 6972 6973 6974 6975 6976 6977 6978 6979 6980 6981 6982 6983 6984 6985 6986 6987 6988 6989 6990 6991 6992 6993 6994 6995 6996 6997 6998 6999 7000 7001 7002 7003 7004 7005 7006 7007 7008 7009 7010 7011 7012 7013 7014 7015 7016 7017 7018 7019 7020 7021 7022 7023 7024 7025 7026 7027 7028 7029 7030 7031 7032 7033 7034 7035 7036 7037 7038 7039 7040 7041 7042 7043 7044 7045 7046 7047 7048 7049 7050 7051 7052 7053 7054 7055 7056 7057 7058 7059 7060 7061 7062 7063 7064 7065 7066 7067 7068 7069 7070 7071 7072 7073 7074 7075 7076 7077 7078 7079 7080 7081 7082 7083 7084 7085 7086 7087 7088 7089 7090 7091 7092 7093 7094 7095 7096 7097 7098 7099 7100 7101 7102 7103 7104 7105 7106 7107 7108 7109 7110 7111 7112 7113 7114 7115 7116 7117 7118 7119 7120 7121 7122 7123 7124 7125 7126 7127 7128 7129 7130 7131 7132 7133 7134 7135 7136 7137 7138 7139 7140 7141 7142 7143 7144 7145 7146 7147 7148 7149 7150 7151 7152 7153 7154 7155 7156 7157 7158 7159 7160 7161 7162 7163 7164 7165 7166 7167 7168 7169 7170 7171 7172 7173 7174 7175 7176 7177 7178 7179 7180 7181 7182 7183 7184 7185 7186 7187 7188 7189 7190 7191 7192 7193 7194 7195 7196 7197 7198 7199 7200 7201 7202 7203 7204 7205 7206 7207 7208 7209 7210 7211 7212 7213 7214 7215 7216 7217 7218 7219 7220 7221 7222 7223 7224 7225 7226 7227 7228 7229 7230 7231 7232 7233 7234 7235 7236 7237 7238 7239 7240 7241 7242 7243 7244 7245 7246 7247 7248 7249 7250 7251 7252 7253 7254 7255 7256 7257 7258 7259 7260 7261 7262 7263 7264 7265 7266 7267 7268 7269 7270 7271 7272 7273 7274 7275 7276 7277 7278 7279 7280 7281 7282 7283 7284 7285 7286 7287 7288 7289 7290 7291 7292 7293 7294 7295 7296 7297 7298 7299 7300 7301 7302 7303 7304 7305 7306 7307 7308 7309 7310 7311 7312 7313 7314 7315 7316 7317 7318 7319 7320 7321 7322 7323 7324 7325 7326 7327 7328 7329 7330 7331 7332 7333 7334 7335 7336 7337 7338 7339 7340 7341 7342 7343 7344 7345 7346 7347 7348 7349 7350 7351 7352 7353 7354 7355 7356 7357 7358 7359 7360 7361 7362 7363 7364 7365 7366 7367 7368 7369 7370 7371 7372 7373 7374 7375 7376 7377 7378 7379 7380 7381 7382 7383 7384 7385 7386 7387 7388 7389 7390 7391 7392 7393 7394 7395 7396 7397 7398 7399 7400 7401 7402 7403 7404 7405 7406 7407 7408 7409 7410 7411 7412 7413 7414 7415 7416 7417 7418 7419 7420 7421 7422 7423 7424 7425 7426 7427 7428 7429 7430 7431 7432 7433 7434 7435 7436 7437 7438 7439 7440 7441 7442 7443 7444 7445 7446 7447 7448 7449 7450 7451 7452 7453 7454 7455 7456 7457 7458 7459 7460 7461 7462 7463 7464 7465 7466 7467 7468 7469 7470 7471 7472 7473 7474 7475 7476 7477 7478 7479 7480 7481 7482 7483 7484 7485 7486 7487 7488 7489 7490 7491 7492 7493 7494 7495 7496 7497 7498 7499 7500 7501 7502 7503 7504 7505 7506 7507 7508 7509 7510 7511 7512 7513 7514 7515 7516 7517 7518 7519 7520 7521 7522 7523 7524 7525 7526 7527 7528 7529 7530 7531 7532 7533 7534 7535 7536 7537 7538 7539 7540 7541 7542 7543 7544 7545 7546 7547 7548 7549 7550 7551 7552 7553 7554 7555 7556 7557 7558 7559 7560 7561 7562 7563 7564 7565 7566 7567 7568 7569 7570 7571 7572 7573 7574 7575 7576 7577 7578 7579 7580 7581 7582 7583 7584 7585 7586 7587 7588 7589 7590 7591 7592 7593 7594 7595 7596 7597 7598 7599 7600 7601 7602 7603 7604 7605 7606 7607 7608 7609 7610 7611 7612 7613 7614 7615 7616 7617 7618 7619 7620 7621 7622 7623 7624 7625 7626 7627 7628 7629 7630 7631 7632 7633 7634 7635 7636 7637 7638 7639 7640 7641 7642 7643 7644 7645 7646 7647 7648 7649 7650 7651 7652 7653 7654 7655 7656 7657 7658 7659 7660 7661 7662 7663 7664 7665 7666 7667 7668 7669 7670 7671 7672 7673 7674 7675 7676 7677 7678 7679 7680 7681 7682 7683 7684 7685 7686 7687 7688 7689 7690 7691 7692 7693 7694 7695 7696 7697 7698 7699 7700 7701 7702 7703 7704 7705 7706 7707 7708 7709 7710 7711 7712 7713 7714 7715 7716 7717 7718 7719 7720 7721 7722 7723 7724 7725 7726 7727 7728 7729 7730 7731 7732 7733 7734 7735 7736 7737 7738 7739 7740 7741 7742 7743 7744 7745 7746 7747 7748 7749 7750 7751 7752 7753 7754 7755 7756 7757 7758 7759 7760 7761 7762 7763 7764 7765 7766 7767 7768 7769 7770 7771 7772 7773 7774 7775 7776 7777 7778 7779 7780 7781 7782 7783 7784 7785 7786 7787 7788 7789 7790 7791 7792 7793 7794 7795 7796 7797 7798 7799 7800 7801 7802 7803 7804 7805 7806 7807 7808 7809 7810 7811 7812 7813 7814 7815 7816 7817 7818 7819 7820 7821 7822 7823 7824 7825 7826 7827 7828 7829 7830 7831 7832 7833 7834 7835 7836 7837 7838 7839 7840 7841 7842 7843 7844 7845 7846 7847 7848 7849 7850 7851 7852 7853 7854 7855 7856 7857 7858 7859 7860 7861 7862 7863 7864 7865 7866 7867 7868 7869 7870 7871 7872 7873 7874 7875 7876 7877 7878 7879 7880 7881 7882 7883 7884 7885 7886 7887 7888 7889 7890 7891 7892 7893 7894 7895 7896 7897 7898 7899 7900 7901 7902 7903 7904 7905 7906 7907 7908 7909 7910 7911 7912 7913 7914 7915 7916 7917 7918 7919 7920 7921 7922 7923 7924 7925 7926 7927 7928 7929 7930 7931 7932 7933 7934 7935 7936 7937 7938 7939 7940 7941 7942 7943 7944 7945 7946 7947 7948 7949 7950 7951 7952 7953 7954 7955 7956 7957 7958 7959 7960 7961 7962 7963 7964 7965 7966 7967 7968 7969 7970 7971 7972 7973 7974 7975 7976 7977 7978 7979 7980 7981 7982 7983 7984 7985 7986 7987 7988 7989 7990 7991 7992 7993 7994 7995 7996 7997 7998 7999 8000 8001 8002 8003 8004 8005 8006 8007 8008 8009 8010 8011 8012 8013 8014 8015 8016 8017 8018 8019 8020 8021 8022 8023 8024 8025 8026 8027 8028 8029 8030 8031 8032 8033 8034 8035 8036 8037 8038 8039 8040 8041 8042 8043 8044 8045 8046 8047 8048 8049 8050 8051 8052 8053 8054 8055 8056 8057 8058 8059 8060 8061 8062 8063 8064 8065 8066 8067 8068 8069 8070 8071 8072 8073 8074 8075 8076 8077 8078 8079 8080 8081 8082 8083 8084 8085 8086 8087 8088 8089 8090 8091 8092 8093 8094 8095 8096 8097 8098 8099 8100 8101 8102 8103 8104 8105 8106 8107 8108 8109 8110 8111 8112 8113 8114 8115 8116 8117 8118 8119 8120 8121 8122 8123 8124 8125 8126 8127 8128 8129 8130 8131 8132 8133 8134 8135 8136 8137 8138 8139 8140 8141 8142 8143 8144 8145 8146 8147 8148 8149 8150 8151 8152 8153 8154 8155 8156 8157 8158 8159 8160 8161 8162 8163 8164 8165 8166 8167 8168 8169 8170 8171 8172 8173 8174 8175 8176 8177 8178 8179 8180 8181 8182 8183 8184 8185 8186 8187 8188 8189 8190 8191 8192 8193 8194 8195 8196 8197 8198 8199 8200 8201 8202 8203 8204 8205 8206 8207 8208 8209 8210 8211 8212 8213 8214 8215 8216 8217 8218 8219 8220 8221 8222 8223 8224 8225 8226 8227 8228 8229 8230 8231 8232 8233 8234 8235 8236 8237 8238 8239 8240 8241 8242 8243 8244 8245 8246 8247 8248 8249 8250 8251 8252 8253 8254 8255 8256 8257 8258 8259 8260 8261 8262 8263 8264 8265 8266 8267 8268 8269 8270 8271 8272 8273 8274 8275 8276 8277 8278 8279 8280 8281 8282 8283 8284 8285 8286 8287 8288 8289 8290 8291 8292 8293 8294 8295 8296 8297 8298 8299 8300 8301 8302 8303 8304 8305 8306 8307 8308 8309 8310 8311 8312 8313 8314 8315 8316 8317 8318 8319 8320 8321 8322 8323 8324 8325 8326 8327 8328 8329 8330 8331 8332 8333 8334 8335 8336 8337 8338 8339 8340 8341 8342 8343 8344 8345 8346 8347 8348 8349 8350 8351 8352 8353 8354 8355 8356 8357 8358 8359 8360 8361 8362 8363 8364 8365 8366 8367 8368 8369 8370 8371 8372 8373 8374 8375 8376 8377 8378 8379 8380 8381 8382 8383 8384 8385 8386 8387 8388 8389 8390 8391 8392 8393 8394 8395 8396 8397 8398 8399 8400 8401 8402 8403 8404 8405 8406 8407 8408 8409 8410 8411 8412 8413 8414 8415 8416 8417 8418 8419 8420 8421 8422 8423 8424 8425 8426 8427 8428 8429 8430 8431 8432 8433 8434 8435 8436 8437 8438 8439 8440 8441 8442 8443 8444 8445 8446 8447 8448 8449 8450 8451 8452 8453 8454 8455 8456 8457 8458 8459 8460 8461 8462 8463 8464 8465 8466 8467 8468 8469 8470 8471 8472 8473 8474 8475 8476 8477 8478 8479 8480 8481 8482 8483 8484 8485 8486 8487 8488 8489 8490 8491 8492 8493 8494 8495 8496 8497 8498 8499 8500 8501 8502 8503 8504 8505 8506 8507 8508 8509 8510 8511 8512 8513 8514 8515 8516 8517 8518 8519 8520 8521 8522 8523 8524 8525 8526 8527 8528 8529 8530 8531 8532 8533 8534 8535 8536 8537 8538 8539 8540 8541 8542 8543 8544 8545 8546 8547 8548 8549 8550 8551 8552 8553 8554 8555 8556 8557 8558 8559 8560 8561 8562 8563 8564 8565 8566 8567 8568 8569 8570 8571 8572 8573 8574 8575 8576 8577 8578 8579 8580 8581 8582 8583 8584 8585 8586 8587 8588 8589 8590 8591 8592 8593 8594 8595 8596 8597 8598 8599 8600 8601 8602 8603 8604 8605 8606 8607 8608 8609 8610 8611 8612 8613 8614 8615 8616 8617 8618 8619 8620 8621 8622 8623 8624 8625 8626 8627 8628 8629 8630 8631 8632 8633 8634 8635 8636 8637 8638 8639 8640 8641 8642 8643 8644 8645 8646 8647 8648 8649 8650 8651 8652 8653 8654 8655 8656 8657 8658 8659 8660 8661 8662 8663 8664 8665 8666 8667 8668 8669 8670 8671 8672 8673 8674 8675 8676 8677 8678 8679 8680 8681 8682 8683 8684 8685 8686 8687 8688 8689 8690 8691 8692 8693 8694 8695 8696 8697 8698 8699 8700 8701 8702 8703 8704 8705 8706 8707 8708 8709 8710 8711 8712 8713 8714 8715 8716 8717 8718 8719 8720 8721 8722 8723 8724 8725 8726 8727 8728 8729 8730 8731 8732 8733 8734 8735 8736 8737 8738 8739 8740 8741 8742 8743 8744 8745 8746 8747 8748 8749 8750 8751 8752 8753 8754 8755 8756 8757 8758 8759 8760 8761 8762 8763 8764 8765 8766 8767 8768 8769 8770 8771 8772 8773 8774 8775 8776 8777 8778 8779 8780 8781 8782 8783 8784 8785 8786 8787 8788 8789 8790 8791 8792 8793 8794 8795 8796 8797 8798 8799 8800 8801 8802 8803 8804 8805 8806 8807 8808 8809 8810 8811 8812 8813 8814 8815 8816 8817 8818 8819 8820 8821 8822 8823 8824 8825 8826 8827 8828 8829 8830 8831 8832 8833 8834 8835 8836 8837 8838 8839 8840 8841 8842 8843 8844 8845 8846 8847 8848 8849 8850 8851 8852 8853 8854 8855 8856 8857 8858 8859 8860 8861 8862 8863 8864 8865 8866 8867 8868 8869 8870 8871 8872 8873 8874 8875 8876 8877 8878 8879 8880 8881 8882 8883 8884 8885 8886 8887 8888 8889 8890 8891 8892 8893 8894 8895 8896 8897 8898 8899 8900 8901 8902 8903 8904 8905 8906 8907 8908 8909 8910 8911 8912 8913 8914 8915 8916 8917 8918 8919 8920 8921 8922 8923 8924 8925 8926 8927 8928 8929 8930 8931 8932 8933 8934 8935 8936 8937 8938 8939 8940 8941 8942 8943 8944 8945 8946 8947 8948 8949 8950 8951 8952 8953 8954 8955 8956 8957 8958 8959 8960 8961 8962 8963 8964 8965 8966 8967 8968 8969 8970 8971 8972 8973 8974 8975 8976 8977 8978 8979 8980 8981 8982 8983 8984 8985 8986 8987 8988 8989 8990 8991 8992 8993 8994 8995 8996 8997 8998 8999 9000 9001 9002 9003 9004 9005 9006 9007 9008 9009 9010 9011 9012 9013 9014 9015 9016 9017 9018 9019 9020 9021 9022 9023 9024 9025 9026 9027 9028 9029 9030 9031 9032 9033 9034 9035 9036 9037 9038 9039 9040 9041 9042 9043 9044 9045 9046 9047 9048 9049 9050 9051 9052 9053 9054 9055 9056 9057 9058 9059 9060 9061 9062 9063 9064 9065 9066 9067 9068 9069 9070 9071 9072 9073 9074 9075 9076 9077 9078 9079 9080 9081 9082 9083 9084 9085 9086 9087 9088 9089 9090 9091 9092 9093 9094 9095 9096 9097 9098 9099 9100 9101 9102 9103 9104 9105 9106 9107 9108 9109 9110 9111 9112 9113 9114 9115 9116 9117 9118 9119 9120 9121 9122 9123 9124 9125 9126 9127 9128 9129 9130 9131 9132 9133 9134 9135 9136 9137 9138 9139 9140 9141 9142 9143 9144 9145 9146 9147 9148 9149 9150 9151 9152 9153 9154 9155 9156 9157 9158 9159 9160 9161 9162 9163 9164 9165 9166 9167 9168 9169 9170 9171 9172 9173 9174 9175 9176 9177 9178 9179 9180 9181 9182 9183 9184 9185 9186 9187 9188 9189 9190 9191 9192 9193 9194 9195 9196 9197 9198 9199 9200 9201 9202 9203 9204 9205 9206 9207 9208 9209 9210 9211 9212 9213 9214 9215 9216 9217 9218 9219 9220 9221 9222 9223 9224 9225 9226 9227 9228 9229 9230 9231 9232 9233 9234 9235 9236 9237 9238 9239 9240 9241 9242 9243 9244 9245 9246 9247 9248 9249 9250 9251 9252 9253 9254 9255 9256 9257 9258 9259 9260 9261 9262 9263 9264 9265 9266 9267 9268 9269 9270 9271 9272 9273 9274 9275 9276 9277 9278 9279 9280 9281 9282 9283 9284 9285 9286 9287 9288 9289 9290 9291 9292 9293 9294 9295 9296 9297 9298 9299 9300 9301 9302 9303 9304 9305 9306 9307 9308 9309 9310 9311 9312 9313 9314 9315 9316 9317 9318 9319 9320 9321 9322 9323 9324 9325 9326 9327 9328 9329 9330 9331 9332 9333 9334 9335 9336 9337 9338 9339 9340 9341 9342 9343 9344 9345 9346 9347 9348 9349 9350 9351 9352 9353 9354 9355 9356 9357 9358 9359 9360 9361 9362 9363 9364 9365 9366 9367 9368 9369 9370 9371 9372 9373 9374 9375 9376 9377 9378 9379 9380 9381 9382 9383 9384 9385 9386 9387 9388 9389 9390 9391 9392 9393 9394 9395 9396 9397 9398 9399 9400 9401 9402 9403 9404 9405 9406 9407 9408 9409 9410 9411 9412 9413 9414 9415 9416 9417 9418 9419 9420 9421 9422 9423 9424 9425 9426 9427 9428 9429 9430 9431 9432 9433 9434 9435 9436 9437 9438 9439 9440 9441 9442 9443 9444 9445 9446 9447 9448 9449 9450 9451 9452 9453 9454 9455 9456 9457 9458 9459 9460 9461 9462 9463 9464 9465 9466 9467 9468 9469 9470 9471 9472 9473 9474 9475 9476 9477 9478 9479 9480 9481 9482 9483 9484 9485 9486 9487 9488 9489 9490 9491 9492 9493 9494 9495 9496 9497 9498 9499 9500 9501 9502 9503 9504 9505 9506 9507 9508 9509 9510 9511 9512 9513 9514 9515 9516 9517 9518 9519 9520 9521 9522 9523 9524 9525 9526 9527 9528 9529 9530 9531 9532 9533 9534 9535 9536 9537 9538 9539 9540 9541 9542 9543 9544 9545 9546 9547 9548 9549 9550 9551 9552 9553 9554 9555 9556 9557 9558 9559 9560 9561 9562 9563 9564 9565 9566 9567 9568 9569 9570 9571 9572 9573 9574 9575 9576 9577 9578 9579 9580 9581 9582 9583 9584 9585 9586 9587 9588 9589 9590 9591 9592 9593 9594 9595 9596 9597 9598 9599 9600 9601 9602 9603 9604 9605 9606 9607 9608 9609 9610 9611 9612 9613 9614 9615 9616 9617 9618 9619 9620 9621 9622 9623 9624 9625 9626 9627 9628 9629 9630 9631 9632 9633 9634 9635 9636 9637 9638 9639 9640 9641 9642 9643 9644 9645 9646 9647 9648 9649 9650 9651 9652 9653 9654 9655 9656 9657 9658 9659 9660 9661 9662 9663 9664 9665 9666 9667 9668 9669 9670 9671 9672 9673 9674 9675 9676 9677 9678 9679 9680 9681 9682 9683 9684 9685 9686 9687 9688 9689 9690 9691 9692 9693 9694 9695 9696 9697 9698 9699 9700 9701 9702 9703 9704 9705 9706 9707 9708 9709 9710 9711 9712 9713 9714 9715 9716 9717 9718 9719 9720 9721 9722 9723 9724 9725 9726 9727 9728 9729 9730 9731 9732 9733 9734 9735 9736 9737 9738 9739 9740 9741 9742 9743 9744 9745 9746 9747 9748 9749 9750 9751 9752 9753 9754 9755 9756 9757 9758 9759 9760 9761 9762 9763 9764 9765 9766 9767 9768 9769 9770 9771 9772 9773 9774 9775 9776 9777 9778 9779 9780 9781 9782 9783 9784 9785 9786 9787 9788 9789 9790 9791 9792 9793 9794 9795 9796 9797 9798 9799 9800 9801 9802 9803 9804 9805 9806 9807 9808 9809 9810 9811 9812 9813 9814 9815 9816 9817 9818 9819 9820 9821 9822 9823 9824 9825 9826 9827 9828 9829 9830 9831 9832 9833 9834 9835 9836 9837 9838 9839 9840 9841 9842 9843 9844 9845 9846 9847 9848 9849 9850 9851 9852 9853 9854 9855 9856 9857 9858 9859 9860 9861 9862 9863 9864 9865 9866 9867 9868 9869 9870 9871 9872 9873 9874 9875 9876 9877 9878 9879 9880 9881 9882 9883 9884 9885 9886 9887 9888 9889 9890 9891 9892 9893 9894 9895 9896 9897 9898 9899 9900 9901 9902 9903 9904 9905 9906 9907 9908 9909 9910 9911 9912 9913 9914 9915 9916 9917 9918 9919 9920 9921 9922 9923 9924 9925 9926 9927 9928 9929 9930 9931 9932 9933 9934 9935 9936 9937 9938 9939 9940 9941 9942 9943 9944 9945 9946 9947 9948 9949 9950 9951 9952 9953 9954 9955 9956 9957 9958 9959 9960 9961 9962 9963 9964 9965 9966 9967 9968 9969 9970 9971 9972 9973 9974 9975 9976 9977 9978 9979 9980 9981 9982 9983 9984 9985 9986 9987 9988 9989 9990 9991 9992 9993 9994 9995 9996 9997 9998 9999 10000 10001 10002 10003 10004 10005 10006 10007 10008 10009 10010 10011 10012 10013 10014 10015 10016 10017 10018 10019 10020 10021 10022 10023 10024 10025 10026 10027 10028 10029 10030 10031 10032 10033 10034 10035 10036 10037 10038 10039 10040 10041 10042 10043 10044 10045 10046 10047 10048 10049 10050 10051 10052 10053 10054 10055 10056 10057 10058 10059 10060 10061 10062 10063 10064 10065 10066 10067 10068 10069 10070 10071 10072 10073 10074 10075 10076 10077 10078 10079 10080 10081 10082 10083 10084 10085 10086 10087 10088 10089 10090 10091 10092 10093 10094 10095 10096 10097 10098 10099 10100 10101 10102 10103 10104 10105 10106 10107 10108 10109 10110 10111 10112 10113 10114 10115 10116 10117 10118 10119 10120 10121 10122 10123 10124 10125 10126 10127 10128 10129 10130 10131 10132 10133 10134 10135 10136 10137 10138 10139 10140 10141 10142 10143 10144 10145 10146 10147 10148 10149 10150 10151 10152 10153 10154 10155 10156 10157 10158 10159 10160 10161 10162 10163 10164 10165 10166 10167 10168 10169 10170 10171 10172 10173 10174 10175 10176 10177 10178 10179 10180 10181 10182 10183 10184 10185 10186 10187 10188 10189 10190 10191 10192 10193 10194 10195 10196 10197 10198 10199 10200 10201 10202 10203 10204 10205 10206 10207 10208 10209 10210 10211 10212 10213 10214 10215 10216 10217 10218 10219 10220 10221 10222 10223 10224 10225 10226 10227 10228 10229 10230 10231 10232 10233 10234 10235 10236 10237 10238 10239 10240 10241 10242 10243 10244 10245 10246 10247 10248 10249 10250 10251 10252 10253 10254 10255 10256 10257 10258 10259 10260 10261 10262 10263 10264 10265 10266 10267 10268 10269 10270 10271 10272 10273 10274 10275 10276 10277 10278 10279 10280 10281 10282 10283 10284 10285 10286 10287 10288 10289 10290 10291 10292 10293 10294 10295 10296 10297 10298 10299 10300 10301 10302 10303 10304 10305 10306 10307 10308 10309 10310 10311 10312 10313 10314 10315 10316 10317 10318 10319 10320 10321 10322 10323 10324 10325 10326 10327 10328 10329 10330 10331 10332 10333 10334 10335 10336 10337 10338 10339 10340 10341 10342 10343 10344 10345 10346 10347 10348 10349 10350 10351 10352 10353 10354 10355 10356 10357 10358 10359 10360 10361 10362 10363 10364 10365 10366 10367 10368 10369 10370 10371 10372 10373 10374 10375 10376 10377 10378 10379 10380 10381 10382 10383 10384 10385 10386 10387 10388 10389 10390 10391 10392 10393 10394 10395 10396 10397 10398 10399 10400 10401 10402 10403 10404 10405 10406 10407 10408 10409 10410 10411 10412 10413 10414 10415 10416 10417 10418 10419 10420 10421 10422 10423 10424 10425 10426 10427 10428 10429 10430 10431 10432 10433 10434 10435 10436 10437 10438 10439 10440 10441 10442 10443 10444 10445 10446 10447 10448 10449 10450 10451 10452 10453 10454 10455 10456 10457 10458 10459 10460 10461 10462 10463 10464 10465 10466 10467 10468 10469 10470 10471 10472 10473 10474 10475 10476 10477 10478 10479 10480 10481 10482 10483 10484 10485 10486 10487 10488 10489 10490 10491 10492 10493 10494 10495 10496 10497 10498 10499 10500 10501 10502 10503 10504 10505 10506 10507 10508 10509 10510 10511 10512 10513 10514 10515 10516 10517 10518 10519 10520 10521 10522 10523 10524 10525 10526 10527 10528 10529 10530 10531 10532 10533 10534 10535 10536 10537 10538 10539 10540 10541 10542 10543 10544 10545 10546 10547 10548 10549 10550 10551 10552 10553 10554 10555 10556 10557 10558 10559 10560 10561 10562 10563 10564 10565 10566 10567 10568 10569 10570 10571 10572 10573 10574 10575 10576 10577 10578 10579 10580 10581 10582 10583 10584 10585 10586 10587 10588 10589 10590 10591 10592 10593 10594 10595 10596 10597 10598 10599 10600 10601 10602 10603 10604 10605 10606 10607 10608 10609 10610 10611 10612 10613 10614 10615 10616 10617 10618 10619 10620 10621 10622 10623 10624 10625 10626 10627 10628 10629 10630 10631 10632 10633 10634 10635 10636 10637 10638 10639 10640 10641 10642 10643 10644 10645 10646 10647 10648 10649 10650 10651 10652 10653 10654 10655 10656 10657 10658 10659 10660 10661 10662 10663 10664 10665 10666 10667 10668 10669 10670 10671 10672 10673 10674 10675 10676 10677 10678 10679 10680 10681 10682 10683 10684 10685 10686 10687 10688 10689 10690 10691 10692 10693 10694 10695 10696 10697 10698 10699 10700 10701 10702 10703 10704 10705 10706 10707 10708 10709 10710 10711 10712 10713 10714 10715 10716 10717 10718 10719 10720 10721 10722 10723 10724 10725 10726 10727 10728 10729 10730 10731 10732 10733 10734 10735 10736 10737 10738 10739 10740 10741 10742 10743 10744 10745 10746 10747 10748 10749 10750 10751 10752 10753 10754 10755 10756 10757 10758 10759 10760 10761 10762 10763 10764 10765 10766 10767 10768 10769 10770 10771 10772 10773 10774 10775 10776 10777 10778 10779 10780 10781 10782 10783 10784 10785 10786 10787 10788 10789 10790 10791 10792 10793 10794 10795 10796 10797 10798 10799 10800 10801 10802 10803 10804 10805 10806 10807 10808 10809 10810 10811 10812 10813 10814 10815 10816 10817 10818 10819 10820 10821 10822 10823 10824 10825 10826 10827 10828 10829 10830 10831 10832 10833 10834 10835 10836 10837 10838 10839 10840 10841 10842 10843 10844 10845 10846 10847 10848 10849 10850 10851 10852 10853 10854 10855 10856 10857 10858 10859 10860 10861 10862 10863 10864 10865 10866 10867 10868 10869 10870 10871 10872 10873 10874 10875 10876 10877 10878 10879 10880 10881 10882 10883 10884 10885 10886 10887 10888 10889 10890 10891 10892 10893 10894 10895 10896 10897 10898 10899 10900 10901 10902 10903 10904 10905 10906 10907 10908 10909 10910 10911 10912 10913 10914 10915 10916 10917 10918 10919 10920 10921 10922 10923 10924 10925 10926 10927 10928 10929 10930 10931 10932 10933 10934 10935 10936 10937 10938 10939 10940 10941 10942 10943 10944 10945 10946 10947 10948 10949 10950 10951 10952 10953 10954 10955 10956 10957 10958 10959 10960 10961 10962 10963 10964 10965 10966 10967 10968 10969 10970 10971 10972 10973 10974 10975 10976 10977 10978 10979 10980 10981 10982 10983 10984 10985 10986 10987 10988 10989 10990 10991 10992 10993 10994 10995 10996 10997 10998 10999 11000 11001 11002 11003 11004 11005 11006 11007 11008 11009 11010 11011 11012 11013 11014 11015 11016 11017 11018 11019 11020 11021 11022 11023 11024 11025 11026 11027 11028 11029 11030 11031 11032 11033 11034 11035 11036 11037 11038 11039 11040 11041 11042 11043 11044 11045 11046 11047 11048 11049 11050 11051 11052 11053 11054 11055 11056 11057 11058 11059 11060 11061 11062 11063 11064 11065 11066 11067 11068 11069 11070 11071 11072 11073 11074 11075 11076 11077 11078 11079 11080 11081 11082 11083 11084 11085 11086 11087 11088 11089 11090 11091 11092 11093 11094 11095 11096 11097 11098 11099 11100 11101 11102 11103 11104 11105 11106 11107 11108 11109 11110 11111 11112 11113 11114 11115 11116 11117 11118 11119 11120 11121 11122 11123 11124 11125 11126 11127 11128 11129 11130 11131 11132 11133 11134 11135 11136 11137 11138 11139 11140 11141 11142 11143 11144 11145 11146 11147 11148 11149 11150 11151 11152 11153 11154 11155 11156 11157 11158 11159 11160 11161 11162 11163 11164 11165 11166 11167 11168 11169 11170 11171 11172 11173 11174 11175 11176 11177 11178 11179 11180 11181 11182 11183 11184 11185 11186 11187 11188 11189 11190 11191 11192 11193 11194 11195 11196 11197 11198 11199 11200 11201 11202 11203 11204 11205 11206 11207 11208 11209 11210 11211 11212 11213 11214 11215 11216 11217 11218 11219 11220 11221 11222 11223 11224 11225 11226 11227 11228 11229 11230 11231 11232 11233 11234 11235 11236 11237 11238 11239 11240 11241 11242 11243 11244 11245 11246 11247 11248 11249 11250 11251 11252 11253 11254 11255 11256 11257 11258 11259 11260 11261 11262 11263 11264 11265 11266 11267 11268 11269 11270 11271 11272 11273 11274 11275 11276 11277 11278 11279 11280 11281 11282 11283 11284 11285 11286 11287 11288 11289 11290 11291 11292 11293 11294 11295 11296 11297 11298 11299 11300 11301 11302 11303 11304 11305 11306 11307 11308 11309 11310 11311 11312 11313 11314 11315 11316 11317 11318 11319 11320 11321 11322 11323 11324 11325 11326 11327 11328 11329 11330 11331 11332 11333 11334 11335 11336 11337 11338 11339 11340 11341 11342 11343 11344 11345 11346 11347 11348 11349 11350 11351 11352 11353 11354 11355 11356 11357 11358 11359 11360 11361 11362 11363 11364 11365 11366 11367 11368 11369 11370 11371 11372 11373 11374 11375 11376 11377 11378 11379 11380 11381 11382 11383 11384 11385 11386 11387 11388 11389 11390 11391 11392 11393 11394 11395 11396 11397 11398 11399 11400 11401 11402 11403 11404 11405 11406 11407 11408 11409 11410 11411 11412 11413 11414 11415 11416 11417 11418 11419 11420 11421 11422 11423 11424 11425 11426 11427 11428 11429 11430 11431 11432 11433 11434 11435 11436 11437 11438 11439 11440 11441 11442 11443 11444 11445 11446 11447 11448 11449 11450 11451 11452 11453 11454 11455 11456 11457 11458 11459 11460 11461 11462 11463 11464 11465 11466 11467 11468 11469 11470 11471 11472 11473 11474 11475 11476 11477 11478 11479 11480 11481 11482 11483 11484 11485 11486 11487 11488 11489 11490 11491 11492 11493 11494 11495 11496 11497 11498 11499 11500 11501 11502 11503 11504 11505 11506 11507 11508 11509 11510 11511 11512 11513 11514 11515 11516 11517 11518 11519 11520 11521 11522 11523 11524 11525 11526 11527 11528 11529 11530 11531 11532 11533 11534 11535 11536 11537 11538 11539 11540 11541 11542 11543 11544 11545 11546 11547 11548 11549 11550 11551 11552 11553 11554 11555 11556 11557 11558 11559 11560 11561 11562 11563 11564 11565 11566 11567 11568 11569 11570 11571 11572 11573 11574 11575 11576 11577 11578 11579 11580 11581 11582 11583 11584 11585 11586 11587 11588 11589 11590 11591 11592 11593 11594 11595 11596 11597 11598 11599 11600 11601 11602 11603 11604 11605 11606 11607 11608 11609 11610 11611 11612 11613 11614 11615 11616 11617 11618 11619 11620 11621 11622 11623 11624 11625 11626 11627 11628 11629 11630 11631 11632 11633 11634 11635 11636 11637 11638 11639 11640 11641 11642 11643 11644 11645 11646 11647 11648 11649 11650 11651 11652 11653 11654 11655 11656 11657 11658 11659 11660 11661 11662 11663 11664 11665 11666 11667 11668 11669 11670 11671 11672 11673 11674 11675 11676 11677 11678 11679 11680 11681 11682 11683 11684 11685 11686 11687 11688 11689 11690 11691 11692 11693 11694 11695 11696 11697 11698 11699 11700 11701 11702 11703 11704 11705 11706 11707 11708 11709 11710 11711 11712 11713 11714 11715 11716 11717 11718 11719 11720 11721 11722 11723 11724 11725 11726 11727 11728 11729 11730 11731 11732 11733 11734 11735 11736 11737 11738 11739 11740 11741 11742 11743 11744 11745 11746 11747 11748 11749 11750 11751 11752 11753 11754 11755 11756 11757 11758 11759 11760 11761 11762 11763 11764 11765 11766 11767 11768 11769 11770 11771 11772 11773 11774 11775 11776 11777 11778 11779 11780 11781 11782 11783 11784 11785 11786 11787 11788 11789 11790 11791 11792 11793 11794 11795 11796 11797 11798 11799 11800 11801 11802 11803 11804 11805 11806 11807 11808 11809 11810 11811 11812 11813 11814 11815 11816 11817 11818 11819 11820 11821 11822 11823 11824 11825 11826 11827 11828 11829 11830 11831 11832 11833 11834 11835 11836 11837 11838 11839 11840 11841 11842 11843 11844 11845 11846 11847 11848 11849 11850 11851 11852 11853 11854 11855 11856 11857 11858 11859 11860 11861 11862 11863 11864 11865 11866 11867 11868 11869 11870 11871 11872 11873 11874 11875 11876 11877 11878 11879 11880 11881 11882 11883 11884 11885 11886 11887 11888 11889 11890 11891 11892 11893 11894 11895 11896 11897 11898 11899 11900 11901 11902 11903 11904 11905 11906 11907 11908 11909 11910 11911 11912 11913 11914 11915 11916 11917 11918 11919 11920 11921 11922 11923 11924 11925 11926 11927 11928 11929 11930 11931 11932 11933 11934 11935 11936 11937 11938 11939 11940 11941 11942 11943 11944 11945 11946 11947 11948 11949 11950 11951 11952 11953 11954 11955 11956 11957 11958 11959 11960 11961 11962 11963 11964 11965 11966 11967 11968 11969 11970 11971 11972 11973 11974 11975 11976 11977 11978 11979 11980 11981 11982 11983 11984 11985 11986 11987 11988 11989 11990 11991 11992 11993 11994 11995 11996 11997 11998 11999 12000 12001 12002 12003 12004 12005 12006 12007 12008 12009 12010 12011 12012 12013 12014 12015 12016 12017 12018 12019 12020 12021 12022 12023 12024 12025 12026 12027 12028 12029 12030 12031 12032 12033 12034 12035 12036 12037 12038 12039 12040 12041 12042 12043 12044 12045 12046 12047 12048 12049 12050 12051 12052 12053 12054 12055 12056 12057 12058 12059 12060 12061 12062 12063 12064 12065 12066 12067 12068 12069 12070 12071 12072 12073 12074 12075 12076 12077 12078 12079 12080 12081 12082 12083 12084 12085 12086 12087 12088 12089 12090 12091 12092 12093 12094 12095 12096 12097 12098 12099 12100 12101 12102 12103 12104 12105 12106 12107 12108 12109 12110 12111 12112 12113 12114 12115 12116 12117 12118 12119 12120 12121 12122 12123 12124 12125 12126 12127 12128 12129 12130 12131 12132 12133 12134 12135 12136 12137 12138 12139 12140 12141 12142 12143 12144 12145 12146 12147 12148 12149 12150 12151 12152 12153 12154 12155 12156 12157 12158 12159 12160 12161 12162 12163 12164 12165 12166 12167 12168 12169 12170 12171 12172 12173 12174 12175 12176 12177 12178 12179 12180 12181 12182 12183 12184 12185 12186 12187 12188 12189 12190 12191 12192 12193 12194 12195 12196 12197 12198 12199 12200 12201 12202 12203 12204 12205 12206 12207 12208 12209 12210 12211 12212 12213 12214 12215 12216 12217 12218 12219 12220 12221 12222 12223 12224 12225 12226 12227 12228 12229 12230 12231 12232 12233 12234 12235 12236 12237 12238 12239 12240 12241 12242 12243 12244 12245 12246 12247 12248 12249 12250 12251 12252 12253 12254 12255 12256 12257 12258 12259 12260 12261 12262 12263 12264 12265 12266 12267 12268 12269 12270 12271 12272 12273 12274 12275 12276 12277 12278 12279 12280 12281 12282 12283 12284 12285 12286 12287 12288 12289 12290 12291 12292 12293 12294 12295 12296 12297 12298 12299 12300 12301 12302 12303 12304 12305 12306 12307 12308 12309 12310 12311 12312 12313 12314 12315 12316 12317 12318 12319 12320 12321 12322 12323 12324 12325 12326 12327 12328 12329 12330 12331 12332 12333 12334 12335 12336 12337 12338 12339 12340 12341 12342 12343 12344 12345 12346 12347 12348 12349 12350 12351 12352 12353 12354 12355 12356 12357 12358 12359 12360 12361 12362 12363 12364 12365 12366 12367 12368 12369 12370 12371 12372 12373 12374 12375 12376 12377 12378 12379 12380 12381 12382 12383 12384 12385 12386 12387 12388 12389 12390 12391 12392 12393 12394 12395 12396 12397 12398 12399 12400 12401 12402 12403 12404 12405 12406 12407 12408 12409 12410 12411 12412 12413 12414 12415 12416 12417 12418 12419 12420 12421 12422 12423 12424 12425 12426 12427 12428 12429 12430 12431 12432 12433 12434 12435 12436 12437 12438 12439 12440 12441 12442 12443 12444 12445 12446 12447 12448 12449 12450 12451 12452 12453 12454 12455 12456 12457 12458 12459 12460 12461 12462 12463 12464 12465 12466 12467 12468 12469 12470 12471 12472 12473 12474 12475 12476 12477 12478 12479 12480 12481 12482 12483 12484 12485 12486 12487 12488 12489 12490 12491 12492 12493 12494 12495 12496 12497 12498 12499 12500 12501 12502 12503 12504 12505 12506 12507 12508 12509 12510 12511 12512 12513 12514 12515 12516 12517 12518 12519 12520 12521 12522 12523 12524 12525 12526 12527 12528 12529 12530 12531 12532 12533 12534 12535 12536 12537 12538 12539 12540 12541 12542 12543 12544 12545 12546 12547 12548 12549 12550 12551 12552 12553 12554 12555 12556 12557 12558 12559 12560 12561 12562 12563 12564 12565 12566 12567 12568 12569 12570 12571 12572 12573 12574 12575 12576 12577 12578 12579 12580 12581 12582 12583 12584 12585 12586 12587 12588 12589 12590 12591 12592 12593 12594 12595 12596 12597 12598 12599 12600 12601 12602 12603 12604 12605 12606 12607 12608 12609 12610 12611 12612 12613 12614 12615 12616 12617 12618 12619 12620 12621 12622 12623 12624 12625 12626 12627 12628 12629 12630 12631 12632 12633 12634 12635 12636 12637 12638 12639 12640 12641 12642 12643 12644 12645 12646 12647 12648 12649 12650 12651 12652 12653 12654 12655 12656 12657 12658 12659 12660 12661 12662 12663 12664 12665 12666 12667 12668 12669 12670 12671 12672 12673 12674 12675 12676 12677 12678 12679 12680 12681 12682 12683 12684 12685 12686 12687 12688 12689 12690 12691 12692 12693 12694 12695 12696 12697 12698 12699 12700 12701 12702 12703 12704 12705 12706 12707 12708 12709 12710 12711 12712 12713 12714 12715 12716 12717 12718 12719 12720 12721 12722 12723 12724 12725 12726 12727 12728 12729 12730 12731 12732 12733 12734 12735 12736 12737 12738 12739 12740 12741 12742 12743 12744 12745 12746 12747 12748 12749 12750 12751 12752 12753 12754 12755 12756 12757 12758 12759 12760 12761 12762 12763 12764 12765 12766 12767 12768 12769 12770 12771 12772 12773 12774 12775 12776 12777 12778 12779 12780 12781 12782 12783 12784 12785 12786 12787 12788 12789 12790 12791 12792 12793 12794 12795 12796 12797 12798 12799 12800 12801 12802 12803 12804 12805 12806 12807 12808 12809 12810 12811 12812 12813 12814 12815 12816 12817 12818 12819 12820 12821 12822 12823 12824 12825 12826 12827 12828 12829 12830 12831 12832 12833 12834 12835 12836 12837 12838 12839 12840 12841 12842 12843 12844 12845 12846 12847 12848 12849 12850 12851 12852 12853 12854 12855 12856 12857 12858 12859 12860 12861 12862 12863 12864 12865 12866 12867 12868 12869 12870 12871 12872 12873 12874 12875 12876 12877 12878 12879 12880 12881 12882 12883 12884 12885 12886 12887 12888 12889 12890 12891 12892 12893 12894 12895 12896 12897 12898 12899 12900 12901 12902 12903 12904 12905 12906 12907 12908 12909 12910 12911 12912 12913 12914 12915 12916 12917 12918 12919 12920 12921 12922 12923 12924 12925 12926 12927 12928 12929 12930 12931 12932 12933 12934 12935 12936 12937 12938 12939 12940 12941 12942 12943 12944 12945 12946 12947 12948 12949 12950 12951 12952 12953 12954 12955 12956 12957 12958 12959 12960 12961 12962 12963 12964 12965 12966 12967 12968 12969 12970 12971 12972 12973 12974 12975 12976 12977 12978 12979 12980 12981 12982 12983 12984 12985 12986 12987 12988 12989 12990 12991 12992 12993 12994 12995 12996 12997 12998 12999 13000 13001 13002 13003 13004 13005 13006 13007 13008 13009 13010 13011 13012 13013 13014 13015 13016 13017 13018 13019 13020 13021 13022 13023 13024 13025 13026 13027 13028 13029 13030 13031 13032 13033 13034 13035 13036 13037 13038 13039 13040 13041 13042 13043 13044 13045 13046 13047 13048 13049 13050 13051 13052 13053 13054 13055 13056 13057 13058 13059 13060 13061 13062 13063 13064 13065 13066 13067 13068 13069 13070 13071 13072 13073 13074 13075 13076 13077 13078 13079 13080 13081 13082 13083 13084 13085 13086 13087 13088 13089 13090 13091 13092 13093 13094 13095 13096 13097 13098 13099 13100 13101 13102 13103 13104 13105 13106 13107 13108 13109 13110 13111 13112 13113 13114 13115 13116 13117 13118 13119 13120 13121 13122 13123 13124 13125 13126 13127 13128 13129 13130 13131 13132 13133 13134 13135 13136 13137 13138 13139 13140 13141 13142 13143 13144 13145 13146 13147 13148 13149 13150 13151 13152 13153 13154 13155 13156 13157 13158 13159 13160 13161 13162 13163 13164 13165 13166 13167 13168 13169 13170 13171 13172 13173 13174 13175 13176 13177 13178 13179 13180 13181 13182 13183 13184 13185 13186 13187 13188 13189 13190 13191 13192 13193 13194 13195 13196 13197 13198 13199 13200 13201 13202 13203 13204 13205 13206 13207 13208 13209 13210 13211 13212 13213 13214 13215 13216 13217 13218 13219 13220 13221 13222 13223 13224 13225 13226 13227 13228 13229 13230 13231 13232 13233 13234 13235 13236 13237 13238 13239 13240 13241 13242 13243 13244 13245 13246 13247 13248 13249 13250 13251 13252 13253 13254 13255 13256 13257 13258 13259 13260 13261 13262 13263 13264 13265 13266 13267 13268 13269 13270 13271 13272 13273 13274 13275 13276 13277 13278 13279 13280 13281 13282 13283 13284 13285 13286 13287 13288 13289 13290 13291 13292 13293 13294 13295 13296 13297 13298 13299 13300 13301 13302 13303 13304 13305 13306 13307 13308 13309 13310 13311 13312 13313 13314 13315 13316 13317 13318 13319 13320 13321 13322 13323 13324 13325 13326 13327 13328 13329 13330 13331 13332 13333 13334 13335 13336 13337 13338 13339 13340 13341 13342 13343 13344 13345 13346 13347 13348 13349 13350 13351 13352 13353 13354 13355 13356 13357 13358 13359 13360 13361 13362 13363 13364 13365 13366 13367 13368 13369 13370 13371 13372 13373 13374 13375 13376 13377 13378 13379 13380 13381 13382 13383 13384 13385 13386 13387 13388 13389 13390 13391 13392 13393 13394 13395 13396 13397 13398 13399 13400 13401 13402 13403 13404 13405 13406 13407 13408 13409 13410 13411 13412 13413 13414 13415 13416 13417 13418 13419 13420 13421 13422 13423 13424 13425 13426 13427 13428 13429 13430 13431 13432 13433 13434 13435 13436 13437 13438 13439 13440 13441 13442 13443 13444 13445 13446 13447 13448 13449 13450 13451 13452 13453 13454 13455 13456 13457 13458 13459 13460 13461 13462 13463 13464 13465 13466 13467 13468 13469 13470 13471 13472 13473 13474 13475 13476 13477 13478 13479 13480 13481 13482 13483 13484 13485 13486 13487 13488 13489 13490 13491 13492 13493 13494 13495 13496 13497 13498 13499 13500 13501 13502 13503 13504 13505 13506 13507 13508 13509 13510 13511 13512 13513 13514 13515 13516 13517 13518 13519 13520 13521 13522 13523 13524 13525 13526 13527 13528 13529 13530 13531 13532 13533 13534 13535 13536 13537 13538 13539 13540 13541 13542 13543 13544 13545 13546 13547 13548 13549 13550 13551 13552 13553 13554 13555 13556 13557 13558 13559 13560 13561 13562 13563 13564 13565 13566 13567 13568 13569 13570 13571 13572 13573 13574 13575 13576 13577 13578 13579 13580 13581 13582 13583 13584 13585 13586 13587 13588 13589 13590 13591 13592 13593 13594 13595 13596 13597 13598 13599 13600 13601 13602 13603 13604 13605 13606 13607 13608 13609 13610 13611 13612 13613 13614 13615 13616 13617 13618 13619 13620 13621 13622 13623 13624 13625 13626 13627 13628 13629 13630 13631 13632 13633 13634 13635 13636 13637 13638 13639 13640 13641 13642 13643 13644 13645 13646 13647 13648 13649 13650 13651 13652 13653 13654 13655 13656 13657 13658 13659 13660 13661 13662 13663 13664 13665 13666 13667 13668 13669 13670 13671 13672 13673 13674 13675 13676 13677 13678 13679 13680 13681 13682 13683 13684 13685 13686 13687 13688 13689 13690 13691 13692 13693 13694 13695 13696 13697 13698 13699 13700 13701 13702 13703 13704 13705 13706 13707 13708 13709 13710 13711 13712 13713 13714 13715 13716 13717 13718 13719 13720 13721 13722 13723 13724 13725 13726 13727 13728 13729 13730 13731 13732 13733 13734 13735 13736 13737 13738 13739 13740 13741 13742 13743 13744 13745 13746 13747 13748 13749 13750 13751 13752 13753 13754 13755 13756 13757 13758 13759 13760 13761 13762 13763 13764 13765 13766 13767 13768 13769 13770 13771 13772 13773 13774 13775 13776 13777 13778 13779 13780 13781 13782 13783 13784 13785 13786 13787 13788 13789 13790 13791 13792 13793 13794 13795 13796 13797 13798 13799 13800 13801 13802 13803 13804 13805 13806 13807 13808 13809 13810 13811 13812 13813 13814 13815 13816 13817 13818 13819 13820 13821 13822 13823 13824 13825 13826 13827 13828 13829 13830 13831 13832 13833 13834 13835 13836 13837 13838 13839 13840 13841 13842 13843 13844 13845 13846 13847 13848 13849 13850 13851 13852 13853 13854 13855 13856 13857 13858 13859 13860 13861 13862 13863 13864 13865 13866 13867 13868 13869 13870 13871 13872 13873 13874 13875 13876 13877 13878 13879 13880 13881 13882 13883 13884 13885 13886 13887 13888 13889 13890 13891 13892 13893 13894 13895 13896 13897 13898 13899 13900 13901 13902 13903 13904 13905 13906 13907 13908 13909 13910 13911 13912 13913 13914 13915 13916 13917 13918 13919 13920 13921 13922 13923 13924 13925 13926 13927 13928 13929 13930 13931 13932 13933 13934 13935 13936 13937 13938 13939 13940 13941 13942 13943 13944 13945 13946 13947 13948 13949 13950 13951 13952 13953 13954 13955 13956 13957 13958 13959 13960 13961 13962 13963 13964 13965 13966 13967 13968 13969 13970 13971 13972 13973 13974 13975 13976 13977 13978 13979 13980 13981 13982 13983 13984 13985 13986 13987 13988 13989 13990 13991 13992 13993 13994 13995 13996 13997 13998 13999 14000 14001 14002 14003 14004 14005 14006 14007 14008 14009 14010 14011 14012 14013 14014 14015 14016 14017 14018 14019 14020 14021 14022 14023 14024 14025 14026 14027 14028 14029 14030 14031 14032 14033 14034 14035 14036 14037 14038 14039 14040 14041 14042 14043 14044 14045 14046 14047 14048 14049 14050 14051 14052 14053 14054 14055 14056 14057 14058 14059 14060 14061 14062 14063 14064 14065 14066 14067 14068 14069 14070 14071 14072 14073 14074 14075 14076 14077 14078 14079 14080 14081 14082 14083 14084 14085 14086 14087 14088 14089 14090 14091 14092 14093 14094 14095 14096 14097 14098 14099 14100 14101 14102 14103 14104 14105 14106 14107 14108 14109 14110 14111 14112 14113 14114 14115 14116 14117 14118 14119 14120 14121 14122 14123 14124 14125 14126 14127 14128 14129 14130 14131 14132 14133 14134 14135 14136 14137 14138 14139 14140 14141 14142 14143 14144 14145 14146 14147 14148 14149 14150 14151 14152 14153 14154 14155 14156 14157 14158 14159 14160 14161 14162 14163 14164 14165 14166 14167 14168 14169 14170 14171 14172 14173 14174 14175 14176 14177 14178 14179 14180 14181 14182 14183 14184 14185 14186 14187 14188 14189 14190 14191 14192 14193 14194 14195 14196 14197 14198 14199 14200 14201 14202 14203 14204 14205 14206 14207 14208 14209 14210 14211 14212 14213 14214 14215 14216 14217 14218 14219 14220 14221 14222 14223 14224 14225 14226 14227 14228 14229 14230 14231 14232 14233 14234 14235 14236 14237 14238 14239 14240 14241 14242 14243 14244 14245 14246 14247 14248 14249 14250 14251 14252 14253 14254 14255 14256 14257 14258 14259 14260 14261 14262 14263 14264 14265 14266 14267 14268 14269 14270 14271 14272 14273 14274 14275 14276 14277 14278 14279 14280 14281 14282 14283 14284 14285 14286 14287 14288 14289 14290 14291 14292 14293 14294 14295 14296 14297 14298 14299 14300 14301 14302 14303 14304 14305 14306 14307 14308 14309 14310 14311 14312 14313 14314 14315 14316 14317 14318 14319 14320 14321 14322 14323 14324 14325 14326 14327 14328 14329 14330 14331 14332 14333 14334 14335 14336 14337 14338 14339 14340 14341 14342 14343 14344 14345 14346 14347 14348 14349 14350 14351 14352 14353 14354 14355 14356 14357 14358 14359 14360 14361 14362 14363 14364 14365 14366 14367 14368 14369 14370 14371 14372 14373 14374 14375 14376 14377 14378 14379 14380 14381 14382 14383 14384 14385 14386 14387 14388 14389 14390 14391 14392 14393 14394 14395 14396 14397 14398 14399 14400 14401 14402 14403 14404 14405 14406 14407 14408 14409 14410 14411 14412 14413 14414 14415 14416 14417 14418 14419 14420 14421 14422 14423 14424 14425 14426 14427 14428 14429 14430 14431 14432 14433 14434 14435 14436 14437 14438 14439 14440 14441 14442 14443 14444 14445 14446 14447 14448 14449 14450 14451 14452 14453 14454 14455 14456 14457 14458 14459 14460 14461 14462 14463 14464 14465 14466 14467 14468 14469 14470 14471 14472 14473 14474 14475 14476 14477 14478 14479 14480 14481 14482 14483 14484 14485 14486 14487 14488 14489 14490 14491 14492 14493 14494 14495 14496 14497 14498 14499 14500 14501 14502 14503 14504 14505 14506 14507 14508 14509 14510 14511 14512 14513 14514 14515 14516 14517 14518 14519 14520 14521 14522 14523 14524 14525 14526 14527 14528 14529 14530 14531 14532 14533 14534 14535 14536 14537 14538 14539 14540 14541 14542 14543 14544 14545 14546 14547 14548 14549 14550 14551 14552 14553 14554 14555 14556 14557 14558 14559 14560 14561 14562 14563 14564 14565 14566 14567 14568 14569 14570 14571 14572 14573 14574 14575 14576 14577 14578 14579 14580 14581 14582 14583 14584 14585 14586 14587 14588 14589 14590 14591 14592 14593 14594 14595 14596 14597 14598 14599 14600 14601 14602 14603 14604 14605 14606 14607 14608 14609 14610 14611 14612 14613 14614 14615 14616 14617 14618 14619 14620 14621 14622 14623 14624 14625 14626 14627 14628 14629 14630 14631 14632 14633 14634 14635 14636 14637 14638 14639 14640 14641 14642 14643 14644 14645 14646 14647 14648 14649 14650 14651 14652 14653 14654 14655 14656 14657 14658 14659 14660 14661 14662 14663 14664 14665 14666 14667 14668 14669 14670 14671 14672 14673 14674 14675 14676 14677 14678 14679 14680 14681 14682 14683 14684 14685 14686 14687 14688 14689 14690 14691 14692 14693 14694 14695 14696 14697 14698 14699 14700 14701 14702 14703 14704 14705 14706 14707 14708 14709 14710 14711 14712 14713 14714 14715 14716 14717 14718 14719 14720 14721 14722 14723 14724 14725 14726 14727 14728 14729 14730 14731 14732 14733 14734 14735 14736 14737 14738 14739 14740 14741 14742 14743 14744 14745 14746 14747 14748 14749 14750 14751 14752 14753 14754 14755 14756 14757 14758 14759 14760 14761 14762 14763 14764 14765 14766 14767 14768 14769 14770 14771 14772 14773 14774 14775 14776 14777 14778 14779 14780 14781 14782 14783 14784 14785 14786 14787 14788 14789 14790 14791 14792 14793 14794 14795 14796 14797 14798 14799 14800 14801 14802 14803 14804 14805 14806 14807 14808 14809 14810 14811 14812 14813 14814 14815 14816 14817 14818 14819 14820 14821 14822 14823 14824 14825 14826 14827 14828 14829 14830 14831 14832 14833 14834 14835 14836 14837 14838 14839 14840 14841 14842 14843 14844 14845 14846 14847 14848 14849 14850 14851 14852 14853 14854 14855 14856 14857 14858 14859 14860 14861 14862 14863 14864 14865 14866 14867 14868 14869 14870 14871 14872 14873 14874 14875 14876 14877 14878 14879 14880 14881 14882 14883 14884 14885 14886 14887 14888 14889 14890 14891 14892 14893 14894 14895 14896 14897 14898 14899 14900 14901 14902 14903 14904 14905 14906 14907 14908 14909 14910 14911 14912 14913 14914 14915 14916 14917 14918 14919 14920 14921 14922 14923 14924 14925 14926 14927 14928 14929 14930 14931 14932 14933 14934 14935 14936 14937 14938 14939 14940 14941 14942 14943 14944 14945 14946 14947 14948 14949 14950 14951 14952 14953 14954 14955 14956 14957 14958 14959 14960 14961 14962 14963 14964 14965 14966 14967 14968 14969 14970 14971 14972 14973 14974 14975 14976 14977 14978 14979 14980 14981 14982 14983 14984 14985 14986 14987 14988 14989 14990 14991 14992 14993 14994 14995 14996 14997 14998 14999 15000 15001 15002 15003 15004 15005 15006 15007 15008 15009 15010 15011 15012 15013 15014 15015 15016 15017 15018 15019 15020 15021 15022 15023 15024 15025 15026 15027 15028 15029 15030 15031 15032 15033 15034 15035 15036 15037 15038 15039 15040 15041 15042 15043 15044 15045 15046 15047 15048 15049 15050 15051 15052 15053 15054 15055 15056 15057 15058 15059 15060 15061 15062 15063 15064 15065 15066 15067 15068 15069 15070 15071 15072 15073 15074 15075 15076 15077 15078 15079 15080 15081 15082 15083 15084 15085 15086 15087 15088 15089 15090 15091 15092 15093 15094 15095 15096 15097 15098 15099 15100 15101 15102 15103 15104 15105 15106 15107 15108 15109 15110 15111 15112 15113 15114 15115 15116 15117 15118 15119 15120 15121 15122 15123 15124 15125 15126 15127 15128 15129 15130 15131 15132 15133 15134 15135 15136 15137 15138 15139 15140 15141 15142 15143 15144 15145 15146 15147 15148 15149 15150 15151 15152 15153 15154 15155 15156 15157 15158 15159 15160 15161 15162 15163 15164 15165 15166 15167 15168 15169 15170 15171 15172 15173 15174 15175 15176 15177 15178 15179 15180 15181 15182 15183 15184 15185 15186 15187 15188 15189 15190 15191 15192 15193 15194 15195 15196 15197 15198 15199 15200 15201 15202 15203 15204 15205 15206 15207 15208 15209 15210 15211 15212 15213 15214 15215 15216 15217 15218 15219 15220 15221 15222 15223 15224 15225 15226 15227 15228 15229 15230 15231 15232 15233 15234 15235 15236 15237 15238 15239 15240 15241 15242 15243 15244 15245 15246 15247 15248 15249 15250 15251 15252 15253 15254 15255 15256 15257 15258 15259 15260 15261 15262 15263 15264 15265 15266 15267 15268 15269 15270 15271 15272 15273 15274 15275 15276 15277 15278 15279 15280 15281 15282 15283 15284 15285 15286 15287 15288 15289 15290 15291 15292 15293 15294 15295 15296 15297 15298 15299 15300 15301 15302 15303 15304 15305 15306 15307 15308 15309 15310 15311 15312 15313 15314 15315 15316 15317 15318 15319 15320 15321 15322 15323 15324 15325 15326 15327 15328 15329 15330 15331 15332 15333 15334 15335 15336 15337 15338 15339 15340 15341 15342 15343 15344 15345 15346 15347 15348 15349 15350 15351 15352 15353 15354 15355 15356 15357 15358 15359 15360 15361 15362 15363 15364 15365 15366 15367 15368 15369 15370 15371 15372 15373 15374 15375 15376 15377 15378 15379 15380 15381 15382 15383 15384 15385 15386 15387 15388 15389 15390 15391 15392 15393 15394 15395 15396 15397 15398 15399 15400 15401 15402 15403 15404 15405 15406 15407 15408 15409 15410 15411 15412 15413 15414 15415 15416 15417 15418 15419 15420 15421 15422 15423 15424 15425 15426 15427 15428 15429 15430 15431 15432 15433 15434 15435 15436 15437 15438 15439 15440 15441 15442 15443 15444 15445 15446 15447 15448 15449 15450 15451 15452 15453 15454 15455 15456 15457 15458 15459 15460 15461 15462 15463 15464 15465 15466 15467 15468 15469 15470 15471 15472 15473 15474 15475 15476 15477 15478 15479 15480 15481 15482 15483 15484 15485 15486 15487 15488 15489 15490 15491 15492 15493 15494 15495 15496 15497 15498 15499 15500 15501 15502 15503 15504 15505 15506 15507 15508 15509 15510 15511 15512 15513 15514 15515 15516 15517 15518 15519 15520 15521 15522 15523 15524 15525 15526 15527 15528 15529 15530 15531 15532 15533 15534 15535 15536 15537 15538 15539 15540 15541 15542 15543 15544 15545 15546 15547 15548 15549 15550 15551 15552 15553 15554 15555 15556 15557 15558 15559 15560 15561 15562 15563 15564 15565 15566 15567 15568 15569 15570 15571 15572 15573 15574 15575 15576 15577 15578 15579 15580 15581 15582 15583 15584 15585 15586 15587 15588 15589 15590 15591 15592 15593 15594 15595 15596 15597 15598 15599 15600 15601 15602 15603 15604 15605 15606 15607 15608 15609 15610 15611 15612 15613 15614 15615 15616 15617 15618 15619 15620 15621 15622 15623 15624 15625 15626 15627 15628 15629 15630 15631 15632 15633 15634 15635 15636 15637 15638 15639 15640 15641 15642 15643 15644 15645 15646 15647 15648 15649 15650 15651 15652 15653 15654 15655 15656 15657 15658 15659 15660 15661 15662 15663 15664 15665 15666 15667 15668 15669 15670 15671 15672 15673 15674 15675 15676 15677 15678 15679 15680 15681 15682 15683 15684 15685 15686 15687 15688 15689 15690 15691 15692 15693 15694 15695 15696 15697 15698 15699 15700 15701 15702 15703 15704 15705 15706 15707 15708 15709 15710 15711 15712 15713 15714 15715 15716 15717 15718 15719 15720 15721 15722 15723 15724 15725 15726 15727 15728 15729 15730 15731 15732 15733 15734 15735 15736 15737 15738 15739 15740 15741 15742 15743 15744 15745 15746 15747 15748 15749 15750 15751 15752 15753 15754 15755 15756 15757 15758 15759 15760 15761 15762 15763 15764 15765 15766 15767 15768 15769 15770 15771 15772 15773 15774 15775 15776 15777 15778 15779 15780 15781 15782 15783 15784 15785 15786 15787 15788 15789 15790 15791 15792 15793 15794 15795 15796 15797 15798 15799 15800 15801 15802 15803 15804 15805 15806 15807 15808 15809 15810 15811 15812 15813 15814 15815 15816 15817 15818 15819 15820 15821 15822 15823 15824 15825 15826 15827 15828 15829 15830 15831 15832 15833 15834 15835 15836 15837 15838 15839 15840 15841 15842 15843 15844 15845 15846 15847 15848 15849 15850 15851 15852 15853 15854 15855 15856 15857 15858 15859 15860 15861 15862 15863 15864 15865 15866 15867 15868 15869 15870 15871 15872 15873 15874 15875 15876 15877 15878 15879 15880 15881 15882 15883 15884 15885 15886 15887 15888 15889 15890 15891 15892 15893 15894 15895 15896 15897 15898 15899 15900 15901 15902 15903 15904 15905 15906 15907 15908 15909 15910 15911 15912 15913 15914 15915 15916 15917 15918 15919 15920 15921 15922 15923 15924 15925 15926 15927 15928 15929 15930 15931 15932 15933 15934 15935 15936 15937 15938 15939 15940 15941 15942 15943 15944 15945 15946 15947 15948 15949 15950 15951 15952 15953 15954 15955 15956 15957 15958 15959 15960 15961 15962 15963 15964 15965 15966 15967 15968 15969 15970 15971 15972 15973 15974 15975 15976 15977 15978 15979 15980 15981 15982 15983 15984 15985 15986 15987 15988 15989 15990 15991 15992 15993 15994 15995 15996 15997 15998 15999 16000 16001 16002 16003 16004 16005 16006 16007 16008 16009 16010 16011 16012 16013 16014 16015 16016 16017 16018 16019 16020 16021 16022 16023 16024 16025 16026 16027 16028 16029 16030 16031 16032 16033 16034 16035 16036 16037 16038 16039 16040 16041 16042 16043 16044 16045 16046 16047 16048 16049 16050 16051 16052 16053 16054 16055 16056 16057 16058 16059 16060 16061 16062 16063 16064 16065 16066 16067 16068 16069 16070 16071 16072 16073 16074 16075 16076 16077 16078 16079 16080 16081 16082 16083 16084 16085 16086 16087 16088 16089 16090 16091 16092 16093 16094 16095 16096 16097 16098 16099 16100 16101 16102 16103 16104 16105 16106 16107 16108 16109 16110 16111 16112 16113 16114 16115 16116 16117 16118 16119 16120 16121 16122 16123 16124 16125 16126 16127 16128 16129 16130 16131 16132 16133 16134 16135 16136 16137 16138 16139 16140 16141 16142 16143 16144 16145 16146 16147 16148 16149 16150 16151 16152 16153 16154 16155 16156 16157 16158 16159 16160 16161 16162 16163 16164 16165 16166 16167 16168 16169 16170 16171 16172 16173 16174 16175 16176 16177 16178 16179 16180 16181 16182 16183 16184 16185 16186 16187 16188 16189 16190 16191 16192 16193 16194 16195 16196 16197 16198 16199 16200 16201 16202 16203 16204 16205 16206 16207 16208 16209 16210 16211 16212 16213 16214 16215 16216 16217 16218 16219 16220 16221 16222 16223 16224 16225 16226 16227 16228 16229 16230 16231 16232 16233 16234 16235 16236 16237 16238 16239 16240 16241 16242 16243 16244 16245 16246 16247 16248 16249 16250 16251 16252 16253 16254 16255 16256 16257 16258 16259 16260 16261 16262 16263 16264 16265 16266 16267 16268 16269 16270 16271 16272 16273 16274 16275 16276 16277 16278 16279 16280 16281 16282 16283 16284 16285 16286 16287 16288 16289 16290 16291 16292 16293 16294 16295 16296 16297 16298 16299 16300 16301 16302 16303 16304 16305 16306 16307 16308 16309 16310 16311 16312 16313 16314 16315 16316 16317 16318 16319 16320 16321 16322 16323 16324 16325 16326 16327 16328 16329 16330 16331 16332 16333 16334 16335 16336 16337 16338 16339 16340 16341 16342 16343 16344 16345 16346 16347 16348 16349 16350 16351 16352 16353 16354 16355 16356 16357 16358 16359 16360 16361 16362 16363 16364 16365 16366 16367 16368 16369 16370 16371 16372 16373 16374 16375 16376 16377 16378 16379 16380 16381 16382 16383 16384 16385 16386 16387 16388 16389 16390 16391 16392 16393 16394 16395 16396 16397 16398 16399 16400 16401 16402 16403 16404 16405 16406 16407 16408 16409 16410 16411 16412 16413 16414 16415 16416 16417 16418 16419 16420 16421 16422 16423 16424 16425 16426 16427 16428 16429 16430 16431 16432 16433 16434 16435 16436 16437 16438 16439 16440 16441 16442 16443 16444 16445 16446 16447 16448 16449 16450 16451 16452 16453 16454 16455 16456 16457 16458 16459 16460 16461 16462 16463 16464 16465 16466 16467 16468 16469 16470 16471 16472 16473 16474 16475 16476 16477 16478 16479 16480 16481 16482 16483 16484 16485 16486 16487 16488 16489 16490 16491 16492 16493 16494 16495 16496 16497 16498 16499 16500 16501 16502 16503 16504 16505 16506 16507 16508 16509 16510 16511 16512 16513 16514 16515 16516 16517 16518 16519 16520 16521 16522 16523 16524 16525 16526 16527 16528 16529 16530 16531 16532 16533 16534 16535 16536 16537 16538 16539 16540 16541 16542 16543 16544 16545 16546 16547 16548 16549 16550 16551 16552 16553 16554 16555 16556 16557 16558 16559 16560 16561 16562 16563 16564 16565 16566 16567 16568 16569 16570 16571 16572 16573 16574 16575 16576 16577 16578 16579 16580 16581 16582 16583 16584 16585 16586 16587 16588 16589 16590 16591 16592 16593 16594 16595 16596 16597 16598 16599 16600 16601 16602 16603 16604 16605 16606 16607 16608 16609 16610 16611 16612 16613 16614 16615 16616 16617 16618 16619 16620 16621 16622 16623 16624 16625 16626 16627 16628 16629 16630 16631 16632 16633 16634 16635 16636 16637 16638 16639 16640 16641 16642 16643 16644 16645 16646 16647 16648 16649 16650 16651 16652 16653 16654 16655 16656 16657 16658 16659 16660 16661 16662 16663 16664 16665 16666 16667 16668 16669 16670 16671 16672 16673 16674 16675 16676 16677 16678 16679 16680 16681 16682 16683 16684 16685 16686 16687 16688 16689 16690 16691 16692 16693 16694 16695 16696 16697 16698 16699 16700 16701 16702 16703 16704 16705 16706 16707 16708 16709 16710 16711 16712 16713 16714 16715 16716 16717 16718 16719 16720 16721 16722 16723 16724 16725 16726 16727 16728 16729 16730 16731 16732 16733 16734 16735 16736 16737 16738 16739 16740 16741 16742 16743 16744 16745 16746 16747 16748 16749 16750 16751 16752 16753 16754 16755 16756 16757 16758 16759 16760 16761 16762 16763 16764 16765 16766 16767 16768 16769 16770 16771 16772 16773 16774 16775 16776 16777 16778 16779 16780 16781 16782 16783 16784 16785 16786 16787 16788 16789 16790 16791 16792 16793 16794 16795 16796 16797 16798 16799 16800 16801 16802 16803 16804 16805 16806 16807 16808 16809 16810 16811 16812 16813 16814 16815 16816 16817 16818 16819 16820 16821 16822 16823 16824 16825 16826 16827 16828 16829 16830 16831 16832 16833 16834 16835 16836 16837 16838 16839 16840 16841 16842 16843 16844 16845 16846 16847 16848 16849 16850 16851 16852 16853 16854 16855 16856 16857 16858 16859 16860 16861 16862 16863 16864 16865 16866 16867 16868 16869 16870 16871 16872 16873 16874 16875 16876 16877 16878 16879 16880 16881 16882 16883 16884 16885 16886 16887 16888 16889 16890 16891 16892 16893 16894 16895 16896 16897 16898 16899 16900 16901 16902 16903 16904 16905 16906 16907 16908 16909 16910 16911 16912 16913 16914 16915 16916 16917 16918 16919 16920 16921 16922 16923 16924 16925 16926 16927 16928 16929 16930 16931 16932 16933 16934 16935 16936 16937 16938 16939 16940 16941 16942 16943 16944 16945 16946 16947 16948 16949 16950 16951 16952 16953 16954 16955 16956 16957 16958 16959 16960 16961 16962 16963 16964 16965 16966 16967 16968 16969 16970 16971 16972 16973 16974 16975 16976 16977 16978 16979 16980 16981 16982 16983 16984 16985 16986 16987 16988 16989 16990 16991 16992 16993 16994 16995 16996 16997 16998 16999 17000 17001 17002 17003 17004 17005 17006 17007 17008 17009 17010 17011 17012 17013 17014 17015 17016 17017 17018 17019 17020 17021 17022 17023 17024 17025 17026 17027 17028 17029 17030 17031 17032 17033 17034 17035 17036 17037 17038 17039 17040 17041 17042 17043 17044 17045 17046 17047 17048 17049 17050 17051 17052 17053 17054 17055 17056 17057 17058 17059 17060 17061 17062 17063 17064 17065 17066 17067 17068 17069 17070 17071 17072 17073 17074 17075 17076 17077 17078 17079 17080 17081 17082 17083 17084 17085 17086 17087 17088 17089 17090 17091 17092 17093 17094 17095 17096 17097 17098 17099 17100 17101 17102 17103 17104 17105 17106 17107 17108 17109 17110 17111 17112 17113 17114 17115 17116 17117 17118 17119 17120 17121 17122 17123 17124 17125 17126 17127 17128 17129 17130 17131 17132 17133 17134 17135 17136 17137 17138 17139 17140 17141 17142 17143 17144 17145 17146 17147 17148 17149 17150 17151 17152 17153 17154 17155 17156 17157 17158 17159 17160 17161 17162 17163 17164 17165 17166 17167 17168 17169 17170 17171 17172 17173 17174 17175 17176 17177 17178 17179 17180 17181 17182 17183 17184 17185 17186 17187 17188 17189 17190 17191 17192 17193 17194 17195 17196 17197 17198 17199 17200 17201 17202 17203 17204 17205 17206 17207 17208 17209 17210 17211 17212 17213 17214 17215 17216 17217 17218 17219 17220 17221 17222 17223 17224 17225 17226 17227 17228 17229 17230 17231 17232 17233 17234 17235 17236 17237 17238 17239 17240 17241 17242 17243 17244 17245 17246 17247 17248 17249 17250 17251 17252 17253 17254 17255 17256 17257 17258 17259 17260 17261 17262 17263 17264 17265 17266 17267 17268 17269 17270 17271 17272 17273 17274 17275 17276 17277 17278 17279 17280 17281 17282 17283 17284 17285 17286 17287 17288 17289 17290 17291 17292 17293 17294 17295 17296 17297 17298 17299 17300 17301 17302 17303 17304 17305 17306 17307 17308 17309 17310 17311 17312 17313 17314 17315 17316 17317 17318 17319 17320 17321 17322 17323 17324 17325 17326 17327 17328 17329 17330 17331 17332 17333 17334 17335 17336 17337 17338 17339 17340 17341 17342 17343 17344 17345 17346 17347 17348 17349 17350 17351 17352 17353 17354 17355 17356 17357 17358 17359 17360 17361 17362 17363 17364 17365 17366 17367 17368 17369 17370 17371 17372 17373 17374 17375 17376 17377 17378 17379 17380 17381 17382 17383 17384 17385 17386 17387 17388 17389 17390 17391 17392 17393 17394 17395 17396 17397 17398 17399 17400 17401 17402 17403 17404 17405 17406 17407 17408 17409 17410 17411 17412 17413 17414 17415 17416 17417 17418 17419 17420 17421 17422 17423 17424 17425 17426 17427 17428 17429 17430 17431 17432 17433 17434 17435 17436 17437 17438 17439 17440 17441 17442 17443 17444 17445 17446 17447 17448 17449 17450 17451 17452 17453 17454 17455 17456 17457 17458 17459 17460 17461 17462 17463 17464 17465 17466 17467 17468 17469 17470 17471 17472 17473 17474 17475 17476 17477 17478 17479 17480 17481 17482 17483 17484 17485 17486 17487 17488 17489 17490 17491 17492 17493 17494 17495 17496 17497 17498 17499 17500 17501 17502 17503 17504 17505 17506 17507 17508 17509 17510 17511 17512 17513 17514 17515 17516 17517 17518 17519 17520 17521 17522 17523 17524 17525 17526 17527 17528 17529 17530 17531 17532 17533 17534 17535 17536 17537 17538 17539 17540 17541 17542 17543 17544 17545 17546 17547 17548 17549 17550 17551 17552 17553 17554 17555 17556 17557 17558 17559 17560 17561 17562 17563 17564 17565 17566 17567 17568 17569 17570 17571 17572 17573 17574 17575 17576 17577 17578 17579 17580 17581 17582 17583 17584 17585 17586 17587 17588 17589 17590 17591 17592 17593 17594 17595 17596 17597 17598 17599 17600 17601 17602 17603 17604 17605 17606 17607 17608 17609 17610 17611 17612 17613 17614 17615 17616 17617 17618 17619 17620 17621 17622 17623 17624 17625 17626 17627 17628 17629 17630 17631 17632 17633 17634 17635 17636 17637 17638 17639 17640 17641 17642 17643 17644 17645 17646 17647 17648 17649 17650 17651 17652 17653 17654 17655 17656 17657 17658 17659 17660 17661 17662 17663 17664 17665 17666 17667 17668 17669 17670 17671 17672 17673 17674 17675 17676 17677 17678 17679 17680 17681 17682 17683 17684 17685 17686 17687 17688 17689 17690 17691 17692 17693 17694 17695 17696 17697 17698 17699 17700 17701 17702 17703 17704 17705 17706 17707 17708 17709 17710 17711 17712 17713 17714 17715 17716 17717 17718 17719 17720 17721 17722 17723 17724 17725 17726 17727 17728 17729 17730 17731 17732 17733 17734 17735 17736 17737 17738 17739 17740 17741 17742 17743 17744 17745 17746 17747 17748 17749 17750 17751 17752 17753 17754 17755 17756 17757 17758 17759 17760 17761 17762 17763 17764 17765 17766 17767 17768 17769 17770 17771 17772 17773 17774 17775 17776 17777 17778 17779 17780 17781 17782 17783 17784 17785 17786 17787 17788 17789 17790 17791 17792 17793 17794 17795 17796 17797 17798 17799 17800 17801 17802 17803 17804 17805 17806 17807 17808 17809 17810 17811 17812 17813 17814 17815 17816 17817 17818 17819 17820 17821 17822 17823 17824 17825 17826 17827 17828 17829 17830 17831 17832 17833 17834 17835 17836 17837 17838 17839 17840 17841 17842 17843 17844 17845 17846 17847 17848 17849 17850 17851 17852 17853 17854 17855 17856 17857 17858 17859 17860 17861 17862 17863 17864 17865 17866 17867 17868 17869 17870 17871 17872 17873 17874 17875 17876 17877 17878 17879 17880 17881 17882 17883 17884 17885 17886 17887 17888 17889 17890 17891 17892 17893 17894 17895 17896 17897 17898 17899 17900 17901 17902 17903 17904 17905 17906 17907 17908 17909 17910 17911 17912 17913 17914 17915 17916 17917 17918 17919 17920 17921 17922 17923 17924 17925 17926 17927 17928 17929 17930 17931 17932 17933 17934 17935 17936 17937 17938 17939 17940 17941 17942 17943 17944 17945 17946 17947 17948 17949 17950 17951 17952 17953 17954 17955 17956 17957 17958 17959 17960 17961 17962 17963 17964 17965 17966 17967 17968 17969 17970 17971 17972 17973 17974 17975 17976 17977 17978 17979 17980 17981 17982 17983 17984 17985 17986 17987 17988 17989 17990 17991 17992 17993 17994 17995 17996 17997 17998 17999 18000 18001 18002 18003 18004 18005 18006 18007 18008 18009 18010 18011 18012 18013 18014 18015 18016 18017 18018 18019 18020 18021 18022 18023 18024 18025 18026 18027 18028 18029 18030 18031 18032 18033 18034 18035 18036 18037 18038 18039 18040 18041 18042 18043 18044 18045 18046 18047 18048 18049 18050 18051 18052 18053 18054 18055 18056 18057 18058 18059 18060 18061 18062 18063 18064 18065 18066 18067 18068 18069 18070 18071 18072 18073 18074 18075 18076 18077 18078 18079 18080 18081 18082 18083 18084 18085 18086 18087 18088 18089 18090 18091 18092 18093 18094 18095 18096 18097 18098 18099 18100 18101 18102 18103 18104 18105 18106 18107 18108 18109 18110 18111 18112 18113 18114 18115 18116 18117 18118 18119 18120 18121 18122 18123 18124 18125 18126 18127 18128 18129 18130 18131 18132 18133 18134 18135 18136 18137 18138 18139 18140 18141 18142 18143 18144 18145 18146 18147 18148 18149 18150 18151 18152 18153 18154 18155 18156 18157 18158 18159 18160 18161 18162 18163 18164 18165 18166 18167 18168 18169 18170 18171 18172 18173 18174 18175 18176 18177 18178 18179 18180 18181 18182 18183 18184 18185 18186 18187 18188 18189 18190 18191 18192 18193 18194 18195 18196 18197 18198 18199 18200 18201 18202 18203 18204 18205 18206 18207 18208 18209 18210 18211 18212 18213 18214 18215 18216 18217 18218 18219 18220 18221 18222 18223 18224 18225 18226 18227 18228 18229 18230 18231 18232 18233 18234 18235 18236 18237 18238 18239 18240 18241 18242 18243 18244 18245 18246 18247 18248 18249 18250 18251 18252 18253 18254 18255 18256 18257 18258 18259 18260 18261 18262 18263 18264 18265 18266 18267 18268 18269 18270 18271 18272 18273 18274 18275 18276 18277 18278 18279 18280 18281 18282 18283 18284 18285 18286 18287 18288 18289 18290 18291 18292 18293 18294 18295 18296 18297 18298 18299 18300 18301 18302 18303 18304 18305 18306 18307 18308 18309 18310 18311 18312 18313 18314 18315 18316 18317 18318 18319 18320 18321 18322 18323 18324 18325 18326 18327 18328 18329 18330 18331 18332 18333 18334 18335 18336 18337 18338 18339 18340 18341 18342 18343 18344 18345 18346 18347 18348 18349 18350 18351 18352 18353 18354 18355 18356 18357 18358 18359 18360 18361 18362 18363 18364 18365 18366 18367 18368 18369 18370 18371 18372 18373 18374 18375 18376 18377 18378 18379 18380 18381 18382 18383 18384 18385 18386 18387 18388 18389 18390 18391 18392 18393 18394 18395 18396 18397 18398 18399 18400 18401 18402 18403 18404 18405 18406 18407 18408 18409 18410 18411 18412 18413 18414 18415 18416 18417 18418 18419 18420 18421 18422 18423 18424 18425 18426 18427 18428 18429 18430 18431 18432 18433 18434 18435 18436 18437 18438 18439 18440 18441 18442 18443 18444 18445 18446 18447 18448 18449 18450 18451 18452 18453 18454 18455 18456 18457 18458 18459 18460 18461 18462 18463 18464 18465 18466 18467 18468 18469 18470 18471 18472 18473 18474 18475 18476 18477 18478 18479 18480 18481 18482 18483 18484 18485 18486 18487 18488 18489 18490 18491 18492 18493 18494 18495 18496 18497 18498 18499 18500 18501 18502 18503 18504 18505 18506 18507 18508 18509 18510 18511 18512 18513 18514 18515 18516 18517 18518 18519 18520 18521 18522 18523 18524 18525 18526 18527 18528 18529 18530 18531 18532 18533 18534 18535 18536 18537 18538 18539 18540 18541 18542 18543 18544 18545 18546 18547 18548 18549 18550 18551 18552 18553 18554 18555 18556 18557 18558 18559 18560 18561 18562 18563 18564 18565 18566 18567 18568 18569 18570 18571 18572 18573 18574 18575 18576 18577 18578 18579 18580 18581 18582 18583 18584 18585 18586 18587 18588 18589 18590 18591 18592 18593 18594 18595 18596 18597 18598 18599 18600 18601 18602 18603 18604 18605 18606 18607 18608 18609 18610 18611 18612 18613 18614 18615 18616 18617 18618 18619 18620 18621 18622 18623 18624 18625 18626 18627 18628 18629 18630 18631 18632 18633 18634 18635 18636 18637 18638 18639 18640 18641 18642 18643 18644 18645 18646 18647 18648 18649 18650 18651 18652 18653 18654 18655 18656 18657 18658 18659 18660 18661 18662 18663 18664 18665 18666 18667 18668 18669 18670 18671 18672 18673 18674 18675 18676 18677 18678 18679 18680 18681 18682 18683 18684 18685 18686 18687 18688 18689 18690 18691 18692 18693 18694 18695 18696 18697 18698 18699 18700 18701 18702 18703 18704 18705 18706 18707 18708 18709 18710 18711 18712 18713 18714 18715 18716 18717 18718 18719 18720 18721 18722 18723 18724 18725 18726 18727 18728 18729 18730 18731 18732 18733 18734 18735 18736 18737 18738 18739 18740 18741 18742 18743 18744 18745 18746 18747 18748 18749 18750 18751 18752 18753 18754 18755 18756 18757 18758 18759 18760 18761 18762 18763 18764 18765 18766 18767 18768 18769 18770 18771 18772 18773 18774 18775 18776 18777 18778 18779 18780 18781 18782 18783 18784 18785 18786 18787 18788 18789 18790 18791 18792 18793 18794 18795 18796 18797 18798 18799 18800 18801 18802 18803 18804 18805 18806 18807 18808 18809 18810 18811 18812 18813 18814 18815 18816 18817 18818 18819 18820 18821 18822 18823 18824 18825 18826 18827 18828 18829 18830 18831 18832 18833 18834 18835 18836 18837 18838 18839 18840 18841 18842 18843 18844 18845 18846 18847 18848 18849 18850 18851 18852 18853 18854 18855 18856 18857 18858 18859 18860 18861 18862 18863 18864 18865 18866 18867 18868 18869 18870 18871 18872 18873 18874 18875 18876 18877 18878 18879 18880 18881 18882 18883 18884 18885 18886 18887 18888 18889 18890 18891 18892 18893 18894 18895 18896 18897 18898 18899 18900 18901 18902 18903 18904 18905 18906 18907 18908 18909 18910 18911 18912 18913 18914 18915 18916 18917 18918 18919 18920 18921 18922 18923 18924 18925 18926 18927 18928 18929 18930 18931 18932 18933 18934 18935 18936 18937 18938 18939 18940 18941 18942 18943 18944 18945 18946 18947 18948 18949 18950 18951 18952 18953 18954 18955 18956 18957 18958 18959 18960 18961 18962 18963 18964 18965 18966 18967 18968 18969 18970 18971 18972 18973 18974 18975 18976 18977 18978 18979 18980 18981 18982 18983 18984 18985 18986 18987 18988 18989 18990 18991 18992 18993 18994 18995 18996 18997 18998 18999 19000 19001 19002 19003 19004 19005 19006 19007 19008 19009 19010 19011 19012 19013 19014 19015 19016 19017 19018 19019 19020 19021 19022 19023 19024 19025 19026 19027 19028 19029 19030 19031 19032 19033 19034 19035 19036 19037 19038 19039 19040 19041 19042 19043 19044 19045 19046 19047 19048 19049 19050 19051 19052 19053 19054 19055 19056 19057 19058 19059 19060 19061 19062 19063 19064 19065 19066 19067 19068 19069 19070 19071 19072 19073 19074 19075 19076 19077 19078 19079 19080 19081 19082 19083 19084 19085 19086 19087 19088 19089 19090 19091 19092 19093 19094 19095 19096 19097 19098 19099 19100 19101 19102 19103 19104 19105 19106 19107 19108 19109 19110 19111 19112 19113 19114 19115 19116 19117 19118 19119 19120 19121 19122 19123 19124 19125 19126 19127 19128 19129 19130 19131 19132 19133 19134 19135 19136 19137 19138 19139 19140 19141 19142 19143 19144 19145 19146 19147 19148 19149 19150 19151 19152 19153 19154 19155 19156 19157 19158 19159 19160 19161 19162 19163 19164 19165 19166 19167 19168 19169 19170 19171 19172 19173 19174 19175 19176 19177 19178 19179 19180 19181 19182 19183 19184 19185 19186 19187 19188 19189 19190 19191 19192 19193 19194 19195 19196 19197 19198 19199 19200 19201 19202 19203 19204 19205 19206 19207 19208 19209 19210 19211 19212 19213 19214 19215 19216 19217 19218 19219 19220 19221 19222 19223 19224 19225 19226 19227 19228 19229 19230 19231 19232 19233 19234 19235 19236 19237 19238 19239 19240 19241 19242 19243 19244 19245 19246 19247 19248 19249 19250 19251 19252 19253 19254 19255 19256 19257 19258 19259 19260 19261 19262 19263 19264 19265 19266 19267 19268 19269 19270 19271 19272 19273 19274 19275 19276 19277 19278 19279 19280 19281 19282 19283 19284 19285 19286 19287 19288 19289 19290 19291 19292 19293 19294 19295 19296 19297 19298 19299 19300 19301 19302 19303 19304 19305 19306 19307 19308 19309 19310 19311 19312 19313 19314 19315 19316 19317 19318 19319 19320 19321 19322 19323 19324 19325 19326 19327 19328 19329 19330 19331 19332 19333 19334 19335 19336 19337 19338 19339 19340 19341 19342 19343 19344 19345 19346 19347 19348 19349 19350 19351 19352 19353 19354 19355 19356 19357 19358 19359 19360 19361 19362 19363 19364 19365 19366 19367 19368 19369 19370 19371 19372 19373 19374 19375 19376 19377 19378 19379 19380 19381 19382 19383 19384 19385 19386 19387 19388 19389 19390 19391 19392 19393 19394 19395 19396 19397 19398 19399 19400 19401 19402 19403 19404 19405 19406 19407 19408 19409 19410 19411 19412 19413 19414 19415 19416 19417 19418 19419 19420 19421 19422 19423 19424 19425 19426 19427 19428 19429 19430 19431 19432 19433 19434 19435 19436 19437 19438 19439 19440 19441 19442 19443 19444 19445 19446 19447 19448 19449 19450 19451 19452 19453 19454 19455 19456 19457 19458 19459 19460 19461 19462 19463 19464 19465 19466 19467 19468 19469 19470 19471 19472 19473 19474 19475 19476 19477 19478 19479 19480 19481 19482 19483 19484 19485 19486 19487 19488 19489 19490 19491 19492 19493 19494 19495 19496 19497 19498 19499 19500 19501 19502 19503 19504 19505 19506 19507 19508 19509 19510 19511 19512 19513 19514 19515 19516 19517 19518 19519 19520 19521 19522 19523 19524 19525 19526 19527 19528 19529 19530 19531 19532 19533 19534 19535 19536 19537 19538 19539 19540 19541 19542 19543 19544 19545 19546 19547 19548 19549 19550 19551 19552 19553 19554 19555 19556 19557 19558 19559 19560 19561 19562 19563 19564 19565 19566 19567 19568 19569 19570 19571 19572 19573 19574 19575 19576 19577 19578 19579 19580 19581 19582 19583 19584 19585 19586 19587 19588 19589 19590 19591 19592 19593 19594 19595 19596 19597 19598 19599 19600 19601 19602 19603 19604 19605 19606 19607 19608 19609 19610 19611 19612 19613 19614 19615 19616 19617 19618 19619 19620 19621 19622 19623 19624 19625 19626 19627 19628 19629 19630 19631 19632 19633 19634 19635 19636 19637 19638 19639 19640 19641 19642 19643 19644 19645 19646 19647 19648 19649 19650 19651 19652 19653 19654 19655 19656 19657 19658 19659 19660 19661 19662 19663 19664 19665 19666 19667 19668 19669 19670 19671 19672 19673 19674 19675 19676 19677 19678 19679 19680 19681 19682 19683 19684 19685 19686 19687 19688 19689 19690 19691 19692 19693 19694 19695 19696 19697 19698 19699 19700 19701 19702 19703 19704 19705 19706 19707 19708 19709 19710 19711 19712 19713 19714 19715 19716 19717 19718 19719 19720 19721 19722 19723 19724 19725 19726 19727 19728 19729 19730 19731 19732 19733 19734 19735 19736 19737 19738 19739 19740 19741 19742 19743 19744 19745 19746 19747 19748 19749 19750 19751 19752 19753 19754 19755 19756 19757 19758 19759 19760 19761 19762 19763 19764 19765 19766 19767 19768 19769 19770 19771 19772 19773 19774 19775 19776 19777 19778 19779 19780 19781 19782 19783 19784 19785 19786 19787 19788 19789 19790 19791 19792 19793 19794 19795 19796 19797 19798 19799 19800 19801 19802 19803 19804 19805 19806 19807 19808 19809 19810 19811 19812 19813 19814 19815 19816 19817 19818 19819 19820 19821 19822 19823 19824 19825 19826 19827 19828 19829 19830 19831 19832 19833 19834 19835 19836 19837 19838 19839 19840 19841 19842 19843 19844 19845 19846 19847 19848 19849 19850 19851 19852 19853 19854 19855 19856 19857 19858 19859 19860 19861 19862 19863 19864 19865 19866 19867 19868 19869 19870 19871 19872 19873 19874 19875 19876 19877 19878 19879 19880 19881 19882 19883 19884 19885 19886 19887 19888 19889 19890 19891 19892 19893 19894 19895 19896 19897 19898 19899 19900 19901 19902 19903 19904 19905 19906 19907 19908 19909 19910 19911 19912 19913 19914 19915 19916 19917 19918 19919 19920 19921 19922 19923 19924 19925 19926 19927 19928 19929 19930 19931 19932 19933 19934 19935 19936 19937 19938 19939 19940 19941 19942 19943 19944 19945 19946 19947 19948 19949 19950 19951 19952 19953 19954 19955 19956 19957 19958 19959 19960 19961 19962 19963 19964 19965 19966 19967 19968 19969 19970 19971 19972 19973 19974 19975 19976 19977 19978 19979 19980 19981 19982 19983 19984 19985 19986 19987 19988 19989 19990 19991 19992 19993 19994 19995 19996 19997 19998 19999 20000 20001 20002 20003 20004 20005 20006 20007 20008 20009 20010 20011 20012 20013 20014 20015 20016 20017 20018 20019 20020 20021 20022 20023 20024 20025 20026 20027 20028 20029 20030 20031 20032 20033 20034 20035 20036 20037 20038 20039 20040 20041 20042 20043 20044 20045 20046 20047 20048 20049 20050 20051 20052 20053 20054 20055 20056 20057 20058 20059 20060 20061 20062 20063 20064 20065 20066 20067 20068 20069 20070 20071 20072 20073 20074 20075 20076 20077 20078 20079 20080 20081 20082 20083 20084 20085 20086 20087 20088 20089 20090 20091 20092 20093 20094 20095 20096 20097 20098 20099 20100 20101 20102 20103 20104 20105 20106 20107 20108 20109 20110 20111 20112 20113 20114 20115 20116 20117 20118 20119 20120 20121 20122 20123 20124 20125 20126 20127 20128 20129 20130 20131 20132 20133 20134 20135 20136 20137 20138 20139 20140 20141 20142 20143 20144 20145 20146 20147 20148 20149 20150 20151 20152 20153 20154 20155 20156 20157 20158 20159 20160 20161 20162 20163 20164 20165 20166 20167 20168 20169 20170 20171 20172 20173 20174 20175 20176 20177 20178 20179 20180 20181 20182 20183 20184 20185 20186 20187 20188 20189 20190 20191 20192 20193 20194 20195 20196 20197 20198 20199 20200 20201 20202 20203 20204 20205 20206 20207 20208 20209 20210 20211 20212 20213 20214 20215 20216 20217 20218 20219 20220 20221 20222 20223 20224 20225 20226 20227 20228 20229 20230 20231 20232 20233 20234 20235 20236 20237 20238 20239 20240 20241 20242 20243 20244 20245 20246 20247 20248 20249 20250 20251 20252 20253 20254 20255 20256 20257 20258 20259 20260 20261 20262 20263 20264 20265 20266 20267 20268 20269 20270 20271 20272 20273 20274 20275 20276 20277 20278 20279 20280 20281 20282 20283 20284 20285 20286 20287 20288 20289 20290 20291 20292 20293 20294 20295 20296 20297 20298 20299 20300 20301 20302 20303 20304 20305 20306 20307 20308 20309 20310 20311 20312 20313 20314 20315 20316 20317 20318 20319 20320 20321 20322 20323 20324 20325 20326 20327 20328 20329 20330 20331 20332 20333 20334 20335 20336 20337 20338 20339 20340 20341 20342 20343 20344 20345 20346 20347 20348 20349 20350 20351 20352 20353 20354 20355 20356 20357 20358 20359 20360 20361 20362 20363 20364 20365 20366 20367 20368 20369 20370 20371 20372 20373 20374 20375 20376 20377 20378 20379 20380 20381 20382 20383 20384 20385 20386 20387 20388 20389 20390 20391 20392 20393 20394 20395 20396 20397 20398 20399 20400 20401 20402 20403 20404 20405 20406 20407 20408 20409 20410 20411 20412 20413 20414 20415 20416 20417 20418 20419 20420 20421 20422 20423 20424 20425 20426 20427 20428 20429 20430 20431 20432 20433 20434 20435 20436 20437 20438 20439 20440 20441 20442 20443 20444 20445 20446 20447 20448 20449 20450 20451 20452 20453 20454 20455 20456 20457 20458 20459 20460 20461 20462 20463 20464 20465 20466 20467 20468 20469 20470 20471 20472 20473 20474 20475 20476 20477 20478 20479 20480 20481 20482 20483 20484 20485 20486 20487 20488 20489 20490 20491 20492 20493 20494 20495 20496 20497 20498 20499 20500 20501 20502 20503 20504 20505 20506 20507 20508 20509 20510 20511 20512 20513 20514 20515 20516 20517 20518 20519 20520 20521 20522 20523 20524 20525 20526 20527 20528 20529 20530 20531 20532 20533 20534 20535 20536 20537 20538 20539 20540 20541 20542 20543 20544 20545 20546 20547 20548 20549 20550 20551 20552 20553 20554 20555 20556 20557 20558 20559 20560 20561 20562 20563 20564 20565 20566 20567 20568 20569 20570 20571 20572 20573 20574 20575 20576 20577 20578 20579 20580 20581 20582 20583 20584 20585 20586 20587 20588 20589 20590 20591 20592 20593 20594 20595 20596 20597 20598 20599 20600 20601 20602 20603 20604 20605 20606 20607 20608 20609 20610 20611 20612 20613 20614 20615 20616 20617 20618 20619 20620 20621 20622 20623 20624 20625 20626 20627 20628 20629 20630 20631 20632 20633 20634 20635 20636 20637 20638 20639 20640 20641 20642 20643 20644 20645 20646 20647 20648 20649 20650 20651 20652 20653 20654 20655 20656 20657 20658 20659 20660 20661 20662 20663 20664 20665 20666 20667 20668 20669 20670 20671 20672 20673 20674 20675 20676 20677 20678 20679 20680 20681 20682 20683 20684 20685 20686 20687 20688 20689 20690 20691 20692 20693 20694 20695 20696 20697 20698 20699 20700 20701 20702 20703 20704 20705 20706 20707 20708 20709 20710 20711 20712 20713 20714 20715 20716 20717 20718 20719 20720 20721 20722 20723 20724 20725 20726 20727 20728 20729 20730 20731 20732 20733 20734 20735 20736 20737 20738 20739 20740 20741 20742 20743 20744 20745 20746 20747 20748 20749 20750 20751 20752 20753 20754 20755 20756 20757 20758 20759 20760 20761 20762 20763 20764 20765 20766 20767 20768 20769 20770 20771 20772 20773 20774 20775 20776 20777 20778 20779 20780 20781 20782 20783 20784 20785 20786 20787 20788 20789 20790 20791 20792 20793 20794 20795 20796 20797 20798 20799 20800 20801 20802 20803 20804 20805 20806 20807 20808 20809 20810 20811 20812 20813 20814 20815 20816 20817 20818 20819 20820 20821 20822 20823 20824 20825 20826 20827 20828 20829 20830 20831 20832 20833 20834 20835 20836 20837 20838 20839 20840 20841 20842 20843 20844 20845 20846 20847 20848 20849 20850 20851 20852 20853 20854 20855 20856 20857 20858 20859 20860 20861 20862 20863 20864 20865 20866 20867 20868 20869 20870 20871 20872 20873 20874 20875 20876 20877 20878 20879 20880 20881 20882 20883 20884 20885 20886 20887 20888 20889 20890 20891 20892 20893 20894 20895 20896 20897 20898 20899 20900 20901 20902 20903 20904 20905 20906 20907 20908 20909 20910 20911 20912 20913 20914 20915 20916 20917 20918 20919 20920 20921 20922 20923 20924 20925 20926 20927 20928 20929 20930 20931 20932 20933 20934 20935 20936 20937 20938 20939 20940 20941 20942 20943 20944 20945 20946 20947 20948 20949 20950 20951 20952 20953 20954 20955 20956 20957 20958 20959 20960 20961 20962 20963 20964 20965 20966 20967 20968 20969 20970 20971 20972 20973 20974 20975 20976 20977 20978 20979 20980 20981 20982 20983 20984 20985 20986 20987 20988 20989 20990 20991 20992 20993 20994 20995 20996 20997 20998 20999 21000 21001 21002 21003 21004 21005 21006 21007 21008 21009 21010 21011 21012 21013 21014 21015 21016 21017 21018 21019 21020 21021 21022 21023 21024 21025 21026 21027 21028 21029 21030 21031 21032 21033 21034 21035 21036 21037 21038 21039 21040 21041 21042 21043 21044 21045 21046 21047 21048 21049 21050 21051 21052 21053 21054 21055 21056 21057 21058 21059 21060 21061 21062 21063 21064 21065 21066 21067 21068 21069 21070 21071 21072 21073 21074 21075 21076 21077 21078 21079 21080 21081 21082 21083 21084 21085 21086 21087 21088 21089 21090 21091 21092 21093 21094 21095 21096 21097 21098 21099 21100 21101 21102 21103 21104 21105 21106 21107 21108 21109 21110 21111 21112 21113 21114 21115 21116 21117 21118 21119 21120 21121 21122 21123 21124 21125 21126 21127 21128 21129 21130 21131 21132 21133 21134 21135 21136 21137 21138 21139 21140 21141 21142 21143 21144 21145 21146 21147 21148 21149 21150 21151 21152 21153 21154 21155 21156 21157 21158 21159 21160 21161 21162 21163 21164 21165 21166 21167 21168 21169 21170 21171 21172 21173 21174 21175 21176 21177 21178 21179 21180 21181 21182 21183 21184 21185 21186 21187 21188 21189 21190 21191 21192 21193 21194 21195 21196 21197 21198 21199 21200 21201 21202 21203 21204 21205 21206 21207 21208 21209 21210 21211 21212 21213 21214 21215 21216 21217 21218 21219 21220 21221 21222 21223 21224 21225 21226 21227 21228 21229 21230 21231 21232 21233 21234 21235 21236 21237 21238 21239 21240 21241 21242 21243 21244 21245 21246 21247 21248 21249 21250 21251 21252 21253 21254 21255 21256 21257 21258 21259 21260 21261 21262 21263 21264 21265 21266 21267 21268 21269 21270 21271 21272 21273 21274 21275 21276 21277 21278 21279 21280 21281 21282 21283 21284 21285 21286 21287 21288 21289 21290 21291 21292 21293 21294 21295 21296 21297 21298 21299 21300 21301 21302 21303 21304 21305 21306 21307 21308 21309 21310 21311 21312 21313 21314 21315 21316 21317 21318 21319 21320 21321 21322 21323 21324 21325 21326 21327 21328 21329 21330 21331 21332 21333 21334 21335 21336 21337 21338 21339 21340 21341 21342 21343 21344 21345 21346 21347 21348 21349 21350 21351 21352 21353 21354 21355 21356 21357 21358 21359 21360 21361 21362 21363 21364 21365 21366 21367 21368 21369 21370 21371 21372 21373 21374 21375 21376 21377 21378 21379 21380 21381 21382 21383 21384 21385 21386 21387 21388 21389 21390 21391 21392 21393 21394 21395 21396 21397 21398 21399 21400 21401 21402 21403 21404 21405 21406 21407 21408 21409 21410 21411 21412 21413 21414 21415 21416 21417 21418 21419 21420 21421 21422 21423 21424 21425 21426 21427 21428 21429 21430 21431 21432 21433 21434 21435 21436 21437 21438 21439 21440 21441 21442 21443 21444 21445 21446 21447 21448 21449 21450 21451 21452 21453 21454 21455 21456 21457 21458 21459 21460 21461 21462 21463 21464 21465 21466 21467 21468 21469 21470 21471 21472 21473 21474 21475 21476 21477 21478 21479 21480 21481 21482 21483 21484 21485 21486 21487 21488 21489 21490 21491 21492 21493 21494 21495 21496 21497 21498 21499 21500 21501 21502 21503 21504 21505 21506 21507 21508 21509 21510 21511 21512 21513 21514 21515 21516 21517 21518 21519 21520 21521 21522 21523 21524 21525 21526 21527 21528 21529 21530 21531 21532 21533 21534 21535 21536 21537 21538 21539 21540 21541 21542 21543 21544 21545 21546 21547 21548 21549 21550 21551 21552 21553 21554 21555 21556 21557 21558 21559 21560 21561 21562 21563 21564 21565 21566 21567 21568 21569 21570 21571 21572 21573 21574 21575 21576 21577 21578 21579 21580 21581 21582 21583 21584 21585 21586 21587 21588 21589 21590 21591 21592 21593 21594 21595 21596 21597 21598 21599 21600 21601 21602 21603 21604 21605 21606 21607 21608 21609 21610 21611 21612 21613 21614 21615 21616 21617 21618 21619 21620 21621 21622 21623 21624 21625 21626 21627 21628 21629 21630 21631 21632 21633 21634 21635 21636 21637 21638 21639 21640 21641 21642 21643 21644 21645 21646 21647 21648 21649 21650 21651 21652 21653 21654 21655 21656 21657 21658 21659 21660 21661 21662 21663 21664 21665 21666 21667 21668 21669 21670 21671 21672 21673 21674 21675 21676 21677 21678 21679 21680 21681 21682 21683 21684 21685 21686 21687 21688 21689 21690 21691 21692 21693 21694 21695 21696 21697 21698 21699 21700 21701 21702 21703 21704 21705 21706 21707 21708 21709 21710 21711 21712 21713 21714 21715 21716 21717 21718 21719 21720 21721 21722 21723 21724 21725 21726 21727 21728 21729 21730 21731 21732 21733 21734 21735 21736 21737 21738 21739 21740 21741 21742 21743 21744 21745 21746 21747 21748 21749 21750 21751 21752 21753 21754 21755 21756 21757 21758 21759 21760 21761 21762 21763 21764 21765 21766 21767 21768 21769 21770 21771 21772 21773 21774 21775 21776 21777 21778 21779 21780 21781 21782 21783 21784 21785 21786 21787 21788 21789 21790 21791 21792 21793 21794 21795 21796 21797 21798 21799 21800 21801 21802 21803 21804 21805 21806 21807 21808 21809 21810 21811 21812 21813 21814 21815 21816 21817 21818 21819 21820 21821 21822 21823 21824 21825 21826 21827 21828 21829 21830 21831 21832 21833 21834 21835 21836 21837 21838 21839 21840 21841 21842 21843 21844 21845 21846 21847 21848 21849 21850 21851 21852 21853 21854 21855 21856 21857 21858 21859 21860 21861 21862 21863 21864 21865 21866 21867 21868 21869 21870 21871 21872 21873 21874 21875 21876 21877 21878 21879 21880 21881 21882 21883 21884 21885 21886 21887 21888 21889 21890 21891 21892 21893 21894 21895 21896 21897 21898 21899 21900 21901 21902 21903 21904 21905 21906 21907 21908 21909 21910 21911 21912 21913 21914 21915 21916 21917 21918 21919 21920 21921 21922 21923 21924 21925 21926 21927 21928 21929 21930 21931 21932 21933 21934 21935 21936 21937 21938 21939 21940 21941 21942 21943 21944 21945 21946 21947 21948 21949 21950 21951 21952 21953 21954 21955 21956 21957 21958 21959 21960 21961 21962 21963 21964 21965 21966 21967 21968 21969 21970 21971 21972 21973 21974 21975 21976 21977 21978 21979 21980 21981 21982 21983 21984 21985 21986 21987 21988 21989 21990 21991 21992 21993 21994 21995 21996 21997 21998 21999 22000 22001 22002 22003 22004 22005 22006 22007 22008 22009 22010 22011 22012 22013 22014 22015 22016 22017 22018 22019 22020 22021 22022 22023 22024 22025 22026 22027 22028 22029 22030 22031 22032 22033 22034 22035 22036 22037 22038 22039 22040 22041 22042 22043 22044 22045 22046 22047 22048 22049 22050 22051 22052 22053 22054 22055 22056 22057 22058 22059 22060 22061 22062 22063 22064 22065 22066 22067 22068 22069 22070 22071 22072 22073 22074 22075 22076 22077 22078 22079 22080 22081 22082 22083 22084 22085 22086 22087 22088 22089 22090 22091 22092 22093 22094 22095 22096 22097 22098 22099 22100 22101 22102 22103 22104 22105 22106 22107 22108 22109 22110 22111 22112 22113 22114 22115 22116 22117 22118 22119 22120 22121 22122 22123 22124 22125 22126 22127 22128 22129 22130 22131 22132 22133 22134 22135 22136 22137 22138 22139 22140 22141 22142 22143 22144 22145 22146 22147 22148 22149 22150 22151 22152 22153 22154 22155 22156 22157 22158 22159 22160 22161 22162 22163 22164 22165 22166 22167 22168 22169 22170 22171 22172 22173 22174 22175 22176 22177 22178 22179 22180 22181 22182 22183 22184 22185 22186 22187 22188 22189 22190 22191 22192 22193 22194 22195 22196 22197 22198 22199 22200 22201 22202 22203 22204 22205 22206 22207 22208 22209 22210 22211 22212 22213 22214 22215 22216 22217 22218 22219 22220 22221 22222 22223 22224 22225 22226 22227 22228 22229 22230 22231 22232 22233 22234 22235 22236 22237 22238 22239 22240 22241 22242 22243 22244 22245 22246 22247 22248 22249 22250 22251 22252 22253 22254 22255 22256 22257 22258 22259 22260 22261 22262 22263 22264 22265 22266 22267 22268 22269 22270 22271 22272 22273 22274 22275 22276 22277 22278 22279 22280 22281 22282 22283 22284 22285 22286 22287 22288 22289 22290 22291 22292 22293 22294 22295 22296 22297 22298 22299 22300 22301 22302 22303 22304 22305 22306 22307 22308 22309 22310 22311 22312 22313 22314 22315 22316 22317 22318 22319 22320 22321 22322 22323 22324 22325 22326 22327 22328 22329 22330 22331 22332 22333 22334 22335 22336 22337 22338 22339 22340 22341 22342 22343 22344 22345 22346 22347 22348 22349 22350 22351 22352 22353 22354 22355 22356 22357 22358 22359 22360 22361 22362 22363 22364 22365 22366 22367 22368 22369 22370 22371 22372 22373 22374 22375 22376 22377 22378 22379 22380 22381 22382 22383 22384 22385 22386 22387 22388 22389 22390 22391 22392 22393 22394 22395 22396 22397 22398 22399 22400 22401 22402 22403 22404 22405 22406 22407 22408 22409 22410 22411 22412 22413 22414 22415 22416 22417 22418 22419 22420 22421 22422 22423 22424 22425 22426 22427 22428 22429 22430 22431 22432 22433 22434 22435 22436 22437 22438 22439 22440 22441 22442 22443 22444 22445 22446 22447 22448 22449 22450 22451 22452 22453 22454 22455 22456 22457 22458 22459 22460 22461 22462 22463 22464 22465 22466 22467 22468 22469 22470 22471 22472 22473 22474 22475 22476 22477 22478 22479 22480 22481 22482 22483 22484 22485 22486 22487 22488 22489 22490 22491 22492 22493 22494 22495 22496 22497 22498 22499 22500 22501 22502 22503 22504 22505 22506 22507 22508 22509 22510 22511 22512 22513 22514 22515 22516 22517 22518 22519 22520 22521 22522 22523 22524 22525 22526 22527 22528 22529 22530 22531 22532 22533 22534 22535 22536 22537 22538 22539 22540 22541 22542 22543 22544 22545 22546 22547 22548 22549 22550 22551 22552 22553 22554 22555 22556 22557 22558 22559 22560 22561 22562 22563 22564 22565 22566 22567 22568 22569 22570 22571 22572 22573 22574 22575 22576 22577 22578 22579 22580 22581 22582 22583 22584 22585 22586 22587 22588 22589 22590 22591 22592 22593 22594 22595 22596 22597 22598 22599 22600 22601 22602 22603 22604 22605 22606 22607 22608 22609 22610 22611 22612 22613 22614 22615 22616 22617 22618 22619 22620 22621 22622 22623 22624 22625 22626 22627 22628 22629 22630 22631 22632 22633 22634 22635 22636 22637 22638 22639 22640 22641 22642 22643 22644 22645 22646 22647 22648 22649 22650 22651 22652 22653 22654 22655 22656 22657 22658 22659 22660 22661 22662 22663 22664 22665 22666 22667 22668 22669 22670 22671 22672 22673 22674 22675 22676 22677 22678 22679 22680 22681 22682 22683 22684 22685 22686 22687 22688 22689 22690 22691 22692 22693 22694 22695 22696 22697 22698 22699 22700 22701 22702 22703 22704 22705 22706 22707 22708 22709 22710 22711 22712 22713 22714 22715 22716 22717 22718 22719 22720 22721 22722 22723 22724 22725 22726 22727 22728 22729 22730 22731 22732 22733 22734 22735 22736 22737 22738 22739 22740 22741 22742 22743 22744 22745 22746 22747 22748 22749 22750 22751 22752 22753 22754 22755 22756 22757 22758 22759 22760 22761 22762 22763 22764 22765 22766 22767 22768 22769 22770 22771 22772 22773 22774 22775 22776 22777 22778 22779 22780 22781 22782 22783 22784 22785 22786 22787 22788 22789 22790 22791 22792 22793 22794 22795 22796 22797 22798 22799 22800 22801 22802 22803 22804 22805 22806 22807 22808 22809 22810 22811 22812 22813 22814 22815 22816 22817 22818 22819 22820 22821 22822 22823 22824 22825 22826 22827 22828 22829 22830 22831 22832 22833 22834 22835 22836 22837 22838 22839 22840 22841 22842 22843 22844 22845 22846 22847 22848 22849 22850 22851 22852 22853 22854 22855 22856 22857 22858 22859 22860 22861 22862 22863 22864 22865 22866 22867 22868 22869 22870 22871 22872 22873 22874 22875 22876 22877 22878 22879 22880 22881 22882 22883 22884 22885 22886 22887 22888 22889 22890 22891 22892 22893 22894 22895 22896 22897 22898 22899 22900 22901 22902 22903 22904 22905 22906 22907 22908 22909 22910 22911 22912 22913 22914 22915 22916 22917 22918 22919 22920 22921 22922 22923 22924 22925 22926 22927 22928 22929 22930 22931 22932 22933 22934 22935 22936 22937 22938 22939 22940 22941 22942 22943 22944 22945 22946 22947 22948 22949 22950 22951 22952 22953 22954 22955 22956 22957 22958 22959 22960 22961 22962 22963 22964 22965 22966 22967 22968 22969 22970 22971 22972 22973 22974 22975 22976 22977 22978 22979 22980 22981 22982 22983 22984 22985 22986 22987 22988 22989 22990 22991 22992 22993 22994 22995 22996 22997 22998 22999 23000 23001 23002 23003 23004 23005 23006 23007 23008 23009 23010 23011 23012 23013 23014 23015 23016 23017 23018 23019 23020 23021 23022 23023 23024 23025 23026 23027 23028 23029 23030 23031 23032 23033 23034 23035 23036 23037 23038 23039 23040 23041 23042 23043 23044 23045 23046 23047 23048 23049 23050 23051 23052 23053 23054 23055 23056 23057 23058 23059 23060 23061 23062 23063 23064 23065 23066 23067 23068 23069 23070 23071 23072 23073 23074 23075 23076 23077 23078 23079 23080 23081 23082 23083 23084 23085 23086 23087 23088 23089 23090 23091 23092 23093 23094 23095 23096 23097 23098 23099 23100 23101 23102 23103 23104 23105 23106 23107 23108 23109 23110 23111 23112 23113 23114 23115 23116 23117 23118 23119 23120 23121 23122 23123 23124 23125 23126 23127 23128 23129 23130 23131 23132 23133 23134 23135 23136 23137 23138 23139 23140 23141 23142 23143 23144 23145 23146 23147 23148 23149 23150 23151 23152 23153 23154 23155 23156 23157 23158 23159 23160 23161 23162 23163 23164 23165 23166 23167 23168 23169 23170 23171 23172 23173 23174 23175 23176 23177 23178 23179 23180 23181 23182 23183 23184 23185 23186 23187 23188 23189 23190 23191 23192 23193 23194 23195 23196 23197 23198 23199 23200 23201 23202 23203 23204 23205 23206 23207 23208 23209 23210 23211 23212 23213 23214 23215 23216 23217 23218 23219 23220 23221 23222 23223 23224 23225 23226 23227 23228 23229 23230 23231 23232 23233 23234 23235 23236 23237 23238 23239 23240 23241 23242 23243 23244 23245 23246 23247 23248 23249 23250 23251 23252 23253 23254 23255 23256 23257 23258 23259 23260 23261 23262 23263 23264 23265 23266 23267 23268 23269 23270 23271 23272 23273 23274 23275 23276 23277 23278 23279 23280 23281 23282 23283 23284 23285 23286 23287 23288 23289 23290 23291 23292 23293 23294 23295 23296 23297 23298 23299 23300 23301 23302 23303 23304 23305 23306 23307 23308 23309 23310 23311 23312 23313 23314 23315 23316 23317 23318 23319 23320 23321 23322 23323 23324 23325 23326 23327 23328 23329 23330 23331 23332 23333 23334 23335 23336 23337 23338 23339 23340 23341 23342 23343 23344 23345 23346 23347 23348 23349 23350 23351 23352 23353 23354 23355 23356 23357 23358 23359 23360 23361 23362 23363 23364 23365 23366 23367 23368 23369 23370 23371 23372 23373 23374 23375 23376 23377 23378 23379 23380 23381 23382 23383 23384 23385 23386 23387 23388 23389 23390 23391 23392 23393 23394 23395 23396 23397 23398 23399 23400 23401 23402 23403 23404 23405 23406 23407 23408 23409 23410 23411 23412 23413 23414 23415 23416 23417 23418 23419 23420 23421 23422 23423 23424 23425 23426 23427 23428 23429 23430 23431 23432 23433 23434 23435 23436 23437 23438 23439 23440 23441 23442 23443 23444 23445 23446 23447 23448 23449 23450 23451 23452 23453 23454 23455 23456 23457 23458 23459 23460 23461 23462 23463 23464 23465 23466 23467 23468 23469 23470 23471 23472 23473 23474 23475 23476 23477 23478 23479 23480 23481 23482 23483 23484 23485 23486 23487 23488 23489 23490 23491 23492 23493 23494 23495 23496 23497 23498 23499 23500 23501 23502 23503 23504 23505 23506 23507 23508 23509 23510 23511 23512 23513 23514 23515 23516 23517 23518 23519 23520 23521 23522 23523 23524 23525 23526 23527 23528 23529 23530 23531 23532 23533 23534 23535 23536 23537 23538 23539 23540 23541 23542 23543 23544 23545 23546 23547 23548 23549 23550 23551 23552 23553 23554 23555 23556 23557 23558 23559 23560 23561 23562 23563 23564 23565 23566 23567 23568 23569 23570 23571 23572 23573 23574 23575 23576 23577 23578 23579 23580 23581 23582 23583 23584 23585 23586 23587 23588 23589 23590 23591 23592 23593 23594 23595 23596 23597 23598 23599 23600 23601 23602 23603 23604 23605 23606 23607 23608 23609 23610 23611 23612 23613 23614 23615 23616 23617 23618 23619 23620 23621 23622 23623 23624 23625 23626 23627 23628 23629 23630 23631 23632 23633 23634 23635 23636 23637 23638 23639 23640 23641 23642 23643 23644 23645 23646 23647 23648 23649 23650 23651 23652 23653 23654 23655 23656 23657 23658 23659 23660 23661 23662 23663 23664 23665 23666 23667 23668 23669 23670 23671 23672 23673 23674 23675 23676 23677 23678 23679 23680 23681 23682 23683 23684 23685 23686 23687 23688 23689 23690 23691 23692 23693 23694 23695 23696 23697 23698 23699 23700 23701 23702 23703 23704 23705 23706 23707 23708 23709 23710 23711 23712 23713 23714 23715 23716 23717 23718 23719 23720 23721 23722 23723 23724 23725 23726 23727 23728 23729 23730 23731 23732 23733 23734 23735 23736 23737 23738 23739 23740 23741 23742 23743 23744 23745 23746 23747 23748 23749 23750 23751 23752 23753 23754 23755 23756 23757 23758 23759 23760 23761 23762 23763 23764 23765 23766 23767 23768 23769 23770 23771 23772 23773 23774 23775 23776 23777 23778 23779 23780 23781 23782 23783 23784 23785 23786 23787 23788 23789 23790 23791 23792 23793 23794 23795 23796 23797 23798 23799 23800 23801 23802 23803 23804 23805 23806 23807 23808 23809 23810 23811 23812 23813 23814 23815 23816 23817 23818 23819 23820 23821 23822 23823 23824 23825 23826 23827 23828 23829 23830 23831 23832 23833 23834 23835 23836 23837 23838 23839 23840 23841 23842 23843 23844 23845 23846 23847 23848 23849 23850 23851 23852 23853 23854 23855 23856 23857 23858 23859 23860 23861 23862 23863 23864 23865 23866 23867 23868 23869 23870 23871 23872 23873 23874 23875 23876 23877 23878 23879 23880 23881 23882 23883 23884 23885 23886 23887 23888 23889 23890 23891 23892 23893 23894 23895 23896 23897 23898 23899 23900 23901 23902 23903 23904 23905 23906 23907 23908 23909 23910 23911 23912 23913 23914 23915 23916 23917 23918 23919 23920 23921 23922 23923 23924 23925 23926 23927 23928 23929 23930 23931 23932 23933 23934 23935 23936 23937 23938 23939 23940 23941 23942 23943 23944 23945 23946 23947 23948 23949 23950 23951 23952 23953 23954 23955 23956 23957 23958 23959 23960 23961 23962 23963 23964 23965 23966 23967 23968 23969 23970 23971 23972 23973 23974 23975 23976 23977 23978 23979 23980 23981 23982 23983 23984 23985 23986 23987 23988 23989 23990 23991 23992 23993 23994 23995 23996 23997 23998 23999 24000 24001 24002 24003 24004 24005 24006 24007 24008 24009 24010 24011 24012 24013 24014 24015 24016 24017 24018 24019 24020 24021 24022 24023 24024 24025 24026 24027 24028 24029 24030 24031 24032 24033 24034 24035 24036 24037 24038 24039 24040 24041 24042 24043 24044 24045 24046 24047 24048 24049 24050 24051 24052 24053 24054 24055 24056 24057 24058 24059 24060 24061 24062 24063 24064 24065 24066 24067 24068 24069 24070 24071 24072 24073 24074 24075 24076 24077 24078 24079 24080 24081 24082 24083 24084 24085 24086 24087 24088 24089 24090 24091 24092 24093 24094 24095 24096 24097 24098 24099 24100 24101 24102 24103 24104 24105 24106 24107 24108 24109 24110 24111 24112 24113 24114 24115 24116 24117 24118 24119 24120 24121 24122 24123 24124 24125 24126 24127 24128 24129 24130 24131 24132 24133 24134 24135 24136 24137 24138 24139 24140 24141 24142 24143 24144 24145 24146 24147 24148 24149 24150 24151 24152 24153 24154 24155 24156 24157 24158 24159 24160 24161 24162 24163 24164 24165 24166 24167 24168 24169 24170 24171 24172 24173 24174 24175 24176 24177 24178 24179 24180 24181 24182 24183 24184 24185 24186 24187 24188 24189 24190 24191 24192 24193 24194 24195 24196 24197 24198 24199 24200 24201 24202 24203 24204 24205 24206 24207 24208 24209 24210 24211 24212 24213 24214 24215 24216 24217 24218 24219 24220 24221 24222 24223 24224 24225 24226 24227 24228 24229 24230 24231 24232 24233 24234 24235 24236 24237 24238 24239 24240 24241 24242 24243 24244 24245 24246 24247 24248 24249 24250 24251 24252 24253 24254 24255 24256 24257 24258 24259 24260 24261 24262 24263 24264 24265 24266 24267 24268 24269 24270 24271 24272 24273 24274 24275 24276 24277 24278 24279 24280 24281 24282 24283 24284 24285 24286 24287 24288 24289 24290 24291 24292 24293 24294 24295 24296 24297 24298 24299 24300 24301 24302 24303 24304 24305 24306 24307 24308 24309 24310 24311 24312 24313 24314 24315 24316 24317 24318 24319 24320 24321 24322 24323 24324 24325 24326 24327 24328 24329 24330 24331 24332 24333 24334 24335 24336 24337 24338 24339 24340 24341 24342 24343 24344 24345 24346 24347 24348 24349 24350 24351 24352 24353 24354 24355 24356 24357 24358 24359 24360 24361 24362 24363 24364 24365 24366 24367 24368 24369 24370 24371 24372 24373 24374 24375 24376 24377 24378 24379 24380 24381 24382 24383 24384 24385 24386 24387 24388 24389 24390 24391 24392 24393 24394 24395 24396 24397 24398 24399 24400 24401 24402 24403 24404 24405 24406 24407 24408 24409 24410 24411 24412 24413 24414 24415 24416 24417 24418 24419 24420 24421 24422 24423 24424 24425 24426 24427 24428 24429 24430 24431 24432 24433 24434 24435 24436 24437 24438 24439 24440 24441 24442 24443 24444 24445 24446 24447 24448 24449 24450 24451 24452 24453 24454 24455 24456 24457 24458 24459 24460 24461 24462 24463 24464 24465 24466 24467 24468 24469 24470 24471 24472 24473 24474 24475 24476 24477 24478 24479 24480 24481 24482 24483 24484 24485 24486 24487 24488 24489 24490 24491 24492 24493 24494 24495 24496 24497 24498 24499 24500 24501 24502 24503 24504 24505 24506 24507 24508 24509 24510 24511 24512 24513 24514 24515 24516 24517 24518 24519 24520 24521 24522 24523 24524 24525 24526 24527 24528 24529 24530 24531 24532 24533 24534 24535 24536 24537 24538 24539 24540 24541 24542 24543 24544 24545 24546 24547 24548 24549 24550 24551 24552 24553 24554 24555 24556 24557 24558 24559 24560 24561 24562 24563 24564 24565 24566 24567 24568 24569 24570 24571 24572 24573 24574 24575 24576 24577 24578 24579 24580 24581 24582 24583 24584 24585 24586 24587 24588 24589 24590 24591 24592 24593 24594 24595 24596 24597 24598 24599 24600 24601 24602 24603 24604 24605 24606 24607 24608 24609 24610 24611 24612 24613 24614 24615 24616 24617 24618 24619 24620 24621 24622 24623 24624 24625 24626 24627 24628 24629 24630 24631 24632 24633 24634 24635 24636 24637 24638 24639 24640 24641 24642 24643 24644 24645 24646 24647 24648 24649 24650 24651 24652 24653 24654 24655 24656 24657 24658 24659 24660 24661 24662 24663 24664 24665 24666 24667 24668 24669 24670 24671 24672 24673 24674 24675 24676 24677 24678 24679 24680 24681 24682 24683 24684 24685 24686 24687 24688 24689 24690 24691 24692 24693 24694 24695 24696 24697 24698 24699 24700 24701 24702 24703 24704 24705 24706 24707 24708 24709 24710 24711 24712 24713 24714 24715 24716 24717 24718 24719 24720 24721 24722 24723 24724 24725 24726 24727 24728 24729 24730 24731 24732 24733 24734 24735 24736 24737 24738 24739 24740 24741 24742 24743 24744 24745 24746 24747 24748 24749 24750 24751 24752 24753 24754 24755 24756 24757 24758 24759 24760 24761 24762 24763 24764 24765 24766 24767 24768 24769 24770 24771 24772 24773 24774 24775 24776 24777 24778 24779 24780 24781 24782 24783 24784 24785 24786 24787 24788 24789 24790 24791 24792 24793 24794 24795 24796 24797 24798 24799 24800 24801 24802 24803 24804 24805 24806 24807 24808 24809 24810 24811 24812 24813 24814 24815 24816 24817 24818 24819 24820 24821 24822 24823 24824 24825 24826 24827 24828 24829 24830 24831 24832 24833 24834 24835 24836 24837 24838 24839 24840 24841 24842 24843 24844 24845 24846 24847 24848 24849 24850 24851 24852 24853 24854 24855 24856 24857 24858 24859 24860 24861 24862 24863 24864 24865 24866 24867 24868 24869 24870 24871 24872 24873 24874 24875 24876 24877 24878 24879 24880 24881 24882 24883 24884 24885 24886 24887 24888 24889 24890 24891 24892 24893 24894 24895 24896 24897 24898 24899 24900 24901 24902 24903 24904 24905 24906 24907 24908 24909 24910 24911 24912 24913 24914 24915 24916 24917 24918 24919 24920 24921 24922 24923 24924 24925 24926 24927 24928 24929 24930 24931 24932 24933 24934 24935 24936 24937 24938 24939 24940 24941 24942 24943 24944 24945 24946 24947 24948 24949 24950 24951 24952 24953 24954 24955 24956 24957 24958 24959 24960 24961 24962 24963 24964 24965 24966 24967 24968 24969 24970 24971 24972 24973 24974 24975 24976 24977 24978 24979 24980 24981 24982 24983 24984 24985 24986 24987 24988 24989 24990 24991 24992 24993 24994 24995 24996 24997 24998 24999 25000 25001 25002 25003 25004 25005 25006 25007 25008 25009 25010 25011 25012 25013 25014 25015 25016 25017 25018 25019 25020 25021 25022 25023 25024 25025 25026 25027 25028 25029 25030 25031 25032 25033 25034 25035 25036 25037 25038 25039 25040 25041 25042 25043 25044 25045 25046 25047 25048 25049 25050 25051 25052 25053 25054 25055 25056 25057 25058 25059 25060 25061 25062 25063 25064 25065 25066 25067 25068 25069 25070 25071 25072 25073 25074 25075 25076 25077 25078 25079 25080 25081 25082 25083 25084 25085 25086 25087 25088 25089 25090 25091 25092 25093 25094 25095 25096 25097 25098 25099 25100 25101 25102 25103 25104 25105 25106 25107 25108 25109 25110 25111 25112 25113 25114 25115 25116 25117 25118 25119 25120 25121 25122 25123 25124 25125 25126 25127 25128 25129 25130 25131 25132 25133 25134 25135 25136 25137 25138 25139 25140 25141 25142 25143 25144 25145 25146 25147 25148 25149 25150 25151 25152 25153 25154 25155 25156 25157 25158 25159 25160 25161 25162 25163 25164 25165 25166 25167 25168 25169 25170 25171 25172 25173 25174 25175 25176 25177 25178 25179 25180 25181 25182 25183 25184 25185 25186 25187 25188 25189 25190 25191 25192 25193 25194 25195 25196 25197 25198 25199 25200 25201 25202 25203 25204 25205 25206 25207 25208 25209 25210 25211 25212 25213 25214 25215 25216 25217 25218 25219 25220 25221 25222 25223 25224 25225 25226 25227 25228 25229 25230 25231 25232 25233 25234 25235 25236 25237 25238 25239 25240 25241 25242 25243 25244 25245 25246 25247 25248 25249 25250 25251 25252 25253 25254 25255 25256 25257 25258 25259 25260 25261 25262 25263 25264 25265 25266 25267 25268 25269 25270 25271 25272 25273 25274 25275 25276 25277 25278 25279 25280 25281 25282 25283 25284 25285 25286 25287 25288 25289 25290 25291 25292 25293 25294 25295 25296 25297 25298 25299 25300 25301 25302 25303 25304 25305 25306 25307 25308 25309 25310 25311 25312 25313 25314 25315 25316 25317 25318 25319 25320 25321 25322 25323 25324 25325 25326 25327 25328 25329 25330 25331 25332 25333 25334 25335 25336 25337 25338 25339 25340 25341 25342 25343 25344 25345 25346 25347 25348 25349 25350 25351 25352 25353 25354 25355 25356 25357 25358 25359 25360 25361 25362 25363 25364 25365 25366 25367 25368 25369 25370 25371 25372 25373 25374 25375 25376 25377 25378 25379 25380 25381 25382 25383 25384 25385 25386 25387 25388 25389 25390 25391 25392 25393 25394 25395 25396 25397 25398 25399 25400 25401 25402 25403 25404 25405 25406 25407 25408 25409 25410 25411 25412 25413 25414 25415 25416 25417 25418 25419 25420 25421 25422 25423 25424 25425 25426 25427 25428 25429 25430 25431 25432 25433 25434 25435 25436 25437 25438 25439 25440 25441 25442 25443 25444 25445 25446 25447 25448 25449 25450 25451 25452 25453 25454 25455 25456 25457 25458 25459 25460 25461 25462 25463 25464 25465 25466 25467 25468 25469 25470 25471 25472 25473 25474 25475 25476 25477 25478 25479 25480 25481 25482 25483 25484 25485 25486 25487 25488 25489 25490 25491 25492 25493 25494 25495 25496 25497 25498 25499 25500 25501 25502 25503 25504 25505 25506 25507 25508 25509 25510 25511 25512 25513 25514 25515 25516 25517 25518 25519 25520 25521 25522 25523 25524 25525 25526 25527 25528 25529 25530 25531 25532 25533 25534 25535 25536 25537 25538 25539 25540 25541 25542 25543 25544 25545 25546 25547 25548 25549 25550 25551 25552 25553 25554 25555 25556 25557 25558 25559 25560 25561 25562 25563 25564 25565 25566 25567 25568 25569 25570 25571 25572 25573 25574 25575 25576 25577 25578 25579 25580 25581 25582 25583 25584 25585 25586 25587 25588 25589 25590 25591 25592 25593 25594 25595 25596 25597 25598 25599 25600 25601 25602 25603 25604 25605 25606 25607 25608 25609 25610 25611 25612 25613 25614 25615 25616 25617 25618 25619 25620 25621 25622 25623 25624 25625 25626 25627 25628 25629 25630 25631 25632 25633 25634 25635 25636 25637 25638 25639 25640 25641 25642 25643 25644 25645 25646 25647 25648 25649 25650 25651 25652 25653 25654 25655 25656 25657 25658 25659 25660 25661 25662 25663 25664 25665 25666 25667 25668 25669 25670 25671 25672 25673 25674 25675 25676 25677 25678 25679 25680 25681 25682 25683 25684 25685 25686 25687 25688 25689 25690 25691 25692 25693 25694 25695 25696 25697 25698 25699 25700 25701 25702 25703 25704 25705 25706 25707 25708 25709 25710 25711 25712 25713 25714 25715 25716 25717 25718 25719 25720 25721 25722 25723 25724 25725 25726 25727 25728 25729 25730 25731 25732 25733 25734 25735 25736 25737 25738 25739 25740 25741 25742 25743 25744 25745 25746 25747 25748 25749 25750 25751 25752 25753 25754 25755 25756 25757 25758 25759 25760 25761 25762 25763 25764 25765 25766 25767 25768 25769 25770 25771 25772 25773 25774 25775 25776 25777 25778 25779 25780 25781 25782 25783 25784 25785 25786 25787 25788 25789 25790 25791 25792 25793 25794 25795 25796 25797 25798 25799 25800 25801 25802 25803 25804 25805 25806 25807 25808 25809 25810 25811 25812 25813 25814 25815 25816 25817 25818 25819 25820 25821 25822 25823 25824 25825 25826 25827 25828 25829 25830 25831 25832 25833 25834 25835 25836 25837 25838 25839 25840 25841 25842 25843 25844 25845 25846 25847 25848 25849 25850 25851 25852 25853 25854 25855 25856 25857 25858 25859 25860 25861 25862 25863 25864 25865 25866 25867 25868 25869 25870 25871 25872 25873 25874 25875 25876 25877 25878 25879 25880 25881 25882 25883 25884 25885 25886 25887 25888 25889 25890 25891 25892 25893 25894 25895 25896 25897 25898 25899 25900 25901 25902 25903 25904 25905 25906 25907 25908 25909 25910 25911 25912 25913 25914 25915 25916 25917 25918 25919 25920 25921 25922 25923 25924 25925 25926 25927 25928 25929 25930 25931 25932 25933 25934 25935 25936 25937 25938 25939 25940 25941 25942 25943 25944 25945 25946 25947 25948 25949 25950 25951 25952 25953 25954 25955 25956 25957 25958 25959 25960 25961 25962 25963 25964 25965 25966 25967 25968 25969 25970 25971 25972 25973 25974 25975 25976 25977 25978 25979 25980 25981 25982 25983 25984 25985 25986 25987 25988 25989 25990 25991 25992 25993 25994 25995 25996 25997 25998 25999 26000 26001 26002 26003 26004 26005 26006 26007 26008 26009 26010 26011 26012 26013 26014 26015 26016 26017 26018 26019 26020 26021 26022 26023 26024 26025 26026 26027 26028 26029 26030 26031 26032 26033 26034 26035 26036 26037 26038 26039 26040 26041 26042 26043 26044 26045 26046 26047 26048 26049 26050 26051 26052 26053 26054 26055 26056 26057 26058 26059 26060 26061 26062 26063 26064 26065 26066 26067 26068 26069 26070 26071 26072 26073 26074 26075 26076 26077 26078 26079 26080 26081 26082 26083 26084 26085 26086 26087 26088 26089 26090 26091 26092 26093 26094 26095 26096 26097 26098 26099 26100 26101 26102 26103 26104 26105 26106 26107 26108 26109 26110 26111 26112 26113 26114 26115 26116 26117 26118 26119 26120 26121 26122 26123 26124 26125 26126 26127 26128 26129 26130 26131 26132 26133 26134 26135 26136 26137 26138 26139 26140 26141 26142 26143 26144 26145 26146 26147 26148 26149 26150 26151 26152 26153 26154 26155 26156 26157 26158 26159 26160 26161 26162 26163 26164 26165 26166 26167 26168 26169 26170 26171 26172 26173 26174 26175 26176 26177 26178 26179 26180 26181 26182 26183 26184 26185 26186 26187 26188 26189 26190 26191 26192 26193 26194 26195 26196 26197 26198 26199 26200 26201 26202 26203 26204 26205 26206 26207 26208 26209 26210 26211 26212 26213 26214 26215 26216 26217 26218 26219 26220 26221 26222 26223 26224 26225 26226 26227 26228 26229 26230 26231 26232 26233 26234 26235 26236 26237 26238 26239 26240 26241 26242 26243 26244 26245 26246 26247 26248 26249 26250 26251 26252 26253 26254 26255 26256 26257 26258 26259 26260 26261 26262 26263 26264 26265 26266 26267 26268 26269 26270 26271 26272 26273 26274 26275 26276 26277 26278 26279 26280 26281 26282 26283 26284 26285 26286 26287 26288 26289 26290 26291 26292 26293 26294 26295 26296 26297 26298 26299 26300 26301 26302 26303 26304 26305 26306 26307 26308 26309 26310 26311 26312 26313 26314 26315 26316 26317 26318 26319 26320 26321 26322 26323 26324 26325 26326 26327 26328 26329 26330 26331 26332 26333 26334 26335 26336 26337 26338 26339 26340 26341 26342 26343 26344 26345 26346 26347 26348 26349 26350 26351 26352 26353 26354 26355 26356 26357 26358 26359 26360 26361 26362 26363 26364 26365 26366 26367 26368 26369 26370 26371 26372 26373 26374 26375 26376 26377 26378 26379 26380 26381 26382 26383 26384 26385 26386 26387 26388 26389 26390 26391 26392 26393 26394 26395 26396 26397 26398 26399 26400 26401 26402 26403 26404 26405 26406 26407 26408 26409 26410 26411 26412 26413 26414 26415 26416 26417 26418 26419 26420 26421 26422 26423 26424 26425 26426 26427 26428 26429 26430 26431 26432 26433 26434 26435 26436 26437 26438 26439 26440 26441 26442 26443 26444 26445 26446 26447 26448 26449 26450 26451 26452 26453 26454 26455 26456 26457 26458 26459 26460 26461 26462 26463 26464 26465 26466 26467 26468 26469 26470 26471 26472 26473 26474 26475 26476 26477 26478 26479 26480 26481 26482 26483 26484 26485 26486 26487 26488 26489 26490 26491 26492 26493 26494 26495 26496 26497 26498 26499 26500 26501 26502 26503 26504 26505 26506 26507 26508 26509 26510 26511 26512 26513 26514 26515 26516 26517 26518 26519 26520 26521 26522 26523 26524 26525 26526 26527 26528 26529 26530 26531 26532 26533 26534 26535 26536 26537 26538 26539 26540 26541 26542 26543 26544 26545 26546 26547 26548 26549 26550 26551 26552 26553 26554 26555 26556 26557 26558 26559 26560 26561 26562 26563 26564 26565 26566 26567 26568 26569 26570 26571 26572 26573 26574 26575 26576 26577 26578 26579 26580 26581 26582 26583 26584 26585 26586 26587 26588 26589 26590 26591 26592 26593 26594 26595 26596 26597 26598 26599 26600 26601 26602 26603 26604 26605 26606 26607 26608 26609 26610 26611 26612 26613 26614 26615 26616 26617 26618 26619 26620 26621 26622 26623 26624 26625 26626 26627 26628 26629 26630 26631 26632 26633 26634 26635 26636 26637 26638 26639 26640 26641 26642 26643 26644 26645 26646 26647 26648 26649 26650 26651 26652 26653 26654 26655 26656 26657 26658 26659 26660 26661 26662 26663 26664 26665 26666 26667 26668 26669 26670 26671 26672 26673 26674 26675 26676 26677 26678 26679 26680 26681 26682 26683 26684 26685 26686 26687 26688 26689 26690 26691 26692 26693 26694 26695 26696 26697 26698 26699 26700 26701 26702 26703 26704 26705 26706 26707 26708 26709 26710 26711 26712 26713 26714 26715 26716 26717 26718 26719 26720 26721 26722 26723 26724 26725 26726 26727 26728 26729 26730 26731 26732 26733 26734 26735 26736 26737 26738 26739 26740 26741 26742 26743 26744 26745 26746 26747 26748 26749 26750 26751 26752 26753 26754 26755 26756 26757 26758 26759 26760 26761 26762 26763 26764 26765 26766 26767 26768 26769 26770 26771 26772 26773 26774 26775 26776 26777 26778 26779 26780 26781 26782 26783 26784 26785 26786 26787 26788 26789 26790 26791 26792 26793 26794 26795 26796 26797 26798 26799 26800 26801 26802 26803 26804 26805 26806 26807 26808 26809 26810 26811 26812 26813 26814 26815 26816 26817 26818 26819 26820 26821 26822 26823 26824 26825 26826 26827 26828 26829 26830 26831 26832 26833 26834 26835 26836 26837 26838 26839 26840 26841 26842 26843 26844 26845 26846 26847 26848 26849 26850 26851 26852 26853 26854 26855 26856 26857 26858 26859 26860 26861 26862 26863 26864 26865 26866 26867 26868 26869 26870 26871 26872 26873 26874 26875 26876 26877 26878 26879 26880 26881 26882 26883 26884 26885 26886 26887 26888 26889 26890 26891 26892 26893 26894 26895 26896 26897 26898 26899 26900 26901 26902 26903 26904 26905 26906 26907 26908 26909 26910 26911 26912 26913 26914 26915 26916 26917 26918 26919 26920 26921 26922 26923 26924 26925 26926 26927 26928 26929 26930 26931 26932 26933 26934 26935 26936 26937 26938 26939 26940 26941 26942 26943 26944 26945 26946 26947 26948 26949 26950 26951 26952 26953 26954 26955 26956 26957 26958 26959 26960 26961 26962 26963 26964 26965 26966 26967 26968 26969 26970 26971 26972 26973 26974 26975 26976 26977 26978 26979 26980 26981 26982 26983 26984 26985 26986 26987 26988 26989 26990 26991 26992 26993 26994 26995 26996 26997 26998 26999 27000 27001 27002 27003 27004 27005 27006 27007 27008 27009 27010 27011 27012 27013 27014 27015 27016 27017 27018 27019 27020 27021 27022 27023 27024 27025 27026 27027 27028 27029 27030 27031 27032 27033 27034 27035 27036 27037 27038 27039 27040 27041 27042 27043 27044 27045 27046 27047 27048 27049 27050 27051 27052 27053 27054 27055 27056 27057 27058 27059 27060 27061 27062 27063 27064 27065 27066 27067 27068 27069 27070 27071 27072 27073 27074 27075 27076 27077 27078 27079 27080 27081 27082 27083 27084 27085 27086 27087 27088 27089 27090 27091 27092 27093 27094 27095 27096 27097 27098 27099 27100 27101 27102 27103 27104 27105 27106 27107 27108 27109 27110 27111 27112 27113 27114 27115 27116 27117 27118 27119 27120 27121 27122 27123 27124 27125 27126 27127 27128 27129 27130 27131 27132 27133 27134 27135 27136 27137 27138 27139 27140 27141 27142 27143 27144 27145 27146 27147 27148 27149 27150 27151 27152 27153 27154 27155 27156 27157 27158 27159 27160 27161 27162 27163 27164 27165 27166 27167 27168 27169 27170 27171 27172 27173 27174 27175 27176 27177 27178 27179 27180 27181 27182 27183 27184 27185 27186 27187 27188 27189 27190 27191 27192 27193 27194 27195 27196 27197 27198 27199 27200 27201 27202 27203 27204 27205 27206 27207 27208 27209 27210 27211 27212 27213 27214 27215 27216 27217 27218 27219 27220 27221 27222 27223 27224 27225 27226 27227 27228 27229 27230 27231 27232 27233 27234 27235 27236 27237 27238 27239 27240 27241 27242 27243 27244 27245 27246 27247 27248 27249 27250 27251 27252 27253 27254 27255 27256 27257 27258 27259 27260 27261 27262 27263 27264 27265 27266 27267 27268 27269 27270 27271 27272 27273 27274 27275 27276 27277 27278 27279 27280 27281 27282 27283 27284 27285 27286 27287 27288 27289 27290 27291 27292 27293 27294 27295 27296 27297 27298 27299 27300 27301 27302 27303 27304 27305 27306 27307 27308 27309 27310 27311 27312 27313 27314 27315 27316 27317 27318 27319 27320 27321 27322 27323 27324 27325 27326 27327 27328 27329 27330 27331 27332 27333 27334 27335 27336 27337 27338 27339 27340 27341 27342 27343 27344 27345 27346 27347 27348 27349 27350 27351 27352 27353 27354 27355 27356 27357 27358 27359 27360 27361 27362 27363 27364 27365 27366 27367 27368 27369 27370 27371 27372 27373 27374 27375 27376 27377 27378 27379 27380 27381 27382 27383 27384 27385 27386 27387 27388 27389 27390 27391 27392 27393 27394 27395 27396 27397 27398 27399 27400 27401 27402 27403 27404 27405 27406 27407 27408 27409 27410 27411 27412 27413 27414 27415 27416 27417 27418 27419 27420 27421 27422 27423 27424 27425 27426 27427 27428 27429 27430 27431 27432 27433 27434 27435 27436 27437 27438 27439 27440 27441 27442 27443 27444 27445 27446 27447 27448 27449 27450 27451 27452 27453 27454 27455 27456 27457 27458 27459 27460 27461 27462 27463 27464 27465 27466 27467 27468 27469 27470 27471 27472 27473 27474 27475 27476 27477 27478 27479 27480 27481 27482 27483 27484 27485 27486 27487 27488 27489 27490 27491 27492 27493 27494 27495 27496 27497 27498 27499 27500 27501 27502 27503 27504 27505 27506 27507 27508 27509 27510 27511 27512 27513 27514 27515 27516 27517 27518 27519 27520 27521 27522 27523 27524 27525 27526 27527 27528 27529 27530 27531 27532 27533 27534 27535 27536 27537 27538 27539 27540 27541 27542 27543 27544 27545 27546 27547 27548 27549 27550 27551 27552 27553 27554 27555 27556 27557 27558 27559 27560 27561 27562 27563 27564 27565 27566 27567 27568 27569 27570 27571 27572 27573 27574 27575 27576 27577 27578 27579 27580 27581 27582 27583 27584 27585 27586 27587 27588 27589 27590 27591 27592 27593 27594 27595 27596 27597 27598 27599 27600 27601 27602 27603 27604 27605 27606 27607 27608 27609 27610 27611 27612 27613 27614 27615 27616 27617 27618 27619 27620 27621 27622 27623 27624 27625 27626 27627 27628 27629 27630 27631 27632 27633 27634 27635 27636 27637 27638 27639 27640 27641 27642 27643 27644 27645 27646 27647 27648 27649 27650 27651 27652 27653 27654 27655 27656 27657 27658 27659 27660 27661 27662 27663 27664 27665 27666 27667 27668 27669 27670 27671 27672 27673 27674 27675 27676 27677 27678 27679 27680 27681 27682 27683 27684 27685 27686 27687 27688 27689 27690 27691 27692 27693 27694 27695 27696 27697 27698 27699 27700 27701 27702 27703 27704 27705 27706 27707 27708 27709 27710 27711 27712 27713 27714 27715 27716 27717 27718 27719 27720 27721 27722 27723 27724 27725 27726 27727 27728 27729 27730 27731 27732 27733 27734 27735 27736 27737 27738 27739 27740 27741 27742 27743 27744 27745 27746 27747 27748 27749 27750 27751 27752 27753 27754 27755 27756 27757 27758 27759 27760 27761 27762 27763 27764 27765 27766 27767 27768 27769 27770 27771 27772 27773 27774 27775 27776 27777 27778 27779 27780 27781 27782 27783 27784 27785 27786 27787 27788 27789 27790 27791 27792 27793 27794 27795 27796 27797 27798 27799 27800 27801 27802 27803 27804 27805 27806 27807 27808 27809 27810 27811 27812 27813 27814 27815 27816 27817 27818 27819 27820 27821 27822 27823 27824 27825 27826 27827 27828 27829 27830 27831 27832 27833 27834 27835 27836 27837 27838 27839 27840 27841 27842 27843 27844 27845 27846 27847 27848 27849 27850 27851 27852 27853 27854 27855 27856 27857 27858 27859 27860 27861 27862 27863 27864 27865 27866 27867 27868 27869 27870 27871 27872 27873 27874 27875 27876 27877 27878 27879 27880 27881 27882 27883 27884 27885 27886 27887 27888 27889 27890 27891 27892 27893 27894 27895 27896 27897 27898 27899 27900 27901 27902 27903 27904 27905 27906 27907 27908 27909 27910 27911 27912 27913 27914 27915 27916 27917 27918 27919 27920 27921 27922 27923 27924 27925 27926 27927 27928 27929 27930 27931 27932 27933 27934 27935 27936 27937 27938 27939 27940 27941 27942 27943 27944 27945 27946 27947 27948 27949 27950 27951 27952 27953 27954 27955 27956 27957 27958 27959 27960 27961 27962 27963 27964 27965 27966 27967 27968 27969 27970 27971 27972 27973 27974 27975 27976 27977 27978 27979 27980 27981 27982 27983 27984 27985 27986 27987 27988 27989 27990 27991 27992 27993 27994 27995 27996 27997 27998 27999 28000 28001 28002 28003 28004 28005 28006 28007 28008 28009 28010 28011 28012 28013 28014 28015 28016 28017 28018 28019 28020 28021 28022 28023 28024 28025 28026 28027 28028 28029 28030 28031 28032 28033 28034 28035 28036 28037 28038 28039 28040 28041 28042 28043 28044 28045 28046 28047 28048 28049 28050 28051 28052 28053 28054 28055 28056 28057 28058 28059 28060 28061 28062 28063 28064 28065 28066 28067 28068 28069 28070 28071 28072 28073 28074 28075 28076 28077 28078 28079 28080 28081 28082 28083 28084 28085 28086 28087 28088 28089 28090 28091 28092 28093 28094 28095 28096 28097 28098 28099 28100 28101 28102 28103 28104 28105 28106 28107 28108 28109 28110 28111 28112 28113 28114 28115 28116 28117 28118 28119 28120 28121 28122 28123 28124 28125 28126 28127 28128 28129 28130 28131 28132 28133 28134 28135 28136 28137 28138 28139 28140 28141 28142 28143 28144 28145 28146 28147 28148 28149 28150 28151 28152 28153 28154 28155 28156 28157 28158 28159 28160 28161 28162 28163 28164 28165 28166 28167 28168 28169 28170 28171 28172 28173 28174 28175 28176 28177 28178 28179 28180 28181 28182 28183 28184 28185 28186 28187 28188 28189 28190 28191 28192 28193 28194 28195 28196 28197 28198 28199 28200 28201 28202 28203 28204 28205 28206 28207 28208 28209 28210 28211 28212 28213 28214 28215 28216 28217 28218 28219 28220 28221 28222 28223 28224 28225 28226 28227 28228 28229 28230 28231 28232 28233 28234 28235 28236 28237 28238 28239 28240 28241 28242 28243 28244 28245 28246 28247 28248 28249 28250 28251 28252 28253 28254 28255 28256 28257 28258 28259 28260 28261 28262 28263 28264 28265 28266 28267 28268 28269 28270 28271 28272 28273 28274 28275 28276 28277 28278 28279 28280 28281 28282 28283 28284 28285 28286 28287 28288 28289 28290 28291 28292 28293 28294 28295 28296 28297 28298 28299 28300 28301 28302 28303 28304 28305 28306 28307 28308 28309 28310 28311 28312 28313 28314 28315 28316 28317 28318 28319 28320 28321 28322 28323 28324 28325 28326 28327 28328 28329 28330 28331 28332 28333 28334 28335 28336 28337 28338 28339 28340 28341 28342 28343 28344 28345 28346 28347 28348 28349 28350 28351 28352 28353 28354 28355 28356 28357 28358 28359 28360 28361 28362 28363 28364 28365 28366 28367 28368 28369 28370 28371 28372 28373 28374 28375 28376 28377 28378 28379 28380 28381 28382 28383 28384 28385 28386 28387 28388 28389 28390 28391 28392 28393 28394 28395 28396 28397 28398 28399 28400 28401 28402 28403 28404 28405 28406 28407 28408 28409 28410 28411 28412 28413 28414 28415 28416 28417 28418 28419 28420 28421 28422 28423 28424 28425 28426 28427 28428 28429 28430 28431 28432 28433 28434 28435 28436 28437 28438 28439 28440 28441 28442 28443 28444 28445 28446 28447 28448 28449 28450 28451 28452 28453 28454 28455 28456 28457 28458 28459 28460 28461 28462 28463 28464 28465 28466 28467 28468 28469 28470 28471 28472 28473 28474 28475 28476 28477 28478 28479 28480 28481 28482 28483 28484 28485 28486 28487 28488 28489 28490 28491 28492 28493 28494 28495 28496 28497 28498 28499 28500 28501 28502 28503 28504 28505 28506 28507 28508 28509 28510 28511 28512 28513 28514 28515 28516 28517 28518 28519 28520 28521 28522 28523 28524 28525 28526 28527 28528 28529 28530 28531 28532 28533 28534 28535 28536 28537 28538 28539 28540 28541 28542 28543 28544 28545 28546 28547 28548 28549 28550 28551 28552 28553 28554 28555 28556 28557 28558 28559 28560 28561 28562 28563 28564 28565 28566 28567 28568 28569 28570 28571 28572 28573 28574 28575 28576 28577 28578 28579 28580 28581 28582 28583 28584 28585 28586 28587 28588 28589 28590 28591 28592 28593 28594 28595 28596 28597 28598 28599 28600 28601 28602 28603 28604 28605 28606 28607 28608 28609 28610 28611 28612 28613 28614 28615 28616 28617 28618 28619 28620 28621 28622 28623 28624 28625 28626 28627 28628 28629 28630 28631 28632 28633 28634 28635 28636 28637 28638 28639 28640 28641 28642 28643 28644 28645 28646 28647 28648 28649 28650 28651 28652 28653 28654 28655 28656 28657 28658 28659 28660 28661 28662 28663 28664 28665 28666 28667 28668 28669 28670 28671 28672 28673 28674 28675 28676 28677 28678 28679 28680 28681 28682 28683 28684 28685 28686 28687 28688 28689 28690 28691 28692 28693 28694 28695 28696 28697 28698 28699 28700 28701 28702 28703 28704 28705 28706 28707 28708 28709 28710 28711 28712 28713 28714 28715 28716 28717 28718 28719 28720 28721 28722 28723 28724 28725 28726 28727 28728 28729 28730 28731 28732 28733 28734 28735 28736 28737 28738 28739 28740 28741 28742 28743 28744 28745 28746 28747 28748 28749 28750 28751 28752 28753 28754 28755 28756 28757 28758 28759 28760 28761 28762 28763 28764 28765 28766 28767 28768 28769 28770 28771 28772 28773 28774 28775 28776 28777 28778 28779 28780 28781 28782 28783 28784 28785 28786 28787 28788 28789 28790 28791 28792 28793 28794 28795 28796 28797 28798 28799 28800 28801 28802 28803 28804 28805 28806 28807 28808 28809 28810 28811 28812 28813 28814 28815 28816 28817 28818 28819 28820 28821 28822 28823 28824 28825 28826 28827 28828 28829 28830 28831 28832 28833 28834 28835 28836 28837 28838 28839 28840 28841 28842 28843 28844 28845 28846 28847 28848 28849 28850 28851 28852 28853 28854 28855 28856 28857 28858 28859 28860 28861 28862 28863 28864 28865 28866 28867 28868 28869 28870 28871 28872 28873 28874 28875 28876 28877 28878 28879 28880 28881 28882 28883 28884 28885 28886 28887 28888 28889 28890 28891 28892 28893 28894 28895 28896 28897 28898 28899 28900 28901 28902 28903 28904 28905 28906 28907 28908 28909 28910 28911 28912 28913 28914 28915 28916 28917 28918 28919 28920 28921 28922 28923 28924 28925 28926 28927 28928 28929 28930 28931 28932 28933 28934 28935 28936 28937 28938 28939 28940 28941 28942 28943 28944 28945 28946 28947 28948 28949 28950 28951 28952 28953 28954 28955 28956 28957 28958 28959 28960 28961 28962 28963 28964 28965 28966 28967 28968 28969 28970 28971 28972 28973 28974 28975 28976 28977 28978 28979 28980 28981 28982 28983 28984 28985 28986 28987 28988 28989 28990 28991 28992 28993 28994 28995 28996 28997 28998 28999 29000 29001 29002 29003 29004 29005 29006 29007 29008 29009 29010 29011 29012 29013 29014 29015 29016 29017 29018 29019 29020 29021 29022 29023 29024 29025 29026 29027 29028 29029 29030 29031 29032 29033 29034 29035 29036 29037 29038 29039 29040 29041 29042 29043 29044 29045 29046 29047 29048 29049 29050 29051 29052 29053 29054 29055 29056 29057 29058 29059 29060 29061 29062 29063 29064 29065 29066 29067 29068 29069 29070 29071 29072 29073 29074 29075 29076 29077 29078 29079 29080 29081 29082 29083 29084 29085 29086 29087 29088 29089 29090 29091 29092 29093 29094 29095 29096 29097 29098 29099 29100 29101 29102 29103 29104 29105 29106 29107 29108 29109 29110 29111 29112 29113 29114 29115 29116 29117 29118 29119 29120 29121 29122 29123 29124 29125 29126 29127 29128 29129 29130 29131 29132 29133 29134 29135 29136 29137 29138 29139 29140 29141 29142 29143 29144 29145 29146 29147 29148 29149 29150 29151 29152 29153 29154 29155 29156 29157 29158 29159 29160 29161 29162 29163 29164 29165 29166 29167 29168 29169 29170 29171 29172 29173 29174 29175 29176 29177 29178 29179 29180 29181 29182 29183 29184 29185 29186 29187 29188 29189 29190 29191 29192 29193 29194 29195 29196 29197 29198 29199 29200 29201 29202 29203 29204 29205 29206 29207 29208 29209 29210 29211 29212 29213 29214 29215 29216 29217 29218 29219 29220 29221 29222 29223 29224 29225 29226 29227 29228 29229 29230 29231 29232 29233 29234 29235 29236 29237 29238 29239 29240 29241 29242 29243 29244 29245 29246 29247 29248 29249 29250 29251 29252 29253 29254 29255 29256 29257 29258 29259 29260 29261 29262 29263 29264 29265 29266 29267 29268 29269 29270 29271 29272 29273 29274 29275 29276 29277 29278 29279 29280 29281 29282 29283 29284 29285 29286 29287 29288 29289 29290 29291 29292 29293 29294 29295 29296 29297 29298 29299 29300 29301 29302 29303 29304 29305 29306 29307 29308 29309 29310 29311 29312 29313 29314 29315 29316 29317 29318 29319 29320 29321 29322 29323 29324 29325 29326 29327 29328 29329 29330 29331 29332 29333 29334 29335 29336 29337 29338 29339 29340 29341 29342 29343 29344 29345 29346 29347 29348 29349 29350 29351 29352 29353 29354 29355 29356 29357 29358 29359 29360 29361 29362 29363 29364 29365 29366 29367 29368 29369 29370 29371 29372 29373 29374 29375 29376 29377 29378 29379 29380 29381 29382 29383 29384 29385 29386 29387 29388 29389 29390 29391 29392 29393 29394 29395 29396 29397 29398 29399 29400 29401 29402 29403 29404 29405 29406 29407 29408 29409 29410 29411 29412 29413 29414 29415 29416 29417 29418 29419 29420 29421 29422 29423 29424 29425 29426 29427 29428 29429 29430 29431 29432 29433 29434 29435 29436 29437 29438 29439 29440 29441 29442 29443 29444 29445 29446 29447 29448 29449 29450 29451 29452 29453 29454 29455 29456 29457 29458 29459 29460 29461 29462 29463 29464 29465 29466 29467 29468 29469 29470 29471 29472 29473 29474 29475 29476 29477 29478 29479 29480 29481 29482 29483 29484 29485 29486 29487 29488 29489 29490 29491 29492 29493 29494 29495 29496 29497 29498 29499 29500 29501 29502 29503 29504 29505 29506 29507 29508 29509 29510 29511 29512 29513 29514 29515 29516 29517 29518 29519 29520 29521 29522 29523 29524 29525 29526 29527 29528 29529 29530 29531 29532 29533 29534 29535 29536 29537 29538 29539 29540 29541 29542 29543 29544 29545 29546 29547 29548 29549 29550 29551 29552 29553 29554 29555 29556 29557 29558 29559 29560 29561 29562 29563 29564 29565 29566 29567 29568 29569 29570 29571 29572 29573 29574 29575 29576 29577 29578 29579 29580 29581 29582 29583 29584 29585 29586 29587 29588 29589 29590 29591 29592 29593 29594 29595 29596 29597 29598 29599 29600 29601 29602 29603 29604 29605 29606 29607 29608 29609 29610 29611 29612 29613 29614 29615 29616 29617 29618 29619 29620 29621 29622 29623 29624 29625 29626 29627 29628 29629 29630 29631 29632 29633 29634 29635 29636 29637 29638 29639 29640 29641 29642 29643 29644 29645 29646 29647 29648 29649 29650 29651 29652 29653 29654 29655 29656 29657 29658 29659 29660 29661 29662 29663 29664 29665 29666 29667 29668 29669 29670 29671 29672 29673 29674 29675 29676 29677 29678 29679 29680 29681 29682 29683 29684 29685 29686 29687 29688 29689 29690 29691 29692 29693 29694 29695 29696 29697 29698 29699 29700 29701 29702 29703 29704 29705 29706 29707 29708 29709 29710 29711 29712 29713 29714 29715 29716 29717 29718 29719 29720 29721 29722 29723 29724 29725 29726 29727 29728 29729 29730 29731 29732 29733 29734 29735 29736 29737 29738 29739 29740 29741 29742 29743 29744 29745 29746 29747 29748 29749 29750 29751 29752 29753 29754 29755 29756 29757 29758 29759 29760 29761 29762 29763 29764 29765 29766 29767 29768 29769 29770 29771 29772 29773 29774 29775 29776 29777 29778 29779 29780 29781 29782 29783 29784 29785 29786 29787 29788 29789 29790 29791 29792 29793 29794 29795 29796 29797 29798 29799 29800 29801 29802 29803 29804 29805 29806 29807 29808 29809 29810 29811 29812 29813 29814 29815 29816 29817 29818 29819 29820 29821 29822 29823 29824 29825 29826 29827 29828 29829 29830 29831 29832 29833 29834 29835 29836 29837 29838 29839 29840 29841 29842 29843 29844 29845 29846 29847 29848 29849 29850 29851 29852 29853 29854 29855 29856 29857 29858 29859 29860 29861 29862 29863 29864 29865 29866 29867 29868 29869 29870 29871 29872 29873 29874 29875 29876 29877 29878 29879 29880 29881 29882 29883 29884 29885 29886 29887 29888 29889 29890 29891 29892 29893 29894 29895 29896 29897 29898 29899 29900 29901 29902 29903 29904 29905 29906 29907 29908 29909 29910 29911 29912 29913 29914 29915 29916 29917 29918 29919 29920 29921 29922 29923 29924 29925 29926 29927 29928 29929 29930 29931 29932 29933 29934 29935 29936 29937 29938 29939 29940 29941 29942 29943 29944 29945 29946 29947 29948 29949 29950 29951 29952 29953 29954 29955 29956 29957 29958 29959 29960 29961 29962 29963 29964 29965 29966 29967 29968 29969 29970 29971 29972 29973 29974 29975 29976 29977 29978 29979 29980 29981 29982 29983 29984 29985 29986 29987 29988 29989 29990 29991 29992 29993 29994 29995 29996 29997 29998 29999 30000 30001 30002 30003 30004 30005 30006 30007 30008 30009 30010 30011 30012 30013 30014 30015 30016 30017 30018 30019 30020 30021 30022 30023 30024 30025 30026 30027 30028 30029 30030 30031 30032 30033 30034 30035 30036 30037 30038 30039 30040 30041 30042 30043 30044 30045 30046 30047 30048 30049 30050 30051 30052 30053 30054 30055 30056 30057 30058 30059 30060 30061 30062 30063 30064 30065 30066 30067 30068 30069 30070 30071 30072 30073 30074 30075 30076 30077 30078 30079 30080 30081 30082 30083 30084 30085 30086 30087 30088 30089 30090 30091 30092 30093 30094 30095 30096 30097 30098 30099 30100 30101 30102 30103 30104 30105 30106 30107 30108 30109 30110 30111 30112 30113 30114 30115 30116 30117 30118 30119 30120 30121 30122 30123 30124 30125 30126 30127 30128 30129 30130 30131 30132 30133 30134 30135 30136 30137 30138 30139 30140 30141 30142 30143 30144 30145 30146 30147 30148 30149 30150 30151 30152 30153 30154 30155 30156 30157 30158 30159 30160 30161 30162 30163 30164 30165 30166 30167 30168 30169 30170 30171 30172 30173 30174 30175 30176 30177 30178 30179 30180 30181 30182 30183 30184 30185 30186 30187 30188 30189 30190 30191 30192 30193 30194 30195 30196 30197 30198 30199 30200 30201 30202 30203 30204 30205 30206 30207 30208 30209 30210 30211 30212 30213 30214 30215 30216 30217 30218 30219 30220 30221 30222 30223 30224 30225 30226 30227 30228 30229 30230 30231 30232 30233 30234 30235 30236 30237 30238 30239 30240 30241 30242 30243 30244 30245 30246 30247 30248 30249 30250 30251 30252 30253 30254 30255 30256 30257 30258 30259 30260 30261 30262 30263 30264 30265 30266 30267 30268 30269 30270 30271 30272 30273 30274 30275 30276 30277 30278 30279 30280 30281 30282 30283 30284 30285 30286 30287 30288 30289 30290 30291 30292 30293 30294 30295 30296 30297 30298 30299 30300 30301 30302 30303 30304 30305 30306 30307 30308 30309 30310 30311 30312 30313 30314 30315 30316 30317 30318 30319 30320 30321 30322 30323 30324 30325 30326 30327 30328 30329 30330 30331 30332 30333 30334 30335 30336 30337 30338 30339 30340 30341 30342 30343 30344 30345 30346 30347 30348 30349 30350 30351 30352 30353 30354 30355 30356 30357 30358 30359 30360 30361 30362 30363 30364 30365 30366 30367 30368 30369 30370 30371 30372 30373 30374 30375 30376 30377 30378 30379 30380 30381 30382 30383 30384 30385 30386 30387 30388 30389 30390 30391 30392 30393 30394 30395 30396 30397 30398 30399 30400 30401 30402 30403 30404 30405 30406 30407 30408 30409 30410 30411 30412 30413 30414 30415 30416 30417 30418 30419 30420 30421 30422 30423 30424 30425 30426 30427 30428 30429 30430 30431 30432 30433 30434 30435 30436 30437 30438 30439 30440 30441 30442 30443 30444 30445 30446 30447 30448 30449 30450 30451 30452 30453 30454 30455 30456 30457 30458 30459 30460 30461 30462 30463 30464 30465 30466 30467 30468 30469 30470 30471 30472 30473 30474 30475 30476 30477 30478 30479 30480 30481 30482 30483 30484 30485 30486 30487 30488 30489 30490 30491 30492 30493 30494 30495 30496 30497 30498 30499 30500 30501 30502 30503 30504 30505 30506 30507 30508 30509 30510 30511 30512 30513 30514 30515 30516 30517 30518 30519 30520 30521 30522 30523 30524 30525 30526 30527 30528 30529 30530 30531 30532 30533 30534 30535 30536 30537 30538 30539 30540 30541 30542 30543 30544 30545 30546 30547 30548 30549 30550 30551 30552 30553 30554 30555 30556 30557 30558 30559 30560 30561 30562 30563 30564 30565 30566 30567 30568 30569 30570 30571 30572 30573 30574 30575 30576 30577 30578 30579 30580 30581 30582 30583 30584 30585 30586 30587 30588 30589 30590 30591 30592 30593 30594 30595 30596 30597 30598 30599 30600 30601 30602 30603 30604 30605 30606 30607 30608 30609 30610 30611 30612 30613 30614 30615 30616 30617 30618 30619 30620 30621 30622 30623 30624 30625 30626 30627 30628 30629 30630 30631 30632 30633 30634 30635 30636 30637 30638 30639 30640 30641 30642 30643 30644 30645 30646 30647 30648 30649 30650 30651 30652 30653 30654 30655 30656 30657 30658 30659 30660 30661 30662 30663 30664 30665 30666 30667 30668 30669 30670 30671 30672 30673 30674 30675 30676 30677 30678 30679 30680 30681 30682 30683 30684 30685 30686 30687 30688 30689 30690 30691 30692 30693 30694 30695 30696 30697 30698 30699 30700 30701 30702 30703 30704 30705 30706 30707 30708 30709 30710 30711 30712 30713 30714 30715 30716 30717 30718 30719 30720 30721 30722 30723 30724 30725 30726 30727 30728 30729 30730 30731 30732 30733 30734 30735 30736 30737 30738 30739 30740 30741 30742 30743 30744 30745 30746 30747 30748 30749 30750 30751 30752 30753 30754 30755 30756 30757 30758 30759 30760 30761 30762 30763 30764 30765 30766 30767 30768 30769 30770 30771 30772 30773 30774 30775 30776 30777 30778 30779 30780 30781 30782 30783 30784 30785 30786 30787 30788 30789 30790 30791 30792 30793 30794 30795 30796 30797 30798 30799 30800 30801 30802 30803 30804 30805 30806 30807 30808 30809 30810 30811 30812 30813 30814 30815 30816 30817 30818 30819 30820 30821 30822 30823 30824 30825 30826 30827 30828 30829 30830 30831 30832 30833 30834 30835 30836 30837 30838 30839 30840 30841 30842 30843 30844 30845 30846 30847 30848 30849 30850 30851 30852 30853 30854 30855 30856 30857 30858 30859 30860 30861 30862 30863 30864 30865 30866 30867 30868 30869 30870 30871 30872 30873 30874 30875 30876 30877 30878 30879 30880 
</DataArray>
<DataArray type="UInt32" Name="offsets" format="ascii">
3 6 8 11 14 17 20 22 25 28 31 34 37 40 43 46 49 52 55 58 60 63 66 69 72 74 77 80 83 86 89 92 95 97 100 103 106 109 112 115 118 121 123 126 129 132 135 138 141 144 147 150 153 156 158 160 163 166 169 172 175 178 181 184 186 189 192 195 198 201 204 207 210 213 216 219 222 225 228 231 234 237 240 243 246 249 252 254 257 260 263 266 269 272 275 278 281 284 287 289 292 295 298 300 303 306 309 312 315 318 321 324 327 330 333 336 339 342 345 348 351 354 357 360 363 366 369 372 375 378 381 384 387 390 393 396 399 402 405 408 411 414 417 420 423 426 429 432 435 437 440 442 445 448 451 454 457 460 463 466 469 472 475 478 481 484 487 490 493 496 499 502 505 508 511 514 517 520 522 525 528 530 533 535 538 541 544 547 550 553 556 559 562 565 568 571 574 577 579 582 584 587 590 593 596 599 602 605 607 610 612 615 618 621 624 627 630 632 635 638 640 643 646 649 652 655 658 660 662 665 668 670 673 675 678 680 682 685 688 691 693 696 699 702 705 708 711 714 717 720 723 726 729 732 734 737 740 743 746 749 752 755 757 760 763 766 769 772 775 778 780 783 786 789 792 794 797 800 803 806 809 812 814 817 820 823 825 828 831 834 837 840 843 846 848 851 854 857 860 863 866 868 871 874 877 880 883 886 888 891 894 897 900 903 906 909 911 914 917 920 923 926 929 932 935 938 941 944 947 950 953 956 959 962 965 968 971 974 976 978 981 984 987 990 993 995 998 1001 1004 1007 1010 1013 1016 1018 1021 1023 1026 1029 1032 1034 1037 1040 1043 1045 1048 1050 1053 1056 1059 1062 1065 1068 1071 1073 1076 1079 1082 1085 1088 1091 1094 1096 1099 1102 1105 1107 1110 1113 1116 1119 1122 1125 1128 1131 1134 1137 1140 1143 1146 1149 1152 1155 1158 1161 1164 1167 1170 1173 1176 1179 1182 1185 1188 1191 1194 1197 1200 1203 1205 1208 1211 1214 1217 1220 1223 1226 1229 1232 1235 1238 1241 1244 1247 1250 1253 1256 1259 1262 1265 1268 1271 1274 1277 1280 1283 1286 1289 1292 1295 1298 1301 1303 1306 1309 1312 1315 1318 1321 1324 1327 1330 1333 1336 1339 1342 1345 1348 1351 1354 1357 1360 1363 1365 1368 1371 1374 1377 1380 1383 1386 1388 1391 1394 1397 1400 1403 1405 1408 1411 1413 1416 1418 1421 1424 1427 1430 1432 1435 1438 1440 1443 1446 1449 1452 1455 1458 1460 1463 1466 1469 1472 1475 1478 1481 1484 1487 1490 1493 1496 1499 1502 1505 1508 1511 1514 1517 1519 1522 1525 1528 1531 1534 1537 1540 1543 1546 1549 1552 1554 1556 1559 1562 1565 1568 1571 1574 1577 1580 1583 1586 1589 1592 1595 1598 1601 1604 1607 1610 1613 1616 1619 1621 1624 1626 1628 1631 1634 1636 1639 1642 1645 1648 1651 1654 1657 1660 1663 1666 1669 1672 1675 1677 1680 1683 1686 1689 1692 1695 1698 1700 1702 1705 1708 1711 1714 1717 1720 1723 1726 1728 1730 1733 1736 1739 1741 1744 1747 1750 1753 1756 1759 1762 1765 1768 1771 1774 1777 1780 1783 1786 1789 1792 1795 1798 1801 1804 1807 1810 1813 1816 1819 1822 1825 1828 1831 1834 1837 1840 1843 1846 1848 1851 1854 1856 1859 1862 1865 1868 1870 1873 1876 1879 1881 1884 1887 1890 1892 1895 1898 1900 1903 1906 1909 1912 1915 1918 1921 1924 1927 1930 1933 1936 1939 1942 1945 1948 1951 1954 1957 1960 1963 1965 1968 1971 1974 1976 1979 1982 1985 1988 1991 1993 1996 1999 2002 2005 2008 2011 2013 2016 2019 2022 2025 2028 2031 2034 2037 2040 2043 2046 2049 2052 2055 2058 2061 2064 2067 2069 2072 2075 2078 2081 2084 2087 2090 2093 2096 2099 2102 2105 2108 2111 2114 2117 2120 2123 2126 2129 2132 2134 2137 2140 2143 2146 2149 2152 2155 2158 2161 2164 2167 2170 2173 2176 2179 2181 2184 2187 2190 2193 2196 2199 2202 2205 2208 2211 2214 2217 2220 2223 2226 2229 2232 2235 2237 2240 2243 2246 2249 2252 2255 2258 2260 2263 2266 2269 2272 2275 2278 2281 2284 2287 2290 2293 2296 2299 2302 2305 2308 2311 2314 2317 2320 2323 2325 2328 2331 2334 2337 2340 2343 2346 2349 2352 2354 2357 2360 2363 2366 2369 2372 2375 2378 2380 2383 2386 2389 2392 2395 2398 2401 2404 2407 2410 2413 2416 2419 2422 2425 2428 2431 2434 2437 2439 2442 2445 2448 2451 2454 2456 2459 2462 2465 2467 2470 2473 2476 2479 2482 2485 2487 2490 2493 2496 2499 2502 2505 2508 2511 2514 2517 2519 2522 2525 2528 2531 2534 2537 2540 2543 2546 2549 2552 2555 2557 2560 2562 2565 2568 2571 2574 2577 2580 2583 2585 2588 2590 2593 2596 2599 2602 2605 2608 2611 2614 2617 2620 2623 2626 2629 2632 2635 2638 2641 2644 2647 2650 2653 2656 2659 2662 2665 2668 2671 2674 2677 2680 2683 2686 2689 2692 2695 2698 2701 2704 2707 2710 2713 2716 2719 2722 2725 2727 2729 2732 2735 2737 2740 2743 2746 2749 2752 2755 2758 2761 2764 2767 2770 2773 2776 2779 2782 2785 2787 2790 2793 2796 2799 2801 2804 2807 2809 2812 2815 2818 2821 2824 2827 2829 2832 2834 2837 2840 2842 2845 2848 2851 2854 2857 2860 2863 2866 2869 2872 2874 2877 2880 2883 2886 2889 2891 2893 2896 2899 2902 2905 2907 2910 2913 2915 2918 2920 2923 2926 2929 2932 2935 2937 2940 2943 2945 2948 2951 2954 2957 2960 2963 2966 2969 2972 2975 2978 2981 2983 2986 2989 2992 2995 2998 3001 3004 3007 3010 3013 3016 3019 3022 3025 3028 3030 3033 3035 3038 3040 3042 3045 3047 3050 3053 3055 3058 3061 3064 3067 3070 3073 3075 3078 3080 3083 3086 3088 3091 3094 3097 3099 3102 3105 3107 3110 3113 3116 3119 3122 3124 3127 3130 3132 3135 3138 3141 3144 3147 3149 3152 3154 3157 3160 3162 3165 3168 3170 3173 3176 3179 3182 3185 3188 3191 3194 3196 3199 3202 3205 3208 3211 3214 3217 3220 3223 3226 3228 3231 3234 3237 3240 3242 3245 3248 3250 3253 3256 3259 3262 3265 3267 3270 3273 3276 3279 3282 3284 3287 3289 3292 3295 3298 3301 3304 3307 3309 3312 3315 3318 3321 3324 3327 3330 3333 3335 3337 3339 3342 3345 3348 3351 3353 3356 3358 3361 3364 3367 3369 3371 3374 3377 3380 3382 3385 3388 3391 3393 3396 3398 3401 3403 3405 3408 3410 3413 3416 3419 3422 3424 3427 3430 3433 3435 3438 3440 3443 3445 3448 3451 3454 3457 3460 3463 3466 3468 3471 3474 3477 3480 3482 3485 3488 3491 3494 3497 3500 3503 3506 3508 3511 3513 3515 3518 3521 3524 3526 3529 3532 3535 3538 3540 3542 3545 3548 3550 3552 3555 3558 3561 3564 3567 3569 3572 3575 3578 3581 3584 3587 3590 3593 3595 3598 3600 3603 3606 3609 3612 3615 3618 3621 3624 3627 3630 3633 3636 3639 3642 3645 3648 3651 3653 3656 3659 3662 3665 3668 3671 3674 3677 3680 3683 3686 3689 3692 3695 3698 3701 3704 3707 3710 3713 3716 3719 3722 3725 3728 3730 3733 3735 3738 3741 3744 3747 3750 3752 3754 3757 3760 3763 3766 3768 3770 3773 3775 3778 3781 3783 3786 3789 3791 3794 3797 3800 3803 3805 3807 3810 3813 3816 3819 3822 3825 3828 3831 3833 3836 3839 3841 3844 3847 3850 3852 3855 3858 3860 3863 3866 3869 3872 3875 3878 3880 3883 3886 3889 3892 3895 3898 3900 3903 3906 3909 3912 3915 3917 3920 3923 3925 3927 3930 3933 3935 3938 3941 3943 3946 3949 3952 3955 3958 3961 3964 3967 3970 3973 3976 3979 3981 3984 3986 3989 3992 3994 3997 4000 4003 4006 4009 4012 4014 4017 4020 4023 4025 4027 4029 4032 4035 4038 4040 4042 4045 4047 4049 4052 4055 4057 4060 4063 4065 4068 4070 4073 4075 4078 4081 4084 4086 4088 4091 4094 4096 4098 4100 4102 4105 4108 4111 4113 4115 4118 4121 4123 4125 4127 4130 4132 4134 4137 4140 4142 4145 4147 4149 4152 4154 4157 4160 4162 4165 4167 4169 4172 4175 4178 4181 4183 4185 4188 4191 4193 4196 4199 4202 4204 4207 4210 4213 4216 4219 4222 4225 4228 4231 4234 4237 4240 4243 4246 4249 4252 4255 4258 4261 4264 4267 4270 4273 4276 4279 4282 4285 4288 4291 4294 4297 4300 4303 4306 4309 4312 4315 4318 4321 4324 4327 4330 4333 4336 4339 4342 4345 4348 4351 4354 4357 4360 4363 4366 4369 4372 4375 4378 4380 4383 4385 4388 4391 4394 4397 4400 4403 4406 4409 4412 4415 4418 4421 4424 4427 4429 4432 4435 4438 4441 4444 4447 4450 4453 4456 4459 4461 4464 4467 4470 4473 4476 4479 4482 4485 4488 4491 4494 4497 4500 4503 4506 4509 4512 4515 4518 4521 4524 4527 4530 4533 4536 4539 4542 4545 4548 4551 4554 4557 4560 4563 4566 4569 4572 4575 4578 4581 4584 4587 4590 4593 4596 4599 4601 4604 4607 4610 4612 4615 4617 4620 4623 4626 4629 4632 4634 4637 4639 4642 4645 4648 4651 4654 4657 4660 4663 4666 4669 4672 4675 4678 4681 4684 4687 4690 4693 4696 4699 4702 4705 4708 4711 4714 4716 4719 4722 4725 4728 4731 4734 4736 4739 4741 4744 4747 4750 4752 4755 4758 4760 4763 4766 4769 4772 4775 4778 4781 4784 4787 4790 4793 4796 4799 4802 4805 4808 4811 4814 4817 4820 4823 4826 4829 4832 4835 4838 4841 4844 4847 4850 4853 4856 4859 4862 4865 4868 4871 4873 4876 4878 4881 4884 4887 4890 4893 4896 4899 4902 4905 4908 4910 4913 4916 4919 4922 4925 4928 4931 4934 4937 4940 4943 4946 4949 4952 4955 4958 4961 4963 4966 4969 4972 4974 4976 4979 4981 4984 4987 4990 4993 4996 4999 5002 5005 5007 5010 5013 5016 5019 5021 5024 5027 5030 5033 5036 5039 5042 5044 5047 5050 5052 5055 5057 5060 5063 5065 5068 5071 5073 5075 5078 5081 5084 5087 5090 5093 5096 5099 5102 5105 5108 5111 5114 5117 5120 5122 5125 5127 5130 5133 5136 5138 5141 5143 5146 5149 5152 5155 5158 5161 5164 5167 5170 5173 5176 5179 5181 5184 5186 5189 5192 5195 5198 5201 5204 5207 5210 5212 5215 5218 5220 5223 5226 5229 5231 5233 5236 5239 5242 5245 5248 5251 5254 5257 5260 5263 5266 5269 5272 5275 5278 5281 5284 5287 5290 5293 5296 5298 5301 5304 5307 5310 5313 5315 5318 5320 5323 5326 5329 5332 5334 5337 5340 5342 5345 5348 5351 5354 5357 5359 5362 5365 5368 5371 5373 5376 5379 5382 5385 5388 5391 5394 5396 5399 5402 5405 5407 5410 5413 5416 5419 5422 5425 5428 5431 5434 5437 5440 5442 5445 5448 5451 5454 5457 5460 5463 5466 5468 5471 5474 5477 5480 5483 5486 5488 5491 5494 5497 5500 5503 5506 5508 5511 5514 5517 5520 5523 5526 5529 5532 5535 5538 5541 5543 5546 5549 5552 5554 5557 5560 5563 5565 5568 5570 5573 5576 5579 5582 5585 5588 5590 5593 5596 5599 5602 5605 5608 5611 5614 5617 5620 5623 5626 5629 5632 5635 5637 5640 5643 5646 5649 5652 5654 5657 5660 5663 5666 5669 5672 5675 5678 5680 5683 5686 5689 5692 5695 5698 5701 5704 5707 5710 5713 5716 5719 5722 5725 5728 5730 5733 5736 5739 5742 5744 5747 5750 5753 5756 5759 5762 5765 5768 5771 5774 5777 5780 5783 5786 5789 5792 5795 5798 5801 5804 5807 5810 5813 5816 5819 5822 5824 5827 5830 5833 5835 5838 5840 5843 5846 5849 5852 5854 5857 5859 5862 5865 5868 5871 5874 5876 5879 5882 5885 5888 5891 5894 5897 5900 5903 5905 5908 5911 5914 5917 5920 5923 5926 5929 5932 5935 5938 5941 5944 5947 5950 5953 5956 5959 5962 5965 5968 5971 5974 5977 5979 5981 5984 5987 5990 5993 5996 5998 6001 6004 6007 6009 6012 6015 6018 6020 6023 6026 6028 6031 6033 6036 6039 6042 6045 6047 6050 6053 6056 6059 6061 6063 6066 6069 6072 6075 6078 6081 6084 6087 6090 6093 6096 6099 6101 6104 6107 6110 6113 6115 6118 6121 6124 6127 6130 6132 6135 6138 6140 6143 6146 6149 6152 6155 6158 6161 6164 6167 6170 6173 6176 6179 6182 6185 6188 6190 6193 6196 6198 6201 6204 6207 6209 6212 6215 6218 6221 6224 6227 6230 6233 6236 6239 6242 6244 6247 6250 6253 6256 6259 6262 6265 6268 6271 6274 6277 6280 6283 6286 6289 6292 6294 6297 6300 6302 6305 6307 6310 6313 6315 6318 6320 6323 6325 6328 6331 6334 6337 6340 6343 6346 6349 6352 6355 6358 6361 6364 6366 6369 6371 6373 6376 6379 6381 6383 6386 6389 6391 6393 6396 6399 6402 6404 6407 6409 6412 6415 6417 6420 6423 6426 6429 6431 6433 6436 6438 6441 6444 6446 6448 6451 6454 6456 6459 6462 6465 6467 6470 6473 6476 6478 6480 6482 6485 6488 6490 6493 6495 6497 6500 6503 6506 6509 6512 6515 6518 6521 6524 6527 6530 6532 6534 6537 6539 6542 6544 6547 6549 6552 6555 6558 6560 6563 6566 6569 6572 6575 6577 6580 6583 6586 6589 6592 6595 6598 6601 6604 6607 6610 6613 6616 6619 6622 6625 6628 6631 6634 6637 6640 6643 6646 6649 6651 6654 6657 6660 6663 6666 6669 6672 6675 6678 6681 6684 6687 6690 6693 6696 6699 6702 6705 6707 6710 6713 6716 6719 6722 6725 6728 6731 6734 6737 6740 6742 6745 6748 6751 6754 6757 6759 6762 6765 6768 6771 6774 6777 6780 6783 6786 6789 6792 6795 6798 6801 6803 6806 6809 6812 6815 6818 6821 6824 6827 6830 6833 6836 6839 6842 6845 6847 6850 6852 6855 6858 6861 6864 6866 6869 6872 6875 6878 6881 6884 6887 6890 6893 6896 6899 6902 6904 6907 6909 6912 6915 6918 6921 6923 6926 6929 6932 6935 6938 6941 6944 6946 6949 6952 6955 6958 6961 6964 6967 6969 6972 6975 6978 6980 6983 6985 6988 6991 6994 6997 7000 7003 7006 7009 7012 7014 7017 7020 7023 7026 7029 7032 7035 7038 7041 7044 7047 7050 7053 7056 7059 7062 7065 7068 7071 7074 7077 7080 7083 7086 7089 7092 7095 7098 7101 7104 7107 7110 7113 7116 7119 7122 7125 7128 7131 7134 7137 7140 7143 7145 7148 7151 7153 7156 7159 7162 7165 7168 7171 7174 7177 7180 7183 7185 7188 7191 7194 7197 7200 7202 7205 7208 7210 7213 7216 7219 7222 7225 7228 7230 7233 7236 7239 7242 7244 7247 7250 7252 7255 7257 7260 7263 7266 7269 7272 7275 7278 7281 7284 7287 7290 7292 7295 7297 7300 7303 7306 7309 7311 7314 7317 7320 7323 7326 7329 7332 7335 7338 7341 7344 7347 7350 7353 7356 7359 7362 7365 7368 7371 7374 7376 7379 7382 7385 7388 7390 7393 7396 7399 7402 7405 7408 7411 7413 7416 7419 7422 7425 7428 7430 7433 7436 7439 7441 7444 7447 7450 7452 7455 7458 7460 7463 7466 7469 7471 7474 7477 7479 7482 7485 7488 7491 7494 7497 7500 7503 7506 7509 7512 7515 7518 7521 7524 7527 7530 7533 7536 7539 7542 7545 7548 7551 7554 7557 7560 7563 7566 7569 7572 7574 7577 7580 7583 7586 7589 7592 7595 7598 7601 7604 7607 7609 7612 7615 7618 7621 7624 7627 7630 7633 7636 7639 7642 7645 7648 7651 7654 7656 7658 7661 7664 7667 7669 7672 7675 7678 7681 7683 7686 7689 7691 7694 7697 7700 7703 7706 7709 7712 7715 7718 7721 7724 7727 7730 7732 7734 7737 7740 7743 7746 7749 7752 7755 7758 7761 7764 7767 7769 7772 7775 7777 7780 7783 7786 7789 7792 7795 7798 7801 7804 7807 7810 7813 7816 7819 7822 7825 7828 7831 7834 7836 7839 7842 7845 7847 7850 7853 7856 7859 7862 7864 7867 7870 7873 7876 7879 7882 7885 7888 7891 7894 7897 7900 7903 7906 7909 7912 7915 7918 7921 7924 7926 7929 7932 7934 7937 7940 7943 7946 7949 7952 7955 7958 7961 7964 7967 7970 7973 7976 7979 7982 7985 7988 7991 7993 7996 7999 8002 8005 8008 8011 8014 8017 8020 8023 8026 8029 8032 8035 8038 8041 8044 8047 8050 8053 8056 8059 8062 8065 8068 8071 8074 8077 8080 8083 8086 8089 8091 8094 8097 8100 8103 8106 8109 8111 8114 8117 8120 8123 8126 8128 8131 8134 8137 8140 8142 8145 8148 8151 8154 8157 8160 8163 8166 8169 8172 8175 8178 8181 8184 8187 8190 8193 8196 8199 8202 8205 8208 8210 8213 8216 8219 8222 8225 8228 8231 8233 8236 8239 8241 8244 8247 8249 8252 8255 8258 8261 8264 8267 8269 8272 8275 8278 8281 8284 8287 8290 8293 8296 8299 8301 8304 8306 8309 8312 8315 8318 8321 8324 8327 8330 8332 8335 8338 8340 8343 8346 8349 8351 8354 8357 8360 8362 8365 8368 8371 8373 8375 8378 8381 8383 8386 8389 8391 8394 8397 8399 8402 8405 8408 8411 8414 8417 8420 8423 8426 8428 8431 8434 8437 8439 8442 8445 8448 8450 8453 8456 8459 8461 8464 8466 8469 8472 8474 8477 8480 8483 8486 8489 8492 8495 8498 8500 8503 8506 8508 8511 8514 8517 8520 8523 8526 8529 8532 8535 8538 8541 8544 8547 8549 8552 8554 8557 8560 8563 8565 8567 8570 8572 8575 8578 8581 8584 8586 8589 8591 8594 8597 8600 8603 8606 8609 8612 8615 8618 8620 8623 8626 8629 8632 8635 8638 8641 8644 8647 8650 8653 8656 8659 8662 8665 8668 8671 8674 8677 8680 8683 8686 8689 8692 8695 8698 8701 8704 8706 8709 8712 8715 8718 8721 8724 8726 8729 8732 8735 8738 8741 8744 8746 8749 8752 8755 8758 8761 8764 8766 8769 8772 8775 8777 8780 8783 8786 8788 8791 8794 8796 8799 8802 8805 8808 8811 8814 8816 8819 8822 8825 8827 8829 8832 8835 8838 8841 8844 8847 8850 8853 8856 8859 8862 8865 8868 8871 8874 8877 8880 8882 8885 8888 8891 8894 8897 8900 8903 8905 8908 8911 8914 8917 8920 8922 8925 8928 8931 8934 8937 8939 8942 8945 8947 8950 8953 8956 8959 8961 8964 8967 8970 8973 8976 8979 8981 8984 8986 8989 8991 8993 8996 8998 9001 9004 9007 9009 9012 9015 9018 9021 9024 9026 9029 9032 9035 9037 9040 9043 9046 9049 9051 9053 9055 9058 9061 9064 9067 9069 9071 9074 9076 9079 9082 9085 9088 9091 9094 9096 9099 9101 9104 9107 9109 9112 9115 9118 9120 9123 9126 9128 9131 9134 9137 9140 9143 9146 9149 9152 9155 9158 9161 9164 9166 9169 9172 9175 9178 9180 9183 9186 9189 9192 9194 9197 9200 9203 9206 9209 9212 9215 9218 9221 9223 9225 9227 9230 9233 9236 9238 9240 9243 9246 9248 9251 9253 9256 9259 9262 9265 9268 9271 9274 9276 9279 9282 9285 9288 9291 9294 9297 9300 9303 9306 9309 9312 9315 9318 9321 9324 9326 9329 9332 9335 9338 9341 9344 9347 9350 9353 9355 9358 9361 9363 9366 9368 9371 9373 9376 9379 9381 9384 9387 9390 9392 9394 9397 9400 9402 9405 9408 9411 9413 9416 9419 9422 9425 9427 9430 9433 9436 9439 9442 9445 9448 9451 9454 9457 9460 9462 9464 9467 9470 9473 9476 9479 9482 9485 9488 9491 9494 9497 9500 9503 9506 9509 9512 9515 9518 9521 9524 9527 9530 9533 9536 9539 9542 9545 9548 9551 9554 9557 9560 9562 9565 9568 9571 9574 9577 9580 9583 9586 9589 9592 9595 9598 9601 9604 9607 9610 9613 9616 9619 9621 9624 9627 9630 9633 9636 9639 9641 9643 9646 9649 9651 9653 9656 9659 9662 9664 9667 9670 9673 9676 9679 9682 9685 9688 9691 9694 9697 9700 9703 9706 9709 9712 9715 9718 9721 9724 9727 9730 9733 9735 9738 9740 9743 9745 9748 9751 9754 9757 9760 9763 9765 9768 9770 9772 9775 9778 9780 9783 9786 9789 9792 9795 9798 9800 9802 9805 9808 9810 9812 9815 9818 9820 9822 9825 9828 9831 9834 9837 9840 9843 9846 9848 9851 9854 9857 9860 9863 9865 9868 9871 9873 9876 9879 9882 9884 9887 9890 9893 9896 9899 9902 9905 9908 9911 9914 9917 9920 9923 9926 9929 9932 9935 9938 9941 9944 9947 9950 9953 9956 9959 9962 9965 9968 9971 9974 9977 9980 9983 9986 9988 9991 9994 9996 9999 10001 10003 10006 10009 10012 10015 10018 10021 10024 10027 10030 10032 10035 10038 10041 10044 10047 10049 10052 10055 10058 10061 10064 10067 10070 10072 10075 10078 10081 10084 10087 10090 10093 10096 10098 10101 10104 10107 10110 10113 10115 10118 10121 10124 10127 10130 10133 10136 10139 10142 10145 10148 10151 10154 10157 10160 10163 10166 10169 10172 10175 10178 10181 10184 10187 10190 10193 10196 10199 10202 10205 10207 10209 10212 10215 10218 10221 10224 10227 10230 10232 10235 10238 10241 10243 10246 10248 10251 10254 10257 10260 10263 10266 10269 10272 10275 10278 10281 10284 10287 10290 10293 10296 10299 10302 10305 10308 10311 10313 10316 10319 10322 10325 10328 10331 10333 10336 10339 10342 10345 10348 10351 10354 10356 10359 10362 10364 10367 10370 10373 10376 10379 10382 10384 10387 10390 10393 10395 10398 10401 10403 10405 10408 10411 10414 10417 10420 10423 10426 10429 10432 10435 10438 10441 10444 10447 10450 10453 10456 10459 10462 10465 10468 10471 10474 10477 10480 10483 10486 10489 10491 10494 10497 10500 10503 10506 10509 10512 10515 10518 10521 10524 10527 10530 10533 10536 10539 10542 10545 10548 10550 10553 10556 10559 10561 10563 10566 10569 10572 10575 10578 10580 10583 10586 10589 10591 10594 10597 10600 10603 10606 10608 10611 10614 10617 10620 10623 10626 10629 10632 10635 10638 10641 10644 10647 10650 10653 10656 10659 10662 10665 10668 10671 10673 10676 10679 10682 10685 10688 10691 10693 10696 10699 10702 10705 10708 10711 10714 10717 10720 10723 10726 10729 10731 10734 10737 10740 10743 10745 10748 10750 10753 10756 10759 10762 10765 10768 10771 10774 10777 10780 10783 10786 10789 10791 10794 10797 10800 10803 10806 10808 10811 10814 10817 10820 10823 10826 10828 10831 10834 10837 10840 10843 10846 10849 10852 10855 10858 10861 10864 10866 10869 10872 10874 10877 10880 10882 10885 10888 10890 10893 10896 10899 10902 10905 10908 10911 10914 10917 10920 10922 10925 10928 10931 10934 10937 10940 10943 10946 10948 10951 10954 10957 10959 10962 10965 10968 10970 10973 10976 10978 10981 10984 10987 10989 10992 10995 10998 11001 11004 11006 11009 11011 11014 11017 11020 11023 11025 11027 11030 11033 11036 11038 11041 11044 11047 11050 11052 11055 11058 11061 11064 11067 11070 11073 11076 11079 11082 11085 11088 11091 11094 11097 11099 11102 11105 11107 11109 11112 11115 11118 11121 11123 11126 11129 11132 11135 11138 11141 11143 11146 11149 11152 11155 11158 11161 11163 11166 11169 11172 11175 11178 11181 11184 11187 11189 11192 11195 11198 11201 11204 11207 11210 11213 11216 11219 11221 11224 11227 11229 11232 11235 11237 11240 11243 11246 11249 11252 11254 11256 11259 11262 11264 11266 11269 11271 11274 11276 11279 11281 11283 11286 11289 11291 11294 11296 11299 11301 11304 11306 11309 11311 11314 11317 11319 11322 11324 11327 11329 11332 11335 11338 11341 11344 11347 11349 11352 11355 11358 11360 11363 11366 11369 11372 11375 11378 11381 11384 11387 11389 11392 11395 11397 11400 11402 11405 11407 11410 11413 11416 11418 11420 11423 11426 11429 11432 11435 11438 11441 11444 11447 11450 11453 11455 11458 11461 11464 11467 11470 11472 11475 11478 11481 11484 11487 11490 11493 11496 11499 11502 11505 11508 11511 11514 11517 11520 11523 11525 11528 11531 11534 11537 11540 11543 11545 11548 11551 11554 11556 11559 11562 11564 11567 11570 11573 11575 11578 11580 11582 11585 11588 11591 11594 11597 11600 11603 11606 11609 11611 11614 11617 11620 11623 11626 11629 11632 11634 11637 11639 11642 11644 11647 11650 11653 11656 11659 11662 11665 11668 11671 11674 11677 11680 11683 11686 11689 11692 11695 11698 11701 11704 11707 11710 11713 11716 11719 11722 11725 11728 11731 11734 11737 11740 11743 11746 11749 11752 11755 11757 11760 11763 11765 11767 11770 11773 11776 11779 11781 11784 11787 11790 11793 11796 11798 11801 11804 11806 11808 11811 11814 11817 11820 11823 11826 11828 11831 11833 11836 11839 11841 11843 11846 11848 11851 11854 11857 11859 11862 11865 11868 11871 11873 11876 11879 11882 11884 11887 11890 11892 11894 11897 11900 11903 11905 11908 11911 11914 11917 11919 11922 11925 11927 11930 11933 11936 11938 11941 11944 11946 11949 11952 11955 11957 11960 11962 11965 11968 11970 11973 11976 11978 11980 11983 11986 11988 11991 11993 11995 11998 12001 12004 12007 12009 12012 12015 12018 12021 12023 12026 12029 12032 12035 12038 12041 12044 12047 12050 12053 12056 12059 12061 12064 12067 12070 12073 12075 12078 12080 12083 12086 12089 12092 12095 12097 12099 12101 12104 12107 12110 12113 12116 12119 12122 12125 12127 12130 12133 12136 12139 12142 12145 12147 12150 12153 12156 12159 12161 12164 12167 12170 12173 12176 12179 12182 12185 12188 12191 12194 12197 12200 12203 12206 12209 12212 12215 12217 12220 12222 12225 12228 12230 12232 12235 12237 12240 12243 12245 12248 12250 12253 12255 12258 12260 12263 12266 12269 12272 12274 12277 12280 12283 12285 12288 12291 12294 12297 12300 12303 12306 12309 12312 12315 12318 12321 12324 12327 12330 12333 12336 12339 12342 12345 12348 12351 12354 12357 12360 12362 12365 12368 12371 12374 12377 12379 12382 12385 12388 12391 12394 12397 12400 12403 12406 12409 12412 12414 12417 12420 12423 12426 12429 12431 12434 12437 12439 12441 12444 12447 12450 12452 12455 12458 12460 12462 12465 12467 12470 12473 12476 12479 12482 12485 12488 12491 12494 12497 12500 12503 12506 12509 12512 12515 12517 12520 12523 12526 12529 12531 12534 12537 12540 12543 12546 12549 12552 12555 12557 12559 12562 12565 12567 12570 12573 12576 12579 12582 12585 12588 12591 12594 12596 12598 12601 12604 12606 12609 12612 12615 12617 12620 12623 12626 12629 12632 12635 12638 12641 12644 12647 12650 12653 12656 12659 12662 12665 12668 12671 12674 12677 12680 12683 12686 12689 12692 12695 12697 12700 12703 12706 12709 12712 12715 12718 12721 12724 12727 12730 12733 12736 12739 12742 12745 12748 12751 12754 12757 12759 12762 12765 12768 12770 12772 12775 12778 12781 12783 12786 12789 12791 12794 12797 12800 12803 12806 12808 12811 12813 12816 12819 12822 12825 12828 12831 12834 12837 12839 12842 12845 12848 12850 12853 12856 12858 12861 12863 12866 12869 12872 12874 12877 12880 12883 12885 12888 12891 12894 12897 12900 12903 12906 12909 12912 12915 12918 12921 12924 12927 12930 12933 12936 12938 12941 12944 12947 12950 12953 12956 12959 12962 12965 12967 12970 12973 12976 12979 12982 12985 12988 12991 12993 12996 12999 13002 13005 13008 13011 13014 13017 13020 13023 13026 13029 13032 13034 13037 13040 13043 13045 13048 13051 13054 13057 13060 13063 13066 13069 13072 13075 13078 13081 13084 13087 13090 13093 13096 13099 13102 13104 13107 13110 13113 13115 13118 13120 13123 13126 13129 13131 13134 13137 13140 13142 13144 13147 13150 13153 13156 13159 13162 13165 13168 13171 13174 13177 13180 13183 13186 13189 13192 13195 13198 13201 13204 13207 13210 13212 13215 13218 13221 13224 13226 13229 13232 13235 13238 13240 13243 13246 13249 13252 13255 13258 13261 13263 13266 13269 13272 13275 13277 13280 13283 13286 13289 13292 13295 13297 13300 13303 13306 13309 13312 13315 13317 13320 13323 13326 13328 13331 13334 13337 13340 13343 13346 13349 13352 13355 13357 13360 13363 13366 13369 13372 13375 13377 13380 13383 13386 13389 13392 13395 13398 13401 13404 13407 13410 13412 13415 13418 13420 13423 13426 13429 13432 13435 13437 13440 13443 13445 13448 13451 13454 13457 13460 13463 13466 13468 13470 13473 13476 13479 13482 13484 13487 13490 13493 13496 13499 13502 13504 13507 13510 13513 13516 13519 13522 13525 13528 13531 13534 13536 13539 13542 13545 13548 13551 13554 13557 13560 13563 13566 13569 13572 13574 13577 13579 13582 13585 13588 13590 13593 13596 13598 13601 13604 13607 13610 13612 13615 13618 13621 13624 13627 13629 13632 13635 13638 13641 13644 13647 13650 13653 13655 13658 13661 13664 13667 13669 13672 13675 13678 13681 13684 13687 13690 13692 13695 13698 13701 13704 13707 13710 13713 13716 13719 13722 13724 13727 13730 13733 13735 13738 13740 13743 13746 13749 13752 13755 13758 13760 13763 13765 13768 13770 13773 13776 13779 13782 13784 13787 13790 13793 13796 13799 13802 13805 13808 13811 13814 13817 13820 13823 13826 13828 13831 13833 13836 13839 13842 13845 13848 13851 13854 13856 13859 13862 13865 13868 13871 13874 13877 13880 13883 13886 13889 13892 13895 13897 13900 13903 13906 13909 13911 13914 13917 13920 13923 13926 13929 13932 13935 13938 13941 13944 13947 13950 13953 13956 13959 13962 13965 13968 13971 13974 13977 13980 13983 13985 13988 13991 13994 13997 13999 14002 14005 14008 14010 14013 14016 14018 14021 14024 14026 14029 14032 14035 14038 14041 14044 14047 14050 14053 14056 14059 14062 14065 14068 14071 14073 14076 14079 14081 14084 14087 14090 14093 14096 14099 14102 14104 14107 14110 14113 14116 14119 14121 14124 14127 14130 14132 14135 14138 14141 14143 14146 14149 14152 14155 14158 14161 14164 14166 14169 14172 14175 14177 14180 14182 14184 14187 14190 14193 14196 14199 14201 14204 14207 14210 14213 14216 14219 14222 14225 14228 14231 14233 14236 14239 14242 14245 14248 14251 14254 14257 14260 14263 14266 14269 14272 14275 14278 14281 14284 14287 14290 14293 14296 14299 14302 14305 14308 14311 14314 14317 14320 14323 14326 14329 14332 14335 14338 14341 14344 14346 14349 14352 14355 14358 14361 14364 14367 14370 14373 14376 14379 14382 14385 14388 14391 14394 14396 14399 14402 14405 14408 14411 14414 14417 14420 14423 14425 14428 14431 14434 14437 14440 14443 14446 14448 14451 14454 14457 14460 14463 14466 14469 14472 14475 14478 14481 14484 14487 14490 14493 14496 14499 14502 14505 14508 14511 14513 14516 14519 14522 14525 14528 14531 14534 14537 14540 14543 14546 14549 14552 14555 14558 14561 14564 14566 14569 14572 14575 14578 14581 14584 14587 14590 14593 14596 14599 14602 14605 14608 14611 14614 14617 14620 14623 14626 14629 14632 14635 14638 14641 14644 14647 14650 14653 14656 14659 14662 14665 14668 14671 14674 14677 14680 14683 14686 14689 14692 14695 14698 14701 14704 14706 14709 14712 14715 14718 14721 14724 14727 14730 14733 14736 14739 14742 14745 14747 14750 14752 14755 14758 14761 14764 14767 14769 14772 14775 14778 14781 14784 14786 14788 14791 14794 14797 14800 14803 14806 14809 14812 14815 14818 14821 14824 14827 14830 14833 14836 14839 14841 14843 14846 14849 14852 14855 14858 14861 14863 14866 14868 14871 14874 14877 14880 14883 14886 14889 14892 14895 14897 14900 14903 14906 14909 14912 14915 14918 14921 14924 14927 14930 14933 14936 14939 14942 14945 14948 14951 14954 14956 14959 14962 14965 14968 14971 14973 14976 14978 14981 14984 14987 14990 14993 14996 14999 15001 15004 15007 15010 15012 15015 15018 15021 15023 15026 15029 15031 15034 15037 15040 15042 15045 15048 15050 15053 15055 15058 15060 15063 15066 15068 15071 15074 15077 15080 15083 15086 15089 15092 15095 15098 15101 15104 15107 15110 15113 15116 15119 15122 15125 15128 15131 15133 15136 15138 15141 15144 15147 15150 15153 15156 15159 15161 15164 15167 15170 15173 15176 15179 15182 15185 15188 15191 15194 15197 15200 15203 15206 15209 15212 15215 15218 15220 15223 15226 15229 15231 15234 15237 15240 15243 15246 15249 15252 15255 15258 15261 15263 15266 15269 15272 15275 15277 15280 15283 15285 15288 15291 15294 15297 15300 15302 15305 15308 15311 15314 15316 15319 15321 15324 15327 15329 15332 15335 15338 15341 15344 15347 15350 15352 15355 15358 15360 15363 15365 15368 15371 15374 15377 15380 15383 15386 15389 15392 15395 15398 15401 15404 15407 15410 15413 15416 15419 15421 15424 15427 15430 15433 15436 15439 15442 15444 15447 15450 15453 15456 15458 15461 15464 15467 15470 15473 15476 15479 15482 15485 15487 15490 15493 15496 15499 15501 15504 15507 15510 15513 15516 15519 15522 15525 15528 15531 15534 15537 15539 15542 15545 15548 15551 15554 15557 15560 15563 15566 15568 15571 15574 15577 15580 15583 15586 15589 15592 15595 15598 15601 15604 15606 15609 15612 15614 15617 15620 15623 15626 15629 15632 15635 15638 15641 15643 15645 15647 15650 15653 15656 15658 15661 15664 15667 15670 15673 15676 15678 15681 15684 15687 15689 15691 15694 15697 15700 15703 15706 15709 15712 15715 15718 15721 15724 15727 15729 15732 15735 15738 15740 15742 15745 15748 15751 15754 15757 15759 15762 15765 15768 15771 15773 15776 15779 15782 15785 15787 15790 15793 15796 15799 15802 15804 15806 15808 15811 15814 15817 15819 15821 15824 15827 15830 15833 15836 15839 15842 15845 15848 15850 15852 15855 15858 15861 15863 15865 15868 15871 15874 15877 15880 15883 15886 15889 15892 15895 15898 15901 15904 15907 15910 15913 15916 15918 15921 15923 15926 15929 15932 15935 15937 15940 15943 15946 15949 15952 15955 15958 15960 15963 15966 15969 15972 15975 15978 15981 15983 15986 15989 15991 15994 15996 15998 16001 16004 16007 16009 16011 16014 16017 16020 16022 16024 16027 16030 16033 16036 16039 16042 16045 16048 16051 16054 16056 16059 16062 16065 16068 16071 16074 16077 16079 16082 16085 16088 16091 16093 16096 16099 16102 16105 16108 16111 16113 16116 16119 16122 16125 16127 16130 16132 16135 16138 16141 16144 16147 16150 16153 16156 16159 16162 16165 16168 16171 16174 16176 16179 16182 16185 16188 16191 16194 16197 16199 16202 16205 16208 16211 16213 16216 16219 16222 16224 16227 16230 16233 16236 16239 16242 16245 16248 16251 16254 16257 16260 16263 16266 16269 16272 16275 16278 16281 16284 16287 16290 16292 16295 16297 16300 16303 16305 16308 16311 16314 16316 16319 16322 16324 16327 16330 16333 16336 16339 16342 16345 16348 16351 16354 16357 16360 16363 16366 16369 16372 16375 16378 16381 16384 16386 16388 16390 16393 16396 16399 16402 16405 16408 16411 16414 16417 16420 16423 16426 16429 16431 16434 16437 16440 16442 16445 16448 16450 16453 16456 16459 16462 16464 16467 16470 16472 16474 16477 16480 16483 16486 16488 16491 16494 16496 16499 16501 16504 16507 16510 16513 16516 16519 16522 16525 16528 16531 16534 16537 16539 16542 16545 16548 16551 16554 16557 16560 16562 16565 16567 16570 16573 16576 16579 16581 16584 16587 16590 16593 16596 16599 16602 16605 16608 16611 16614 16617 16620 16623 16626 16629 16632 16635 16638 16641 16644 16647 16650 16652 16655 16658 16661 16663 16666 16668 16671 16674 16677 16679 16682 16685 16688 16691 16694 16696 16699 16702 16704 16707 16710 16713 16716 16719 16722 16725 16728 16730 16733 16736 16739 16742 16745 16747 16750 16753 16756 16759 16762 16765 16768 16771 16774 16777 16780 16783 16786 16789 16791 16794 16797 16800 16803 16805 16808 16811 16814 16817 16820 16823 16826 16829 16832 16835 16838 16841 16843 16846 16849 16852 16855 16857 16860 16863 16866 16869 16872 16875 16878 16881 16884 16887 16890 16893 16896 16898 16901 16904 16906 16909 16912 16915 16917 16920 16923 16926 16929 16932 16935 16938 16941 16944 16947 16950 16953 16956 16958 16960 16963 16965 16967 16970 16973 16976 16978 16980 16983 16985 16988 16990 16993 16995 16998 17001 17004 17006 17009 17011 17014 17017 17020 17023 17025 17028 17031 17034 17037 17040 17043 17045 17048 17051 17054 17057 17060 17062 17065 17068 17070 17073 17076 17078 17081 17084 17086 17089 17092 17095 17098 17101 17103 17106 17108 17111 17114 17117 17120 17123 17126 17129 17132 17135 17138 17141 17144 17147 17149 17152 17155 17157 17160 17163 17166 17169 17172 17175 17178 17181 17184 17186 17189 17192 17195 17198 17201 17204 17207 17210 17213 17215 17218 17221 17223 17226 17228 17231 17234 17237 17240 17243 17246 17249 17251 17254 17257 17260 17263 17266 17269 17272 17274 17277 17279 17282 17285 17287 17290 17293 17296 17298 17301 17304 17307 17310 17312 17315 17318 17321 17324 17327 17329 17332 17335 17338 17341 17344 17347 17350 17353 17356 17359 17362 17365 17368 17371 17374 17377 17380 17383 17386 17389 17392 17394 17397 17400 17402 17405 17408 17411 17413 17416 17419 17422 17425 17427 17430 17433 17436 17439 17442 17445 17448 17451 17454 17457 17460 17463 17466 17469 17472 17475 17478 17481 17484 17487 17490 17493 17496 17498 17501 17504 17507 17510 17513 17516 17518 17521 17524 17527 17530 17533 17536 17539 17542 17545 17548 17551 17554 17557 17559 17562 17564 17567 17570 17572 17575 17578 17581 17584 17586 17588 17591 17593 17596 17598 17601 17604 17607 17610 17613 17615 17618 17621 17623 17625 17628 17631 17634 17637 17640 17642 17645 17648 17650 17653 17656 17659 17662 17665 17668 17671 17674 17676 17678 17681 17684 17687 17689 17692 17694 17697 17700 17703 17706 17709 17711 17714 17716 17719 17722 17725 17728 17731 17733 17735 17738 17741 17744 17747 17749 17752 17755 17758 17761 17763 17766 17769 17772 17775 17778 17781 17784 17787 17790 17793 17796 17799 17802 17805 17808 17811 17814 17816 17819 17822 17824 17827 17830 17833 17835 17838 17841 17844 17847 17850 17853 17856 17859 17862 17865 17868 17871 17874 17877 17880 17883 17886 17889 17892 17894 17897 17900 17903 17906 17909 17912 17915 17918 17921 17924 17927 17930 17933 17936 17938 17940 17943 17946 17949 17951 17954 17957 17960 17963 17966 17968 17971 17974 17977 17980 17983 17986 17989 17992 17995 17998 18001 18003 18006 18009 18011 18014 18017 18020 18023 18026 18029 18032 18035 18038 18041 18043 18046 18049 18052 18054 18057 18059 18062 18064 18067 18070 18073 18075 18077 18080 18082 18085 18088 18090 18093 18096 18098 18100 18103 18106 18109 18111 18114 18117 18119 18122 18124 18127 18130 18133 18135 18138 18141 18143 18145 18148 18150 18153 18156 18158 18161 18163 18166 18169 18172 18175 18178 18181 18184 18187 18190 18192 18195 18198 18201 18204 18207 18209 18212 18215 18218 18221 18224 18227 18230 18233 18236 18239 18241 18244 18247 18250 18253 18255 18257 18260 18263 18265 18268 18270 18273 18276 18279 18282 18285 18287 18290 18293 18295 18298 18300 18303 18306 18309 18312 18315 18318 18321 18323 18326 18329 18332 18335 18338 18341 18344 18347 18350 18352 18355 18357 18360 18362 18365 18367 18370 18373 18376 18379 18381 18384 18387 18390 18393 18396 18398 18400 18403 18406 18409 18412 18415 18418 18420 18423 18426 18429 18432 18435 18437 18440 18443 18446 18449 18451 18454 18457 18459 18462 18464 18467 18470 18473 18475 18478 18480 18483 18486 18488 18490 18492 18495 18498 18501 18504 18507 18510 18512 18514 18516 18519 18522 18525 18528 18530 18533 18535 18538 18540 18543 18546 18549 18552 18555 18558 18560 18563 18566 18569 18572 18575 18578 18581 18584 18587 18590 18593 18596 18599 18602 18605 18608 18611 18614 18617 18620 18623 18626 18629 18632 18635 18638 18641 18644 18647 18650 18653 18656 18659 18662 18665 18668 18671 18674 18677 18680 18683 18686 18689 18692 18695 18698 18701 18704 18707 18709 18712 18715 18718 18720 18722 18725 18728 18731 18734 18737 18740 18743 18746 18749 18752 18755 18758 18761 18764 18767 18770 18773 18776 18779 18781 18784 18787 18790 18793 18796 18799 18802 18804 18807 18810 18812 18815 18818 18820 18823 18826 18828 18831 18833 18836 18839 18841 18844 18847 18850 18852 18855 18857 18860 18862 18864 18867 18870 18873 18875 18877 18880 18883 18885 18888 18891 18893 18896 18899 18902 18905 18908 18911 18914 18917 18920 18923 18926 18929 18931 18934 18937 18940 18943 18945 18948 18951 18954 18957 18959 18962 18965 18968 18971 18974 18977 18980 18983 18986 18988 18991 18993 18996 18999 19002 19005 19007 19010 19013 19016 19018 19021 19024 19027 19030 19033 19036 19038 19041 19044 19046 19049 19052 19055 19057 19060 19063 19066 19069 19072 19075 19078 19080 19083 19086 19089 19092 19095 19097 19100 19103 19106 19109 19112 19115 19118 19121 19124 19127 19130 19133 19136 19139 19142 19144 19147 19150 19153 19156 19159 19161 19164 19167 19169 19172 19174 19177 19180 19183 19186 19188 19190 19193 19196 19198 19201 19204 19207 19210 19213 19216 19219 19222 19225 19228 19231 19233 19236 19238 19241 19244 19247 19250 19253 19255 19258 19261 19264 19266 19269 19272 19275 19277 19280 19283 19286 19289 19292 19295 19298 19301 19304 19307 19310 19313 19316 19318 19321 19324 19327 19330 19333 19336 19339 19341 19344 19346 19349 19352 19355 19358 19361 19364 19367 19369 19371 19374 19377 19380 19383 19386 19389 19392 19395 19398 19400 19403 19406 19409 19412 19415 19418 19420 19422 19424 19427 19429 19432 19435 19438 19441 19444 19447 19449 19452 19454 19457 19459 19462 19464 19467 19470 19473 19476 19479 19482 19484 19487 19490 19492 19495 19498 19501 19504 19506 19509 19512 19515 19518 19521 19524 19527 19530 19533 19536 19539 19542 19545 19548 19551 19554 19557 19560 19563 19566 19569 19571 19574 19576 19579 19582 19585 19588 19591 19594 19597 19600 19603 19606 19609 19612 19615 19618 19621 19624 19627 19630 19633 19636 19639 19642 19645 19648 19651 19654 19657 19660 19663 19666 19669 19672 19675 19678 19681 19684 19687 19690 19693 19696 19699 19702 19705 19708 19711 19714 19717 19720 19723 19726 19729 19732 19735 19738 19741 19744 19747 19750 19752 19755 19758 19761 19764 19767 19770 19773 19776 19779 19782 19785 19788 19791 19794 19797 19800 19803 19806 19809 19812 19815 19818 19821 19823 19826 19829 19832 19834 19837 19839 19842 19845 19848 19851 19854 19857 19860 19863 19866 19869 19872 19875 19878 19881 19884 19887 19890 19893 19896 19899 19902 19905 19908 19911 19914 19917 19920 19923 19926 19929 19932 19935 19938 19941 19944 19947 19950 19953 19956 19958 19961 19963 19966 19969 19972 19975 19978 19981 19984 19987 19990 19993 19996 19999 20002 20005 20008 20011 20014 20017 20020 20023 20026 20029 20032 20035 20038 20040 20043 20046 20049 20052 20055 20058 20061 20064 20067 20070 20073 20076 20079 20082 20085 20088 20091 20094 20097 20100 20103 20106 20109 20112 20115 20118 20121 20124 20127 20130 20133 20136 20139 20142 20145 20148 20151 20154 20157 20160 20163 20166 20169 20172 20175 20178 20181 20184 20187 20190 20193 20196 20199 20202 20205 20208 20211 20214 20217 20220 20223 20226 20229 20232 20235 20238 20241 20244 20247 20249 20252 20255 20258 20261 20264 20267 20270 20272 20275 20278 20280 20283 20286 20289 20292 20295 20298 20301 20304 20307 20310 20313 20316 20319 20322 20325 20328 20331 20334 20337 20340 20342 20345 20348 20351 20354 20357 20360 20363 20366 20369 20372 20375 20378 20381 20384 20387 20390 20393 20396 20399 20402 20405 20408 20411 20414 20417 20420 20423 20426 20429 20432 20435 20438 20440 20443 20446 20449 20452 20454 20457 20459 20462 20465 20468 20471 20474 20477 20479 20482 20485 20487 20490 20493 20495 20497 20500 20502 20505 20508 20511 20513 20516 20519 20522 20525 20528 20531 20534 20537 20540 20543 20546 20549 20552 20555 20558 20560 20563 20566 20569 20572 20575 20578 20581 20584 20586 20589 20592 20595 20598 20601 20604 20607 20610 20613 20616 20619 20622 20625 20628 20631 20634 20637 20640 20643 20646 20649 20652 20655 20658 20661 20664 20667 20670 20673 20676 20679 20682 20685 20688 20691 20694 20696 20699 20702 20705 20708 20711 20714 20717 20719 20722 20725 20727 20730 20732 20735 20738 20741 20744 20747 20750 20753 20756 20759 20762 20765 20767 20769 20772 20775 20777 20780 20783 20785 20787 20790 20793 20796 20799 20801 20804 20806 20809 20812 20814 20817 20819 20821 20824 20826 20829 20831 20834 20837 20840 20843 20846 20849 20852 20854 20857 20859 20862 20865 20868 20871 20874 20876 20879 20882 20885 20887 20890 20893 20895 20898 20900 20903 20905 20907 20910 20913 20915 20918 20921 20924 20927 20930 20933 20935 20938 20941 20944 20947 20950 20953 20956 20959 20961 20963 20966 20969 20972 20974 20977 20980 20983 20986 20988 20990 20993 20995 20998 21001 21004 21006 21009 21012 21015 21018 21021 21024 21027 21030 21033 21036 21039 21042 21045 21048 21051 21054 21056 21059 21062 21065 21068 21071 21074 21076 21079 21081 21084 21087 21090 21092 21094 21097 21100 21102 21105 21107 21110 21113 21116 21119 21122 21125 21128 21131 21134 21137 21140 21143 21145 21147 21150 21153 21156 21159 21162 21164 21167 21170 21173 21176 21179 21182 21185 21187 21190 21193 21196 21198 21201 21203 21206 21209 21211 21214 21217 21220 21223 21226 21229 21232 21235 21238 21240 21243 21246 21248 21251 21254 21257 21260 21263 21266 21269 21272 21275 21278 21281 21283 21286 21289 21292 21295 21298 21301 21304 21307 21310 21313 21316 21319 21322 21325 21328 21331 21334 21337 21340 21343 21346 21349 21351 21354 21357 21360 21363 21366 21369 21372 21375 21378 21381 21384 21386 21389 21392 21395 21398 21400 21403 21406 21409 21412 21415 21418 21421 21424 21427 21430 21433 21435 21438 21441 21444 21447 21450 21452 21455 21457 21460 21463 21466 21469 21472 21475 21478 21481 21484 21486 21489 21492 21494 21497 21500 21502 21505 21508 21511 21514 21516 21519 21522 21525 21528 21531 21534 21537 21540 21543 21546 21549 21552 21555 21558 21561 21564 21567 21570 21573 21576 21579 21581 21584 21587 21589 21592 21594 21597 21600 21603 21606 21609 21612 21615 21618 21621 21623 21626 21629 21631 21633 21635 21638 21641 21644 21646 21649 21652 21655 21658 21661 21664 21666 21668 21671 21673 21676 21679 21681 21684 21687 21689 21692 21695 21698 21701 21703 21706 21709 21712 21715 21717 21720 21723 21726 21729 21732 21735 21738 21741 21744 21747 21750 21752 21755 21758 21760 21763 21765 21767 21770 21773 21775 21777 21779 21782 21785 21788 21791 21794 21797 21800 21803 21806 21809 21811 21814 21817 21820 21823 21826 21829 21832 21835 21838 21840 21843 21846 21849 21852 21855 21857 21860 21863 21866 21869 21872 21875 21878 21881 21884 21887 21889 21892 21895 21898 21901 21904 21907 21910 21913 21916 21919 21922 21925 21928 21931 21934 21937 21940 21943 21946 21949 21952 21955 21958 21961 21963 21965 21968 21971 21974 21977 21980 21983 21986 21989 21991 21994 21997 22000 22003 22006 22009 22012 22015 22018 22021 22024 22027 22030 22033 22036 22039 22041 22044 22047 22050 22053 22055 22058 22061 22064 22066 22068 22071 22074 22077 22080 22083 22086 22088 22091 22093 22096 22099 22102 22104 22107 22110 22113 22116 22119 22122 22125 22128 22130 22133 22135 22137 22140 22143 22146 22149 22152 22155 22158 22161 22164 22167 22170 22173 22175 22178 22181 22183 22186 22188 22191 22194 22197 22200 22203 22206 22209 22212 22215 22218 22221 22224 22227 22230 22233 22236 22239 22242 22245 22248 22251 22254 22257 22259 22262 22265 22268 22271 22274 22276 22279 22282 22285 22288 22291 22294 22297 22300 22303 22306 22308 22311 22314 22317 22319 22322 22325 22328 22331 22334 22337 22340 22343 22346 22349 22352 22354 22356 22359 22362 22365 22368 22371 22373 22376 22379 22382 22384 22387 22390 22393 22396 22399 22402 22405 22408 22411 22414 22416 22419 22422 22425 22428 22431 22434 22437 22439 22441 22444 22446 22449 22452 22455 22458 22460 22463 22466 22469 22472 22475 22477 22480 22483 22486 22489 22492 22495 22498 22501 22504 22507 22509 22512 22515 22518 22521 22524 22527 22530 22533 22536 22539 22541 22544 22547 22550 22553 22556 22559 22562 22564 22567 22570 22573 22576 22579 22582 22585 22588 22591 22594 22597 22600 22603 22606 22609 22612 22615 22618 22621 22624 22626 22629 22632 22635 22637 22640 22643 22646 22649 22652 22655 22658 22661 22664 22667 22670 22673 22676 22678 22681 22683 22685 22688 22690 22692 22695 22698 22701 22704 22707 22709 22712 22715 22718 22721 22724 22727 22730 22732 22735 22738 22740 22743 22746 22748 22751 22754 22756 22759 22762 22764 22766 22768 22770 22773 22776 22778 22780 22783 22786 22788 22791 22794 22796 22799 22802 22805 22808 22810 22812 22814 22816 22819 22822 22825 22827 22830 22832 22835 22837 22840 22842 22844 22847 22850 22853 22856 22859 22862 22865 22867 22870 22873 22875 22878 22880 22883 22886 22888 22890 22893 22896 22899 22902 22905 22908 22911 22914 22917 22920 22923 22926 22929 22932 22935 22938 22941 22943 22946 22949 22952 22955 22958 22961 22964 22967 22970 22973 22976 22979 22982 22985 22988 22991 22994 22996 22999 23002 23005 23008 23011 23014 23017 23020 23023 23026 23029 23032 23035 23038 23040 23042 23045 23048 23051 23054 23056 23059 23061 23064 23067 23070 23072 23074 23077 23079 23082 23085 23088 23091 23094 23097 23100 23103 23106 23109 23112 23115 23118 23121 23124 23127 23130 23133 23136 23138 23141 23143 23146 23149 23152 23155 23157 23160 23163 23166 23169 23172 23175 23178 23181 23184 23187 23190 23193 23196 23199 23202 23205 23208 23211 23214 23217 23219 23222 23225 23228 23231 23234 23237 23240 23243 23246 23249 23252 23255 23258 23261 23263 23266 23269 23272 23275 23278 23281 23284 23287 23290 23293 23296 23299 23302 23305 23308 23311 23314 23317 23320 23323 23326 23329 23332 23335 23338 23341 23344 23347 23350 23353 23356 23359 23362 23365 23368 23371 23374 23377 23380 23383 23386 23389 23392 23395 23398 23401 23404 23407 23410 23413 23416 23419 23422 23425 23428 23431 23434 23437 23440 23443 23446 23449 23451 23454 23457 23460 23462 23465 23468 23470 23473 23476 23479 23482 23485 23488 23491 23494 23497 23500 23503 23505 23508 23511 23514 23517 23519 23522 23525 23528 23531 23534 23537 23540 23543 23546 23549 23552 23555 23558 23561 23564 23567 23570 23573 23576 23579 23582 23585 23588 23591 23594 23597 23600 23603 23606 23608 23611 23614 23617 23620 23622 23625 23628 23631 23634 23637 23640 23643 23646 23649 23652 23654 23657 23660 23662 23665 23668 23671 23674 23677 23680 23683 23686 23689 23692 23695 23698 23700 23703 23706 23709 23712 23715 23718 23721 23724 23726 23729 23732 23735 23738 23741 23744 23747 23750 23753 23756 23758 23761 23763 23766 23769 23772 23774 23777 23780 23783 23785 23788 23790 23793 23795 23797 23800 23803 23806 23809 23812 23814 23817 23820 23823 23826 23829 23832 23835 23838 23841 23844 23847 23850 23853 23856 23859 23862 23865 23868 23871 23874 23877 23880 23883 23885 23888 23891 23893 23896 23899 23902 23904 23907 23909 23912 23915 23918 23921 23924 23927 23930 23933 23936 23939 23942 23945 23947 23950 23953 23956 23959 23962 23965 23968 23971 23974 23977 23980 23983 23986 23989 23992 23995 23998 24001 24004 24006 24009 24012 24015 24018 24021 24024 24027 24030 24033 24036 24039 24042 24045 24048 24051 24054 24057 24060 24063 24066 24069 24072 24075 24078 24081 24084 24087 24089 24092 24095 24098 24101 24104 24107 24110 24113 24116 24119 24122 24125 24128 24131 24134 24137 24140 24143 24145 24148 24151 24154 24156 24159 24162 24165 24167 24169 24172 24175 24178 24181 24184 24186 24189 24192 24195 24198 24201 24204 24207 24209 24211 24214 24217 24220 24222 24225 24227 24230 24233 24236 24239 24242 24245 24247 24249 24252 24255 24257 24259 24262 24265 24268 24271 24274 24277 24280 24283 24286 24289 24291 24294 24297 24300 24303 24306 24309 24311 24314 24317 24320 24323 24326 24329 24332 24335 24338 24341 24344 24347 24350 24353 24356 24359 24362 24364 24367 24370 24373 24376 24378 24381 24384 24386 24389 24392 24395 24398 24401 24404 24407 24410 24413 24416 24419 24421 24424 24426 24429 24431 24434 24437 24440 24443 24446 24449 24452 24455 24458 24461 24464 24467 24470 24473 24476 24479 24482 24485 24488 24490 24493 24496 24498 24501 24504 24507 24509 24512 24515 24517 24520 24523 24526 24529 24531 24534 24537 24540 24543 24546 24549 24552 24554 24557 24560 24563 24566 24569 24572 24575 24578 24581 24584 24587 24590 24593 24596 24599 24602 24605 24608 24611 24614 24617 24620 24623 24626 24629 24632 24635 24638 24641 24643 24646 24649 24652 24655 24658 24661 24664 24667 24670 24673 24676 24679 24682 24685 24688 24691 24694 24697 24700 24703 24706 24709 24712 24715 24718 24721 24724 24727 24730 24733 24736 24739 24742 24745 24748 24751 24754 24756 24758 24760 24763 24766 24768 24771 24774 24777 24779 24782 24784 24787 24790 24793 24796 24799 24801 24804 24807 24810 24813 24816 24819 24822 24824 24827 24830 24833 24836 24839 24842 24845 24848 24851 24854 24857 24860 24863 24866 24868 24871 24874 24877 24879 24882 24884 24887 24890 24893 24896 24899 24902 24905 24908 24910 24913 24916 24919 24922 24925 24928 24931 24933 24936 24938 24941 24943 24946 24949 24952 24955 24958 24961 24964 24967 24969 24972 24975 24977 24979 24981 24984 24986 24989 24991 24994 24997 25000 25003 25006 25009 25012 25015 25018 25021 25024 25027 25030 25033 25036 25039 25042 25045 25048 25051 25054 25056 25059 25062 25064 25066 25069 25072 25075 25077 25080 25083 25086 25089 25092 25095 25098 25100 25103 25105 25108 25111 25114 25117 25119 25122 25125 25127 25130 25133 25136 25139 25142 25145 25148 25150 25153 25156 25158 25161 25164 25167 25169 25172 25175 25178 25181 25184 25187 25190 25193 25196 25198 25201 25204 25207 25210 25213 25216 25218 25221 25224 25226 25229 25232 25235 25238 25240 25243 25246 25249 25252 25255 25258 25260 25262 25264 25267 25270 25273 25275 25278 25280 25283 25285 25288 25291 25294 25297 25300 25303 25305 25308 25311 25314 25316 25319 25322 25325 25327 25330 25333 25336 25339 25342 25345 25348 25351 25354 25357 25360 25363 25365 25368 25371 25374 25376 25379 25382 25385 25388 25391 25393 25395 25398 25401 25403 25406 25408 25410 25412 25415 25418 25421 25423 25426 25429 25432 25435 25438 25440 25443 25446 25449 25452 25455 25458 25461 25464 25467 25470 25473 25476 25478 25481 25484 25487 25490 25493 25496 25498 25501 25504 25506 25509 25512 25514 25517 25520 25523 25526 25529 25531 25534 25537 25539 25542 25544 25547 25549 25552 25555 25558 25561 25564 25567 25569 25572 25575 25578 25581 25583 25586 25589 25592 25595 25598 25601 25604 25607 25610 25613 25615 25618 25621 25624 25627 25630 25632 25635 25638 25641 25644 25647 25650 25653 25656 25659 25662 25665 25668 25671 25674 25677 25679 25682 25685 25688 25691 25694 25696 25699 25701 25704 25707 25710 25713 25716 25718 25721 25724 25727 25730 25733 25735 25738 25741 25744 25747 25750 25752 25755 25758 25761 25764 25767 25770 25773 25776 25779 25782 25784 25787 25789 25792 25794 25797 25800 25802 25805 25808 25811 25814 25817 25820 25823 25826 25828 25831 25833 25836 25839 25842 25845 25848 25851 25854 25857 25860 25863 25865 25868 25871 25874 25877 25880 25883 25886 25889 25892 25895 25897 25900 25903 25906 25908 25911 25913 25915 25918 25921 25924 25926 25929 25932 25935 25937 25939 25942 25945 25948 25951 25954 25957 25960 25963 25966 25969 25971 25973 25976 25979 25982 25985 25988 25990 25993 25996 25999 26002 26005 26008 26011 26014 26017 26020 26022 26025 26027 26029 26031 26034 26037 26040 26043 26046 26049 26052 26055 26057 26060 26063 26066 26069 26072 26075 26078 26081 26084 26087 26090 26093 26096 26099 26102 26105 26108 26111 26114 26117 26120 26123 26126 26129 26132 26135 26138 26141 26144 26146 26149 26152 26155 26158 26160 26163 26166 26169 26172 26175 26178 26181 26184 26186 26189 26192 26195 26198 26201 26204 26207 26210 26212 26215 26218 26221 26224 26227 26230 26233 26236 26239 26242 26245 26248 26251 26254 26257 26260 26263 26266 26269 26272 26275 26278 26281 26284 26287 26290 26292 26295 26298 26301 26304 26307 26310 26312 26315 26317 26320 26323 26325 26328 26331 26334 26336 26339 26341 26344 26347 26350 26352 26355 26358 26361 26363 26366 26369 26372 26375 26378 26381 26383 26386 26389 26392 26395 26398 26401 26404 26407 26410 26413 26416 26419 26422 26425 26428 26431 26434 26437 26440 26443 26446 26449 26452 26455 26458 26461 26464 26466 26469 26471 26474 26477 26480 26483 26485 26488 26491 26494 26497 26500 26503 26506 26509 26512 26515 26518 26521 26524 26526 26529 26532 26534 26537 26540 26542 26545 26548 26551 26554 26557 26559 26562 26565 26568 26571 26574 26577 26580 26583 26585 26588 26590 26593 26596 26599 26602 26605 26607 26609 26612 26615 26617 26620 26623 26626 26628 26631 26634 26637 26640 26643 26646 26649 26651 26654 26657 26660 26663 26666 26669 26672 26675 26678 26681 26684 26687 26690 26693 26696 26699 26701 26704 26707 26710 26713 26716 26718 26721 26723 26726 26729 26732 26735 26738 26741 26744 26747 26750 26753 26756 26759 26761 26764 26766 26769 26772 26775 26778 26781 26784 26786 26788 26791 26794 26797 26800 26803 26806 26809 26812 26815 26818 26821 26824 26827 26830 26833 26836 26839 26842 26845 26848 26851 26853 26856 26859 26861 26864 26867 26870 26873 26876 26878 26881 26884 26887 26890 26893 26896 26898 26901 26904 26907 26910 26913 26916 26919 26922 26925 26928 26931 26934 26937 26940 26943 26946 26948 26951 26954 26956 26959 26962 26965 26968 26970 26973 26976 26979 26982 26985 26988 26991 26994 26997 27000 27003 27005 27008 27011 27014 27017 27020 27023 27026 27029 27032 27035 27038 27041 27044 27047 27050 27053 27056 27059 27062 27064 27067 27070 27073 27076 27079 27082 27085 27088 27091 27094 27097 27100 27102 27105 27108 27111 27114 27117 27120 27123 27126 27129 27132 27135 27138 27141 27143 27145 27148 27151 27154 27157 27160 27163 27165 27168 27171 27174 27177 27180 27183 27186 27189 27192 27195 27198 27201 27204 27207 27210 27213 27216 27219 27222 27225 27228 27231 27234 27237 27240 27243 27246 27249 27252 27255 27258 27261 27264 27267 27270 27272 27275 27278 27281 27284 27287 27290 27293 27296 27298 27301 27304 27307 27310 27313 27316 27319 27322 27325 27328 27331 27334 27336 27339 27342 27345 27348 27350 27353 27355 27358 27361 27364 27367 27370 27373 27376 27379 27381 27384 27387 27390 27393 27396 27399 27402 27405 27408 27411 27413 27416 27419 27422 27424 27427 27430 27432 27435 27438 27441 27444 27446 27449 27452 27454 27457 27460 27463 27466 27469 27472 27475 27478 27480 27483 27486 27489 27491 27494 27497 27500 27503 27506 27509 27512 27514 27517 27519 27522 27524 27527 27529 27531 27534 27537 27540 27542 27544 27546 27549 27552 27554 27557 27560 27563 27565 27568 27571 27574 27577 27579 27582 27585 27588 27591 27594 27597 27600 27603 27606 27609 27612 27615 27618 27621 27624 27627 27630 27633 27636 27639 27642 27645 27648 27651 27654 27657 27660 27663 27666 27669 27672 27675 27678 27681 27684 27687 27690 27693 27695 27698 27701 27704 27707 27710 27713 27716 27719 27721 27724 27727 27730 27733 27735 27738 27741 27743 27746 27749 27751 27754 27757 27760 27763 27765 27768 27771 27774 27777 27780 27782 27785 27788 27791 27794 27797 27800 27803 27806 27809 27812 27815 27818 27821 27823 27825 27828 27831 27834 27836 27839 27842 27845 27848 27851 27854 27857 27860 27863 27866 27869 27872 27875 27878 27880 27883 27886 27889 27892 27895 27898 27900 27903 27906 27908 27911 27914 27917 27920 27923 27926 27929 27932 27935 27938 27940 27943 27946 27949 27952 27955 27957 27960 27963 27966 27969 27972 27975 27978 27981 27984 27987 27989 27992 27995 27998 28001 28004 28007 28010 28013 28016 28019 28022 28025 28028 28031 28034 28036 28039 28042 28045 28048 28051 28054 28057 28060 28063 28066 28069 28072 28075 28078 28081 28084 28087 28090 28093 28096 28099 28102 28105 28107 28110 28112 28115 28118 28121 28123 28126 28129 28132 28135 28138 28141 28144 28147 28150 28152 28155 28158 28161 28163 28166 28169 28172 28175 28178 28181 28184 28187 28190 28193 28196 28199 28202 28205 28208 28211 28213 28216 28219 28222 28225 28228 28230 28233 28236 28239 28241 28244 28246 28249 28252 28255 28258 28261 28264 28266 28269 28272 28275 28278 28281 28284 28287 28290 28293 28296 28299 28302 28305 28308 28311 28314 28317 28320 28323 28326 28329 28332 28335 28338 28341 28344 28347 28349 28352 28355 28357 28360 28363 28366 28369 28372 28375 28378 28380 28383 28386 28389 28392 28394 28397 28400 28402 28405 28408 28411 28414 28417 28420 28422 28425 28428 28431 28433 28436 28439 28442 28444 28447 28450 28453 28456 28459 28461 28464 28467 28470 28473 28476 28478 28481 28484 28487 28490 28493 28496 28499 28502 28504 28507 28510 28512 28515 28518 28521 28524 28526 28529 28532 28535 28538 28540 28543 28546 28549 28552 28554 28557 28560 28563 28565 28568 28570 28573 28576 28579 28582 28585 28588 28591 28594 28597 28600 28602 28605 28608 28611 28614 28617 28620 28623 28625 28627 28630 28633 28636 28639 28642 28644 28647 28650 28653 28656 28659 28661 28664 28667 28670 28672 28675 28678 28680 28683 28686 28688 28691 28694 28697 28699 28702 28705 28708 28711 28714 28717 28719 28722 28725 28728 28731 28734 28736 28739 28742 28745 28748 28751 28753 28756 28759 28762 28765 28768 28771 28773 28776 28779 28782 28785 28787 28790 28793 28796 28799 28802 28804 28807 28810 28813 28816 28819 28822 28825 28828 28831 28834 28836 28839 28842 28845 28848 28851 28854 28857 28859 28862 28865 28868 28871 28873 28875 28878 28881 28883 28886 28889 28892 28895 28898 28901 28904 28906 28909 28912 28915 28918 28921 28924 28927 28929 28932 28934 28937 28940 28942 28945 28948 28951 28954 28956 28959 28961 28964 28967 28970 28973 28976 28979 28982 28985 28988 28991 28993 28996 28999 29002 29005 29008 29010 29013 29016 29019 29021 29024 29027 29030 29033 29035 29038 29041 29043 29046 29049 29052 29055 29058 29060 29063 29065 29068 29070 29072 29075 29078 29081 29084 29086 29088 29091 29094 29097 29100 29103 29106 29109 29112 29115 29118 29121 29124 29127 29129 29132 29135 29138 29141 29144 29147 29149 29151 29154 29157 29160 29163 29166 29169 29172 29175 29178 29181 29184 29187 29190 29192 29195 29198 29201 29204 29207 29210 29213 29216 29219 29222 29225 29228 29231 29234 29237 29240 29243 29246 29249 29252 29255 29258 29261 29264 29267 29270 29273 29276 29279 29282 29285 29288 29291 29293 29296 29299 29301 29304 29307 29310 29313 29316 29319 29322 29324 29327 29330 29333 29335 29338 29341 29343 29346 29349 29352 29354 29356 29359 29362 29365 29368 29370 29372 29375 29378 29381 29384 29387 29390 29393 29396 29399 29402 29405 29408 29411 29414 29416 29419 29422 29424 29427 29430 29433 29435 29438 29441 29444 29447 29449 29452 29455 29457 29460 29463 29466 29469 29472 29475 29478 29481 29484 29487 29490 29492 29495 29498 29501 29504 29507 29510 29513 29515 29518 29521 29524 29527 29530 29533 29536 29539 29542 29545 29548 29551 29554 29557 29560 29563 29566 29569 29571 29574 29577 29580 29583 29586 29589 29591 29594 29596 29599 29602 29605 29608 29611 29613 29616 29619 29621 29624 29627 29630 29632 29635 29638 29641 29643 29646 29649 29652 29655 29658 29661 29664 29667 29670 29673 29676 29679 29682 29685 29687 29690 29693 29696 29699 29701 29703 29706 29709 29712 29715 29718 29721 29724 29727 29730 29733 29736 29739 29742 29745 29748 29751 29754 29757 29760 29762 29765 29768 29771 29774 29777 29780 29783 29786 29788 29791 29793 29796 29799 29802 29805 29808 29811 29814 29816 29819 29821 29824 29827 29830 29833 29836 29838 29841 29844 29847 29850 29853 29856 29858 29861 29864 29867 29870 29873 29875 29877 29880 29883 29886 29888 29890 29892 29895 29898 29901 29904 29907 29909 29912 29915 29918 29921 29924 29926 29929 29932 29935 29938 29940 29943 29945 29947 29950 29952 29954 29957 29960 29963 29965 29968 29971 29974 29976 29979 29982 29985 29987 29990 29993 29996 29998 30001 30004 30007 30010 30013 30016 30019 30022 30024 30027 30030 30033 30035 30038 30041 30044 30047 30050 30053 30055 30058 30061 30064 30067 30070 30073 30075 30078 30081 30084 30087 30090 30093 30096 30099 30102 30105 30108 30111 30114 30117 30119 30122 30124 30127 30130 30133 30135 30138 30141 30143 30146 30148 30151 30153 30156 30159 30161 30164 30167 30170 30173 30176 30179 30181 30184 30187 30190 30193 30195 30198 30201 30204 30207 30210 30213 30215 30218 30221 30224 30227 30230 30233 30236 30239 30242 30245 30247 30250 30253 30256 30259 30262 30265 30268 30271 30274 30277 30280 30283 30286 30289 30292 30295 30298 30301 30304 30306 30308 30311 30314 30317 30319 30322 30325 30327 30330 30333 30335 30338 30341 30343 30346 30349 30351 30353 30356 30359 30362 30365 30367 30370 30373 30376 30379 30382 30385 30388 30391 30394 30397 30400 30402 30404 30407 30410 30413 30415 30418 30420 30423 30425 30428 30431 30434 30437 30440 30442 30445 30448 30450 30453 30455 30458 30461 30463 30465 30467 30470 30473 30476 30479 30481 30484 30487 30489 30492 30494 30497 30500 30502 30505 30508 30511 30514 30517 30520 30523 30526 30528 30531 30533 30535 30538 30541 30544 30547 30550 30552 30554 30557 30560 30563 30565 30567 30570 30573 30576 30579 30582 30585 30588 30591 30593 30596 30598 30601 30604 30607 30610 30613 30616 30619 30622 30625 30628 30631 30634 30637 30640 30643 30646 30649 30652 30655 30658 30661 30664 30667 30670 30673 30676 30679 30682 30685 30687 30690 30693 30696 30699 30702 30705 30708 30711 30714 30717 30720 30723 30726 30729 30732 30734 30737 30740 30742 30745 30748 30751 30754 30757 30759 30762 30765 30768 30771 30774 30777 30780 30783 30786 30789 30792 30795 30798 30800 30803 30806 30809 30812 30815 30818 30821 30824 30827 30829 30832 30835 30837 30840 30843 30846 30849 30851 30853 30855 30858 30861 30864 30867 30870 30872 30875 30878 30881 
</DataArray>
<DataArray type="UInt32" Name="types" format="ascii">
5 5 3 5 5 5 5 3 5 5 5 5 5 5 5 5 5 5 5 5 3 5 5 5 5 3 5 5 5 5 5 5 5 3 5 5 5 5 5 5 5 5 3 5 5 5 5 5 5 5 5 5 5 5 3 3 5 5 5 5 5 5 5 5 3 5 5 5 5 5 5 5 5 5 5 5 5 5 5 5 5 5 5 5 5 5 5 3 5 5 5 5 5 5 5 5 5 5 5 3 5 5 5 3 5 5 5 5 5 5 5 5 5 5 5 5 5 5 5 5 5 5 5 5 5 5 5 5 5 5 5 5 5 5 5 5 5 5 5 5 5 5 5 5 5 5 5 5 5 3 5 3 5 5 5 5 5 5 5 5 5 5 5 5 5 5 5 5 5 5 5 5 5 5 5 5 5 5 3 5 5 3 5 3 5 5 5 5 5 5 5 5 5 5 5 5 5 5 3 5 3 5 5 5 5 5 5 5 3 5 3 5 5 5 5 5 5 3 5 5 3 5 5 5 5 5 5 3 3 5 5 3 5 3 5 3 3 5 5 5 3 5 5 5 5 5 5 5 5 5 5 5 5 5 3 5 5 5 5 5 5 5 3 5 5 5 5 5 5 5 3 5 5 5 5 3 5 5 5 5 5 5 3 5 5 5 3 5 5 5 5 5 5 5 3 5 5 5 5 5 5 3 5 5 5 5 5 5 3 5 5 5 5 5 5 5 3 5 5 5 5 5 5 5 5 5 5 5 5 5 5 5 5 5 5 5 5 5 3 3 5 5 5 5 5 3 5 5 5 5 5 5 5 3 5 3 5 5 5 3 5 5 5 3 5 3 5 5 5 5 5 5 5 3 5 5 5 5 5 5 5 3 5 5 5 3 5 5 5 5 5 5 5 5 5 5 5 5 5 5 5 5 5 5 5 5 5 5 5 5 5 5 5 5 5 5 5 5 3 5 5 5 5 5 5 5 5 5 5 5 5 5 5 5 5 5 5 5 5 5 5 5 5 5 5 5 5 5 5 5 5 3 5 5 5 5 5 5 5 5 5 5 5 5 5 5 5 5 5 5 5 5 3 5 5 5 5 5 5 5 3 5 5 5 5 5 3 5 5 3 5 3 5 5 5 5 3 5 5 3 5 5 5 5 5 5 3 5 5 5 5 5 5 5 5 5 5 5 5 5 5 5 5 5 5 5 3 5 5 5 5 5 5 5 5 5 5 5 3 3 5 5 5 5 5 5 5 5 5 5 5 5 5 5 5 5 5 5 5 5 5 3 5 3 3 5 5 3 5 5 5 5 5 5 5 5 5 5 5 5 5 3 5 5 5 5 5 5 5 3 3 5 5 5 5 5 5 5 5 3 3 5 5 5 3 5 5 5 5 5 5 5 5 5 5 5 5 5 5 5 5 5 5 5 5 5 5 5 5 5 5 5 5 5 5 5 5 5 5 5 3 5 5 3 5 5 5 5 3 5 5 5 3 5 5 5 3 5 5 3 5 5 5 5 5 5 5 5 5 5 5 5 5 5 5 5 5 5 5 5 5 3 5 5 5 3 5 5 5 5 5 3 5 5 5 5 5 5 3 5 5 5 5 5 5 5 5 5 5 5 5 5 5 5 5 5 5 3 5 5 5 5 5 5 5 5 5 5 5 5 5 5 5 5 5 5 5 5 5 3 5 5 5 5 5 5 5 5 5 5 5 5 5 5 5 3 5 5 5 5 5 5 5 5 5 5 5 5 5 5 5 5 5 5 3 5 5 5 5 5 5 5 3 5 5 5 5 5 5 5 5 5 5 5 5 5 5 5 5 5 5 5 5 5 3 5 5 5 5 5 5 5 5 5 3 5 5 5 5 5 5 5 5 3 5 5 5 5 5 5 5 5 5 5 5 5 5 5 5 5 5 5 5 3 5 5 5 5 5 3 5 5 5 3 5 5 5 5 5 5 3 5 5 5 5 5 5 5 5 5 5 3 5 5 5 5 5 5 5 5 5 5 5 5 3 5 3 5 5 5 5 5 5 5 3 5 3 5 5 5 5 5 5 5 5 5 5 5 5 5 5 5 5 5 5 5 5 5 5 5 5 5 5 5 5 5 5 5 5 5 5 5 5 5 5 5 5 5 5 5 5 5 3 3 5 5 3 5 5 5 5 5 5 5 5 5 5 5 5 5 5 5 5 3 5 5 5 5 3 5 5 3 5 5 5 5 5 5 3 5 3 5 5 3 5 5 5 5 5 5 5 5 5 5 3 5 5 5 5 5 3 3 5 5 5 5 3 5 5 3 5 3 5 5 5 5 5 3 5 5 3 5 5 5 5 5 5 5 5 5 5 5 5 3 5 5 5 5 5 5 5 5 5 5 5 5 5 5 5 3 5 3 5 3 3 5 3 5 5 3 5 5 5 5 5 5 3 5 3 5 5 3 5 5 5 3 5 5 3 5 5 5 5 5 3 5 5 3 5 5 5 5 5 3 5 3 5 5 3 5 5 3 5 5 5 5 5 5 5 5 3 5 5 5 5 5 5 5 5 5 5 3 5 5 5 5 3 5 5 3 5 5 5 5 5 3 5 5 5 5 5 3 5 3 5 5 5 5 5 5 3 5 5 5 5 5 5 5 5 3 3 3 5 5 5 5 3 5 3 5 5 5 3 3 5 5 5 3 5 5 5 3 5 3 5 3 3 5 3 5 5 5 5 3 5 5 5 3 5 3 5 3 5 5 5 5 5 5 5 3 5 5 5 5 3 5 5 5 5 5 5 5 5 3 5 3 3 5 5 5 3 5 5 5 5 3 3 5 5 3 3 5 5 5 5 5 3 5 5 5 5 5 5 5 5 3 5 3 5 5 5 5 5 5 5 5 5 5 5 5 5 5 5 5 5 3 5 5 5 5 5 5 5 5 5 5 5 5 5 5 5 5 5 5 5 5 5 5 5 5 5 3 5 3 5 5 5 5 5 3 3 5 5 5 5 3 3 5 3 5 5 3 5 5 3 5 5 5 5 3 3 5 5 5 5 5 5 5 5 3 5 5 3 5 5 5 3 5 5 3 5 5 5 5 5 5 3 5 5 5 5 5 5 3 5 5 5 5 5 3 5 5 3 3 5 5 3 5 5 3 5 5 5 5 5 5 5 5 5 5 5 5 3 5 3 5 5 3 5 5 5 5 5 5 3 5 5 5 3 3 3 5 5 5 3 3 5 3 3 5 5 3 5 5 3 5 3 5 3 5 5 5 3 3 5 5 3 3 3 3 5 5 5 3 3 5 5 3 3 3 5 3 3 5 5 3 5 3 3 5 3 5 5 3 5 3 3 5 5 5 5 3 3 5 5 3 5 5 5 3 5 5 5 5 5 5 5 5 5 5 5 5 5 5 5 5 5 5 5 5 5 5 5 5 5 5 5 5 5 5 5 5 5 5 5 5 5 5 5 5 5 5 5 5 5 5 5 5 5 5 5 5 5 5 5 5 5 5 3 5 3 5 5 5 5 5 5 5 5 5 5 5 5 5 5 3 5 5 5 5 5 5 5 5 5 5 3 5 5 5 5 5 5 5 5 5 5 5 5 5 5 5 5 5 5 5 5 5 5 5 5 5 5 5 5 5 5 5 5 5 5 5 5 5 5 5 5 5 5 5 5 5 5 3 5 5 5 3 5 3 5 5 5 5 5 3 5 3 5 5 5 5 5 5 5 5 5 5 5 5 5 5 5 5 5 5 5 5 5 5 5 5 5 3 5 5 5 5 5 5 3 5 3 5 5 5 3 5 5 3 5 5 5 5 5 5 5 5 5 5 5 5 5 5 5 5 5 5 5 5 5 5 5 5 5 5 5 5 5 5 5 5 5 5 5 5 5 3 5 3 5 5 5 5 5 5 5 5 5 5 3 5 5 5 5 5 5 5 5 5 5 5 5 5 5 5 5 5 3 5 5 5 3 3 5 3 5 5 5 5 5 5 5 5 3 5 5 5 5 3 5 5 5 5 5 5 5 3 5 5 3 5 3 5 5 3 5 5 3 3 5 5 5 5 5 5 5 5 5 5 5 5 5 5 5 3 5 3 5 5 5 3 5 3 5 5 5 5 5 5 5 5 5 5 5 5 3 5 3 5 5 5 5 5 5 5 5 3 5 5 3 5 5 5 3 3 5 5 5 5 5 5 5 5 5 5 5 5 5 5 5 5 5 5 5 5 5 3 5 5 5 5 5 3 5 3 5 5 5 5 3 5 5 3 5 5 5 5 5 3 5 5 5 5 3 5 5 5 5 5 5 5 3 5 5 5 3 5 5 5 5 5 5 5 5 5 5 5 3 5 5 5 5 5 5 5 5 3 5 5 5 5 5 5 3 5 5 5 5 5 5 3 5 5 5 5 5 5 5 5 5 5 5 3 5 5 5 3 5 5 5 3 5 3 5 5 5 5 5 5 3 5 5 5 5 5 5 5 5 5 5 5 5 5 5 5 3 5 5 5 5 5 3 5 5 5 5 5 5 5 5 3 5 5 5 5 5 5 5 5 5 5 5 5 5 5 5 5 3 5 5 5 5 3 5 5 5 5 5 5 5 5 5 5 5 5 5 5 5 5 5 5 5 5 5 5 5 5 5 5 3 5 5 5 3 5 3 5 5 5 5 3 5 3 5 5 5 5 5 3 5 5 5 5 5 5 5 5 5 3 5 5 5 5 5 5 5 5 5 5 5 5 5 5 5 5 5 5 5 5 5 5 5 5 3 3 5 5 5 5 5 3 5 5 5 3 5 5 5 3 5 5 3 5 3 5 5 5 5 3 5 5 5 5 3 3 5 5 5 5 5 5 5 5 5 5 5 5 3 5 5 5 5 3 5 5 5 5 5 3 5 5 3 5 5 5 5 5 5 5 5 5 5 5 5 5 5 5 5 3 5 5 3 5 5 5 3 5 5 5 5 5 5 5 5 5 5 5 3 5 5 5 5 5 5 5 5 5 5 5 5 5 5 5 5 3 5 5 3 5 3 5 5 3 5 3 5 3 5 5 5 5 5 5 5 5 5 5 5 5 5 3 5 3 3 5 5 3 3 5 5 3 3 5 5 5 3 5 3 5 5 3 5 5 5 5 3 3 5 3 5 5 3 3 5 5 3 5 5 5 3 5 5 5 3 3 3 5 5 3 5 3 3 5 5 5 5 5 5 5 5 5 5 5 3 3 5 3 5 3 5 3 5 5 5 3 5 5 5 5 5 3 5 5 5 5 5 5 5 5 5 5 5 5 5 5 5 5 5 5 5 5 5 5 5 5 3 5 5 5 5 5 5 5 5 5 5 5 5 5 5 5 5 5 5 3 5 5 5 5 5 5 5 5 5 5 5 3 5 5 5 5 5 3 5 5 5 5 5 5 5 5 5 5 5 5 5 5 3 5 5 5 5 5 5 5 5 5 5 5 5 5 5 3 5 3 5 5 5 5 3 5 5 5 5 5 5 5 5 5 5 5 5 3 5 3 5 5 5 5 3 5 5 5 5 5 5 5 3 5 5 5 5 5 5 5 3 5 5 5 3 5 3 5 5 5 5 5 5 5 5 5 3 5 5 5 5 5 5 5 5 5 5 5 5 5 5 5 5 5 5 5 5 5 5 5 5 5 5 5 5 5 5 5 5 5 5 5 5 5 5 5 5 5 5 5 3 5 5 3 5 5 5 5 5 5 5 5 5 5 3 5 5 5 5 5 3 5 5 3 5 5 5 5 5 5 3 5 5 5 5 3 5 5 3 5 3 5 5 5 5 5 5 5 5 5 5 5 3 5 3 5 5 5 5 3 5 5 5 5 5 5 5 5 5 5 5 5 5 5 5 5 5 5 5 5 5 3 5 5 5 5 3 5 5 5 5 5 5 5 3 5 5 5 5 5 3 5 5 5 3 5 5 5 3 5 5 3 5 5 5 3 5 5 3 5 5 5 5 5 5 5 5 5 5 5 5 5 5 5 5 5 5 5 5 5 5 5 5 5 5 5 5 5 5 5 3 5 5 5 5 5 5 5 5 5 5 5 3 5 5 5 5 5 5 5 5 5 5 5 5 5 5 5 3 3 5 5 5 3 5 5 5 5 3 5 5 3 5 5 5 5 5 5 5 5 5 5 5 5 5 3 3 5 5 5 5 5 5 5 5 5 5 5 3 5 5 3 5 5 5 5 5 5 5 5 5 5 5 5 5 5 5 5 5 5 5 3 5 5 5 3 5 5 5 5 5 3 5 5 5 5 5 5 5 5 5 5 5 5 5 5 5 5 5 5 5 5 3 5 5 3 5 5 5 5 5 5 5 5 5 5 5 5 5 5 5 5 5 5 5 3 5 5 5 5 5 5 5 5 5 5 5 5 5 5 5 5 5 5 5 5 5 5 5 5 5 5 5 5 5 5 5 5 3 5 5 5 5 5 5 3 5 5 5 5 5 3 5 5 5 5 3 5 5 5 5 5 5 5 5 5 5 5 5 5 5 5 5 5 5 5 5 5 5 3 5 5 5 5 5 5 5 3 5 5 3 5 5 3 5 5 5 5 5 5 3 5 5 5 5 5 5 5 5 5 5 3 5 3 5 5 5 5 5 5 5 5 3 5 5 3 5 5 5 3 5 5 5 3 5 5 5 3 3 5 5 3 5 5 3 5 5 3 5 5 5 5 5 5 5 5 5 3 5 5 5 3 5 5 5 3 5 5 5 3 5 3 5 5 3 5 5 5 5 5 5 5 5 3 5 5 3 5 5 5 5 5 5 5 5 5 5 5 5 5 3 5 3 5 5 5 3 3 5 3 5 5 5 5 3 5 3 5 5 5 5 5 5 5 5 5 3 5 5 5 5 5 5 5 5 5 5 5 5 5 5 5 5 5 5 5 5 5 5 5 5 5 5 5 5 3 5 5 5 5 5 5 3 5 5 5 5 5 5 3 5 5 5 5 5 5 3 5 5 5 3 5 5 5 3 5 5 3 5 5 5 5 5 5 3 5 5 5 3 3 5 5 5 5 5 5 5 5 5 5 5 5 5 5 5 5 5 3 5 5 5 5 5 5 5 3 5 5 5 5 5 3 5 5 5 5 5 3 5 5 3 5 5 5 5 3 5 5 5 5 5 5 3 5 3 5 3 3 5 3 5 5 5 3 5 5 5 5 5 3 5 5 5 3 5 5 5 5 3 3 3 5 5 5 5 3 3 5 3 5 5 5 5 5 5 3 5 3 5 5 3 5 5 5 3 5 5 3 5 5 5 5 5 5 5 5 5 5 5 5 3 5 5 5 5 3 5 5 5 5 3 5 5 5 5 5 5 5 5 5 3 3 3 5 5 5 3 3 5 5 3 5 3 5 5 5 5 5 5 5 3 5 5 5 5 5 5 5 5 5 5 5 5 5 5 5 5 3 5 5 5 5 5 5 5 5 5 3 5 5 3 5 3 5 3 5 5 3 5 5 5 3 3 5 5 3 5 5 5 3 5 5 5 5 3 5 5 5 5 5 5 5 5 5 5 5 3 3 5 5 5 5 5 5 5 5 5 5 5 5 5 5 5 5 5 5 5 5 5 5 5 5 5 5 5 5 5 5 5 5 3 5 5 5 5 5 5 5 5 5 5 5 5 5 5 5 5 5 5 5 3 5 5 5 5 5 5 3 3 5 5 3 3 5 5 5 3 5 5 5 5 5 5 5 5 5 5 5 5 5 5 5 5 5 5 5 5 5 5 5 3 5 3 5 3 5 5 5 5 5 5 3 5 3 3 5 5 3 5 5 5 5 5 5 3 3 5 5 3 3 5 5 3 3 5 5 5 5 5 5 5 5 3 5 5 5 5 5 3 5 5 3 5 5 5 3 5 5 5 5 5 5 5 5 5 5 5 5 5 5 5 5 5 5 5 5 5 5 5 5 5 5 5 5 5 5 5 5 5 5 3 5 5 3 5 3 3 5 5 5 5 5 5 5 5 5 3 5 5 5 5 5 3 5 5 5 5 5 5 5 3 5 5 5 5 5 5 5 5 3 5 5 5 5 5 3 5 5 5 5 5 5 5 5 5 5 5 5 5 5 5 5 5 5 5 5 5 5 5 5 5 5 5 5 5 5 3 3 5 5 5 5 5 5 5 3 5 5 5 3 5 3 5 5 5 5 5 5 5 5 5 5 5 5 5 5 5 5 5 5 5 5 5 3 5 5 5 5 5 5 3 5 5 5 5 5 5 5 3 5 5 3 5 5 5 5 5 5 3 5 5 5 3 5 5 3 3 5 5 5 5 5 5 5 5 5 5 5 5 5 5 5 5 5 5 5 5 5 5 5 5 5 5 5 5 3 5 5 5 5 5 5 5 5 5 5 5 5 5 5 5 5 5 5 5 3 5 5 5 3 3 5 5 5 5 5 3 5 5 5 3 5 5 5 5 5 3 5 5 5 5 5 5 5 5 5 5 5 5 5 5 5 5 5 5 5 5 5 3 5 5 5 5 5 5 3 5 5 5 5 5 5 5 5 5 5 5 5 3 5 5 5 5 3 5 3 5 5 5 5 5 5 5 5 5 5 5 5 5 3 5 5 5 5 5 3 5 5 5 5 5 5 3 5 5 5 5 5 5 5 5 5 5 5 5 3 5 5 3 5 5 3 5 5 3 5 5 5 5 5 5 5 5 5 5 3 5 5 5 5 5 5 5 5 3 5 5 5 3 5 5 5 3 5 5 3 5 5 5 3 5 5 5 5 5 3 5 3 5 5 5 5 3 3 5 5 5 3 5 5 5 5 3 5 5 5 5 5 5 5 5 5 5 5 5 5 5 5 3 5 5 3 3 5 5 5 5 3 5 5 5 5 5 5 3 5 5 5 5 5 5 3 5 5 5 5 5 5 5 5 3 5 5 5 5 5 5 5 5 5 5 3 5 5 3 5 5 3 5 5 5 5 5 3 3 5 5 3 3 5 3 5 3 5 3 3 5 5 3 5 3 5 3 5 3 5 3 5 5 3 5 3 5 3 5 5 5 5 5 5 3 5 5 5 3 5 5 5 5 5 5 5 5 5 3 5 5 3 5 3 5 3 5 5 5 3 3 5 5 5 5 5 5 5 5 5 5 5 3 5 5 5 5 5 3 5 5 5 5 5 5 5 5 5 5 5 5 5 5 5 5 5 3 5 5 5 5 5 5 3 5 5 5 3 5 5 3 5 5 5 3 5 3 3 5 5 5 5 5 5 5 5 5 3 5 5 5 5 5 5 5 3 5 3 5 3 5 5 5 5 5 5 5 5 5 5 5 5 5 5 5 5 5 5 5 5 5 5 5 5 5 5 5 5 5 5 5 5 5 5 5 5 5 3 5 5 3 3 5 5 5 5 3 5 5 5 5 5 3 5 5 3 3 5 5 5 5 5 5 3 5 3 5 5 3 3 5 3 5 5 5 3 5 5 5 5 3 5 5 5 3 5 5 3 3 5 5 5 3 5 5 5 5 3 5 5 3 5 5 5 3 5 5 3 5 5 5 3 5 3 5 5 3 5 5 3 3 5 5 3 5 3 3 5 5 5 5 3 5 5 5 5 3 5 5 5 5 5 5 5 5 5 5 5 5 3 5 5 5 5 3 5 3 5 5 5 5 5 3 3 3 5 5 5 5 5 5 5 5 3 5 5 5 5 5 5 3 5 5 5 5 3 5 5 5 5 5 5 5 5 5 5 5 5 5 5 5 5 5 5 3 5 3 5 5 3 3 5 3 5 5 3 5 3 5 3 5 3 5 5 5 5 3 5 5 5 3 5 5 5 5 5 5 5 5 5 5 5 5 5 5 5 5 5 5 5 5 5 5 5 5 5 3 5 5 5 5 5 3 5 5 5 5 5 5 5 5 5 5 5 3 5 5 5 5 5 3 5 5 3 3 5 5 5 3 5 5 3 3 5 3 5 5 5 5 5 5 5 5 5 5 5 5 5 5 5 5 3 5 5 5 5 3 5 5 5 5 5 5 5 5 3 3 5 5 3 5 5 5 5 5 5 5 5 5 3 3 5 5 3 5 5 5 3 5 5 5 5 5 5 5 5 5 5 5 5 5 5 5 5 5 5 5 5 5 5 5 5 5 5 3 5 5 5 5 5 5 5 5 5 5 5 5 5 5 5 5 5 5 5 5 3 5 5 5 3 3 5 5 5 3 5 5 3 5 5 5 5 5 3 5 3 5 5 5 5 5 5 5 5 3 5 5 5 3 5 5 3 5 3 5 5 5 3 5 5 5 3 5 5 5 5 5 5 5 5 5 5 5 5 5 5 5 5 5 3 5 5 5 5 5 5 5 5 5 3 5 5 5 5 5 5 5 5 3 5 5 5 5 5 5 5 5 5 5 5 5 5 3 5 5 5 3 5 5 5 5 5 5 5 5 5 5 5 5 5 5 5 5 5 5 5 3 5 5 5 3 5 3 5 5 5 3 5 5 5 3 3 5 5 5 5 5 5 5 5 5 5 5 5 5 5 5 5 5 5 5 5 5 5 3 5 5 5 5 3 5 5 5 5 3 5 5 5 5 5 5 5 3 5 5 5 5 3 5 5 5 5 5 5 3 5 5 5 5 5 5 3 5 5 5 3 5 5 5 5 5 5 5 5 5 3 5 5 5 5 5 5 3 5 5 5 5 5 5 5 5 5 5 5 3 5 5 3 5 5 5 5 5 3 5 5 3 5 5 5 5 5 5 5 3 3 5 5 5 5 3 5 5 5 5 5 5 3 5 5 5 5 5 5 5 5 5 5 3 5 5 5 5 5 5 5 5 5 5 5 5 3 5 3 5 5 5 3 5 5 3 5 5 5 5 3 5 5 5 5 5 3 5 5 5 5 5 5 5 5 3 5 5 5 5 3 5 5 5 5 5 5 5 3 5 5 5 5 5 5 5 5 5 5 3 5 5 5 3 5 3 5 5 5 5 5 5 3 5 3 5 3 5 5 5 5 3 5 5 5 5 5 5 5 5 5 5 5 5 5 5 3 5 3 5 5 5 5 5 5 5 3 5 5 5 5 5 5 5 5 5 5 5 5 5 3 5 5 5 5 3 5 5 5 5 5 5 5 5 5 5 5 5 5 5 5 5 5 5 5 5 5 5 5 5 3 5 5 5 5 3 5 5 5 3 5 5 3 5 5 3 5 5 5 5 5 5 5 5 5 5 5 5 5 5 5 3 5 5 3 5 5 5 5 5 5 5 3 5 5 5 5 5 3 5 5 5 3 5 5 5 3 5 5 5 5 5 5 5 3 5 5 5 3 5 3 3 5 5 5 5 5 3 5 5 5 5 5 5 5 5 5 5 3 5 5 5 5 5 5 5 5 5 5 5 5 5 5 5 5 5 5 5 5 5 5 5 5 5 5 5 5 5 5 5 5 5 5 5 5 5 3 5 5 5 5 5 5 5 5 5 5 5 5 5 5 5 5 3 5 5 5 5 5 5 5 5 5 3 5 5 5 5 5 5 5 3 5 5 5 5 5 5 5 5 5 5 5 5 5 5 5 5 5 5 5 5 5 3 5 5 5 5 5 5 5 5 5 5 5 5 5 5 5 5 5 3 5 5 5 5 5 5 5 5 5 5 5 5 5 5 5 5 5 5 5 5 5 5 5 5 5 5 5 5 5 5 5 5 5 5 5 5 5 5 5 5 5 5 5 5 5 5 3 5 5 5 5 5 5 5 5 5 5 5 5 5 3 5 3 5 5 5 5 5 3 5 5 5 5 5 3 3 5 5 5 5 5 5 5 5 5 5 5 5 5 5 5 5 5 3 3 5 5 5 5 5 5 3 5 3 5 5 5 5 5 5 5 5 5 3 5 5 5 5 5 5 5 5 5 5 5 5 5 5 5 5 5 5 5 3 5 5 5 5 5 3 5 3 5 5 5 5 5 5 5 3 5 5 5 3 5 5 5 3 5 5 3 5 5 5 3 5 5 3 5 3 5 3 5 5 3 5 5 5 5 5 5 5 5 5 5 5 5 5 5 5 5 5 5 5 5 5 3 5 3 5 5 5 5 5 5 5 3 5 5 5 5 5 5 5 5 5 5 5 5 5 5 5 5 5 5 5 3 5 5 5 3 5 5 5 5 5 5 5 5 5 5 3 5 5 5 5 3 5 5 3 5 5 5 5 5 3 5 5 5 5 3 5 3 5 5 3 5 5 5 5 5 5 5 3 5 5 3 5 3 5 5 5 5 5 5 5 5 5 5 5 5 5 5 5 5 5 5 3 5 5 5 5 5 5 5 3 5 5 5 5 3 5 5 5 5 5 5 5 5 5 3 5 5 5 5 3 5 5 5 5 5 5 5 5 5 5 5 5 3 5 5 5 5 5 5 5 5 5 3 5 5 5 5 5 5 5 5 5 5 5 5 3 5 5 3 5 5 5 5 5 5 5 5 5 3 3 3 5 5 5 3 5 5 5 5 5 5 3 5 5 5 3 3 5 5 5 5 5 5 5 5 5 5 5 5 3 5 5 5 3 3 5 5 5 5 5 3 5 5 5 5 3 5 5 5 5 3 5 5 5 5 5 3 3 3 5 5 5 3 3 5 5 5 5 5 5 5 5 5 3 3 5 5 5 3 3 5 5 5 5 5 5 5 5 5 5 5 5 5 5 5 5 5 3 5 3 5 5 5 5 3 5 5 5 5 5 5 5 3 5 5 5 5 5 5 5 3 5 5 3 5 3 3 5 5 5 3 3 5 5 5 3 3 5 5 5 5 5 5 5 5 5 5 3 5 5 5 5 5 5 5 3 5 5 5 5 3 5 5 5 5 5 5 3 5 5 5 5 3 5 3 5 5 5 5 5 5 5 5 5 5 5 5 5 5 3 5 5 5 5 5 5 5 3 5 5 5 5 3 5 5 5 3 5 5 5 5 5 5 5 5 5 5 5 5 5 5 5 5 5 5 5 5 5 5 3 5 3 5 5 3 5 5 5 3 5 5 3 5 5 5 5 5 5 5 5 5 5 5 5 5 5 5 5 5 5 5 5 3 3 3 5 5 5 5 5 5 5 5 5 5 5 5 5 3 5 5 5 3 5 5 3 5 5 5 5 3 5 5 3 3 5 5 5 5 3 5 5 3 5 3 5 5 5 5 5 5 5 5 5 5 5 5 3 5 5 5 5 5 5 5 3 5 3 5 5 5 5 3 5 5 5 5 5 5 5 5 5 5 5 5 5 5 5 5 5 5 5 5 5 5 5 3 5 5 5 3 5 3 5 5 5 3 5 5 5 5 5 3 5 5 3 5 5 5 5 5 5 5 5 3 5 5 5 5 5 3 5 5 5 5 5 5 5 5 5 5 5 5 5 5 3 5 5 5 5 3 5 5 5 5 5 5 5 5 5 5 5 5 3 5 5 5 5 3 5 5 5 5 5 5 5 5 5 5 5 5 5 3 5 5 3 5 5 5 3 5 5 5 5 5 5 5 5 5 5 5 5 5 3 3 5 3 3 5 5 5 3 3 5 3 5 3 5 3 5 5 5 3 5 3 5 5 5 5 3 5 5 5 5 5 5 3 5 5 5 5 5 3 5 5 3 5 5 3 5 5 3 5 5 5 5 5 3 5 3 5 5 5 5 5 5 5 5 5 5 5 5 5 3 5 5 3 5 5 5 5 5 5 5 5 5 3 5 5 5 5 5 5 5 5 5 3 5 5 3 5 3 5 5 5 5 5 5 5 3 5 5 5 5 5 5 5 3 5 3 5 5 3 5 5 5 3 5 5 5 5 3 5 5 5 5 5 3 5 5 5 5 5 5 5 5 5 5 5 5 5 5 5 5 5 5 5 5 5 3 5 5 3 5 5 5 3 5 5 5 5 3 5 5 5 5 5 5 5 5 5 5 5 5 5 5 5 5 5 5 5 5 5 5 5 3 5 5 5 5 5 5 3 5 5 5 5 5 5 5 5 5 5 5 5 5 3 5 3 5 5 3 5 5 5 5 3 3 5 3 5 3 5 5 5 5 5 3 5 5 3 3 5 5 5 5 5 3 5 5 3 5 5 5 5 5 5 5 5 3 3 5 5 5 3 5 3 5 5 5 5 5 3 5 3 5 5 5 5 5 3 3 5 5 5 5 3 5 5 5 5 3 5 5 5 5 5 5 5 5 5 5 5 5 5 5 5 5 5 3 5 5 3 5 5 5 3 5 5 5 5 5 5 5 5 5 5 5 5 5 5 5 5 5 5 5 3 5 5 5 5 5 5 5 5 5 5 5 5 5 5 3 3 5 5 5 3 5 5 5 5 5 3 5 5 5 5 5 5 5 5 5 5 5 3 5 5 3 5 5 5 5 5 5 5 5 5 5 3 5 5 5 3 5 3 5 3 5 5 5 3 3 5 3 5 5 3 5 5 3 3 5 5 5 3 5 5 3 5 3 5 5 5 3 5 5 3 3 5 3 5 5 3 5 3 5 5 5 5 5 5 5 5 5 3 5 5 5 5 5 3 5 5 5 5 5 5 5 5 5 5 3 5 5 5 5 3 3 5 5 3 5 3 5 5 5 5 5 3 5 5 3 5 3 5 5 5 5 5 5 5 3 5 5 5 5 5 5 5 5 5 3 5 3 5 3 5 3 5 5 5 5 3 5 5 5 5 5 3 3 5 5 5 5 5 5 3 5 5 5 5 5 3 5 5 5 5 3 5 5 3 5 3 5 5 5 3 5 3 5 5 3 3 3 5 5 5 5 5 5 3 3 3 5 5 5 5 3 5 3 5 3 5 5 5 5 5 5 3 5 5 5 5 5 5 5 5 5 5 5 5 5 5 5 5 5 5 5 5 5 5 5 5 5 5 5 5 5 5 5 5 5 5 5 5 5 5 5 5 5 5 5 5 5 5 5 5 5 3 5 5 5 3 3 5 5 5 5 5 5 5 5 5 5 5 5 5 5 5 5 5 5 5 3 5 5 5 5 5 5 5 3 5 5 3 5 5 3 5 5 3 5 3 5 5 3 5 5 5 3 5 3 5 3 3 5 5 5 3 3 5 5 3 5 5 3 5 5 5 5 5 5 5 5 5 5 5 5 3 5 5 5 5 3 5 5 5 5 3 5 5 5 5 5 5 5 5 5 3 5 3 5 5 5 5 3 5 5 5 3 5 5 5 5 5 5 3 5 5 3 5 5 5 3 5 5 5 5 5 5 5 3 5 5 5 5 5 3 5 5 5 5 5 5 5 5 5 5 5 5 5 5 5 3 5 5 5 5 5 3 5 5 3 5 3 5 5 5 5 3 3 5 5 3 5 5 5 5 5 5 5 5 5 5 5 3 5 3 5 5 5 5 5 3 5 5 5 3 5 5 5 3 5 5 5 5 5 5 5 5 5 5 5 5 5 3 5 5 5 5 5 5 5 3 5 3 5 5 5 5 5 5 5 3 3 5 5 5 5 5 5 5 5 5 3 5 5 5 5 5 5 3 3 3 5 3 5 5 5 5 5 5 3 5 3 5 3 5 3 5 5 5 5 5 5 3 5 5 3 5 5 5 5 3 5 5 5 5 5 5 5 5 5 5 5 5 5 5 5 5 5 5 5 5 5 3 5 3 5 5 5 5 5 5 5 5 5 5 5 5 5 5 5 5 5 5 5 5 5 5 5 5 5 5 5 5 5 5 5 5 5 5 5 5 5 5 5 5 5 5 5 5 5 5 5 5 5 5 5 5 5 5 5 5 5 5 3 5 5 5 5 5 5 5 5 5 5 5 5 5 5 5 5 5 5 5 5 5 5 5 3 5 5 5 3 5 3 5 5 5 5 5 5 5 5 5 5 5 5 5 5 5 5 5 5 5 5 5 5 5 5 5 5 5 5 5 5 5 5 5 5 5 5 5 5 5 3 5 3 5 5 5 5 5 5 5 5 5 5 5 5 5 5 5 5 5 5 5 5 5 5 5 5 5 3 5 5 5 5 5 5 5 5 5 5 5 5 5 5 5 5 5 5 5 5 5 5 5 5 5 5 5 5 5 5 5 5 5 5 5 5 5 5 5 5 5 5 5 5 5 5 5 5 5 5 5 5 5 5 5 5 5 5 5 5 5 5 5 5 5 5 5 5 5 3 5 5 5 5 5 5 5 3 5 5 3 5 5 5 5 5 5 5 5 5 5 5 5 5 5 5 5 5 5 5 5 3 5 5 5 5 5 5 5 5 5 5 5 5 5 5 5 5 5 5 5 5 5 5 5 5 5 5 5 5 5 5 5 5 3 5 5 5 5 3 5 3 5 5 5 5 5 5 3 5 5 3 5 5 3 3 5 3 5 5 5 3 5 5 5 5 5 5 5 5 5 5 5 5 5 5 5 3 5 5 5 5 5 5 5 5 3 5 5 5 5 5 5 5 5 5 5 5 5 5 5 5 5 5 5 5 5 5 5 5 5 5 5 5 5 5 5 5 5 5 5 5 5 3 5 5 5 5 5 5 5 3 5 5 3 5 3 5 5 5 5 5 5 5 5 5 5 5 3 3 5 5 3 5 5 3 3 5 5 5 5 3 5 3 5 5 3 5 3 3 5 3 5 3 5 5 5 5 5 5 5 3 5 3 5 5 5 5 5 3 5 5 5 3 5 5 3 5 3 5 3 3 5 5 3 5 5 5 5 5 5 3 5 5 5 5 5 5 5 5 3 3 5 5 5 3 5 5 5 5 3 3 5 3 5 5 5 3 5 5 5 5 5 5 5 5 5 5 5 5 5 5 5 5 3 5 5 5 5 5 5 3 5 3 5 5 5 3 3 5 5 3 5 3 5 5 5 5 5 5 5 5 5 5 5 5 3 3 5 5 5 5 5 3 5 5 5 5 5 5 5 3 5 5 5 3 5 3 5 5 3 5 5 5 5 5 5 5 5 5 3 5 5 3 5 5 5 5 5 5 5 5 5 5 5 3 5 5 5 5 5 5 5 5 5 5 5 5 5 5 5 5 5 5 5 5 5 5 3 5 5 5 5 5 5 5 5 5 5 5 3 5 5 5 5 3 5 5 5 5 5 5 5 5 5 5 5 3 5 5 5 5 5 3 5 3 5 5 5 5 5 5 5 5 5 3 5 5 3 5 5 3 5 5 5 5 3 5 5 5 5 5 5 5 5 5 5 5 5 5 5 5 5 5 5 5 5 5 3 5 5 3 5 3 5 5 5 5 5 5 5 5 5 3 5 5 3 3 3 5 5 5 3 5 5 5 5 5 5 3 3 5 3 5 5 3 5 5 3 5 5 5 5 3 5 5 5 5 3 5 5 5 5 5 5 5 5 5 5 5 3 5 5 3 5 3 3 5 5 3 3 3 5 5 5 5 5 5 5 5 5 5 3 5 5 5 5 5 5 5 5 5 3 5 5 5 5 5 3 5 5 5 5 5 5 5 5 5 5 3 5 5 5 5 5 5 5 5 5 5 5 5 5 5 5 5 5 5 5 5 5 5 5 5 3 3 5 5 5 5 5 5 5 5 3 5 5 5 5 5 5 5 5 5 5 5 5 5 5 5 5 3 5 5 5 5 3 5 5 5 3 3 5 5 5 5 5 5 3 5 3 5 5 5 3 5 5 5 5 5 5 5 5 3 5 3 3 5 5 5 5 5 5 5 5 5 5 5 5 3 5 5 3 5 3 5 5 5 5 5 5 5 5 5 5 5 5 5 5 5 5 5 5 5 5 5 5 5 3 5 5 5 5 5 3 5 5 5 5 5 5 5 5 5 5 3 5 5 5 3 5 5 5 5 5 5 5 5 5 5 5 3 3 5 5 5 5 5 3 5 5 5 3 5 5 5 5 5 5 5 5 5 5 3 5 5 5 5 5 5 5 3 3 5 3 5 5 5 5 3 5 5 5 5 5 3 5 5 5 5 5 5 5 5 5 5 3 5 5 5 5 5 5 5 5 5 5 3 5 5 5 5 5 5 5 3 5 5 5 5 5 5 5 5 5 5 5 5 5 5 5 5 5 5 5 5 3 5 5 5 3 5 5 5 5 5 5 5 5 5 5 5 5 5 3 5 3 3 5 3 3 5 5 5 5 5 3 5 5 5 5 5 5 5 3 5 5 3 5 5 3 5 5 3 5 5 3 3 3 3 5 5 3 3 5 5 3 5 5 3 5 5 5 5 3 3 3 3 5 5 5 3 5 3 5 3 5 3 3 5 5 5 5 5 5 5 3 5 5 3 5 3 5 5 3 3 5 5 5 5 5 5 5 5 5 5 5 5 5 5 5 5 5 3 5 5 5 5 5 5 5 5 5 5 5 5 5 5 5 5 5 3 5 5 5 5 5 5 5 5 5 5 5 5 5 5 3 3 5 5 5 5 3 5 3 5 5 5 3 3 5 3 5 5 5 5 5 5 5 5 5 5 5 5 5 5 5 5 5 5 5 3 5 3 5 5 5 5 3 5 5 5 5 5 5 5 5 5 5 5 5 5 5 5 5 5 5 5 5 3 5 5 5 5 5 5 5 5 5 5 5 5 5 5 3 5 5 5 5 5 5 5 5 5 5 5 5 5 5 5 5 5 5 5 5 5 5 5 5 5 5 5 5 5 5 5 5 5 5 5 5 5 5 5 5 5 5 5 5 5 5 5 5 5 5 5 5 5 5 5 5 5 5 5 5 5 5 3 5 5 5 3 5 5 3 5 5 5 5 5 5 5 5 5 5 5 3 5 5 5 5 3 5 5 5 5 5 5 5 5 5 5 5 5 5 5 5 5 5 5 5 5 5 5 5 5 5 5 5 5 5 3 5 5 5 5 3 5 5 5 5 5 5 5 5 5 5 3 5 5 3 5 5 5 5 5 5 5 5 5 5 5 5 3 5 5 5 5 5 5 5 5 3 5 5 5 5 5 5 5 5 5 5 3 5 3 5 5 5 3 5 5 5 3 5 3 5 3 3 5 5 5 5 5 3 5 5 5 5 5 5 5 5 5 5 5 5 5 5 5 5 5 5 5 5 5 5 5 3 5 5 3 5 5 5 3 5 3 5 5 5 5 5 5 5 5 5 5 5 5 3 5 5 5 5 5 5 5 5 5 5 5 5 5 5 5 5 5 5 5 3 5 5 5 5 5 5 5 5 5 5 5 5 5 5 5 5 5 5 5 5 5 5 5 5 5 5 5 3 5 5 5 5 5 5 5 5 5 5 5 5 5 5 5 5 5 5 3 5 5 5 3 5 5 5 3 3 5 5 5 5 5 3 5 5 5 5 5 5 5 3 3 5 5 5 3 5 3 5 5 5 5 5 5 3 3 5 5 3 3 5 5 5 5 5 5 5 5 5 5 3 5 5 5 5 5 5 3 5 5 5 5 5 5 5 5 5 5 5 5 5 5 5 5 5 3 5 5 5 5 3 5 5 3 5 5 5 5 5 5 5 5 5 5 5 3 5 3 5 3 5 5 5 5 5 5 5 5 5 5 5 5 5 5 5 5 5 5 5 3 5 5 3 5 5 5 3 5 5 3 5 5 5 5 3 5 5 5 5 5 5 5 3 5 5 5 5 5 5 5 5 5 5 5 5 5 5 5 5 5 5 5 5 5 5 5 5 5 5 5 5 5 3 5 5 5 5 5 5 5 5 5 5 5 5 5 5 5 5 5 5 5 5 5 5 5 5 5 5 5 5 5 5 5 5 5 5 5 5 5 3 3 3 5 5 3 5 5 5 3 5 3 5 5 5 5 5 3 5 5 5 5 5 5 5 3 5 5 5 5 5 5 5 5 5 5 5 5 5 5 3 5 5 5 3 5 3 5 5 5 5 5 5 5 5 3 5 5 5 5 5 5 5 3 5 3 5 3 5 5 5 5 5 5 5 5 3 5 5 3 3 3 5 3 5 3 5 5 5 5 5 5 5 5 5 5 5 5 5 5 5 5 5 5 5 5 5 3 5 5 3 3 5 5 5 3 5 5 5 5 5 5 5 3 5 3 5 5 5 5 3 5 5 3 5 5 5 5 5 5 5 3 5 5 3 5 5 5 3 5 5 5 5 5 5 5 5 5 3 5 5 5 5 5 5 3 5 5 3 5 5 5 5 3 5 5 5 5 5 5 3 3 3 5 5 5 3 5 3 5 3 5 5 5 5 5 5 3 5 5 5 3 5 5 5 3 5 5 5 5 5 5 5 5 5 5 5 5 3 5 5 5 3 5 5 5 5 5 3 3 5 5 3 5 3 3 3 5 5 5 3 5 5 5 5 5 3 5 5 5 5 5 5 5 5 5 5 5 5 3 5 5 5 5 5 5 3 5 5 3 5 5 3 5 5 5 5 5 3 5 5 3 5 3 5 3 5 5 5 5 5 5 3 5 5 5 5 3 5 5 5 5 5 5 5 5 5 5 3 5 5 5 5 5 3 5 5 5 5 5 5 5 5 5 5 5 5 5 5 5 3 5 5 5 5 5 3 5 3 5 5 5 5 5 3 5 5 5 5 5 3 5 5 5 5 5 3 5 5 5 5 5 5 5 5 5 5 3 5 3 5 3 5 5 3 5 5 5 5 5 5 5 5 3 5 3 5 5 5 5 5 5 5 5 5 5 3 5 5 5 5 5 5 5 5 5 5 3 5 5 5 3 5 3 3 5 5 5 3 5 5 5 3 3 5 5 5 5 5 5 5 5 5 5 3 3 5 5 5 5 5 3 5 5 5 5 5 5 5 5 5 5 3 5 3 3 3 5 5 5 5 5 5 5 5 3 5 5 5 5 5 5 5 5 5 5 5 5 5 5 5 5 5 5 5 5 5 5 5 5 5 5 5 5 5 3 5 5 5 5 3 5 5 5 5 5 5 5 5 3 5 5 5 5 5 5 5 5 3 5 5 5 5 5 5 5 5 5 5 5 5 5 5 5 5 5 5 5 5 5 5 5 5 5 5 3 5 5 5 5 5 5 3 5 3 5 5 3 5 5 5 3 5 3 5 5 5 3 5 5 5 3 5 5 5 5 5 5 3 5 5 5 5 5 5 5 5 5 5 5 5 5 5 5 5 5 5 5 5 5 5 5 5 5 5 5 3 5 3 5 5 5 5 3 5 5 5 5 5 5 5 5 5 5 5 5 5 3 5 5 3 5 5 3 5 5 5 5 5 3 5 5 5 5 5 5 5 5 3 5 3 5 5 5 5 5 3 3 5 5 3 5 5 5 3 5 5 5 5 5 5 5 3 5 5 5 5 5 5 5 5 5 5 5 5 5 5 5 5 3 5 5 5 5 5 3 5 3 5 5 5 5 5 5 5 5 5 5 5 5 3 5 3 5 5 5 5 5 5 3 3 5 5 5 5 5 5 5 5 5 5 5 5 5 5 5 5 5 5 5 5 5 3 5 5 3 5 5 5 5 5 3 5 5 5 5 5 5 3 5 5 5 5 5 5 5 5 5 5 5 5 5 5 5 5 3 5 5 3 5 5 5 5 3 5 5 5 5 5 5 5 5 5 5 5 3 5 5 5 5 5 5 5 5 5 5 5 5 5 5 5 5 5 5 5 3 5 5 5 5 5 5 5 5 5 5 5 5 3 5 5 5 5 5 5 5 5 5 5 5 5 5 3 3 5 5 5 5 5 5 3 5 5 5 5 5 5 5 5 5 5 5 5 5 5 5 5 5 5 5 5 5 5 5 5 5 5 5 5 5 5 5 5 5 5 5 3 5 5 5 5 5 5 5 5 3 5 5 5 5 5 5 5 5 5 5 5 5 3 5 5 5 5 3 5 3 5 5 5 5 5 5 5 5 3 5 5 5 5 5 5 5 5 5 5 3 5 5 5 3 5 5 3 5 5 5 5 3 5 5 3 5 5 5 5 5 5 5 5 3 5 5 5 3 5 5 5 5 5 5 5 3 5 3 5 3 5 3 3 5 5 5 3 3 3 5 5 3 5 5 5 3 5 5 5 5 3 5 5 5 5 5 5 5 5 5 5 5 5 5 5 5 5 5 5 5 5 5 5 5 5 5 5 5 5 5 5 5 5 5 5 5 5 5 5 3 5 5 5 5 5 5 5 5 3 5 5 5 5 3 5 5 3 5 5 3 5 5 5 5 3 5 5 5 5 5 3 5 5 5 5 5 5 5 5 5 5 5 5 5 3 3 5 5 5 3 5 5 5 5 5 5 5 5 5 5 5 5 5 5 3 5 5 5 5 5 5 3 5 5 3 5 5 5 5 5 5 5 5 5 5 3 5 5 5 5 5 3 5 5 5 5 5 5 5 5 5 5 3 5 5 5 5 5 5 5 5 5 5 5 5 5 5 5 3 5 5 5 5 5 5 5 5 5 5 5 5 5 5 5 5 5 5 5 5 5 5 5 3 5 3 5 5 5 3 5 5 5 5 5 5 5 5 5 3 5 5 5 3 5 5 5 5 5 5 5 5 5 5 5 5 5 5 5 5 3 5 5 5 5 5 3 5 5 5 3 5 3 5 5 5 5 5 5 3 5 5 5 5 5 5 5 5 5 5 5 5 5 5 5 5 5 5 5 5 5 5 5 5 5 5 5 3 5 5 3 5 5 5 5 5 5 5 3 5 5 5 5 3 5 5 3 5 5 5 5 5 5 3 5 5 5 3 5 5 5 3 5 5 5 5 5 3 5 5 5 5 5 3 5 5 5 5 5 5 5 5 3 5 5 3 5 5 5 5 3 5 5 5 5 3 5 5 5 5 3 5 5 5 3 5 3 5 5 5 5 5 5 5 5 5 5 3 5 5 5 5 5 5 5 3 3 5 5 5 5 5 3 5 5 5 5 5 3 5 5 5 3 5 5 3 5 5 3 5 5 5 3 5 5 5 5 5 5 3 5 5 5 5 5 3 5 5 5 5 5 3 5 5 5 5 5 5 3 5 5 5 5 3 5 5 5 5 5 3 5 5 5 5 5 5 5 5 5 5 3 5 5 5 5 5 5 5 3 5 5 5 5 3 3 5 5 3 5 5 5 5 5 5 5 3 5 5 5 5 5 5 5 3 5 3 5 5 3 5 5 5 5 3 5 3 5 5 5 5 5 5 5 5 5 5 3 5 5 5 5 5 3 5 5 5 3 5 5 5 5 3 5 5 3 5 5 5 5 5 3 5 3 5 3 3 5 5 5 5 3 3 5 5 5 5 5 5 5 5 5 5 5 5 5 3 5 5 5 5 5 5 3 3 5 5 5 5 5 5 5 5 5 5 5 5 5 3 5 5 5 5 5 5 5 5 5 5 5 5 5 5 5 5 5 5 5 5 5 5 5 5 5 5 5 5 5 5 5 5 5 3 5 5 3 5 5 5 5 5 5 5 3 5 5 5 3 5 5 3 5 5 5 3 3 5 5 5 5 3 3 5 5 5 5 5 5 5 5 5 5 5 5 5 5 3 5 5 3 5 5 5 3 5 5 5 5 3 5 5 3 5 5 5 5 5 5 5 5 5 5 5 3 5 5 5 5 5 5 5 3 5 5 5 5 5 5 5 5 5 5 5 5 5 5 5 5 5 5 3 5 5 5 5 5 5 3 5 3 5 5 5 5 5 3 5 5 3 5 5 5 3 5 5 5 3 5 5 5 5 5 5 5 5 5 5 5 5 5 5 3 5 5 5 5 3 3 5 5 5 5 5 5 5 5 5 5 5 5 5 5 5 5 5 5 5 3 5 5 5 5 5 5 5 5 3 5 3 5 5 5 5 5 5 5 3 5 3 5 5 5 5 5 3 5 5 5 5 5 5 3 5 5 5 5 5 3 3 5 5 5 3 3 3 5 5 5 5 5 3 5 5 5 5 5 3 5 5 5 5 3 5 3 3 5 3 3 5 5 5 3 5 5 5 3 5 5 5 3 5 5 5 3 5 5 5 5 5 5 5 5 3 5 5 5 3 5 5 5 5 5 5 3 5 5 5 5 5 5 3 5 5 5 5 5 5 5 5 5 5 5 5 5 5 3 5 3 5 5 5 3 5 5 3 5 3 5 3 5 5 3 5 5 5 5 5 5 3 5 5 5 5 3 5 5 5 5 5 5 3 5 5 5 5 5 5 5 5 5 5 3 5 5 5 5 5 5 5 5 5 5 5 5 5 5 5 5 5 5 5 3 3 5 5 5 3 5 5 3 5 5 3 5 5 3 5 5 3 3 5 5 5 5 3 5 5 5 5 5 5 5 5 5 5 5 3 3 5 5 5 3 5 3 5 3 5 5 5 5 5 3 5 5 3 5 3 5 5 3 3 3 5 5 5 5 3 5 5 3 5 3 5 5 3 5 5 5 5 5 5 5 5 3 5 3 3 5 5 5 5 5 3 3 5 5 5 3 3 5 5 5 5 5 5 5 5 3 5 3 5 5 5 5 5 5 5 5 5 5 5 5 5 5 5 5 5 5 5 5 5 5 5 5 5 5 5 5 5 3 5 5 5 5 5 5 5 5 5 5 5 5 5 5 5 3 5 5 3 5 5 5 5 5 3 5 5 5 5 5 5 5 5 5 5 5 5 5 3 5 5 5 5 5 5 5 5 5 3 5 5 3 5 5 5 5 3 3 3 5 5 5 5 5 3 5 5 5 
</DataArray>
</Cells>
<PointData Scalars="" Vectors="displacement," Tensors="">
<DataArray type="Float64" Name="displacement" NumberOfComponents="3" format="ascii">
1.1822156937196855e-06 -0.082759490407292899 0 -7.8839537371174706e-07 -0.084995256074593808 0 3.8410410993628336e-07 -0.084932436612386766 0 -7.8839537371174706e-07 -0.084995256074593808 0 3.8410410993628336e-07 -0.084932436612386766 0 3.9112501225699048e-07 -0.085002088977568488 0 2.6991557654115719e-07 -0.082753844271923963 0 -8.9020600706766896e-06 -0.083817965730600352 0 -3.3744620483124281e-07 -0.082746898188293505 0 -0.00045692398479492852 -0.081471531584976387 0 -0.00043231168508149327 -0.0822960410132383 0 -3.3744620483124281e-07 -0.082746898188293505 0 -0.00045692398479492852 -0.081471531584976387 0 -2.4940102035718836e-06 -0.079220044827748706 0 -0.00045692398479492852 -0.081471531584976387 0 -0.00027712146194494862 -0.08315897763844958 0 -0.00038501568811599002 -0.082567314070187109 0 -0.00045692398479492852 -0.081471531584976387 0 -0.00043231168508149327 -0.0822960410132383 0 -0.00027712146194494862 -0.08315897763844958 0 -8.9020600706766896e-06 -0.083817965730600352 0 -4.0194957005523867e-07 -0.084997997964103095 0 -0.00043231168508149327 -0.0822960410132383 0 -2.9110294238236992e-06 -0.084994255725657081 0 -0.00027712146194494862 -0.08315897763844958 0 -2.9110294238236992e-06 -0.084994255725657081 0 -0.00027712146194494862 -0.08315897763844958 0 -0.00027610133350627615 -0.08391693533271577 0 -0.00027712146194494862 -0.08315897763844958 0 -0.00027610133350627615 -0.08391693533271577 0 -0.00038501568811599002 -0.082567314070187109 0 -0.00043014808217110373 -0.083264868689840899 0 -0.00027610133350627615 -0.08391693533271577 0 -0.00038501568811599002 -0.082567314070187109 0 -0.00043014808217110373 -0.083264868689840899 0 -0.00027610133350627615 -0.08391693533271577 0 -0.00021491932874246488 -0.083962238168234532 0 -0.00027610133350627615 -0.08391693533271577 0 7.4180775484863829e-07 -0.084998795148626266 0 -0.00021491932874246488 -0.083962238168234532 0 -2.9110294238236992e-06 -0.084994255725657081 0 -0.00027610133350627615 -0.08391693533271577 0 7.4180775484863829e-07 -0.084998795148626266 0 -0.0005383511672172283 -0.082471750409358294 0 -0.0017233606034730445 -0.08107240990045339 0 -0.0011647779914204825 -0.082167314032391012 0 -0.00043014808217110373 -0.083264868689840899 0 -0.0005383511672172283 -0.082471750409358294 0 -0.00038501568811599002 -0.082567314070187109 0 -0.00043014808217110373 -0.083264868689840899 0 -0.0005383511672172283 -0.082471750409358294 0 -0.00067812891422314701 -0.08296501497408737 0 -0.0005383511672172283 -0.082471750409358294 0 -0.00038501568811599002 -0.082567314070187109 0 0.00063299083700154299 -0.081996417965128951 0 -0.0005383511672172283 -0.082471750409358294 0 0.00063299083700154299 -0.081996417965128951 0 -0.0017233606034730445 -0.08107240990045339 0 -0.00036635107654090025 -0.077709935008157496 0 -0.00053142508966703484 -0.079029299035526662 0 -0.00038501568811599002 -0.082567314070187109 0 0.00063299083700154299 -0.081996417965128951 0 -0.00042308334734175176 -0.080239504685020974 0 -0.00045692398479492852 -0.081471531584976387 0 -0.00038501568811599002 -0.082567314070187109 0 -0.00042308334734175176 -0.080239504685020974 0 -0.00045692398479492852 -0.081471531584976387 0 -0.00042308334734175176 -0.080239504685020974 0 -2.4940102035718836e-06 -0.079220044827748706 0 -0.00042308334734175176 -0.080239504685020974 0 -2.4940102035718836e-06 -0.079220044827748706 0 4.706692061413547e-06 -0.075694430544835573 0 -0.00036635107654090025 -0.077709935008157496 0 -9.1313355325685315e-07 -0.075688425456623493 0 -0.0020066661284222878 -0.073342930105044724 0 -5.6538002265468995e-07 -0.075678101860287936 0 -0.00082043874854434852 -0.072964230504388647 0 0.00063299083700154299 -0.081996417965128951 0 -0.00042308334734175176 -0.080239504685020974 0 4.706692061413547e-06 -0.075694430544835573 0 -5.6538002265468995e-07 -0.075678101860287936 0 -0.00082043874854434852 -0.072964230504388647 0 -2.1214632741951881e-06 -0.070709276129420059 0 -0.00082043874854434852 -0.072964230504388647 0 -2.1214632741951881e-06 -0.070709276129420059 0 -7.9879728660214061e-05 -0.072408421408009807 0 -2.1214632741951881e-06 -0.070709276129420059 0 -7.9879728660214061e-05 -0.072408421408009807 0 0.00019854163192137511 -0.0697760577348851 0 -0.0020066661284222878 -0.073342930105044724 0 -0.00082043874854434852 -0.072964230504388647 0 -7.9879728660214061e-05 -0.072408421408009807 0 3.7220379110715625e-06 -0.065726014411217976 0 0.0015921731219522453 -0.070815380869310121 0 0.0005743638170871031 -0.063097625461630627 0 -9.1075411498527085e-05 -0.066865435450686669 0 -4.5538922985586516e-05 -0.066274478388107086 0 3.7220379110715625e-06 -0.065726014411217976 0 0.00019854163192137511 -0.0697760577348851 0 0.0015921731219522453 -0.070815380869310121 0 -2.1214632741951881e-06 -0.070709276129420059 0 3.7220379110715625e-06 -0.065726014411217976 0 0.00019854163192137511 -0.0697760577348851 0 -7.9879728660214061e-05 -0.072408421408009807 0 0.00019854163192137511 -0.0697760577348851 0 0.0015921731219522453 -0.070815380869310121 0 -7.9879728660214061e-05 -0.072408421408009807 0 0.0015921731219522453 -0.070815380869310121 0 0.0015462104713989419 -0.07571030981697574 0 0.00057328689989254427 -0.057871332733409296 0 0.00029883581237023619 -0.059152982249955605 0 0.00040847029012458378 -0.058078202549787405 0 0.00057328689989254427 -0.057871332733409296 0 0.0005743638170871031 -0.063097625461630627 0 0.00029883581237023619 -0.059152982249955605 0 -0.00050007997855832363 -0.058787756728142536 0 0.00040847029012458378 -0.058078202549787405 0 0.00057425378155093892 -0.058731113488908276 0 0.00057328689989254427 -0.057871332733409296 0 -0.00050007997855832363 -0.058787756728142536 0 0.00040847029012458378 -0.058078202549787405 0 -9.1075411498527085e-05 -0.066865435450686669 0 -0.00069043818314533639 -0.068860468949761264 0 0.00057328689989254427 -0.057871332733409296 0 -0.00050007997855832363 -0.058787756728142536 0 -0.0027477032886178742 -0.058495420713927347 0 -0.0025014254116167175 -0.059950714797545032 0 -0.0044475748456205321 -0.059540926440292852 0 -0.0027406733548480801 -0.061906426112824993 0 -0.00050007997855832363 -0.058787756728142536 0 -0.0025014254116167175 -0.059950714797545032 0 -0.0013009664492018721 -0.060937403605875205 0 -0.00050007997855832363 -0.058787756728142536 0 -0.0025014254116167175 -0.059950714797545032 0 -0.0027477032886178742 -0.058495420713927347 0 -0.00050007997855832363 -0.058787756728142536 0 0.00042301792049922023 -0.06070178106869472 0 -0.0013009664492018721 -0.060937403605875205 0 -0.00050007997855832363 -0.058787756728142536 0 0.00042301792049922023 -0.06070178106869472 0 0.00057425378155093892 -0.058731113488908276 0 -0.0020066661284222878 -0.073342930105044724 0 -0.00034778654761500954 -0.076588090679444068 0 -0.0017233606034730445 -0.08107240990045339 0 -0.0020066661284222878 -0.073342930105044724 0 -7.9879728660214061e-05 -0.072408421408009807 0 -0.00034778654761500954 -0.076588090679444068 0 -0.00034778654761500954 -0.076588090679444068 0 0.0015462104713989419 -0.07571030981697574 0 0.00095604031510446706 -0.078628072494184784 0 -7.9879728660214061e-05 -0.072408421408009807 0 -0.00034778654761500954 -0.076588090679444068 0 0.0015462104713989419 -0.07571030981697574 0 -0.0025014254116167175 -0.059950714797545032 0 -0.0027477032886178742 -0.058495420713927347 0 -0.0044475748456205321 -0.059540926440292852 0 -0.00069043818314533639 -0.068860468949761264 0 -0.0010502484429781827 -0.070308318950940807 0 -0.0010502484429781827 -0.070308318950940807 0 -0.0017854334524909823 -0.07175499601644493 0 -0.00034778654761500954 -0.076588090679444068 0 -0.00079577756862318902 -0.081421378001158992 0 -0.0017233606034730445 -0.08107240990045339 0 -0.00034778654761500954 -0.076588090679444068 0 0.00095604031510446706 -0.078628072494184784 0 -0.00079577756862318902 -0.081421378001158992 0 -0.00079577756862318902 -0.081421378001158992 0 -0.0017233606034730445 -0.08107240990045339 0 -0.0013968552728340538 -0.081857250617240293 0 -0.0013968552728340538 -0.081857250617240293 0 -0.0013316682521655855 -0.081818610680306963 0 -0.001413475862099649 -0.082127896474621764 0 -0.00079577756862318902 -0.081421378001158992 0 -0.0013968552728340538 -0.081857250617240293 0 -0.0013316682521655855 -0.081818610680306963 0 -0.0044475748456205321 -0.059540926440292852 0 -0.0052230999349670484 -0.063879097165744914 0 -0.0027406733548480801 -0.061906426112824993 0 -0.00057274469273378519 -0.081282066453918098 0 -0.00079577756862318902 -0.081421378001158992 0 -0.0013316682521655855 -0.081818610680306963 0 -0.00057274469273378519 -0.081282066453918098 0 -0.0013316682521655855 -0.081818610680306963 0 -0.0017689951791416175 -0.081975074930142014 0 -0.0010502484429781827 -0.070308318950940807 0 -0.0025633066296831975 -0.072831196546892879 0 -0.0013316682521655855 -0.081818610680306963 0 -0.0017689951791416175 -0.081975074930142014 0 -0.0016390388395506959 -0.081890961354904562 0 -0.0017689951791416175 -0.081975074930142014 0 -0.0016390388395506959 -0.081890961354904562 0 -0.0019137364854793254 -0.081537296757493674 0 -0.0016390388395506959 -0.081890961354904562 0 -0.0019137364854793254 -0.081537296757493674 0 -0.001413475862099649 -0.082127896474621764 0 -0.0013316682521655855 -0.081818610680306963 0 -0.0016390388395506959 -0.081890961354904562 0 -0.001413475862099649 -0.082127896474621764 0 0.00042301792049922023 -0.06070178106869472 0 -0.00082983327363442272 -0.062385664067292665 0 0.00061779954618598569 -0.063577876448870183 0 0.00042301792049922023 -0.06070178106869472 0 -0.00082983327363442272 -0.062385664067292665 0 -0.0013009664492018721 -0.060937403605875205 0 -0.00082983327363442272 -0.062385664067292665 0 -0.0013009664492018721 -0.060937403605875205 0 -0.0027406733548480801 -0.061906426112824993 0 -0.0025014254116167175 -0.059950714797545032 0 -0.0013009664492018721 -0.060937403605875205 0 -0.0027406733548480801 -0.061906426112824993 0 -0.0052230999349670484 -0.063879097165744914 0 -0.0014153327882989238 -0.065181425117772127 0 -0.0025395030944173219 -0.068464823519523182 0 -0.00082983327363442272 -0.062385664067292665 0 -0.0027406733548480801 -0.061906426112824993 0 -0.0014153327882989238 -0.065181425117772127 0 -0.0052230999349670484 -0.063879097165744914 0 -0.0027406733548480801 -0.061906426112824993 0 -0.0014153327882989238 -0.065181425117772127 0 -0.00082983327363442272 -0.062385664067292665 0 -0.0014153327882989238 -0.065181425117772127 0 0.00061779954618598569 -0.063577876448870183 0 -0.0014153327882989238 -0.065181425117772127 0 0.00061779954618598569 -0.063577876448870183 0 0.00089219322380763378 -0.066154281439374241 0 0.00031958239712549238 -0.06853578216701077 0 0.00089219322380763378 -0.066154281439374241 0 0.002485682556822637 -0.067965720102737576 0 -0.0014153327882989238 -0.065181425117772127 0 0.00031958239712549238 -0.06853578216701077 0 0.00089219322380763378 -0.066154281439374241 0 -0.0014153327882989238 -0.065181425117772127 0 0.00031958239712549238 -0.06853578216701077 0 -0.0025395030944173219 -0.068464823519523182 0 -0.0025395030944173219 -0.068464823519523182 0 -0.005587232275602187 -0.070219959673739105 0 -0.0024507765611573207 -0.073342442108477665 0 -0.0025395030944173219 -0.068464823519523182 0 0.00054720790613307197 -0.073062891268432309 0 -0.0024507765611573207 -0.073342442108477665 0 0.00031958239712549238 -0.06853578216701077 0 -0.0025395030944173219 -0.068464823519523182 0 0.00054720790613307197 -0.073062891268432309 0 0.00031958239712549238 -0.06853578216701077 0 0.00054720790613307197 -0.073062891268432309 0 0.002441189548243163 -0.070606167900945496 0 -0.0017689951791416175 -0.081975074930142014 0 -0.0019137364854793254 -0.081537296757493674 0 -0.0032122532321709613 -0.080933123479183536 0 -0.0052230999349670484 -0.063879097165744914 0 -0.0025395030944173219 -0.068464823519523182 0 -0.005587232275602187 -0.070219959673739105 0 -0.0025633066296831975 -0.072831196546892879 0 -0.0033379220018871802 -0.075079982953738925 0 -0.0032122532321709613 -0.080933123479183536 0 -0.0023255978133575606 -0.080492725620475297 0 -0.0029980221349604 -0.078942054209231005 0 -0.0023255978133575606 -0.080492725620475297 0 -0.0015383436921150269 -0.080787681507524856 0 -0.0022627100406969634 -0.079561212980445606 0 -0.0019137364854793254 -0.081537296757493674 0 -0.0023255978133575606 -0.080492725620475297 0 -0.0015383436921150269 -0.080787681507524856 0 -0.0019137364854793254 -0.081537296757493674 0 -0.0032122532321709613 -0.080933123479183536 0 -0.0023255978133575606 -0.080492725620475297 0 -0.0015383436921150269 -0.080787681507524856 0 -0.0012044692064854525 -0.082004760234499569 0 -0.0007323076602962109 -0.081385442729938112 0 -0.0019137364854793254 -0.081537296757493674 0 -0.0015383436921150269 -0.080787681507524856 0 -0.0012044692064854525 -0.082004760234499569 0 -0.0012044692064854525 -0.082004760234499569 0 -0.0007323076602962109 -0.081385442729938112 0 -0.00048338787478761127 -0.082396081439176719 0 -0.0015383436921150269 -0.080787681507524856 0 -0.0007323076602962109 -0.081385442729938112 0 -0.00084504387614026382 -0.08030629412704908 0 -0.0007323076602962109 -0.081385442729938112 0 4.1671030982123891e-05 -0.080825734120605799 0 -0.00084504387614026382 -0.08030629412704908 0 4.1671030982123891e-05 -0.080825734120605799 0 0.0011047175954543072 -0.081719437527086061 0 -0.00010492309387031302 -0.081854050758544197 0 -0.0007323076602962109 -0.081385442729938112 0 4.1671030982123891e-05 -0.080825734120605799 0 -0.00010492309387031302 -0.081854050758544197 0 2.4957369022591745e-05 -0.083641498999070446 0 -0.0002649334017105675 -0.08432459024129775 0 4.9099209165388703e-05 -0.0850813632604248 0 -3.6646569495451262e-09 -0.084998512840343418 0 9.0019098529914881e-08 -0.085000985121038902 0 4.9099209165388703e-05 -0.0850813632604248 0 -1.8896158218825885e-05 -0.084992521294579654 0 9.0019098529914881e-08 -0.085000985121038902 0 4.1671030982123891e-05 -0.080825734120605799 0 0.0011047175954543072 -0.081719437527086061 0 0.0012118826400089901 -0.080175851715899055 0 2.4957369022591745e-05 -0.083641498999070446 0 8.2133139420579432e-05 -0.083703019011206373 0 0.0011047175954543072 -0.081719437527086061 0 -0.00010492309387031302 -0.081854050758544197 0 -8.7762335628904522e-07 -0.082885629537455111 0 4.9099209165388703e-05 -0.0850813632604248 0 -3.6646569495451262e-09 -0.084998512840343418 0 0.00027041804173103841 -0.084350695756567798 0 0.0011047175954543072 -0.081719437527086061 0 -8.7762335628904522e-07 -0.082885629537455111 0 0.00027041804173103841 -0.084350695756567798 0 -0.0007323076602962109 -0.081385442729938112 0 -0.00010492309387031302 -0.081854050758544197 0 -0.00048338787478761127 -0.082396081439176719 0 -0.00010492309387031302 -0.081854050758544197 0 -8.7762335628904522e-07 -0.082885629537455111 0 -0.00048338787478761127 -0.082396081439176719 0 -0.00048338787478761127 -0.082396081439176719 0 -0.00032642992367704326 -0.083450537603513161 0 -0.00079850871155968234 -0.082701695703881181 0 -8.7762335628904522e-07 -0.082885629537455111 0 -0.00032642992367704326 -0.083450537603513161 0 0.00027041804173103841 -0.084350695756567798 0 -8.7762335628904522e-07 -0.082885629537455111 0 -0.00048338787478761127 -0.082396081439176719 0 -0.00032642992367704326 -0.083450537603513161 0 -0.00032642992367704326 -0.083450537603513161 0 0.00027041804173103841 -0.084350695756567798 0 -3.4774546984601374e-05 -0.084216156121844826 0 -3.6646569495451262e-09 -0.084998512840343418 0 0.00027041804173103841 -0.084350695756567798 0 7.4180775484863829e-07 -0.084998795148626266 0 0.00027041804173103841 -0.084350695756567798 0 -3.4774546984601374e-05 -0.084216156121844826 0 7.4180775484863829e-07 -0.084998795148626266 0 -3.4774546984601374e-05 -0.084216156121844826 0 7.4180775484863829e-07 -0.084998795148626266 0 -0.00021491932874246488 -0.083962238168234532 0 -0.00043014808217110373 -0.083264868689840899 0 -0.00021491932874246488 -0.083962238168234532 0 -0.00067812891422314701 -0.08296501497408737 0 -0.00032642992367704326 -0.083450537603513161 0 -0.00021491932874246488 -0.083962238168234532 0 -0.00067812891422314701 -0.08296501497408737 0 -0.00032642992367704326 -0.083450537603513161 0 -3.4774546984601374e-05 -0.084216156121844826 0 -0.00021491932874246488 -0.083962238168234532 0 -0.0005383511672172283 -0.082471750409358294 0 -0.00067812891422314701 -0.08296501497408737 0 -0.0011647779914204825 -0.082167314032391012 0 -0.00067812891422314701 -0.08296501497408737 0 -0.0011032764392104263 -0.082433885667289264 0 -0.00079850871155968234 -0.082701695703881181 0 -0.00067812891422314701 -0.08296501497408737 0 -0.0011647779914204825 -0.082167314032391012 0 -0.0011032764392104263 -0.082433885667289264 0 -0.0017233606034730445 -0.08107240990045339 0 -0.0013968552728340538 -0.081857250617240293 0 -0.0011647779914204825 -0.082167314032391012 0 -0.0013968552728340538 -0.081857250617240293 0 -0.0011647779914204825 -0.082167314032391012 0 -0.001413475862099649 -0.082127896474621764 0 -0.0011647779914204825 -0.082167314032391012 0 -0.0011032764392104263 -0.082433885667289264 0 -0.001413475862099649 -0.082127896474621764 0 -0.0019137364854793254 -0.081537296757493674 0 -0.0012044692064854525 -0.082004760234499569 0 -0.001413475862099649 -0.082127896474621764 0 -0.0012044692064854525 -0.082004760234499569 0 -0.0011032764392104263 -0.082433885667289264 0 -0.001413475862099649 -0.082127896474621764 0 -0.0012044692064854525 -0.082004760234499569 0 -0.0011032764392104263 -0.082433885667289264 0 -0.00079850871155968234 -0.082701695703881181 0 -0.0012044692064854525 -0.082004760234499569 0 -0.00048338787478761127 -0.082396081439176719 0 -0.00079850871155968234 -0.082701695703881181 0 -0.00032642992367704326 -0.083450537603513161 0 -0.00067812891422314701 -0.08296501497408737 0 -0.00079850871155968234 -0.082701695703881181 0 -0.00027825665609204446 -0.048672546661745912 0 -0.00039492217265999847 -0.050059790314447065 0 0.00039806338272901546 -0.049723822394637164 0 -0.00027825665609204446 -0.048672546661745912 0 -0.00083687703326814115 -0.049908817120656278 0 -0.00039492217265999847 -0.050059790314447065 0 -0.00027825665609204446 -0.048672546661745912 0 0.00039806338272901546 -0.049723822394637164 0 0.00045127930564792056 -0.048260309049030052 0 -0.00027825665609204446 -0.048672546661745912 0 -0.00083687703326814115 -0.049908817120656278 0 -0.00084683204949688321 -0.048682513676913161 0 -0.00083687703326814115 -0.049908817120656278 0 -0.00084683204949688321 -0.048682513676913161 0 -0.0010415988749613685 -0.050458202944566113 0 -0.00084683204949688321 -0.048682513676913161 0 -0.00026497634807426618 -0.045234736667321765 0 0.00012300526308429898 -0.046815464879939761 0 -0.00027825665609204446 -0.048672546661745912 0 -0.00084683204949688321 -0.048682513676913161 0 0.00012300526308429898 -0.046815464879939761 0 -0.00027825665609204446 -0.048672546661745912 0 0.00012300526308429898 -0.046815464879939761 0 0.00045127930564792056 -0.048260309049030052 0 -0.00026497634807426618 -0.045234736667321765 0 -8.9738274528443076e-07 -0.045807599831145046 0 -6.6315880192176487e-07 -0.040825683019648763 0 -0.00026497634807426618 -0.045234736667321765 0 -8.9738274528443076e-07 -0.045807599831145046 0 -0.00057010192526357186 -0.048490478611485005 0 -0.00084683204949688321 -0.048682513676913161 0 -0.00026497634807426618 -0.045234736667321765 0 -0.00057010192526357186 -0.048490478611485005 0 -0.00084683204949688321 -0.048682513676913161 0 -0.00057010192526357186 -0.048490478611485005 0 -0.00079593586689054047 -0.051037526913042024 0 -0.00057010192526357186 -0.048490478611485005 0 -1.3586755413021789e-06 -0.050786800502758814 0 -0.00079593586689054047 -0.051037526913042024 0 -8.9738274528443076e-07 -0.045807599831145046 0 -0.00057010192526357186 -0.048490478611485005 0 -1.3586755413021789e-06 -0.050786800502758814 0 -1.3586755413021789e-06 -0.050786800502758814 0 -0.00079593586689054047 -0.051037526913042024 0 -0.00017944881935195341 -0.054193930104976626 0 -0.00079593586689054047 -0.051037526913042024 0 -0.0010415988749613685 -0.050458202944566113 0 -0.00033622962287378598 -0.052513466465305483 0 -0.00084683204949688321 -0.048682513676913161 0 -0.00079593586689054047 -0.051037526913042024 0 -0.0010415988749613685 -0.050458202944566113 0 -0.00083687703326814115 -0.049908817120656278 0 -0.0010415988749613685 -0.050458202944566113 0 -0.00097060450238925001 -0.050243925733902454 0 -0.0010415988749613685 -0.050458202944566113 0 -0.00033622962287378598 -0.052513466465305483 0 -0.0008318307926960042 -0.050357246696755877 0 0.0022553493360748375 -0.048811623370683149 0 0.0030787496653940675 -0.047976754025653441 0 -0.00033622962287378598 -0.052513466465305483 0 0.0014923557246492389 -0.055696046903418957 0 0.0015095987189229993 -0.050985234679013808 0 0.0031516427134029665 -0.056022766352842084 0 0.0035742980202860498 -0.0563728564672107 0 -0.00033622962287378598 -0.052513466465305483 0 0.0014923557246492389 -0.055696046903418957 0 -0.00017944881935195341 -0.054193930104976626 0 -0.00079593586689054047 -0.051037526913042024 0 -0.00033622962287378598 -0.052513466465305483 0 -0.00017944881935195341 -0.054193930104976626 0 -1.3586755413021789e-06 -0.050786800502758814 0 -0.00017944881935195341 -0.054193930104976626 0 -1.110007789263968e-07 -0.055765555376015234 0 -0.00017944881935195341 -0.054193930104976626 0 -1.110007789263968e-07 -0.055765555376015234 0 0.00017191097771013835 -0.05726931680197956 0 -1.110007789263968e-07 -0.055765555376015234 0 2.7248612986569278e-07 -0.060744434541284184 0 0.00017191097771013835 -0.05726931680197956 0 0.0014923557246492389 -0.055696046903418957 0 -0.00017944881935195341 -0.054193930104976626 0 0.00017191097771013835 -0.05726931680197956 0 0.0014923557246492389 -0.055696046903418957 0 0.00038178059587388303 -0.057910435750764974 0 0.00017191097771013835 -0.05726931680197956 0 0.00038178059587388303 -0.057910435750764974 0 0.00017191097771013835 -0.05726931680197956 0 7.3308863953262281e-05 -0.059687007558808777 0 2.7248612986569278e-07 -0.060744434541284184 0 0.00017191097771013835 -0.05726931680197956 0 7.3308863953262281e-05 -0.059687007558808777 0 2.7248612986569278e-07 -0.060744434541284184 0 0.0005743638170871031 -0.063097625461630627 0 7.3308863953262281e-05 -0.059687007558808777 0 3.7220379110715625e-06 -0.065726014411217976 0 2.7248612986569278e-07 -0.060744434541284184 0 0.0005743638170871031 -0.063097625461630627 0 0.0005743638170871031 -0.063097625461630627 0 7.3308863953262281e-05 -0.059687007558808777 0 0.00029883581237023619 -0.059152982249955605 0 0.00038178059587388303 -0.057910435750764974 0 0.00029883581237023619 -0.059152982249955605 0 0.00040847029012458378 -0.058078202549787405 0 0.00038178059587388303 -0.057910435750764974 0 7.3308863953262281e-05 -0.059687007558808777 0 0.00029883581237023619 -0.059152982249955605 0 0.00040847029012458378 -0.058078202549787405 0 0.00084854675339447218 -0.057530765827688388 0 0.00057425378155093892 -0.058731113488908276 0 0.00038178059587388303 -0.057910435750764974 0 0.00040847029012458378 -0.058078202549787405 0 0.00084854675339447218 -0.057530765827688388 0 0.0014923557246492389 -0.055696046903418957 0 0.00038178059587388303 -0.057910435750764974 0 0.00084854675339447218 -0.057530765827688388 0 0.0014923557246492389 -0.055696046903418957 0 0.00084854675339447218 -0.057530765827688388 0 0.0016807290003928203 -0.059588660474338723 0 0.0014923557246492389 -0.055696046903418957 0 0.0016807290003928203 -0.059588660474338723 0 0.003898763527083017 -0.060305222594556181 0 0.00042301792049922023 -0.06070178106869472 0 0.0016807290003928203 -0.059588660474338723 0 0.00057425378155093892 -0.058731113488908276 0 0.00084854675339447218 -0.057530765827688388 0 0.0016807290003928203 -0.059588660474338723 0 0.00057425378155093892 -0.058731113488908276 0 0.00042301792049922023 -0.06070178106869472 0 0.00061779954618598569 -0.063577876448870183 0 0.0020610765156772329 -0.062175624778430437 0 0.00042301792049922023 -0.06070178106869472 0 0.0016807290003928203 -0.059588660474338723 0 0.0020610765156772329 -0.062175624778430437 0 0.0016807290003928203 -0.059588660474338723 0 0.0020610765156772329 -0.062175624778430437 0 0.0029593918822905735 -0.062048232396877276 0 0.0016807290003928203 -0.059588660474338723 0 0.0029593918822905735 -0.062048232396877276 0 0.003898763527083017 -0.060305222594556181 0 0.0020610765156772329 -0.062175624778430437 0 0.0029593918822905735 -0.062048232396877276 0 0.0022540159419199256 -0.06317144695319675 0 0.0038970320876519243 -0.064120104218820737 0 0.0049149606133313652 -0.059106333743438773 0 0.0029593918822905735 -0.062048232396877276 0 0.0022540159419199256 -0.06317144695319675 0 0.004290265077523568 -0.063163221015322207 0 0.0020610765156772329 -0.062175624778430437 0 0.004232340117506719 -0.065491349022998205 0 0.0027882814553334859 -0.065646060364609946 0 0.0038970320876519243 -0.064120104218820737 0 0.003835467707752956 -0.064159311963671251 0 0.00061779954618598569 -0.063577876448870183 0 0.0020610765156772329 -0.062175624778430437 0 0.0027882814553334859 -0.065646060364609946 0 0.0036827035800683855 -0.063783443415295002 0 0.0038970320876519243 -0.064120104218820737 0 0.00061779954618598569 -0.063577876448870183 0 0.00089219322380763378 -0.066154281439374241 0 0.0027882814553334859 -0.065646060364609946 0 0.00089219322380763378 -0.066154281439374241 0 0.0027882814553334859 -0.065646060364609946 0 0.002485682556822637 -0.067965720102737576 0 0.0050070469392483694 -0.065546592463855996 0 0.0036713063789826903 -0.067166663658059567 0 0.0044586886444488594 -0.069366982524269136 0 0.0027882814553334859 -0.065646060364609946 0 0.0036713063789826903 -0.067166663658059567 0 0.002485682556822637 -0.067965720102737576 0 0.0050070469392483694 -0.065546592463855996 0 0.0027882814553334859 -0.065646060364609946 0 0.0036713063789826903 -0.067166663658059567 0 0.0044586886444488594 -0.069366982524269136 0 0.002485682556822637 -0.067965720102737576 0 0.002441189548243163 -0.070606167900945496 0 0.0036713063789826903 -0.067166663658059567 0 0.0044586886444488594 -0.069366982524269136 0 0.002485682556822637 -0.067965720102737576 0 0.00031958239712549238 -0.06853578216701077 0 0.002485682556822637 -0.067965720102737576 0 0.002441189548243163 -0.070606167900945496 0 0.0044586886444488594 -0.069366982524269136 0 0.002441189548243163 -0.070606167900945496 0 0.0036264056627114414 -0.072942146625306847 0 0.00054720790613307197 -0.073062891268432309 0 0.002441189548243163 -0.070606167900945496 0 0.0036264056627114414 -0.072942146625306847 0 0.0044586886444488594 -0.069366982524269136 0 0.0036264056627114414 -0.072942146625306847 0 0.0071594783698871491 -0.072006990711594082 0 0.0050070469392483694 -0.065546592463855996 0 0.0044586886444488594 -0.069366982524269136 0 0.0071594783698871491 -0.072006990711594082 0 0.0039944876623305512 -0.06760184015014041 0 0.005753773562240886 -0.072731301981211235 0 0.0068317198593588029 -0.069831257318141438 0 0.0039944876623305512 -0.06760184015014041 0 0.0068317198593588029 -0.069831257318141438 0 0.0085028396107829154 -0.067227258331778506 0 0.0038970320876519243 -0.064120104218820737 0 0.006250751066329361 -0.071642699609220997 0 0.0068317198593588029 -0.069831257318141438 0 0.0090692888372873211 -0.071754615198575747 0 0.0085028396107829154 -0.067227258331778506 0 0.0068298211728362746 -0.06615639685093018 0 0.0049149606133313652 -0.059106333743438773 0 0.005753773562240886 -0.072731301981211235 0 0.0068317198593588029 -0.069831257318141438 0 0.0090692888372873211 -0.071754615198575747 0 0.005753773562240886 -0.072731301981211235 0 0.0090692888372873211 -0.071754615198575747 0 0.0079795777112740499 -0.074606948280283428 0 0.0068191686371848409 -0.061297325646720788 0 0.01051373382089147 -0.064199175473527506 0 0.011969510778125057 -0.058925323937804627 0 0.01051373382089147 -0.064199175473527506 0 0.011969510778125057 -0.058925323937804627 0 0.014455872550397148 -0.064030856092046354 0 0.0068191686371848409 -0.061297325646720788 0 0.011969510778125057 -0.058925323937804627 0 0.0058854204255693651 -0.053994818651771137 0 0.011969510778125057 -0.058925323937804627 0 0.0058854204255693651 -0.053994818651771137 0 0.013123301479807186 -0.053381102768182309 0 0.0011120687601140645 -0.048323953026180866 0 -0.00015099894891953562 -0.050001035577402202 0 -0.0012364341162319271 -0.048542831817118971 0 0.0049149606133313652 -0.059106333743438773 0 0.006295537905456468 -0.052927569352950427 0 0.0029593918822905735 -0.062048232396877276 0 0.004290265077523568 -0.063163221015322207 0 0.003898763527083017 -0.060305222594556181 0 0.0049149606133313652 -0.059106333743438773 0 0.0035742980202860498 -0.0563728564672107 0 0.0011120687601140645 -0.048323953026180866 0 0.0015095987189229993 -0.050985234679013808 0 -0.00015099894891953562 -0.050001035577402202 0 -0.00015099894891953562 -0.050001035577402202 0 -0.001887354650108552 -0.050588168466714045 0 -0.0012364341162319271 -0.048542831817118971 0 -0.00033622962287378598 -0.052513466465305483 0 0.0015095987189229993 -0.050985234679013808 0 -0.00015099894891953562 -0.050001035577402202 0 -0.00033622962287378598 -0.052513466465305483 0 -0.00015099894891953562 -0.050001035577402202 0 -0.001887354650108552 -0.050588168466714045 0 -0.0010415988749613685 -0.050458202944566113 0 -0.0008318307926960042 -0.050357246696755877 0 -0.00097060450238925001 -0.050243925733902454 0 -0.0008318307926960042 -0.050357246696755877 0 -0.00097060450238925001 -0.050243925733902454 0 -0.0010192213367492822 -0.050456978413277835 0 0.0030787496653940675 -0.047976754025653441 0 0.0081801663063992263 -0.047652802260127511 0 -0.00083687703326814115 -0.049908817120656278 0 -0.00097060450238925001 -0.050243925733902454 0 -0.0010192213367492822 -0.050456978413277835 0 -0.001887354650108552 -0.050588168466714045 0 -0.0034999577474379225 -0.048743755129660622 0 -0.0012364341162319271 -0.048542831817118971 0 0.0081801663063992263 -0.047652802260127511 0 0.006295537905456468 -0.052927569352950427 0 0.02035382730829834 -0.05275953009321932 0 0.013123301479807186 -0.053381102768182309 0 0.018390597977174052 -0.059090751058584336 0 0.011969510778125057 -0.058925323937804627 0 0.013123301479807186 -0.053381102768182309 0 0.018390597977174052 -0.059090751058584336 0 0.011969510778125057 -0.058925323937804627 0 0.014455872550397148 -0.064030856092046354 0 0.018390597977174052 -0.059090751058584336 0 0.018390597977174052 -0.059090751058584336 0 0.025948290580413688 -0.058916853672364093 0 0.022336716349612505 -0.065889706759378525 0 0.014455872550397148 -0.064030856092046354 0 0.018390597977174052 -0.059090751058584336 0 0.022336716349612505 -0.065889706759378525 0 0.02035382730829834 -0.05275953009321932 0 0.018390597977174052 -0.059090751058584336 0 0.025948290580413688 -0.058916853672364093 0 0.0081801663063992263 -0.047652802260127511 0 0.011216730527749333 -0.040690573365210161 0 0.011216730527749333 -0.040690573365210161 0 0.015313208737270607 -0.041302520112874531 0 0.014761483965457936 -0.022293182166869596 0 0.01242172331270428 -0.019635672229277219 0 0.016502099544597807 -0.018895920551214626 0 0.014936206280300261 -0.022245961582155735 0 0.01242172331270428 -0.019635672229277219 0 0.011937840345723434 -0.023179389721405912 0 0.011216730527749333 -0.040690573365210161 0 0.0082990804938997912 -0.033141383274503423 0 0.014936206280300261 -0.022245961582155735 0 0.011937840345723434 -0.023179389721405912 0 0.012754836126757154 -0.026918499127906243 0 0.011216730527749333 -0.040690573365210161 0 0.0078654855596059538 -0.041449956736481774 0 0.011937840345723434 -0.023179389721405912 0 0.012754836126757154 -0.026918499127906243 0 0.0098752298305414734 -0.027285097240864625 0 0.0078654855596059538 -0.041449956736481774 0 0.008542310652829092 -0.040671708167718749 0 0.0081801663063992263 -0.047652802260127511 0 0.0078654855596059538 -0.041449956736481774 0 -0.0010192213367492822 -0.050456978413277835 0 -0.00026226178652805727 -0.050535492935506535 0 -0.00039492217265999847 -0.050059790314447065 0 0.0088415842593652233 -0.043768048137668387 0 0.0091055429224045688 -0.044049074328963086 0 0.0092745130336685903 -0.043724585214237603 0 -0.00083687703326814115 -0.049908817120656278 0 -0.0010192213367492822 -0.050456978413277835 0 -0.00039492217265999847 -0.050059790314447065 0 0.0078654855596059538 -0.041449956736481774 0 0.0062525393065934812 -0.041145945352609341 0 -0.00026226178652805727 -0.050535492935506535 0 -0.00039492217265999847 -0.050059790314447065 0 0.00039806338272901546 -0.049723822394637164 0 0.01211923885419644 -0.027115120773243778 0 0.0096376314233507284 -0.031170236449193527 0 0.0098752298305414734 -0.027285097240864625 0 0.013263117828399269 -0.011505265699844482 0 0.012609533795064944 -0.013888600866791889 0 0.011419122661344117 -0.011835649064822609 0 0.013263117828399269 -0.011505265699844482 0 0.015293229388438096 -0.010642913967112175 0 0.013579654531004256 -0.0095369039973856214 0 0.013263117828399269 -0.011505265699844482 0 0.015293229388438096 -0.010642913967112175 0 0.015105481723146774 -0.013361687086584893 0 0.015293229388438096 -0.010642913967112175 0 0.015105481723146774 -0.013361687086584893 0 0.017168549593778181 -0.011889289602958562 0 0.015105481723146774 -0.013361687086584893 0 0.012609533795064944 -0.013888600866791889 0 0.014100255035871034 -0.016362845811894663 0 0.013263117828399269 -0.011505265699844482 0 0.015105481723146774 -0.013361687086584893 0 0.012609533795064944 -0.013888600866791889 0 0.012609533795064944 -0.013888600866791889 0 0.014100255035871034 -0.016362845811894663 0 0.011292123374864457 -0.016370876139896753 0 0.01242172331270428 -0.019635672229277219 0 0.014100255035871034 -0.016362845811894663 0 0.011292123374864457 -0.016370876139896753 0 0.01242172331270428 -0.019635672229277219 0 0.014100255035871034 -0.016362845811894663 0 0.016502099544597807 -0.018895920551214626 0 0.014100255035871034 -0.016362845811894663 0 0.018086523641804426 -0.01558700597753146 0 0.016502099544597807 -0.018895920551214626 0 0.015105481723146774 -0.013361687086584893 0 0.014100255035871034 -0.016362845811894663 0 0.018086523641804426 -0.01558700597753146 0 0.016070405701024852 -0.043298520782888247 0 0.015313208737270607 -0.041302520112874531 0 0.014455872550397148 -0.064030856092046354 0 0.022336716349612505 -0.065889706759378525 0 0.01625213135260517 -0.068406893805355432 0 0.018688461731060129 -0.072915657037805101 0 0.022336716349612505 -0.065889706759378525 0 0.01625213135260517 -0.068406893805355432 0 0.014455872550397148 -0.064030856092046354 0 0.01625213135260517 -0.068406893805355432 0 0.012105373082398594 -0.067595153321603652 0 0.01625213135260517 -0.068406893805355432 0 0.012634284332212349 -0.071667727249255367 0 0.012105373082398594 -0.067595153321603652 0 0.018688461731060129 -0.072915657037805101 0 0.012754991192276636 -0.075809351044617376 0 0.012634284332212349 -0.071667727249255367 0 0.018688461731060129 -0.072915657037805101 0 0.01625213135260517 -0.068406893805355432 0 0.012634284332212349 -0.071667727249255367 0 0.018688461731060129 -0.072915657037805101 0 0.014842028026639606 -0.079891139634865965 0 0.012754991192276636 -0.075809351044617376 0 0.016070405701024852 -0.043298520782888247 0 0.01533770740282178 -0.045158673752095535 0 0.014842028026639606 -0.079891139634865965 0 0.011655384339301923 -0.078703331605784035 0 0.012754991192276636 -0.075809351044617376 0 0.015105481723146774 -0.013361687086584893 0 0.018086523641804426 -0.01558700597753146 0 0.017168549593778181 -0.011889289602958562 0 0.018086523641804426 -0.01558700597753146 0 0.017168549593778181 -0.011889289602958562 0 0.01950598110106656 -0.012425030943401824 0 0.017168549593778181 -0.011889289602958562 0 0.018641921247336865 -0.010613787044516427 0 0.01715588647480442 -0.00957324838335364 0 0.015293229388438096 -0.010642913967112175 0 0.017168549593778181 -0.011889289602958562 0 0.01715588647480442 -0.00957324838335364 0 0.01950598110106656 -0.012425030943401824 0 0.0208245997101008 -0.0094652135207095971 0 0.018641921247336865 -0.010613787044516427 0 0.017168549593778181 -0.011889289602958562 0 0.01950598110106656 -0.012425030943401824 0 0.018641921247336865 -0.010613787044516427 0 0.01533770740282178 -0.045158673752095535 0 0.013377166578137336 -0.046900512204358875 0 0.010202638212505792 -0.082920448210481695 0 0.009201483537379004 -0.08168568507346266 0 0.0099177160337790473 -0.080116905641894803 0 0.014842028026639606 -0.079891139634865965 0 0.010202638212505792 -0.082920448210481695 0 0.011258298794068819 -0.085104503060228875 0 0.010202638212505792 -0.082920448210481695 0 0.0088170602329598943 -0.076047706935748083 0 0.011655384339301923 -0.078703331605784035 0 0.014842028026639606 -0.079891139634865965 0 0.010202638212505792 -0.082920448210481695 0 0.011655384339301923 -0.078703331605784035 0 0.0093296650959496397 -0.079316949964377562 0 0.0089386228378533165 -0.076906744386172593 0 0.010202638212505792 -0.082920448210481695 0 0.0086029096280225287 -0.08335926545610417 0 0.009201483537379004 -0.08168568507346266 0 0.009201483537379004 -0.08168568507346266 0 0.0066376584192109128 -0.081853920208559 0 0.0073269441149397046 -0.083082338672511746 0 0.0086029096280225287 -0.08335926545610417 0 0.009201483537379004 -0.08168568507346266 0 0.0073269441149397046 -0.083082338672511746 0 0.0086029096280225287 -0.08335926545610417 0 0.0073269441149397046 -0.083082338672511746 0 0.0073260781897382891 -0.084158090850337236 0 0.009201483537379004 -0.08168568507346266 0 0.0099177160337790473 -0.080116905641894803 0 0.0075741814822109458 -0.077664051156191696 0 0.009201483537379004 -0.08168568507346266 0 0.0085459684365949227 -0.077860203223786922 0 0.0074707412759070606 -0.080380894194778008 0 0.0085623042942535466 -0.079073219894642402 0 0.0078241655422888658 -0.076708166810968273 0 0.009201483537379004 -0.08168568507346266 0 0.0074707412759070606 -0.080380894194778008 0 0.0066376584192109128 -0.081853920208559 0 0.0088170602329598943 -0.076047706935748083 0 0.011655384339301923 -0.078703331605784035 0 0.012754991192276636 -0.075809351044617376 0 0.0088170602329598943 -0.076047706935748083 0 0.012754991192276636 -0.075809351044617376 0 0.012634284332212349 -0.071667727249255367 0 0.0089386228378533165 -0.076906744386172593 0 0.0080763058967292783 -0.072017688839897384 0 0.0088170602329598943 -0.076047706935748083 0 0.012634284332212349 -0.071667727249255367 0 0.0077621089353366937 -0.068649264296039902 0 0.0068191686371848409 -0.061297325646720788 0 0.01051373382089147 -0.064199175473527506 0 0.0077621089353366937 -0.068649264296039902 0 0.012634284332212349 -0.071667727249255367 0 0.012105373082398594 -0.067595153321603652 0 0.0077621089353366937 -0.068649264296039902 0 0.01051373382089147 -0.064199175473527506 0 0.012105373082398594 -0.067595153321603652 0 0.0077621089353366937 -0.068649264296039902 0 0.01051373382089147 -0.064199175473527506 0 0.014455872550397148 -0.064030856092046354 0 0.012105373082398594 -0.067595153321603652 0 0.0090692888372873211 -0.071754615198575747 0 0.0079795777112740499 -0.074606948280283428 0 0.0095539687910070163 -0.076199846935812707 0 0.0079795777112740499 -0.074606948280283428 0 0.0095539687910070163 -0.076199846935812707 0 0.0075741814822109458 -0.077664051156191696 0 0.0068298211728362746 -0.06615639685093018 0 0.0080763058967292783 -0.072017688839897384 0 0.005753773562240886 -0.072731301981211235 0 0.0079795777112740499 -0.074606948280283428 0 0.0075741814822109458 -0.077664051156191696 0 0.0099177160337790473 -0.080116905641894803 0 0.0095539687910070163 -0.076199846935812707 0 0.0075741814822109458 -0.077664051156191696 0 0.0085459684365949227 -0.077860203223786922 0 0.0053193664988232716 -0.075881066025516489 0 0.005392067218074224 -0.079956723844093108 0 0.0085459684365949227 -0.077860203223786922 0 0.005392067218074224 -0.079956723844093108 0 0.0074707412759070606 -0.080380894194778008 0 0.0036264056627114414 -0.072942146625306847 0 0.0071594783698871491 -0.072006990711594082 0 0.0053193664988232716 -0.075881066025516489 0 0.0071594783698871491 -0.072006990711594082 0 0.0085459684365949227 -0.077860203223786922 0 0.0053193664988232716 -0.075881066025516489 0 0.006250751066329361 -0.071642699609220997 0 0.0078241655422888658 -0.076708166810968273 0 0.00054720790613307197 -0.073062891268432309 0 0.0036264056627114414 -0.072942146625306847 0 0.0020121631010832394 -0.076405688868490071 0 0.0036264056627114414 -0.072942146625306847 0 0.0053193664988232716 -0.075881066025516489 0 0.0020121631010832394 -0.076405688868490071 0 0.0053193664988232716 -0.075881066025516489 0 0.0020121631010832394 -0.076405688868490071 0 0.005392067218074224 -0.079956723844093108 0 0.0020121631010832394 -0.076405688868490071 0 0.005392067218074224 -0.079956723844093108 0 0.00012062865169897478 -0.079798726594628736 0 0.005392067218074224 -0.079956723844093108 0 0.0066376584192109128 -0.081853920208559 0 0.0039723964474321794 -0.082709932166551786 0 0.005392067218074224 -0.079956723844093108 0 0.0039723964474321794 -0.082709932166551786 0 0.0030282717165190571 -0.081002194353535631 0 0.0033773253167058499 -0.080765005719013294 0 0.0019632366248055937 -0.080937063188310399 0 0.005392067218074224 -0.079956723844093108 0 0.0074707412759070606 -0.080380894194778008 0 0.0066376584192109128 -0.081853920208559 0 0.0066376584192109128 -0.081853920208559 0 0.0059179585196233392 -0.083246127202989684 0 0.0039723964474321794 -0.082709932166551786 0 0.0066376584192109128 -0.081853920208559 0 0.0073269441149397046 -0.083082338672511746 0 0.0059179585196233392 -0.083246127202989684 0 0.0073269441149397046 -0.083082338672511746 0 0.0059179585196233392 -0.083246127202989684 0 0.0063732850570896969 -0.084140387000488565 0 0.0059179585196233392 -0.083246127202989684 0 0.0039723964474321794 -0.082709932166551786 0 0.0054272783798371164 -0.084310663439422909 0 0.0039723964474321794 -0.082709932166551786 0 0.0047836498226103601 -0.085557809397305562 0 0.0054272783798371164 -0.084310663439422909 0 0.0039723964474321794 -0.082709932166551786 0 0.0043615630317686404 -0.084983892684679568 0 0.0033573138647075098 -0.083869625898896086 0 0.0043178926223241135 -0.083598241122651781 0 0.0044091318367372309 -0.083814557911349744 0 0.0047836498226103601 -0.085557809397305562 0 0.0055341400371168191 -0.085303052367105364 0 0.0054272783798371164 -0.084310663439422909 0 0.0043615630317686404 -0.084983892684679568 0 0.0036820613821425723 -0.085053064149637439 0 0.0033573138647075098 -0.083869625898896086 0 0.0059179585196233392 -0.083246127202989684 0 0.0054272783798371164 -0.084310663439422909 0 0.0063732850570896969 -0.084140387000488565 0 0.0054272783798371164 -0.084310663439422909 0 0.0063732850570896969 -0.084140387000488565 0 0.0060466184219180241 -0.084906307586694763 0 0.0073269441149397046 -0.083082338672511746 0 0.0063732850570896969 -0.084140387000488565 0 0.0073260781897382891 -0.084158090850337236 0 0.0063732850570896969 -0.084140387000488565 0 0.0073260781897382891 -0.084158090850337236 0 0.0069825145829071639 -0.085142814475769033 0 0.0073260781897382891 -0.084158090850337236 0 0.0069825145829071639 -0.085142814475769033 0 0.008019880458369601 -0.08472582659056517 0 0.0063732850570896969 -0.084140387000488565 0 0.0069825145829071639 -0.085142814475769033 0 0.0060466184219180241 -0.084906307586694763 0 0.0055341400371168191 -0.085303052367105364 0 0.0054272783798371164 -0.084310663439422909 0 0.0060466184219180241 -0.084906307586694763 0 0.0069825145829071639 -0.085142814475769033 0 0.0060466184219180241 -0.084906307586694763 0 0.0063258636172055203 -0.0855751005768393 0 0.0055341400371168191 -0.085303052367105364 0 0.0060466184219180241 -0.084906307586694763 0 0.0063258636172055203 -0.0855751005768393 0 0.0055341400371168191 -0.085303052367105364 0 0.0063258636172055203 -0.0855751005768393 0 0.0059245872327387556 -0.086408646107856923 0 0.0059245872327387556 -0.086408646107856923 0 0.0066643640955820387 -0.087287820266401472 0 0.005530086097510674 -0.088598263332629851 0 0.0063258636172055203 -0.0855751005768393 0 0.0059245872327387556 -0.086408646107856923 0 0.0068033337134443253 -0.086137124872477239 0 0.0068033337134443253 -0.086137124872477239 0 0.0076125780759704956 -0.086925680759001145 0 0.0079168959089885183 -0.085727221774270668 0 0.0069825145829071639 -0.085142814475769033 0 0.0063258636172055203 -0.0855751005768393 0 0.0068033337134443253 -0.086137124872477239 0 0.0069825145829071639 -0.085142814475769033 0 0.0068033337134443253 -0.086137124872477239 0 0.0079168959089885183 -0.085727221774270668 0 0.0068033337134443253 -0.086137124872477239 0 0.0066643640955820387 -0.087287820266401472 0 0.0076125780759704956 -0.086925680759001145 0 0.0066643640955820387 -0.087287820266401472 0 0.0072315265838898456 -0.087996063323213483 0 0.0076125780759704956 -0.086925680759001145 0 0.0059245872327387556 -0.086408646107856923 0 0.0068033337134443253 -0.086137124872477239 0 0.0066643640955820387 -0.087287820266401472 0 0.0043013945932693833 -0.085326103921116753 0 0.0047170414699990162 -0.086636283879043569 0 0.0032576958482551177 -0.085896360716471248 0 0.0044091318367372309 -0.083814557911349744 0 0.0035316511698780307 -0.079371851718793809 0 0.0024774808039742264 -0.083370535647573157 0 0.0021822057214093103 -0.083111987990971178 0 0.0043013945932693833 -0.085326103921116753 0 0.0036820613821425723 -0.085053064149637439 0 0.0030050754436516313 -0.086040303000762666 0 0.0047836498226103601 -0.085557809397305562 0 0.0059245872327387556 -0.086408646107856923 0 0.005530086097510674 -0.088598263332629851 0 0.0043615630317686404 -0.084983892684679568 0 0.0043013945932693833 -0.085326103921116753 0 0.0047170414699990162 -0.086636283879043569 0 0.0047836498226103601 -0.085557809397305562 0 0.0055341400371168191 -0.085303052367105364 0 0.0059245872327387556 -0.086408646107856923 0 0.0043615630317686404 -0.084983892684679568 0 0.0043013945932693833 -0.085326103921116753 0 0.0036820613821425723 -0.085053064149637439 0 0.0035316511698780307 -0.079371851718793809 0 0.0021822057214093103 -0.083111987990971178 0 -0.00012421536205217581 -0.083964346462521433 0 -0.00015894763096786627 -0.083938774433820154 0 -0.00015621764882684455 -0.083986428206614991 0 -0.00012421536205217581 -0.083964346462521433 0 -0.00014082449214928037 -0.083988389444014766 0 -0.00015621764882684455 -0.083986428206614991 0 -0.00012421536205217581 -0.083964346462521433 0 -0.00014082449214928037 -0.083988389444014766 0 -0.0001463316252952485 -0.083995980988240335 0 -0.00014082449214928037 -0.083988389444014766 0 -0.00014494809748100129 -0.084001541276931796 0 -0.0001463316252952485 -0.083995980988240335 0 -0.00014082449214928037 -0.083988389444014766 0 -0.00015621764882684455 -0.083986428206614991 0 -0.00014494809748100129 -0.084001541276931796 0 -0.0038833537265226979 -0.065336056300343254 0 -0.00079594923632357205 -0.068369247986764484 0 -0.0029823986258300222 -0.069462207701227907 0 -0.0038833537265226979 -0.065336056300343254 0 -0.00016442348185456612 -0.067175952748551593 0 -0.00079594923632357205 -0.068369247986764484 0 0.0035316511698780307 -0.079371851718793809 0 0.00091124809551879527 -0.077556622657353719 0 0.005530086097510674 -0.088598263332629851 0 0.0072315265838898456 -0.087996063323213483 0 0.0079947231127871325 -0.089768564172385421 0 0.0035316511698780307 -0.079371851718793809 0 0.0014729233038915724 -0.06878524739397486 0 0.0066643640955820387 -0.087287820266401472 0 0.005530086097510674 -0.088598263332629851 0 0.0072315265838898456 -0.087996063323213483 0 0.0072315265838898456 -0.087996063323213483 0 0.0081599433423561601 -0.087782909684683302 0 0.0076125780759704956 -0.086925680759001145 0 0.0072315265838898456 -0.087996063323213483 0 0.0081599433423561601 -0.087782909684683302 0 0.0079947231127871325 -0.089768564172385421 0 0.0082963758416930607 -0.051495671342132038 0 0.0014729233038915724 -0.06878524739397486 0 0.0014798795977338716 -0.062164250013496875 0 -0.00072534495684639026 -0.066354216966127103 0 0.0018689451184251305 -0.065057273459280196 0 0.0081599433423561601 -0.087782909684683302 0 0.0092191918083181276 -0.087500937876421825 0 0.0079947231127871325 -0.089768564172385421 0 -0.00072534495684639026 -0.066354216966127103 0 0.0027138002121680571 -0.066489241321672263 0 0.0018689451184251305 -0.065057273459280196 0 0.0014729233038915724 -0.06878524739397486 0 0.0026268102708947149 -0.069023501870110346 0 -0.00013030207413021859 -0.067097201624771688 0 0.00087416524323311604 -0.068781400238607307 0 0.0030334678777155311 -0.068625919860171261 0 0.0014729233038915724 -0.06878524739397486 0 0.0014193831541886013 -0.068778710616701461 0 0.00087416524323311604 -0.068781400238607307 0 -0.00079594923632357205 -0.068369247986764484 0 0.00018914917819681733 -0.069908119993446066 0 -0.00013030207413021859 -0.067097201624771688 0 0.00087416524323311604 -0.068781400238607307 0 -0.00079594923632357205 -0.068369247986764484 0 0.0028203766096299853 -0.068152614826783489 0 0.0043643046224964401 -0.066508743627497743 0 0.0062741856645725635 -0.070047807217903296 0 -0.00072534495684639026 -0.066354216966127103 0 0.0028203766096299853 -0.068152614826783489 0 0.0027138002121680571 -0.066489241321672263 0 0.0027138002121680571 -0.066489241321672263 0 0.0043643046224964401 -0.066508743627497743 0 0.0018689451184251305 -0.065057273459280196 0 0.0028203766096299853 -0.068152614826783489 0 0.0027138002121680571 -0.066489241321672263 0 0.0043643046224964401 -0.066508743627497743 0 0.022217367958608524 -0.0066607798404222322 0 0.0204089732845435 -0.0040298204216056019 0 0.020627576807648769 -0.0058018731810719447 0 0.0082963758416930607 -0.051495671342132038 0 0.0086044409360301714 -0.040912894691906967 0 0.0204089732845435 -0.0040298204216056019 0 0.020627576807648769 -0.0058018731810719447 0 0.019804066867461358 -0.0049565853235143155 0 0.0014798795977338716 -0.062164250013496875 0 0.0043643046224964401 -0.066508743627497743 0 0.0018689451184251305 -0.065057273459280196 0 0.022217367958608524 -0.0066607798404222322 0 0.020627576807648769 -0.0058018731810719447 0 0.021083434563777186 -0.0066739509070966709 0 0.020627576807648769 -0.0058018731810719447 0 0.020179450942791985 -0.0068064848748895278 0 0.021083434563777186 -0.0066739509070966709 0 0.020179450942791985 -0.0068064848748895278 0 0.02077797964305533 -0.0075520817188439223 0 0.01975241302364469 -0.0081621875891800654 0 0.022217367958608524 -0.0066607798404222322 0 0.02077797964305533 -0.0075520817188439223 0 0.0208245997101008 -0.0094652135207095971 0 0.0092960091741951158 -0.087613158382917625 0 0.0092413587788090432 -0.085993733467535305 0 0.011258298794068819 -0.085104503060228875 0 0.0082963758416930607 -0.051495671342132038 0 0.013377166578137336 -0.046900512204358875 0 0.020179450942791985 -0.0068064848748895278 0 0.021083434563777186 -0.0066739509070966709 0 0.02077797964305533 -0.0075520817188439223 0 0.02077797964305533 -0.0075520817188439223 0 0.0208245997101008 -0.0094652135207095971 0 0.01975241302364469 -0.0081621875891800654 0 0.022217367958608524 -0.0066607798404222322 0 0.021083434563777186 -0.0066739509070966709 0 0.02077797964305533 -0.0075520817188439223 0 0.0082963758416930607 -0.051495671342132038 0 0.0096387584203363741 -0.054456112521384097 0 0.0081599433423561601 -0.087782909684683302 0 0.0092191918083181276 -0.087500937876421825 0 0.0087378877906324672 -0.086755292898765157 0 0.0092960091741951158 -0.087613158382917625 0 0.0087378877906324672 -0.086755292898765157 0 0.0092413587788090432 -0.085993733467535305 0 0.0081599433423561601 -0.087782909684683302 0 0.0087378877906324672 -0.086755292898765157 0 0.0076125780759704956 -0.086925680759001145 0 0.0087378877906324672 -0.086755292898765157 0 0.0076125780759704956 -0.086925680759001145 0 0.0079168959089885183 -0.085727221774270668 0 0.0087378877906324672 -0.086755292898765157 0 0.0079168959089885183 -0.085727221774270668 0 0.0092413587788090432 -0.085993733467535305 0 0.0079168959089885183 -0.085727221774270668 0 0.0092413587788090432 -0.085993733467535305 0 0.0090790576141652722 -0.084645976347480473 0 0.0069825145829071639 -0.085142814475769033 0 0.0079168959089885183 -0.085727221774270668 0 0.008019880458369601 -0.08472582659056517 0 0.0079168959089885183 -0.085727221774270668 0 0.0090790576141652722 -0.084645976347480473 0 0.008019880458369601 -0.08472582659056517 0 0.0086029096280225287 -0.08335926545610417 0 0.0073260781897382891 -0.084158090850337236 0 0.008019880458369601 -0.08472582659056517 0 0.010202638212505792 -0.082920448210481695 0 0.0086029096280225287 -0.08335926545610417 0 0.0090790576141652722 -0.084645976347480473 0 0.0086029096280225287 -0.08335926545610417 0 0.0090790576141652722 -0.084645976347480473 0 0.008019880458369601 -0.08472582659056517 0 0.010202638212505792 -0.082920448210481695 0 0.0090790576141652722 -0.084645976347480473 0 0.011258298794068819 -0.085104503060228875 0 0.0092413587788090432 -0.085993733467535305 0 0.0090790576141652722 -0.084645976347480473 0 0.011258298794068819 -0.085104503060228875 0 0.0208245997101008 -0.0094652135207095971 0 0.018826868146996606 -0.009089987840217183 0 0.018641921247336865 -0.010613787044516427 0 0.0208245997101008 -0.0094652135207095971 0 0.018826868146996606 -0.009089987840217183 0 0.01975241302364469 -0.0081621875891800654 0 0.018826868146996606 -0.009089987840217183 0 0.01715588647480442 -0.00957324838335364 0 0.017983766545823118 -0.0075258503423964408 0 0.018826868146996606 -0.009089987840217183 0 0.018641921247336865 -0.010613787044516427 0 0.01715588647480442 -0.00957324838335364 0 0.017983766545823118 -0.0075258503423964408 0 0.016433880718498585 -0.0064131957593791976 0 0.015435279410426815 -0.0081214563603276124 0 0.01715588647480442 -0.00957324838335364 0 0.017983766545823118 -0.0075258503423964408 0 0.015435279410426815 -0.0081214563603276124 0 0.017983766545823118 -0.0075258503423964408 0 0.019087571167914204 -0.0068214095297050052 0 0.017933279910164645 -0.0056285434407196376 0 0.017983766545823118 -0.0075258503423964408 0 0.019087571167914204 -0.0068214095297050052 0 0.01975241302364469 -0.0081621875891800654 0 0.018826868146996606 -0.009089987840217183 0 0.017983766545823118 -0.0075258503423964408 0 0.01975241302364469 -0.0081621875891800654 0 0.020179450942791985 -0.0068064848748895278 0 0.019087571167914204 -0.0068214095297050052 0 0.01975241302364469 -0.0081621875891800654 0 0.020627576807648769 -0.0058018731810719447 0 0.020179450942791985 -0.0068064848748895278 0 0.019609108637719946 -0.005867418136069261 0 0.020179450942791985 -0.0068064848748895278 0 0.019087571167914204 -0.0068214095297050052 0 0.019609108637719946 -0.005867418136069261 0 0.019087571167914204 -0.0068214095297050052 0 0.019609108637719946 -0.005867418136069261 0 0.017933279910164645 -0.0056285434407196376 0 0.018986352425443991 -0.0049495585602966118 0 0.018199624003299955 -0.0042354848437787347 0 0.017933279910164645 -0.0056285434407196376 0 0.019609108637719946 -0.005867418136069261 0 0.018986352425443991 -0.0049495585602966118 0 0.017933279910164645 -0.0056285434407196376 0 0.020627576807648769 -0.0058018731810719447 0 0.019609108637719946 -0.005867418136069261 0 0.019804066867461358 -0.0049565853235143155 0 0.019609108637719946 -0.005867418136069261 0 0.018986352425443991 -0.0049495585602966118 0 0.019804066867461358 -0.0049565853235143155 0 0.018986352425443991 -0.0049495585602966118 0 0.019804066867461358 -0.0049565853235143155 0 0.019203299879718933 -0.0042961665583232935 0 0.0204089732845435 -0.0040298204216056019 0 0.018633833261877692 -0.0033121736567683822 0 0.018528311972707254 -0.0015273155522787139 0 0.0086044409360301714 -0.040912894691906967 0 0.010286003517068676 -0.03825850523867342 0 0.0204089732845435 -0.0040298204216056019 0 0.019203299879718933 -0.0042961665583232935 0 0.018633833261877692 -0.0033121736567683822 0 0.0204089732845435 -0.0040298204216056019 0 0.019804066867461358 -0.0049565853235143155 0 0.019203299879718933 -0.0042961665583232935 0 0.019203299879718933 -0.0042961665583232935 0 0.018199624003299955 -0.0042354848437787347 0 0.018633833261877692 -0.0033121736567683822 0 0.018199624003299955 -0.0042354848437787347 0 0.018633833261877692 -0.0033121736567683822 0 0.017494942007338019 -0.0035073019153810622 0 0.018986352425443991 -0.0049495585602966118 0 0.019203299879718933 -0.0042961665583232935 0 0.018199624003299955 -0.0042354848437787347 0 0.016325232804193027 -0.0033925738755616781 0 0.017494942007338019 -0.0035073019153810622 0 0.017218217387173319 -0.0023768332873807321 0 0.018633833261877692 -0.0033121736567683822 0 0.017494942007338019 -0.0035073019153810622 0 0.017218217387173319 -0.0023768332873807321 0 0.018199624003299955 -0.0042354848437787347 0 0.017494942007338019 -0.0035073019153810622 0 0.017125505384430684 -0.0043168328720270804 0 0.016325232804193027 -0.0033925738755616781 0 0.017125505384430684 -0.0043168328720270804 0 0.016060794889017526 -0.0049444091811205425 0 0.016325232804193027 -0.0033925738755616781 0 0.017494942007338019 -0.0035073019153810622 0 0.017125505384430684 -0.0043168328720270804 0 0.017125505384430684 -0.0043168328720270804 0 0.017933279910164645 -0.0056285434407196376 0 0.016060794889017526 -0.0049444091811205425 0 0.018199624003299955 -0.0042354848437787347 0 0.017125505384430684 -0.0043168328720270804 0 0.017933279910164645 -0.0056285434407196376 0 0.017983766545823118 -0.0075258503423964408 0 0.017933279910164645 -0.0056285434407196376 0 0.016433880718498585 -0.0064131957593791976 0 0.017933279910164645 -0.0056285434407196376 0 0.016433880718498585 -0.0064131957593791976 0 0.016060794889017526 -0.0049444091811205425 0 0.014491916674802484 -0.0058851389035123481 0 0.016060794889017526 -0.0049444091811205425 0 0.014841740234947248 -0.0037441964542039158 0 0.016433880718498585 -0.0064131957593791976 0 0.014491916674802484 -0.0058851389035123481 0 0.016060794889017526 -0.0049444091811205425 0 0.016325232804193027 -0.0033925738755616781 0 0.016060794889017526 -0.0049444091811205425 0 0.014841740234947248 -0.0037441964542039158 0 0.016325232804193027 -0.0033925738755616781 0 0.014841740234947248 -0.0037441964542039158 0 0.015354164588796631 -0.0020190102143801967 0 0.013074647650297514 -0.0041312771918670319 0 0.012700890230736521 -0.0020409356259811526 0 0.011205962364489831 -0.0035056587089247939 0 0.014841740234947248 -0.0037441964542039158 0 0.013074647650297514 -0.0041312771918670319 0 0.012700890230736521 -0.0020409356259811526 0 0.014491916674802484 -0.0058851389035123481 0 0.013074647650297514 -0.0041312771918670319 0 0.012213060414898268 -0.0055632217824985331 0 0.014491916674802484 -0.0058851389035123481 0 0.014841740234947248 -0.0037441964542039158 0 0.013074647650297514 -0.0041312771918670319 0 0.014491916674802484 -0.0058851389035123481 0 0.013159570527972873 -0.0075318737035256177 0 0.012213060414898268 -0.0055632217824985331 0 0.016433880718498585 -0.0064131957593791976 0 0.014491916674802484 -0.0058851389035123481 0 0.015435279410426815 -0.0081214563603276124 0 0.014491916674802484 -0.0058851389035123481 0 0.013159570527972873 -0.0075318737035256177 0 0.015435279410426815 -0.0081214563603276124 0 0.015293229388438096 -0.010642913967112175 0 0.015435279410426815 -0.0081214563603276124 0 0.013579654531004256 -0.0095369039973856214 0 0.015293229388438096 -0.010642913967112175 0 0.01715588647480442 -0.00957324838335364 0 0.015435279410426815 -0.0081214563603276124 0 0.013159570527972873 -0.0075318737035256177 0 0.015435279410426815 -0.0081214563603276124 0 0.013579654531004256 -0.0095369039973856214 0 0.013159570527972873 -0.0075318737035256177 0 0.013579654531004256 -0.0095369039973856214 0 0.011717789778246814 -0.0097386182418640888 0 0.013263117828399269 -0.011505265699844482 0 0.013579654531004256 -0.0095369039973856214 0 0.011717789778246814 -0.0097386182418640888 0 1.1562797073177491e-05 -0.084239381729124679 0 8.3789222770339373e-05 -0.084157861408984014 0 2.4247828675213881e-05 -0.084374203520093879 0 1.1562797073177491e-05 -0.084239381729124679 0 2.4247828675213881e-05 -0.084374203520093879 0 -8.0207306712089987e-06 -0.084560479852873835 0 0.00014107678088529576 -0.083579145068509941 0 -0.00042669777392364243 -0.082518372365773557 0 1.1562797073177491e-05 -0.084239381729124679 0 0.00018409759020189388 -0.083917716594515329 0 8.3789222770339373e-05 -0.084157861408984014 0 1.1562797073177491e-05 -0.084239381729124679 0 0.00018409759020189388 -0.083917716594515329 0 0.00033144590525147473 -0.083484731279961463 0 0.00018409759020189388 -0.083917716594515329 0 8.3789222770339373e-05 -0.084157861408984014 0 0.0001215120114116923 -0.084186867625474587 0 0.00018409759020189388 -0.083917716594515329 0 0.0001215120114116923 -0.084186867625474587 0 0.00026198731412857296 -0.083944781668083265 0 0.0001215120114116923 -0.084186867625474587 0 0.00017462515223981711 -0.084272966745520997 0 0.00026198731412857296 -0.083944781668083265 0 0.0001215120114116923 -0.084186867625474587 0 0.00017462515223981711 -0.084272966745520997 0 7.728856778234704e-05 -0.084450758835879935 0 2.4247828675213881e-05 -0.084374203520093879 0 5.253265628545338e-06 -0.084589032107759199 0 7.728856778234704e-05 -0.084450758835879935 0 2.4247828675213881e-05 -0.084374203520093879 0 5.253265628545338e-06 -0.084589032107759199 0 -1.7048282531979817e-05 -0.084658541778098617 0 0.0001215120114116923 -0.084186867625474587 0 2.4247828675213881e-05 -0.084374203520093879 0 7.728856778234704e-05 -0.084450758835879935 0 8.3789222770339373e-05 -0.084157861408984014 0 0.0001215120114116923 -0.084186867625474587 0 2.4247828675213881e-05 -0.084374203520093879 0 5.253265628545338e-06 -0.084589032107759199 0 -1.7048282531979817e-05 -0.084658541778098617 0 -2.2583553770143738e-05 -0.084810670515452324 0 -1.7048282531979817e-05 -0.084658541778098617 0 -1.807866428982087e-05 -0.084822818707376027 0 -2.2583553770143738e-05 -0.084810670515452324 0 2.4247828675213881e-05 -0.084374203520093879 0 -1.7048282531979817e-05 -0.084658541778098617 0 -8.0207306712089987e-06 -0.084560479852873835 0 -1.7048282531979817e-05 -0.084658541778098617 0 -1.807866428982087e-05 -0.084822818707376027 0 -1.6450961576554076e-05 -0.08474844459019594 0 -6.9254796320656771e-08 -0.0849995158350344 0 -1.807866428982087e-05 -0.084822818707376027 0 -2.2583553770143738e-05 -0.084810670515452324 0 -6.9254796320656771e-08 -0.0849995158350344 0 -1.807866428982087e-05 -0.084822818707376027 0 -2.0017452612752733e-05 -0.084936772822892276 0 -6.9254796320656771e-08 -0.0849995158350344 0 -2.0017452612752733e-05 -0.084936772822892276 0 -7.4216020748827177e-09 -0.084999887363146426 0 -2.0017452612752733e-05 -0.084936772822892276 0 -9.4567194285288766e-06 -0.084810873707200266 0 -6.7801097885564126e-05 -0.084703428755354374 0 -1.807866428982087e-05 -0.084822818707376027 0 -2.0017452612752733e-05 -0.084936772822892276 0 -1.6450961576554076e-05 -0.08474844459019594 0 -2.0017452612752733e-05 -0.084936772822892276 0 -1.6450961576554076e-05 -0.08474844459019594 0 -9.4567194285288766e-06 -0.084810873707200266 0 0.00014107678088529576 -0.083579145068509941 0 0.00013480721787763051 -0.083904810740616176 0 1.1562797073177491e-05 -0.084239381729124679 0 -9.4567194285288766e-06 -0.084810873707200266 0 -8.0207306712089987e-06 -0.084560479852873835 0 -1.6450961576554076e-05 -0.08474844459019594 0 -9.4567194285288766e-06 -0.084810873707200266 0 -8.0207306712089987e-06 -0.084560479852873835 0 -1.7048282531979817e-05 -0.084658541778098617 0 -1.6450961576554076e-05 -0.08474844459019594 0 -8.0207306712089987e-06 -0.084560479852873835 0 -9.4567194285288766e-06 -0.084810873707200266 0 0.00011280024058067188 -0.084725524044697881 0 3.1280942148253116e-05 -0.08470714371116303 0 0.00018475531519516981 -0.084765154113212754 0 -9.4567194285288766e-06 -0.084810873707200266 0 0.00011280024058067188 -0.084725524044697881 0 3.1280942148253116e-05 -0.08470714371116303 0 4.4687523906588686e-06 -0.084657096987848388 0 0.00010457654924976325 -0.084650495387006836 0 0.00011280024058067188 -0.084725524044697881 0 3.1280942148253116e-05 -0.08470714371116303 0 0.00010457654924976325 -0.084650495387006836 0 -0.00019246919639338725 -0.084726768618837434 0 -0.00021048706083749366 -0.08464025331133479 0 -2.0017452612752733e-05 -0.084936772822892276 0 -7.4216020748827177e-09 -0.084999887363146426 0 -4.9403749262957569e-06 -0.085007325276344331 0 -7.4216020748827177e-09 -0.084999887363146426 0 -4.9403749262957569e-06 -0.085007325276344331 0 -3.7896970098299908e-09 -0.085000072957481174 0 -9.4567194285288766e-06 -0.084810873707200266 0 3.1280942148253116e-05 -0.08470714371116303 0 -6.7801097885564126e-05 -0.084703428755354374 0 3.1280942148253116e-05 -0.08470714371116303 0 -6.7801097885564126e-05 -0.084703428755354374 0 4.4687523906588686e-06 -0.084657096987848388 0 -6.7801097885564126e-05 -0.084703428755354374 0 4.4687523906588686e-06 -0.084657096987848388 0 -5.5193567174439201e-05 -0.084570800711703503 0 -0.00021048706083749366 -0.08464025331133479 0 -0.0002649334017105675 -0.08432459024129775 0 4.4687523906588686e-06 -0.084657096987848388 0 -5.5193567174439201e-05 -0.084570800711703503 0 0.00010457654924976325 -0.084650495387006836 0 -4.9403749262957569e-06 -0.085007325276344331 0 3.7415428588498424e-07 -0.085000733498465708 0 -3.7896970098299908e-09 -0.085000072957481174 0 -0.0002649334017105675 -0.08432459024129775 0 -2.0985301313872037e-07 -0.084995512120604896 0 4.1671030982123891e-05 -0.080825734120605799 0 0.0012118826400089901 -0.080175851715899055 0 -0.00010991744842065433 -0.079527956941024797 0 -0.0002649334017105675 -0.08432459024129775 0 -0.00043140894264697788 -0.083139846829069039 0 4.1671030982123891e-05 -0.080825734120605799 0 -0.00010991744842065433 -0.079527956941024797 0 -0.00084504387614026382 -0.08030629412704908 0 -0.00084504387614026382 -0.08030629412704908 0 -0.00093947911222532214 -0.079525072381608539 0 -0.0015736195884839183 -0.079479295487241267 0 -0.00010991744842065433 -0.079527956941024797 0 -0.00084504387614026382 -0.08030629412704908 0 -0.00093947911222532214 -0.079525072381608539 0 -0.00010991744842065433 -0.079527956941024797 0 -0.00093947911222532214 -0.079525072381608539 0 -0.0012232908836944754 -0.078731537498619109 0 -0.00043140894264697788 -0.083139846829069039 0 -0.00065666278207387183 -0.082525158385658118 0 0.00011280024058067188 -0.084725524044697881 0 0.00010457654924976325 -0.084650495387006836 0 0.00022743277781432322 -0.084711965276325005 0 0.00018475531519516981 -0.084765154113212754 0 0.00011280024058067188 -0.084725524044697881 0 0.00022743277781432322 -0.084711965276325005 0 -0.00065666278207387183 -0.082525158385658118 0 -0.00042669777392364243 -0.082518372365773557 0 -0.0012232908836944754 -0.078731537498619109 0 -0.0015736195884839183 -0.079479295487241267 0 -0.002731575695705805 -0.077920896134991438 0 0.00018475531519516981 -0.084765154113212754 0 0.00022743277781432322 -0.084711965276325005 0 0.00032714863984387708 -0.084747567955320235 0 -0.0015383436921150269 -0.080787681507524856 0 -0.0015736195884839183 -0.079479295487241267 0 -0.0022627100406969634 -0.079561212980445606 0 -0.0015383436921150269 -0.080787681507524856 0 -0.00084504387614026382 -0.08030629412704908 0 -0.0015736195884839183 -0.079479295487241267 0 -0.00093947911222532214 -0.079525072381608539 0 -0.0012232908836944754 -0.078731537498619109 0 -0.0015736195884839183 -0.079479295487241267 0 -0.0023255978133575606 -0.080492725620475297 0 -0.0022627100406969634 -0.079561212980445606 0 -0.0029980221349604 -0.078942054209231005 0 -0.0033379220018871802 -0.075079982953738925 0 -0.0035035627836063148 -0.076305598875179917 0 -0.0032122532321709613 -0.080933123479183536 0 -0.0029980221349604 -0.078942054209231005 0 -0.0040336269064670804 -0.077850421765905745 0 -0.0034263935609484624 -0.078251050912509598 0 -0.003653910472213414 -0.078716437137404976 0 -0.002731575695705805 -0.077920896134991438 0 -0.0029980221349604 -0.078942054209231005 0 -0.0040336269064670804 -0.077850421765905745 0 -0.0034263935609484624 -0.078251050912509598 0 -0.0040336269064670804 -0.077850421765905745 0 -0.0034263935609484624 -0.078251050912509598 0 -0.003653910472213414 -0.078716437137404976 0 -0.0015736195884839183 -0.079479295487241267 0 -0.0022627100406969634 -0.079561212980445606 0 -0.002731575695705805 -0.077920896134991438 0 -0.0022627100406969634 -0.079561212980445606 0 -0.0029980221349604 -0.078942054209231005 0 -0.002731575695705805 -0.077920896134991438 0 -0.0029980221349604 -0.078942054209231005 0 -0.0034263935609484624 -0.078251050912509598 0 -0.002731575695705805 -0.077920896134991438 0 0.00054720790613307197 -0.073062891268432309 0 -0.0024507765611573207 -0.073342442108477665 0 -0.0010812310824955815 -0.076736611620850395 0 0.00054720790613307197 -0.073062891268432309 0 0.0020121631010832394 -0.076405688868490071 0 -0.0010812310824955815 -0.076736611620850395 0 -0.005587232275602187 -0.070219959673739105 0 -0.0040336269064670804 -0.077850421765905745 0 -0.0024507765611573207 -0.073342442108477665 0 -0.0040336269064670804 -0.077850421765905745 0 -0.0024507765611573207 -0.073342442108477665 0 -0.0010812310824955815 -0.076736611620850395 0 -0.0040336269064670804 -0.077850421765905745 0 -0.0022880131182263911 -0.07823529546080632 0 -0.0010812310824955815 -0.076736611620850395 0 -0.0022880131182263911 -0.07823529546080632 0 0.00012062865169897478 -0.079798726594628736 0 -0.003653910472213414 -0.078716437137404976 0 -0.0040336269064670804 -0.077850421765905745 0 -0.0022880131182263911 -0.07823529546080632 0 -0.003653910472213414 -0.078716437137404976 0 0.0020121631010832394 -0.076405688868490071 0 -0.0010812310824955815 -0.076736611620850395 0 0.00012062865169897478 -0.079798726594628736 0 -0.0022880131182263911 -0.07823529546080632 0 -0.0010812310824955815 -0.076736611620850395 0 0.00012062865169897478 -0.079798726594628736 0 0.0039723964474321794 -0.082709932166551786 0 0.0030282717165190571 -0.081002194353535631 0 0.0028667083942654006 -0.082766315323146059 0 0.0030282717165190571 -0.081002194353535631 0 0.0020597209204590273 -0.082336387461115532 0 0.0028667083942654006 -0.082766315323146059 0 0.0030282717165190571 -0.081002194353535631 0 0.0020597209204590273 -0.082336387461115532 0 0.0012403297344109709 -0.081803615608414731 0 0.0019632366248055937 -0.080937063188310399 0 3.6402265937654386e-05 -0.081429175831670031 0 0.0020597209204590273 -0.082336387461115532 0 0.0014517293956067998 -0.083012096046227252 0 0.0009349316402955417 -0.082803950339397664 0 0.0020597209204590273 -0.082336387461115532 0 0.0012403297344109709 -0.081803615608414731 0 0.0009349316402955417 -0.082803950339397664 0 0.0014517293956067998 -0.083012096046227252 0 0.002070217240064033 -0.083449450525409155 0 0.0012479794927233343 -0.083574935627890187 0 0.002070217240064033 -0.083449450525409155 0 0.0012479794927233343 -0.083574935627890187 0 0.0014526271922142562 -0.084152816878447986 0 0.0020597209204590273 -0.082336387461115532 0 0.0014517293956067998 -0.083012096046227252 0 0.002070217240064033 -0.083449450525409155 0 0.0020597209204590273 -0.082336387461115532 0 0.002070217240064033 -0.083449450525409155 0 0.0028667083942654006 -0.082766315323146059 0 0.002070217240064033 -0.083449450525409155 0 0.0028667083942654006 -0.082766315323146059 0 0.0033573138647075098 -0.083869625898896086 0 0.0039723964474321794 -0.082709932166551786 0 0.0028667083942654006 -0.082766315323146059 0 0.0033573138647075098 -0.083869625898896086 0 0.00033144590525147473 -0.083484731279961463 0 0.00046683109866333522 -0.083761536018464242 0 0.00026198731412857296 -0.083944781668083265 0 0.00018409759020189388 -0.083917716594515329 0 0.00033144590525147473 -0.083484731279961463 0 0.00026198731412857296 -0.083944781668083265 0 0.00033144590525147473 -0.083484731279961463 0 0.00074003347366663572 -0.083356038513574149 0 0.00046683109866333522 -0.083761536018464242 0 -0.00042669777392364243 -0.082518372365773557 0 0.00013701863655786082 -0.082739065321622576 0 3.6402265937654386e-05 -0.081429175831670031 0 -0.00042669777392364243 -0.082518372365773557 0 0.00033144590525147473 -0.083484731279961463 0 0.0009349316402955417 -0.082803950339397664 0 0.00074003347366663572 -0.083356038513574149 0 0.0012403297344109709 -0.081803615608414731 0 -0.0012408863574245893 -0.081846934599859852 0 0.0009349316402955417 -0.082803950339397664 0 0.0014517293956067998 -0.083012096046227252 0 0.0009349316402955417 -0.082803950339397664 0 0.00074003347366663572 -0.083356038513574149 0 0.00074003347366663572 -0.083356038513574149 0 0.00081949999300608394 -0.083862213433606891 0 0.00046683109866333522 -0.083761536018464242 0 0.0014517293956067998 -0.083012096046227252 0 0.00074003347366663572 -0.083356038513574149 0 0.0012479794927233343 -0.083574935627890187 0 0.00074003347366663572 -0.083356038513574149 0 0.0012479794927233343 -0.083574935627890187 0 0.00081949999300608394 -0.083862213433606891 0 0.0012479794927233343 -0.083574935627890187 0 0.00081949999300608394 -0.083862213433606891 0 0.0014526271922142562 -0.084152816878447986 0 0.00081949999300608394 -0.083862213433606891 0 0.00046683109866333522 -0.083761536018464242 0 0.0005525473937728853 -0.084132295745692573 0 0.00046683109866333522 -0.083761536018464242 0 0.00030774962571649935 -0.084226918791918959 0 0.0005525473937728853 -0.084132295745692573 0 0.00046683109866333522 -0.083761536018464242 0 0.00026198731412857296 -0.083944781668083265 0 0.00030774962571649935 -0.084226918791918959 0 0.00017462515223981711 -0.084272966745520997 0 0.00026198731412857296 -0.083944781668083265 0 0.00030774962571649935 -0.084226918791918959 0 0.00030774962571649935 -0.084226918791918959 0 0.00030625485123716366 -0.084516567913870994 0 0.00017579921176542944 -0.084478751708403757 0 0.00030774962571649935 -0.084226918791918959 0 0.00030625485123716366 -0.084516567913870994 0 0.0004847279074024022 -0.084419197588515335 0 0.00030625485123716366 -0.084516567913870994 0 0.0004847279074024022 -0.084419197588515335 0 0.00040945534786733702 -0.084613714849123389 0 0.00030774962571649935 -0.084226918791918959 0 0.0004847279074024022 -0.084419197588515335 0 0.0005525473937728853 -0.084132295745692573 0 0.00081949999300608394 -0.083862213433606891 0 0.0005525473937728853 -0.084132295745692573 0 0.00080279632561039481 -0.084345513415590559 0 0.0004847279074024022 -0.084419197588515335 0 0.0005525473937728853 -0.084132295745692573 0 0.00080279632561039481 -0.084345513415590559 0 0.00081949999300608394 -0.083862213433606891 0 0.00080279632561039481 -0.084345513415590559 0 0.0014526271922142562 -0.084152816878447986 0 0.00080279632561039481 -0.084345513415590559 0 0.0014526271922142562 -0.084152816878447986 0 0.001317573830407598 -0.08466451068242864 0 0.00080279632561039481 -0.084345513415590559 0 0.00077766293122715434 -0.084785326114483708 0 0.001317573830407598 -0.08466451068242864 0 0.0004847279074024022 -0.084419197588515335 0 0.00055542001465869401 -0.084492089999727765 0 0.00040945534786733702 -0.084613714849123389 0 0.0011525943868120143 -0.083927151628552063 0 0.0012049678981213511 -0.083924165612128662 0 0.0004847279074024022 -0.084419197588515335 0 0.00080279632561039481 -0.084345513415590559 0 0.00080731447742442872 -0.084594867784081373 0 0.001198454380433999 -0.08396246250387733 0 0.0012049678981213511 -0.083924165612128662 0 0.0012049678981213511 -0.083924165612128662 0 0.0017506978685953001 -0.083670149970691735 0 0.0011432870157725113 -0.083611839852555353 0 0.0011444138726231451 -0.083689105224579882 0 0.0012181412219999226 -0.08364802027483513 0 0.00055542001465869401 -0.084492089999727765 0 0.00049769457784037822 -0.084700579272053239 0 0.00040945534786733702 -0.084613714849123389 0 0.0012049678981213511 -0.083924165612128662 0 0.00086621485021067207 -0.084116345739503606 0 0.00049769457784037822 -0.084700579272053239 0 0.00040945534786733702 -0.084613714849123389 0 0.00031470017809055235 -0.084780001158083818 0 0.00040945534786733702 -0.084613714849123389 0 0.00031470017809055235 -0.084780001158083818 0 0.00018955949683159304 -0.084698281473632245 0 0.00030625485123716366 -0.084516567913870994 0 0.00040945534786733702 -0.084613714849123389 0 0.00018955949683159304 -0.084698281473632245 0 0.002070217240064033 -0.083449450525409155 0 0.0033573138647075098 -0.083869625898896086 0 0.0023699950275696078 -0.084410599186957633 0 0.0036820613821425723 -0.085053064149637439 0 0.0030779924665954158 -0.084945951815261878 0 0.0033573138647075098 -0.083869625898896086 0 0.0030779924665954158 -0.084945951815261878 0 0.0023699950275696078 -0.084410599186957633 0 0.0025045873044185836 -0.085174521471158407 0 0.0030779924665954158 -0.084945951815261878 0 0.0033573138647075098 -0.083869625898896086 0 0.0023699950275696078 -0.084410599186957633 0 0.0018357387272204041 -0.084729597261619535 0 0.0023699950275696078 -0.084410599186957633 0 0.0014526271922142562 -0.084152816878447986 0 0.0018357387272204041 -0.084729597261619535 0 0.0023699950275696078 -0.084410599186957633 0 0.0025045873044185836 -0.085174521471158407 0 0.002070217240064033 -0.083449450525409155 0 0.0023699950275696078 -0.084410599186957633 0 0.0014526271922142562 -0.084152816878447986 0 0.0018357387272204041 -0.084729597261619535 0 0.001317573830407598 -0.08466451068242864 0 0.0018033232548542496 -0.085387469341096658 0 0.0018357387272204041 -0.084729597261619535 0 0.0014526271922142562 -0.084152816878447986 0 0.001317573830407598 -0.08466451068242864 0 0.00077766293122715434 -0.084785326114483708 0 0.001317573830407598 -0.08466451068242864 0 0.0018033232548542496 -0.085387469341096658 0 0.0017506978685953001 -0.083670149970691735 0 0.0021822057214093103 -0.083111987990971178 0 0.0012181412219999226 -0.08364802027483513 0 0.0012945533107054385 -0.083683972017503605 0 0.0012194893765726995 -0.083726023898256813 0 0.0011444138726231451 -0.083689105224579882 0 0.0012181412219999226 -0.08364802027483513 0 0.0012194893765726995 -0.083726023898256813 0 0.0018357387272204041 -0.084729597261619535 0 0.0018033232548542496 -0.085387469341096658 0 0.0025045873044185836 -0.085174521471158407 0 0.0018033232548542496 -0.085387469341096658 0 0.0025045873044185836 -0.085174521471158407 0 0.0030050754436516313 -0.086040303000762666 0 0.0030779924665954158 -0.084945951815261878 0 0.0025045873044185836 -0.085174521471158407 0 0.0030050754436516313 -0.086040303000762666 0 0.0036820613821425723 -0.085053064149637439 0 0.0030779924665954158 -0.084945951815261878 0 0.0030050754436516313 -0.086040303000762666 0 -0.00015894763096786627 -0.083938774433820154 0 -0.00019460624739691605 -0.08395322399612172 0 -0.00015621764882684455 -0.083986428206614991 0 0.0021822057214093103 -0.083111987990971178 0 0.0010796267001302346 -0.083803129335290341 0 0.0010796267001302346 -0.083803129335290341 0 0.00053630986616099406 -0.084254969195821788 0 -0.00019460624739691605 -0.08395322399612172 0 -0.00020345201147067073 -0.083986109952624052 0 -0.00024467645170788538 -0.083970297171869893 0 -0.00020345201147067073 -0.083986109952624052 0 -0.00015621764882684455 -0.083986428206614991 0 -0.00018407516942747562 -0.084022153835212929 0 -0.00019460624739691605 -0.08395322399612172 0 -0.00020345201147067073 -0.083986109952624052 0 -0.00015621764882684455 -0.083986428206614991 0 -0.00020345201147067073 -0.083986109952624052 0 -0.00025761868215148941 -0.084033469929355994 0 -0.00018407516942747562 -0.084022153835212929 0 0.00031470017809055235 -0.084780001158083818 0 0.00015920171963336574 -0.084905043671639494 0 0.0001873663907847304 -0.084818459879581157 0 0.00031470017809055235 -0.084780001158083818 0 0.0001873663907847304 -0.084818459879581157 0 0.00018955949683159304 -0.084698281473632245 0 0.00049769457784037822 -0.084700579272053239 0 0.00031470017809055235 -0.084780001158083818 0 0.00045737711329562394 -0.084860322065561447 0 0.0011444138726231451 -0.083689105224579882 0 0.0012194893765726995 -0.083726023898256813 0 0.0011449892809136499 -0.083767898483537523 0 0.00086621485021067207 -0.084116345739503606 0 0.00053630986616099406 -0.084254969195821788 0 0.00053630986616099406 -0.084254969195821788 0 0.00028934420472420403 -0.08426003556523852 0 -0.00029078479272430155 -0.084678538495575037 0 -8.9363491300923099e-05 -0.084578002656851295 0 -0.000295602435263426 -0.084509549389219646 0 -0.00020345201147067073 -0.083986109952624052 0 -0.00024467645170788538 -0.083970297171869893 0 -0.00025761868215148941 -0.084033469929355994 0 0.00031470017809055235 -0.084780001158083818 0 0.00045737711329562394 -0.084860322065561447 0 0.00015920171963336574 -0.084905043671639494 0 0.00053630986616099406 -0.084254969195821788 0 0.00015176202203751981 -0.084565447219324838 0 0.00015920171963336574 -0.084905043671639494 0 7.2290527515681948e-05 -0.084866556362601472 0 0.00010146002185015594 -0.084830869608954029 0 0.00015920171963336574 -0.084905043671639494 0 0.00010146002185015594 -0.084830869608954029 0 0.0001873663907847304 -0.084818459879581157 0 0.00015920171963336574 -0.084905043671639494 0 7.2290527515681948e-05 -0.084866556362601472 0 5.7923072747633785e-05 -0.084698743896743325 0 0.00010146002185015594 -0.084830869608954029 0 6.4544549595580645e-05 -0.084751096211829247 0 3.9382282994216653e-05 -0.084857228185447386 0 7.2290527515681948e-05 -0.084866556362601472 0 0.00010146002185015594 -0.084830869608954029 0 3.9382282994216653e-05 -0.084857228185447386 0 0.00010146002185015594 -0.084830869608954029 0 0.0001873663907847304 -0.084818459879581157 0 0.00018955949683159304 -0.084698281473632245 0 0.00018955949683159304 -0.084698281473632245 0 9.7463379189624509e-05 -0.084621652159753258 0 6.4544549595580645e-05 -0.084751096211829247 0 0.00018955949683159304 -0.084698281473632245 0 9.7463379189624509e-05 -0.084621652159753258 0 0.00017579921176542944 -0.084478751708403757 0 0.00010146002185015594 -0.084830869608954029 0 0.00018955949683159304 -0.084698281473632245 0 6.4544549595580645e-05 -0.084751096211829247 0 0.00030625485123716366 -0.084516567913870994 0 0.00018955949683159304 -0.084698281473632245 0 0.00017579921176542944 -0.084478751708403757 0 6.4544549595580645e-05 -0.084751096211829247 0 1.2234927867411702e-05 -0.084803023018353615 0 3.9382282994216653e-05 -0.084857228185447386 0 6.4544549595580645e-05 -0.084751096211829247 0 2.4432256377039904e-05 -0.084671811624559543 0 1.2234927867411702e-05 -0.084803023018353615 0 9.7463379189624509e-05 -0.084621652159753258 0 6.4544549595580645e-05 -0.084751096211829247 0 2.4432256377039904e-05 -0.084671811624559543 0 9.7463379189624509e-05 -0.084621652159753258 0 2.4432256377039904e-05 -0.084671811624559543 0 7.728856778234704e-05 -0.084450758835879935 0 5.253265628545338e-06 -0.084589032107759199 0 2.4432256377039904e-05 -0.084671811624559543 0 7.728856778234704e-05 -0.084450758835879935 0 0.00017462515223981711 -0.084272966745520997 0 7.728856778234704e-05 -0.084450758835879935 0 0.00017579921176542944 -0.084478751708403757 0 0.00017462515223981711 -0.084272966745520997 0 0.00030774962571649935 -0.084226918791918959 0 0.00017579921176542944 -0.084478751708403757 0 9.7463379189624509e-05 -0.084621652159753258 0 7.728856778234704e-05 -0.084450758835879935 0 0.00017579921176542944 -0.084478751708403757 0 -6.9254796320656771e-08 -0.0849995158350344 0 -2.2583553770143738e-05 -0.084810670515452324 0 -2.2905443036926581e-08 -0.084999812718552087 0 2.4432256377039904e-05 -0.084671811624559543 0 -2.2583553770143738e-05 -0.084810670515452324 0 1.2234927867411702e-05 -0.084803023018353615 0 5.253265628545338e-06 -0.084589032107759199 0 2.4432256377039904e-05 -0.084671811624559543 0 -2.2583553770143738e-05 -0.084810670515452324 0 -2.2583553770143738e-05 -0.084810670515452324 0 1.2234927867411702e-05 -0.084803023018353615 0 2.5516004971530244e-06 -0.084926004315160133 0 -2.2583553770143738e-05 -0.084810670515452324 0 -2.2905443036926581e-08 -0.084999812718552087 0 2.5516004971530244e-06 -0.084926004315160133 0 1.7406763773309584e-08 -0.084999867926198264 0 2.5516004971530244e-06 -0.084926004315160133 0 3.6494327543359954e-05 -0.084919683467890458 0 -2.2905443036926581e-08 -0.084999812718552087 0 1.7406763773309584e-08 -0.084999867926198264 0 2.5516004971530244e-06 -0.084926004315160133 0 2.5516004971530244e-06 -0.084926004315160133 0 3.9382282994216653e-05 -0.084857228185447386 0 3.6494327543359954e-05 -0.084919683467890458 0 1.2234927867411702e-05 -0.084803023018353615 0 2.5516004971530244e-06 -0.084926004315160133 0 3.9382282994216653e-05 -0.084857228185447386 0 7.2290527515681948e-05 -0.084866556362601472 0 3.9382282994216653e-05 -0.084857228185447386 0 3.6494327543359954e-05 -0.084919683467890458 0 7.2290527515681948e-05 -0.084866556362601472 0 3.6494327543359954e-05 -0.084919683467890458 0 7.8271827113496396e-05 -0.084909537313501662 0 1.7406763773309584e-08 -0.084999867926198264 0 3.6494327543359954e-05 -0.084919683467890458 0 1.3981312839319475e-08 -0.084999903292642051 0 3.6494327543359954e-05 -0.084919683467890458 0 1.3981312839319475e-08 -0.084999903292642051 0 7.8271827113496396e-05 -0.084909537313501662 0 1.3981312839319475e-08 -0.084999903292642051 0 7.8271827113496396e-05 -0.084909537313501662 0 5.1890039637052273e-05 -0.084967161250524254 0 7.8271827113496396e-05 -0.084909537313501662 0 5.1890039637052273e-05 -0.084967161250524254 0 4.1978407166277694e-05 -0.084966553688538921 0 1.3981312839319475e-08 -0.084999903292642051 0 5.1890039637052273e-05 -0.084967161250524254 0 7.2177805116455761e-08 -0.084999999866595663 0 -8.9363491300923099e-05 -0.084578002656851295 0 -5.6217022792810385e-05 -0.084515402415409779 0 5.7923072747633785e-05 -0.084698743896743325 0 0.00015176202203751981 -0.084565447219324838 0 0.00012310199670283864 -0.084603671407834077 0 7.2290527515681948e-05 -0.084866556362601472 0 7.8271827113496396e-05 -0.084909537313501662 0 5.7923072747633785e-05 -0.084698743896743325 0 7.8271827113496396e-05 -0.084909537313501662 0 5.7923072747633785e-05 -0.084698743896743325 0 7.8857237419362769e-05 -0.084445303930705318 0 3.7599105815133569e-05 -0.084730030717248717 0 3.0483520447841029e-07 -0.084658593847424107 0 5.1890039637052273e-05 -0.084967161250524254 0 4.1978407166277694e-05 -0.084966553688538921 0 4.5778202771854288e-05 -0.08491038215396926 0 -5.6217022792810385e-05 -0.084515402415409779 0 5.7923072747633785e-05 -0.084698743896743325 0 7.8857237419362769e-05 -0.084445303930705318 0 -5.6217022792810385e-05 -0.084515402415409779 0 7.8857237419362769e-05 -0.084445303930705318 0 -0.00012847422230201876 -0.084350037404193987 0 4.1978407166277694e-05 -0.084966553688538921 0 4.5778202771854288e-05 -0.08491038215396926 0 -9.1046682407902696e-05 -0.08483762196337076 0 3.0483520447841029e-07 -0.084658593847424107 0 -7.6534721902791624e-05 -0.084536631360793424 0 4.5778202771854288e-05 -0.08491038215396926 0 2.2424095665597769e-05 -0.084816146501912257 0 -9.1046682407902696e-05 -0.08483762196337076 0 7.8857237419362769e-05 -0.084445303930705318 0 -0.00014498980852659874 -0.084140175913603829 0 -0.00012847422230201876 -0.084350037404193987 0 4.5778202771854288e-05 -0.08491038215396926 0 2.2424095665597769e-05 -0.084816146501912257 0 6.1466808369017053e-05 -0.084941001417108697 0 -4.9702851251429317e-05 -0.084824855234100119 0 -3.0106973379866765e-07 -0.084919426845509433 0 -2.2032630722987197e-05 -0.084826062639874841 0 -6.3068391348626099e-05 -0.084773688415672357 0 -6.2187502879483528e-06 -0.084920033002505071 0 -2.2032630722987197e-05 -0.084826062639874841 0 -6.3068391348626099e-05 -0.084773688415672357 0 -4.7899102568259553e-05 -0.084722809095576182 0 2.2424095665597769e-05 -0.084816146501912257 0 -9.1046682407902696e-05 -0.08483762196337076 0 -0.00014094053737093219 -0.084519616819216367 0 -4.9702851251429317e-05 -0.084824855234100119 0 -0.00010674573527341156 -0.084761450365311061 0 -6.3068391348626099e-05 -0.084773688415672357 0 -8.615678979677554e-05 -0.084643948141273392 0 -0.00014094053737093219 -0.084519616819216367 0 -6.3068391348626099e-05 -0.084773688415672357 0 -4.7899102568259553e-05 -0.084722809095576182 0 -8.615678979677554e-05 -0.084643948141273392 0 3.3180597240101102e-08 -0.084999854587758383 0 -3.0106973379866765e-07 -0.084919426845509433 0 1.44673514519024e-08 -0.084999981235977837 0 -6.2187502879483528e-06 -0.084920033002505071 0 2.0755485214078921e-06 -0.08491429388609241 0 5.1890039637052273e-05 -0.084967161250524254 0 7.2177805116455761e-08 -0.084999999866595663 0 6.1466808369017053e-05 -0.084941001417108697 0 5.1890039637052273e-05 -0.084967161250524254 0 4.5778202771854288e-05 -0.08491038215396926 0 6.1466808369017053e-05 -0.084941001417108697 0 -2.2032630722987197e-05 -0.084826062639874841 0 -6.2187502879483528e-06 -0.084920033002505071 0 2.0755485214078921e-06 -0.08491429388609241 0 -2.2032630722987197e-05 -0.084826062639874841 0 2.0755485214078921e-06 -0.08491429388609241 0 -1.8283325351692599e-05 -0.084802077989994396 0 1.44673514519024e-08 -0.084999981235977837 0 2.0755485214078921e-06 -0.08491429388609241 0 8.7195262669889895e-09 -0.084999796758122789 0 2.0755485214078921e-06 -0.08491429388609241 0 8.7195262669889895e-09 -0.084999796758122789 0 -2.1038804481672332e-06 -0.084891380756952878 0 8.7195262669889895e-09 -0.084999796758122789 0 -2.1038804481672332e-06 -0.084891380756952878 0 -4.0632630659331538e-09 -0.084999812120026733 0 -8.6121865033605541e-06 -0.084838052107710726 0 -2.1038804481672332e-06 -0.084891380756952878 0 -4.0632630659331538e-09 -0.084999812120026733 0 -8.6121865033605541e-06 -0.084838052107710726 0 -2.1038804481672332e-06 -0.084891380756952878 0 -2.2042944724746661e-05 -0.084772347831150952 0 -2.1038804481672332e-06 -0.084891380756952878 0 -1.8283325351692599e-05 -0.084802077989994396 0 -2.2042944724746661e-05 -0.084772347831150952 0 2.0755485214078921e-06 -0.08491429388609241 0 -2.1038804481672332e-06 -0.084891380756952878 0 -1.8283325351692599e-05 -0.084802077989994396 0 -2.2032630722987197e-05 -0.084826062639874841 0 -1.8283325351692599e-05 -0.084802077989994396 0 -4.7899102568259553e-05 -0.084722809095576182 0 -1.8283325351692599e-05 -0.084802077989994396 0 -4.7899102568259553e-05 -0.084722809095576182 0 -4.6382059475029648e-05 -0.084686297844608197 0 -1.8283325351692599e-05 -0.084802077989994396 0 -4.6382059475029648e-05 -0.084686297844608197 0 -2.2042944724746661e-05 -0.084772347831150952 0 -8.615678979677554e-05 -0.084643948141273392 0 -7.9859504313285247e-05 -0.08460974462044428 0 -0.00011017675462039266 -0.084550717267412298 0 -4.7899102568259553e-05 -0.084722809095576182 0 -8.615678979677554e-05 -0.084643948141273392 0 -7.9859504313285247e-05 -0.08460974462044428 0 -4.6382059475029648e-05 -0.084686297844608197 0 -7.9859504313285247e-05 -0.08460974462044428 0 -8.9376835100069045e-05 -0.08455864318960965 0 -4.7899102568259553e-05 -0.084722809095576182 0 -4.6382059475029648e-05 -0.084686297844608197 0 -7.9859504313285247e-05 -0.08460974462044428 0 -7.9859504313285247e-05 -0.08460974462044428 0 -8.9376835100069045e-05 -0.08455864318960965 0 -0.00014083478311216959 -0.084427800175090745 0 0.00018192233904098392 -0.084468973634965056 0 0.00013097106454186975 -0.084318826129290453 0 4.7974711873179807e-05 -0.084298462130337121 0 2.2680608234114302e-05 -0.084645585714110433 0 -4.4544542060111145e-05 -0.084523291040219051 0 -8.9376835100069045e-05 -0.08455864318960965 0 -5.2589704407837921e-05 -0.084642900951590272 0 -0.00013141377324528441 -0.084425919108292544 0 -4.6382059475029648e-05 -0.084686297844608197 0 -8.9376835100069045e-05 -0.08455864318960965 0 -5.2589704407837921e-05 -0.084642900951590272 0 -8.6121865033605541e-06 -0.084838052107710726 0 -2.2042944724746661e-05 -0.084772347831150952 0 -5.2589704407837921e-05 -0.084642900951590272 0 3.4902370191560585e-05 -0.084811560847148332 0 2.2680608234114302e-05 -0.084645585714110433 0 -4.6382059475029648e-05 -0.084686297844608197 0 -2.2042944724746661e-05 -0.084772347831150952 0 -5.2589704407837921e-05 -0.084642900951590272 0 7.1385865063949274e-05 -0.084705450953941455 0 0.00018192233904098392 -0.084468973634965056 0 0.00017168338606954656 -0.084582633222915579 0 0.00018192233904098392 -0.084468973634965056 0 0.00017168338606954656 -0.084582633222915579 0 0.00013097106454186975 -0.084318826129290453 0 0.00017168338606954656 -0.084582633222915579 0 0.00013097106454186975 -0.084318826129290453 0 0.00013494006772299681 -0.084041295392515827 0 0.00025756228117768202 -0.084771599274424542 0 0.00014611976452128881 -0.084791018351132896 0 0.00017698724647769205 -0.084843528141872473 0 0.0010421055042874258 -0.082978708510383095 0 0.001233473003041805 -0.082465152577216358 0 0.00017168338606954656 -0.084582633222915579 0 0.00014611976452128881 -0.084791018351132896 0 3.7265573228920375e-05 -0.084845461720789869 0 0.00017168338606954656 -0.084582633222915579 0 0.00025756228117768202 -0.084771599274424542 0 0.00014611976452128881 -0.084791018351132896 0 3.7265573228920375e-05 -0.084845461720789869 0 8.0058753934029504e-05 -0.084883607123453594 0 2.8867096217630085e-05 -0.084938116731464897 0 0.00014611976452128881 -0.084791018351132896 0 3.7265573228920375e-05 -0.084845461720789869 0 8.0058753934029504e-05 -0.084883607123453594 0 3.7265573228920375e-05 -0.084845461720789869 0 -2.6196921113096132e-09 -0.084999926919951341 0 2.8867096217630085e-05 -0.084938116731464897 0 7.1385865063949274e-05 -0.084705450953941455 0 3.7265573228920375e-05 -0.084845461720789869 0 -3.0812335604608295e-08 -0.084999584629339542 0 3.4902370191560585e-05 -0.084811560847148332 0 4.8121647108382017e-08 -0.084999587039501098 0 3.7265573228920375e-05 -0.084845461720789869 0 -2.6196921113096132e-09 -0.084999926919951341 0 -3.0812335604608295e-08 -0.084999584629339542 0 7.1385865063949274e-05 -0.084705450953941455 0 0.00017168338606954656 -0.084582633222915579 0 3.7265573228920375e-05 -0.084845461720789869 0 -0.00021362646917816747 -0.083873310767057216 0 -0.00013795723362905956 -0.084054296311603716 0 -0.00024828885429167792 -0.083957338927486275 0 -0.00029561437956349308 -0.083791310493943283 0 -0.00021362646917816747 -0.083873310767057216 0 -0.00024828885429167792 -0.083957338927486275 0 -0.00029561437956349308 -0.083791310493943283 0 -0.00024828885429167792 -0.083957338927486275 0 -0.00033226186400742635 -0.083744359669132434 0 -0.00029561437956349308 -0.083791310493943283 0 -0.00025084658891706403 -0.083750833384374571 0 -0.00021362646917816747 -0.083873310767057216 0 -0.00029561437956349308 -0.083791310493943283 0 -0.00036375156795049132 -0.083701564964730454 0 -0.00031298360370313481 -0.083685938167467111 0 -0.00029561437956349308 -0.083791310493943283 0 -0.00025084658891706403 -0.083750833384374571 0 -0.00031298360370313481 -0.083685938167467111 0 -0.00025084658891706403 -0.083750833384374571 0 -0.00021362646917816747 -0.083873310767057216 0 -0.00016814877416469092 -0.083804032771314846 0 -0.00021362646917816747 -0.083873310767057216 0 -0.00016814877416469092 -0.083804032771314846 0 -9.0475589516648256e-05 -0.083944765076184438 0 -0.00021362646917816747 -0.083873310767057216 0 -9.0475589516648256e-05 -0.083944765076184438 0 -0.00013795723362905956 -0.084054296311603716 0 -0.00016814877416469092 -0.083804032771314846 0 -9.0475589516648256e-05 -0.083944765076184438 0 -4.6935393573849249e-05 -0.083737743087764951 0 0.00013494006772299681 -0.084041295392515827 0 -9.0475589516648256e-05 -0.083944765076184438 0 1.8982122056124955e-05 -0.084142362444250801 0 0.00013494006772299681 -0.084041295392515827 0 -9.0475589516648256e-05 -0.083944765076184438 0 -4.6935393573849249e-05 -0.083737743087764951 0 0.00013097106454186975 -0.084318826129290453 0 1.8982122056124955e-05 -0.084142362444250801 0 4.7974711873179807e-05 -0.084298462130337121 0 0.00013097106454186975 -0.084318826129290453 0 0.00013494006772299681 -0.084041295392515827 0 1.8982122056124955e-05 -0.084142362444250801 0 1.8982122056124955e-05 -0.084142362444250801 0 -0.00013795723362905956 -0.084054296311603716 0 4.7974711873179807e-05 -0.084298462130337121 0 -9.0475589516648256e-05 -0.083944765076184438 0 1.8982122056124955e-05 -0.084142362444250801 0 -0.00013795723362905956 -0.084054296311603716 0 -9.376674236131368e-05 -0.084472553154352162 0 -4.4544542060111145e-05 -0.084523291040219051 0 -0.00013795723362905956 -0.084054296311603716 0 -0.00016856124468550478 -0.084163660526729772 0 4.7974711873179807e-05 -0.084298462130337121 0 -0.00016856124468550478 -0.084163660526729772 0 -0.00013141377324528441 -0.084425919108292544 0 -0.00014083478311216959 -0.084427800175090745 0 -8.9376835100069045e-05 -0.08455864318960965 0 -0.00013141377324528441 -0.084425919108292544 0 -0.00014083478311216959 -0.084427800175090745 0 -8.615678979677554e-05 -0.084643948141273392 0 -0.00011017675462039266 -0.084550717267412298 0 -0.00014094053737093219 -0.084519616819216367 0 -7.9859504313285247e-05 -0.08460974462044428 0 -0.00014083478311216959 -0.084427800175090745 0 -0.00011017675462039266 -0.084550717267412298 0 -0.00014083478311216959 -0.084427800175090745 0 -0.00019716796159878144 -0.084288104762601859 0 -0.00014094053737093219 -0.084519616819216367 0 -0.00014083478311216959 -0.084427800175090745 0 -0.00011017675462039266 -0.084550717267412298 0 -0.00014094053737093219 -0.084519616819216367 0 -0.00019716796159878144 -0.084288104762601859 0 -0.00018714094451782834 -0.084079172732257984 0 -0.00018030339433189937 -0.084148644498439784 0 -0.00016856124468550478 -0.084163660526729772 0 -0.00014083478311216959 -0.084427800175090745 0 -0.00019716796159878144 -0.084288104762601859 0 -0.00016856124468550478 -0.084163660526729772 0 -0.00019716796159878144 -0.084288104762601859 0 -0.00018714094451782834 -0.084079172732257984 0 -0.00016856124468550478 -0.084163660526729772 0 -0.00018714094451782834 -0.084079172732257984 0 -0.00024828885429167792 -0.083957338927486275 0 -0.00013795723362905956 -0.084054296311603716 0 -0.00016856124468550478 -0.084163660526729772 0 -0.00024828885429167792 -0.083957338927486275 0 -0.00024828885429167792 -0.083957338927486275 0 -0.00021830017033768116 -0.083916220953080017 0 -0.00032155538936349864 -0.083852588162947633 0 -0.00018714094451782834 -0.084079172732257984 0 -0.00024828885429167792 -0.083957338927486275 0 -0.00021830017033768116 -0.083916220953080017 0 -0.00018714094451782834 -0.084079172732257984 0 -0.00021830017033768116 -0.083916220953080017 0 -0.00017529154549426586 -0.083998627011377794 0 -0.00018714094451782834 -0.084079172732257984 0 -0.00018682665127381389 -0.084094053659272722 0 -0.00018030339433189937 -0.084148644498439784 0 -0.00018714094451782834 -0.084079172732257984 0 -0.00017529154549426586 -0.083998627011377794 0 -0.00018682665127381389 -0.084094053659272722 0 -0.00018682665127381389 -0.084094053659272722 0 -0.00021293912832557401 -0.084147561182137134 0 -0.0001806999200744224 -0.084082974462746554 0 -0.00017529154549426586 -0.083998627011377794 0 -0.00018682665127381389 -0.084094053659272722 0 -0.0001806999200744224 -0.084082974462746554 0 -0.00017529154549426586 -0.083998627011377794 0 -0.0001806999200744224 -0.084082974462746554 0 -0.00014510836963513106 -0.083976336504063914 0 -0.00019716796159878144 -0.084288104762601859 0 -9.1046682407902696e-05 -0.08483762196337076 0 -0.00014094053737093219 -0.084519616819216367 0 -0.00011923631325264387 -0.08446681643863857 0 -7.6534721902791624e-05 -0.084536631360793424 0 -0.00014498980852659874 -0.084140175913603829 0 -0.0001842879175365724 -0.084189218504201441 0 -0.00018333577021351302 -0.084165070644340298 0 -0.00019716796159878144 -0.084288104762601859 0 -0.00014498980852659874 -0.084140175913603829 0 -0.0001842879175365724 -0.084189218504201441 0 -0.0001842879175365724 -0.084189218504201441 0 -0.00019372823494483469 -0.084148421511710994 0 -0.00018333577021351302 -0.084165070644340298 0 -0.00019716796159878144 -0.084288104762601859 0 -0.0001842879175365724 -0.084189218504201441 0 -0.00018030339433189937 -0.084148644498439784 0 -0.0001842879175365724 -0.084189218504201441 0 -0.00018030339433189937 -0.084148644498439784 0 -0.00019372823494483469 -0.084148421511710994 0 -0.00018682665127381389 -0.084094053659272722 0 -0.00018030339433189937 -0.084148644498439784 0 -0.00019372823494483469 -0.084148421511710994 0 -0.00018682665127381389 -0.084094053659272722 0 -0.00019372823494483469 -0.084148421511710994 0 -0.00021293912832557401 -0.084147561182137134 0 -0.00021293912832557401 -0.084147561182137134 0 -0.00019574819122820879 -0.084196757744224901 0 -0.00025495751911401674 -0.084209262322745421 0 -0.00019372823494483469 -0.084148421511710994 0 -0.00018333577021351302 -0.084165070644340298 0 -0.00019574819122820879 -0.084196757744224901 0 -0.00019372823494483469 -0.084148421511710994 0 -0.00021293912832557401 -0.084147561182137134 0 -0.00019574819122820879 -0.084196757744224901 0 -0.00014498980852659874 -0.084140175913603829 0 -0.00019574819122820879 -0.084196757744224901 0 -0.00012847422230201876 -0.084350037404193987 0 -0.00014498980852659874 -0.084140175913603829 0 -0.00018333577021351302 -0.084165070644340298 0 -0.00019574819122820879 -0.084196757744224901 0 -5.6217022792810385e-05 -0.084515402415409779 0 -0.00012847422230201876 -0.084350037404193987 0 -0.0001675051532197089 -0.084417466567128688 0 -0.00012847422230201876 -0.084350037404193987 0 -0.00025495751911401674 -0.084209262322745421 0 -0.0001675051532197089 -0.084417466567128688 0 -0.00019574819122820879 -0.084196757744224901 0 -0.00012847422230201876 -0.084350037404193987 0 -0.00025495751911401674 -0.084209262322745421 0 0.00021541476779610369 -0.084250467532087495 0 0.00028934420472420403 -0.08426003556523852 0 -0.00025495751911401674 -0.084209262322745421 0 -0.000295602435263426 -0.084509549389219646 0 -0.0001675051532197089 -0.084417466567128688 0 -0.00025495751911401674 -0.084209262322745421 0 -0.00025761868215148941 -0.084033469929355994 0 -0.00018979626183627843 -0.08408552747549404 0 -8.9363491300923099e-05 -0.084578002656851295 0 -0.000295602435263426 -0.084509549389219646 0 -0.0001675051532197089 -0.084417466567128688 0 -8.9363491300923099e-05 -0.084578002656851295 0 -5.6217022792810385e-05 -0.084515402415409779 0 -0.0001675051532197089 -0.084417466567128688 0 -0.0001806999200744224 -0.084082974462746554 0 -0.00015613659652379322 -0.084033167731975805 0 -0.00014510836963513106 -0.083976336504063914 0 -0.0001806999200744224 -0.084082974462746554 0 -0.00018979626183627843 -0.08408552747549404 0 -0.00015613659652379322 -0.084033167731975805 0 -0.00021293912832557401 -0.084147561182137134 0 -0.00025495751911401674 -0.084209262322745421 0 -0.0001806999200744224 -0.084082974462746554 0 -0.00025495751911401674 -0.084209262322745421 0 -0.0001806999200744224 -0.084082974462746554 0 -0.00018979626183627843 -0.08408552747549404 0 -0.00018979626183627843 -0.08408552747549404 0 -0.00018407516942747562 -0.084022153835212929 0 -0.00015613659652379322 -0.084033167731975805 0 -0.00025761868215148941 -0.084033469929355994 0 -0.00018979626183627843 -0.08408552747549404 0 -0.00018407516942747562 -0.084022153835212929 0 -0.00015621764882684455 -0.083986428206614991 0 -0.00018407516942747562 -0.084022153835212929 0 -0.00015613659652379322 -0.084033167731975805 0 -0.00015621764882684455 -0.083986428206614991 0 -0.00015613659652379322 -0.084033167731975805 0 -0.00014494809748100129 -0.084001541276931796 0 -0.00015613659652379322 -0.084033167731975805 0 -0.00014494809748100129 -0.084001541276931796 0 -0.00014908566299847277 -0.083995149637606223 0 -0.00014494809748100129 -0.084001541276931796 0 -0.00014908566299847277 -0.083995149637606223 0 -0.0001463316252952485 -0.083995980988240335 0 -0.00014908566299847277 -0.083995149637606223 0 -0.00014510836963513106 -0.083976336504063914 0 -0.00017892407632025647 -0.083950613598244378 0 -0.00015613659652379322 -0.084033167731975805 0 -0.00014908566299847277 -0.083995149637606223 0 -0.00014510836963513106 -0.083976336504063914 0 -0.0020927529453052618 -0.073818946092067406 0 -0.0029823986258300222 -0.069462207701227907 0 -0.0011028794403256774 -0.07063280963508406 0 -0.00014908566299847277 -0.083995149637606223 0 -0.00017892407632025647 -0.083950613598244378 0 -0.0001463316252952485 -0.083995980988240335 0 0.00013361003047128648 -0.07887393277984231 0 0.00091124809551879527 -0.077556622657353719 0 -0.00079594923632357205 -0.068369247986764484 0 -0.0029823986258300222 -0.069462207701227907 0 -0.0011028794403256774 -0.07063280963508406 0 -0.00079594923632357205 -0.068369247986764484 0 -0.0011028794403256774 -0.07063280963508406 0 0.00018914917819681733 -0.069908119993446066 0 0.00087416524323311604 -0.068781400238607307 0 0.00018914917819681733 -0.069908119993446066 0 0.0019833705261915078 -0.070439823883850866 0 0.00029278338183723286 -0.072008368201721559 0 0.0019833705261915078 -0.070439823883850866 0 0.0021415629734613476 -0.072608776575790304 0 0.00018914917819681733 -0.069908119993446066 0 0.00029278338183723286 -0.072008368201721559 0 0.0019833705261915078 -0.070439823883850866 0 -0.0011028794403256774 -0.07063280963508406 0 0.00018914917819681733 -0.069908119993446066 0 0.00029278338183723286 -0.072008368201721559 0 0.0030334678777155311 -0.068625919860171261 0 0.0046195504829256075 -0.07033374634469429 0 0.0062741856645725635 -0.070047807217903296 0 0.0026268102708947149 -0.069023501870110346 0 0.0036249968763420941 -0.069419522338705839 0 0.0030334678777155311 -0.068625919860171261 0 0.0046195504829256075 -0.07033374634469429 0 0.0033577322315635643 -0.070233660069116938 0 0.0030334678777155311 -0.068625919860171261 0 0.0019833705261915078 -0.070439823883850866 0 0.0033577322315635643 -0.070233660069116938 0 0.00087416524323311604 -0.068781400238607307 0 0.0030334678777155311 -0.068625919860171261 0 0.0019833705261915078 -0.070439823883850866 0 0.0019833705261915078 -0.070439823883850866 0 0.0033577322315635643 -0.070233660069116938 0 0.0038004172272638561 -0.071561884898992872 0 0.0019833705261915078 -0.070439823883850866 0 0.0038004172272638561 -0.071561884898992872 0 0.0021415629734613476 -0.072608776575790304 0 0.0046195504829256075 -0.07033374634469429 0 0.0038004172272638561 -0.071561884898992872 0 0.0055173122368893561 -0.071256240173531479 0 0.0046195504829256075 -0.07033374634469429 0 0.0033577322315635643 -0.070233660069116938 0 0.0038004172272638561 -0.071561884898992872 0 0.0033643279835226733 -0.07437222527582471 0 0.0056096619429027023 -0.073283475063802755 0 0.0054119316481535326 -0.076536881313246166 0 0.0038004172272638561 -0.071561884898992872 0 0.0033643279835226733 -0.07437222527582471 0 0.0056096619429027023 -0.073283475063802755 0 0.0038004172272638561 -0.071561884898992872 0 0.0021415629734613476 -0.072608776575790304 0 0.0033643279835226733 -0.07437222527582471 0 0.0021415629734613476 -0.072608776575790304 0 0.0033643279835226733 -0.07437222527582471 0 0.00092515111278352637 -0.074693114081121267 0 -0.0020927529453052618 -0.073818946092067406 0 0.00029278338183723286 -0.072008368201721559 0 0.00092515111278352637 -0.074693114081121267 0 -0.0020927529453052618 -0.073818946092067406 0 -0.0011028794403256774 -0.07063280963508406 0 0.00029278338183723286 -0.072008368201721559 0 0.00029278338183723286 -0.072008368201721559 0 0.0021415629734613476 -0.072608776575790304 0 0.00092515111278352637 -0.074693114081121267 0 0.00092515111278352637 -0.074693114081121267 0 0.0027631946397474474 -0.077101860092295332 0 -0.0011092605781329935 -0.07833305773299494 0 -0.0020927529453052618 -0.073818946092067406 0 0.00092515111278352637 -0.074693114081121267 0 -0.0011092605781329935 -0.07833305773299494 0 0.0033643279835226733 -0.07437222527582471 0 0.0027631946397474474 -0.077101860092295332 0 0.0054119316481535326 -0.076536881313246166 0 0.0033643279835226733 -0.07437222527582471 0 0.00092515111278352637 -0.074693114081121267 0 0.0027631946397474474 -0.077101860092295332 0 0.0027631946397474474 -0.077101860092295332 0 0.0040630488809639638 -0.079534195372772676 0 0.0054119316481535326 -0.076536881313246166 0 0.0027631946397474474 -0.077101860092295332 0 0.0040630488809639638 -0.079534195372772676 0 0.0016487790679950902 -0.079646112088564938 0 0.0040630488809639638 -0.079534195372772676 0 0.0016487790679950902 -0.079646112088564938 0 0.0026398468314311621 -0.081708411495710148 0 8.2064755834181829e-05 -0.080667170360832083 0 0.00021130520034831816 -0.081687006774398399 0 0.0016487790679950902 -0.079646112088564938 0 -0.0011092605781329935 -0.07833305773299494 0 0.00025756114377435371 -0.083196490305984902 0 0.0027631946397474474 -0.077101860092295332 0 0.0016487790679950902 -0.079646112088564938 0 -0.0011092605781329935 -0.07833305773299494 0 -0.00014310384064462713 -0.083755010241852029 0 -0.00014568226082802265 -0.083858888439950166 0 -0.000156389937734767 -0.083733551874069168 0 -0.00014310384064462713 -0.083755010241852029 0 -0.000156389937734767 -0.083733551874069168 0 0.00025756114377435371 -0.083196490305984902 0 -0.00021830017033768116 -0.083916220953080017 0 -0.00017529154549426586 -0.083998627011377794 0 -0.00014568226082802265 -0.083858888439950166 0 -0.00021830017033768116 -0.083916220953080017 0 -0.00014568226082802265 -0.083858888439950166 0 -0.000156389937734767 -0.083733551874069168 0 -0.00014510836963513106 -0.083976336504063914 0 -0.00017892407632025647 -0.083950613598244378 0 -0.00014568226082802265 -0.083858888439950166 0 -0.00017529154549426586 -0.083998627011377794 0 -0.00014510836963513106 -0.083976336504063914 0 -0.00014568226082802265 -0.083858888439950166 0 -0.00017892407632025647 -0.083950613598244378 0 -0.00014310384064462713 -0.083755010241852029 0 -0.00014568226082802265 -0.083858888439950166 0 0.00013361003047128648 -0.07887393277984231 0 8.2064755834181829e-05 -0.080667170360832083 0 0.012700890230736521 -0.0020409356259811526 0 0.014313482557094618 -0.00056963666902296029 0 0.012572982739776068 0.00098170878775862913 0 0.014313482557094618 -0.00056963666902296029 0 0.014857639743788575 0.0009602316273016043 0 0.012572982739776068 0.00098170878775862913 0 0.012700890230736521 -0.0020409356259811526 0 0.015354164588796631 -0.0020190102143801967 0 0.014313482557094618 -0.00056963666902296029 0 0.014841740234947248 -0.0037441964542039158 0 0.012700890230736521 -0.0020409356259811526 0 0.015354164588796631 -0.0020190102143801967 0 0.015354164588796631 -0.0020190102143801967 0 0.014313482557094618 -0.00056963666902296029 0 0.016093559306624303 -0.00076957850583933161 0 0.016737848215270405 0.00082859347572366085 0 0.016093559306624303 -0.00076957850583933161 0 0.014857639743788575 0.0009602316273016043 0 0.014313482557094618 -0.00056963666902296029 0 0.016093559306624303 -0.00076957850583933161 0 0.014857639743788575 0.0009602316273016043 0 0.016737848215270405 0.00082859347572366085 0 0.016093559306624303 -0.00076957850583933161 0 0.018528311972707254 -0.0015273155522787139 0 0.010989806663499184 -0.037224956785883077 0 0.010286003517068676 -0.03825850523867342 0 0.0096652881291838192 -0.074820952138611826 0 0.0071332853600431347 -0.070946668790077452 0 0.0071879673982235114 -0.07478502117843551 0 0.015354164588796631 -0.0020190102143801967 0 0.016093559306624303 -0.00076957850583933161 0 0.017218217387173319 -0.0023768332873807321 0 0.016093559306624303 -0.00076957850583933161 0 0.017218217387173319 -0.0023768332873807321 0 0.018528311972707254 -0.0015273155522787139 0 0.016325232804193027 -0.0033925738755616781 0 0.015354164588796631 -0.0020190102143801967 0 0.017218217387173319 -0.0023768332873807321 0 0.0043643046224964401 -0.066508743627497743 0 0.0071332853600431347 -0.070946668790077452 0 0.0062741856645725635 -0.070047807217903296 0 0.018633833261877692 -0.0033121736567683822 0 0.017218217387173319 -0.0023768332873807321 0 0.018528311972707254 -0.0015273155522787139 0 0.0071332853600431347 -0.070946668790077452 0 0.0055173122368893561 -0.071256240173531479 0 0.0056096619429027023 -0.073283475063802755 0 0.0046195504829256075 -0.07033374634469429 0 0.0062741856645725635 -0.070047807217903296 0 0.0055173122368893561 -0.071256240173531479 0 0.0071332853600431347 -0.070946668790077452 0 0.0062741856645725635 -0.070047807217903296 0 0.0055173122368893561 -0.071256240173531479 0 0.0038004172272638561 -0.071561884898992872 0 0.0055173122368893561 -0.071256240173531479 0 0.0056096619429027023 -0.073283475063802755 0 0.0056096619429027023 -0.073283475063802755 0 0.0071879673982235114 -0.07478502117843551 0 0.0054119316481535326 -0.076536881313246166 0 0.0071332853600431347 -0.070946668790077452 0 0.0056096619429027023 -0.073283475063802755 0 0.0071879673982235114 -0.07478502117843551 0 0.0071879673982235114 -0.07478502117843551 0 0.0054119316481535326 -0.076536881313246166 0 0.0081190283082665845 -0.078300387026928611 0 0.0054119316481535326 -0.076536881313246166 0 0.0059397712568974191 -0.078641993298086313 0 0.0081190283082665845 -0.078300387026928611 0 0.0040630488809639638 -0.079534195372772676 0 0.0054119316481535326 -0.076536881313246166 0 0.0059397712568974191 -0.078641993298086313 0 0.0062746375882917699 -0.080597535927331793 0 0.0081190283082665845 -0.078300387026928611 0 0.0081644797598148591 -0.082395702048837005 0 0.0040630488809639638 -0.079534195372772676 0 0.0059397712568974191 -0.078641993298086313 0 0.0062746375882917699 -0.080597535927331793 0 0.0040630488809639638 -0.079534195372772676 0 0.0062746375882917699 -0.080597535927331793 0 0.0043129400154010697 -0.082371330688174996 0 0.0059397712568974191 -0.078641993298086313 0 0.0062746375882917699 -0.080597535927331793 0 0.0081190283082665845 -0.078300387026928611 0 0.0090838237243007578 -0.034208057035121461 0 0.0049811194914462908 -0.041623338924445724 0 0.0081190283082665845 -0.078300387026928611 0 0.012265028016679844 -0.078638161334832271 0 0.0081644797598148591 -0.082395702048837005 0 0.0096652881291838192 -0.074820952138611826 0 0.0081190283082665845 -0.078300387026928611 0 0.012265028016679844 -0.078638161334832271 0 0.0096652881291838192 -0.074820952138611826 0 0.0071879673982235114 -0.07478502117843551 0 0.0081190283082665845 -0.078300387026928611 0 0.014857639743788575 0.0009602316273016043 0 0.015061457049411468 0.0031594914824923217 0 0.012572982739776068 0.00098170878775862913 0 0.016737848215270405 0.00082859347572366085 0 0.014857639743788575 0.0009602316273016043 0 0.015061457049411468 0.0031594914824923217 0 0.010989806663499184 -0.037224956785883077 0 0.0090838237243007578 -0.034208057035121461 0 0.0089572062599918238 -0.0013771770536206121 0 0.0098445631336766069 -0.0012950917637488629 0 0.0071586022996633714 -0.0048596707346667033 0 0.0089572062599918238 -0.0013771770536206121 0 0.0086677929487216244 -0.00092559792161990009 0 0.0071586022996633714 -0.0048596707346667033 0 0.0089572062599918238 -0.0013771770536206121 0 0.0090028181190180048 -0.0011170392009870317 0 0.0098445631336766069 -0.0012950917637488629 0 0.0089041697212020651 -0.033813362661613632 0 0.0090838237243007578 -0.034208057035121461 0 0.0090028181190180048 -0.0011170392009870317 0 0.0098445631336766069 -0.0012950917637488629 0 0.0098657088118117593 -0.0011343268640351216 0 0.0098445631336766069 -0.0012950917637488629 0 0.0098122238263721583 -0.0010419888654506749 0 0.0098456880015214947 -0.00093076187475305667 0 0.0098445631336766069 -0.0012950917637488629 0 0.0098122238263721583 -0.0010419888654506749 0 0.0098657088118117593 -0.0011343268640351216 0 0.0098122238263721583 -0.0010419888654506749 0 0.0098657088118117593 -0.0011343268640351216 0 0.009780853886137043 -0.00098636442006319602 0 0.0090028181190180048 -0.0011170392009870317 0 0.0098657088118117593 -0.0011343268640351216 0 0.010020048958868625 -0.0010188107762937125 0 0.0098657088118117593 -0.0011343268640351216 0 0.010020048958868625 -0.0010188107762937125 0 0.009780853886137043 -0.00098636442006319602 0 0.0090838237243007578 -0.034208057035121461 0 0.016198341151021627 -0.011692892027499959 0 0.009991291317998344 -0.00063347907991257509 0 0.0098409319675343762 -0.00070153873410632372 0 0.0096643878355584644 -0.00037067939955477008 0 0.009991291317998344 -0.00063347907991257509 0 0.010137118041296552 -0.00056501415496954075 0 0.0096643878355584644 -0.00037067939955477008 0 0.009991291317998344 -0.00063347907991257509 0 0.0098409319675343762 -0.00070153873410632372 0 0.0099782571583565786 -0.00080138470621541453 0 0.0098409319675343762 -0.00070153873410632372 0 0.0098456880015214947 -0.00093076187475305667 0 0.0097102020888660632 -0.00075503653779370372 0 0.0098122238263721583 -0.0010419888654506749 0 0.0098456880015214947 -0.00093076187475305667 0 0.0097102020888660632 -0.00075503653779370372 0 0.0098445631336766069 -0.0012950917637488629 0 0.0098456880015214947 -0.00093076187475305667 0 0.010004002814285637 -0.0009985127685395276 0 0.0098409319675343762 -0.00070153873410632372 0 0.0098456880015214947 -0.00093076187475305667 0 0.0099782571583565786 -0.00080138470621541453 0 0.0098456880015214947 -0.00093076187475305667 0 0.0099782571583565786 -0.00080138470621541453 0 0.010004002814285637 -0.0009985127685395276 0 0.0098445631336766069 -0.0012950917637488629 0 0.010004002814285637 -0.0009985127685395276 0 0.010303648521934838 -0.00090261486713846275 0 0.0099782571583565786 -0.00080138470621541453 0 0.010111071285574067 -0.0008598580984151929 0 0.01016492529746716 -0.00075153286946390957 0 0.013977442524549974 -0.009711334831897539 0 0.013370952961965124 -0.014201685734748318 0 0.0099782571583565786 -0.00080138470621541453 0 0.010111071285574067 -0.0008598580984151929 0 0.010004002814285637 -0.0009985127685395276 0 0.010111071285574067 -0.0008598580984151929 0 0.010004002814285637 -0.0009985127685395276 0 0.010303648521934838 -0.00090261486713846275 0 0.010111071285574067 -0.0008598580984151929 0 0.01016492529746716 -0.00075153286946390957 0 0.010303648521934838 -0.00090261486713846275 0 0.01016492529746716 -0.00075153286946390957 0 0.010278938267184679 -0.00077719269965461626 0 0.010303648521934838 -0.00090261486713846275 0 0.01016492529746716 -0.00075153286946390957 0 0.010274653064307008 -0.00069290616915953997 0 0.010278938267184679 -0.00077719269965461626 0 0.009991291317998344 -0.00063347907991257509 0 0.0099782571583565786 -0.00080138470621541453 0 0.01016492529746716 -0.00075153286946390957 0 0.009991291317998344 -0.00063347907991257509 0 0.01016492529746716 -0.00075153286946390957 0 0.010158857344994649 -0.00065794085488397641 0 0.009991291317998344 -0.00063347907991257509 0 0.010158857344994649 -0.00065794085488397641 0 0.010137118041296552 -0.00056501415496954075 0 0.010158857344994649 -0.00065794085488397641 0 0.010274653064307008 -0.00069290616915953997 0 0.010137118041296552 -0.00056501415496954075 0 0.01016492529746716 -0.00075153286946390957 0 0.010158857344994649 -0.00065794085488397641 0 0.010274653064307008 -0.00069290616915953997 0 0.010274653064307008 -0.00069290616915953997 0 0.010366985984453743 -0.00075982191939286407 0 0.010556350936671932 -0.00073596505734913813 0 0.010274653064307008 -0.00069290616915953997 0 0.010556350936671932 -0.00073596505734913813 0 0.010137118041296552 -0.00056501415496954075 0 0.0064857019748251771 -0.034638328675717901 0 0.0096386680921623346 -0.015192544795509626 0 0.010366985984453743 -0.00075982191939286407 0 0.010303648521934838 -0.00090261486713846275 0 0.010556350936671932 -0.00073596505734913813 0 0.013370952961965124 -0.014201685734748318 0 0.0064857019748251771 -0.034638328675717901 0 0.010366985984453743 -0.00075982191939286407 0 0.010278938267184679 -0.00077719269965461626 0 0.010303648521934838 -0.00090261486713846275 0 0.010274653064307008 -0.00069290616915953997 0 0.010366985984453743 -0.00075982191939286407 0 0.010278938267184679 -0.00077719269965461626 0 0.0071586022996633714 -0.0048596707346667033 0 0.0049363994114274713 -0.0044421691959723236 0 0.0031688264196269304 -0.0088225846871107915 0 0.0086677929487216244 -0.00092559792161990009 0 0.0071586022996633714 -0.0048596707346667033 0 0.0049363994114274713 -0.0044421691959723236 0 0.0081644797598148591 -0.082395702048837005 0 0.0056828090778885502 -0.08280203132374872 0 0.0039854840003123683 -0.085698323911820209 0 0.0062746375882917699 -0.080597535927331793 0 0.0081644797598148591 -0.082395702048837005 0 0.0056828090778885502 -0.08280203132374872 0 0.0062746375882917699 -0.080597535927331793 0 0.0056828090778885502 -0.08280203132374872 0 0.0043129400154010697 -0.082371330688174996 0 0.0049811194914462908 -0.041623338924445724 0 -0.00012127053047213393 -0.047573754104265141 0 0.0049363994114274713 -0.0044421691959723236 0 0.0031688264196269304 -0.0088225846871107915 0 0.00052032677399261684 -0.0085865281967276615 0 0.0064857019748251771 -0.034638328675717901 0 -0.00012127053047213393 -0.047573754104265141 0 0.0030155687397939979 -0.0041555215539752438 0 0.0021886202463566968 -0.0067062003602993032 0 -0.0035164154283009734 -0.0064109606374498414 0 0.0037934339544548035 0.00035812507645269817 0 0.0030155687397939979 -0.0041555215539752438 0 -0.0035164154283009734 -0.0064109606374498414 0 0.0037934339544548035 0.00035812507645269817 0 0.0030155687397939979 -0.0041555215539752438 0 0.006664332101978864 -0.0026858661502068178 0 0.0059672655541347132 -0.005337406094638085 0 0.0030155687397939979 -0.0041555215539752438 0 0.006664332101978864 -0.0026858661502068178 0 0.0059672655541347132 -0.005337406094638085 0 0.0030155687397939979 -0.0041555215539752438 0 0.0021886202463566968 -0.0067062003602993032 0 0.0021886202463566968 -0.0067062003602993032 0 0.0049997165198304586 -0.0088716974696195876 0 0.00020426077692166047 -0.010431984643795605 0 0.0049997165198304586 -0.0088716974696195876 0 0.00020426077692166047 -0.010431984643795605 0 0.0051992108723870204 -0.013075503009207387 0 0.0059672655541347132 -0.005337406094638085 0 0.0021886202463566968 -0.0067062003602993032 0 0.0049997165198304586 -0.0088716974696195876 0 0.0059672655541347132 -0.005337406094638085 0 0.0049997165198304586 -0.0088716974696195876 0 0.0088754905608596328 -0.0066913679577483417 0 0.0049997165198304586 -0.0088716974696195876 0 0.0088754905608596328 -0.0066913679577483417 0 0.0086515030477086596 -0.010467941606303564 0 0.0049997165198304586 -0.0088716974696195876 0 0.0086515030477086596 -0.010467941606303564 0 0.0051992108723870204 -0.013075503009207387 0 0.0086515030477086596 -0.010467941606303564 0 0.012302047978198937 -0.007799729713281427 0 0.012133659527961752 -0.011991227441622527 0 0.0086515030477086596 -0.010467941606303564 0 0.012133659527961752 -0.011991227441622527 0 0.0095514144926602887 -0.014366644763252457 0 0.0088754905608596328 -0.0066913679577483417 0 0.0086515030477086596 -0.010467941606303564 0 0.012302047978198937 -0.007799729713281427 0 0.0037934339544548035 0.00035812507645269817 0 0.010020180631044406 -0.0025230793114441059 0 0.015088549224333277 -0.0012722255657941332 0 0.0088754905608596328 -0.0066913679577483417 0 0.011544630745736504 -0.0044879725863016078 0 0.012302047978198937 -0.007799729713281427 0 0.0037934339544548035 0.00035812507645269817 0 0.006664332101978864 -0.0026858661502068178 0 0.010020180631044406 -0.0025230793114441059 0 0.011544630745736504 -0.0044879725863016078 0 0.0090676425977914039 -0.0042133831341170831 0 0.010020180631044406 -0.0025230793114441059 0 0.0088754905608596328 -0.0066913679577483417 0 0.011544630745736504 -0.0044879725863016078 0 0.0090676425977914039 -0.0042133831341170831 0 0.0059672655541347132 -0.005337406094638085 0 0.0090676425977914039 -0.0042133831341170831 0 0.006664332101978864 -0.0026858661502068178 0 0.0059672655541347132 -0.005337406094638085 0 0.0088754905608596328 -0.0066913679577483417 0 0.0090676425977914039 -0.0042133831341170831 0 0.0090676425977914039 -0.0042133831341170831 0 0.006664332101978864 -0.0026858661502068178 0 0.010020180631044406 -0.0025230793114441059 0 0.011544630745736504 -0.0044879725863016078 0 0.010020180631044406 -0.0025230793114441059 0 0.013658782571158551 -0.0025623279599830168 0 0.010020180631044406 -0.0025230793114441059 0 0.013658782571158551 -0.0025623279599830168 0 0.015088549224333277 -0.0012722255657941332 0 0.013658782571158551 -0.0025623279599830168 0 0.014573957261396557 -0.0019401503857324857 0 0.01454082668319092 -0.0030644044936361473 0 0.013658782571158551 -0.0025623279599830168 0 0.014573957261396557 -0.0019401503857324857 0 0.015088549224333277 -0.0012722255657941332 0 0.01454082668319092 -0.0030644044936361473 0 0.015041046426948906 -0.0012670992903531329 0 0.0159598355772749 -0.0050337881071367699 0 0.014573957261396557 -0.0019401503857324857 0 0.015088549224333277 -0.0012722255657941332 0 0.015041046426948906 -0.0012670992903531329 0 0.014573957261396557 -0.0019401503857324857 0 0.01454082668319092 -0.0030644044936361473 0 0.015041046426948906 -0.0012670992903531329 0 0.01454082668319092 -0.0030644044936361473 0 0.0159598355772749 -0.0050337881071367699 0 0.013840123384613424 -0.0049369987872762882 0 0.0159598355772749 -0.0050337881071367699 0 0.013840123384613424 -0.0049369987872762882 0 0.015008612801496287 -0.0071909092116825253 0 0.011544630745736504 -0.0044879725863016078 0 0.013840123384613424 -0.0049369987872762882 0 0.012302047978198937 -0.007799729713281427 0 0.013658782571158551 -0.0025623279599830168 0 0.01454082668319092 -0.0030644044936361473 0 0.013840123384613424 -0.0049369987872762882 0 0.011544630745736504 -0.0044879725863016078 0 0.013658782571158551 -0.0025623279599830168 0 0.013840123384613424 -0.0049369987872762882 0 0.012302047978198937 -0.007799729713281427 0 0.015311214757781537 -0.010518252882367051 0 0.015008612801496287 -0.0071909092116825253 0 0.013840123384613424 -0.0049369987872762882 0 0.012302047978198937 -0.007799729713281427 0 0.015008612801496287 -0.0071909092116825253 0 0.012302047978198937 -0.007799729713281427 0 0.012133659527961752 -0.011991227441622527 0 0.015311214757781537 -0.010518252882367051 0 0.015311214757781537 -0.010518252882367051 0 0.017724406538814033 -0.0082329238845622738 0 0.019330998063093463 -0.011001790615378841 0 0.0159598355772749 -0.0050337881071367699 0 0.015008612801496287 -0.0071909092116825253 0 0.017724406538814033 -0.0082329238845622738 0 0.015311214757781537 -0.010518252882367051 0 0.015008612801496287 -0.0071909092116825253 0 0.017724406538814033 -0.0082329238845622738 0 0.017724406538814033 -0.0082329238845622738 0 0.019330998063093463 -0.011001790615378841 0 0.02145954694817833 -0.0074383934060341973 0 0.0159598355772749 -0.0050337881071367699 0 0.017724406538814033 -0.0082329238845622738 0 0.02145954694817833 -0.0074383934060341973 0 0.019330998063093463 -0.011001790615378841 0 0.02145954694817833 -0.0074383934060341973 0 0.027392836754896673 -0.01342703684719824 0 0.015041046426948906 -0.0012670992903531329 0 0.013917198661155461 0.0006737409237634861 0 0.012767408791400908 -0.00080927484889003077 0 0.015088549224333277 -0.0012722255657941332 0 0.015041046426948906 -0.0012670992903531329 0 0.012767408791400908 -0.00080927484889003077 0 0.0096386680921623346 -0.015192544795509626 0 0.010288665695110841 -0.0074608073706779405 0 0.014362135773033797 -0.005452695657027635 0 0.01490628069791133 -0.0070155194721999341 0 0.015041046426948906 -0.0012670992903531329 0 0.0159598355772749 -0.0050337881071367699 0 0.02145954694817833 -0.0074383934060341973 0 -0.00032155538936349864 -0.083852588162947633 0 -0.0002369187406696367 -0.083469844550474667 0 -0.00030367213764822198 -0.083640578464820467 0 0.0014307609908361194 -0.069307268387753279 0 0.0016439527229236541 -0.064685809899230201 0 -0.00032155538936349864 -0.083852588162947633 0 -0.00012389427627085967 -0.083812920870706908 0 0.00010083827240619927 -0.084551120570570432 0 -0.00032155538936349864 -0.083852588162947633 0 -0.00030367213764822198 -0.083640578464820467 0 -0.00033226186400742635 -0.083744359669132434 0 -0.00024828885429167792 -0.083957338927486275 0 -0.00032155538936349864 -0.083852588162947633 0 -0.00033226186400742635 -0.083744359669132434 0 -0.00021830017033768116 -0.083916220953080017 0 -0.00032155538936349864 -0.083852588162947633 0 -0.000156389937734767 -0.083733551874069168 0 -0.00032155538936349864 -0.083852588162947633 0 -0.000156389937734767 -0.083733551874069168 0 -0.00012389427627085967 -0.083812920870706908 0 -0.000156389937734767 -0.083733551874069168 0 -0.00012389427627085967 -0.083812920870706908 0 0.00025756114377435371 -0.083196490305984902 0 -0.00012389427627085967 -0.083812920870706908 0 0.00025756114377435371 -0.083196490305984902 0 0.00010083827240619927 -0.084551120570570432 0 0.0016487790679950902 -0.079646112088564938 0 0.00025756114377435371 -0.083196490305984902 0 0.0026398468314311621 -0.081708411495710148 0 0.00025756114377435371 -0.083196490305984902 0 0.0026398468314311621 -0.081708411495710148 0 0.0021354848980543527 -0.083627452664457105 0 0.00025756114377435371 -0.083196490305984902 0 0.0021354848980543527 -0.083627452664457105 0 0.00010083827240619927 -0.084551120570570432 0 0.0056828090778885502 -0.08280203132374872 0 0.0043129400154010697 -0.082371330688174996 0 0.0039854840003123683 -0.085698323911820209 0 0.0040630488809639638 -0.079534195372772676 0 0.0043129400154010697 -0.082371330688174996 0 0.0026398468314311621 -0.081708411495710148 0 0.0043129400154010697 -0.082371330688174996 0 0.0026398468314311621 -0.081708411495710148 0 0.0021354848980543527 -0.083627452664457105 0 0.0043129400154010697 -0.082371330688174996 0 0.0021354848980543527 -0.083627452664457105 0 0.0039854840003123683 -0.085698323911820209 0 0.0021354848980543527 -0.083627452664457105 0 0.0039854840003123683 -0.085698323911820209 0 0.00010083827240619927 -0.084551120570570432 0 -0.00011590079792074926 -0.08327432930622336 0 -0.0002369187406696367 -0.083469844550474667 0 -0.00013278114914452765 -0.083358748849114192 0 -0.00012127053047213393 -0.047573754104265141 0 0.0016439527229236541 -0.064685809899230201 0 -0.0002369187406696367 -0.083469844550474667 0 -0.00024599856178502571 -0.083522053301560248 0 -0.00013278114914452765 -0.083358748849114192 0 -0.00013278114914452765 -0.083358748849114192 0 0.00021620363167848742 -0.083626404858876249 0 -0.00010824702570051796 -0.083584318251616746 0 -0.00013278114914452765 -0.083358748849114192 0 -0.00022632538161311222 -0.083585291974319367 0 -0.00010824702570051796 -0.083584318251616746 0 -0.00024599856178502571 -0.083522053301560248 0 -0.00013278114914452765 -0.083358748849114192 0 -0.00022632538161311222 -0.083585291974319367 0 0.0064857019748251771 -0.034638328675717901 0 0.00044099785671224324 -0.044919716137632203 0 0.00073568038663910133 -0.082275262000305521 0 -0.00013278114914452765 -0.083358748849114192 0 0.00021620363167848742 -0.083626404858876249 0 0.0016434611862350876 -0.082312924133720378 0 0.00073568038663910133 -0.082275262000305521 0 0.00021620363167848742 -0.083626404858876249 0 -0.00012127053047213393 -0.047573754104265141 0 -0.0051007876699187245 -0.056802851899187441 0 -0.0035164154283009734 -0.0064109606374498414 0 -0.0042111589431972187 -0.011467077931460349 0 0.00020426077692166047 -0.010431984643795605 0 0.0021886202463566968 -0.0067062003602993032 0 -0.0035164154283009734 -0.0064109606374498414 0 0.00020426077692166047 -0.010431984643795605 0 -0.0035164154283009734 -0.0064109606374498414 0 -0.0042111589431972187 -0.011467077931460349 0 -0.0085002178163391187 -0.011009739796698712 0 -0.0042111589431972187 -0.011467077931460349 0 -0.0085002178163391187 -0.011009739796698712 0 -0.010938717142875613 -0.013253929171711696 0 -0.00022632538161311222 -0.083585291974319367 0 -0.00022108666359351079 -0.083711713722203873 0 -0.00028907474543605376 -0.083671689749048192 0 -0.00022632538161311222 -0.083585291974319367 0 -0.00010824702570051796 -0.083584318251616746 0 -0.00022108666359351079 -0.083711713722203873 0 0.00044099785671224324 -0.044919716137632203 0 -0.0010766991658223918 -0.050073329259895279 0 0.00021620363167848742 -0.083626404858876249 0 -0.00010824702570051796 -0.083584318251616746 0 -0.00022108666359351079 -0.083711713722203873 0 -0.0010766991658223918 -0.050073329259895279 0 -0.0013622819795169178 -0.05267185536184904 0 -0.00022108666359351079 -0.083711713722203873 0 -0.00028907474543605376 -0.083671689749048192 0 -0.00026582305311953497 -0.083706366409663141 0 -0.00028907474543605376 -0.083671689749048192 0 -0.00036375156795049132 -0.083701564964730454 0 -0.00026582305311953497 -0.083706366409663141 0 0.0025260611427388754 -0.060267737862069404 0 -0.0013622819795169178 -0.05267185536184904 0 -0.00028907474543605376 -0.083671689749048192 0 -0.00030994809583740815 -0.08364245132625546 0 -0.00036375156795049132 -0.083701564964730454 0 -0.00022632538161311222 -0.083585291974319367 0 -0.00028907474543605376 -0.083671689749048192 0 -0.00030994809583740815 -0.08364245132625546 0 -0.00024599856178502571 -0.083522053301560248 0 -0.00022632538161311222 -0.083585291974319367 0 -0.00030994809583740815 -0.08364245132625546 0 -0.00030994809583740815 -0.08364245132625546 0 -0.00030367213764822198 -0.083640578464820467 0 -0.00033226186400742635 -0.083744359669132434 0 -0.0002369187406696367 -0.083469844550474667 0 -0.00024599856178502571 -0.083522053301560248 0 -0.00030367213764822198 -0.083640578464820467 0 -0.00024599856178502571 -0.083522053301560248 0 -0.00030994809583740815 -0.08364245132625546 0 -0.00030367213764822198 -0.083640578464820467 0 -0.00030994809583740815 -0.08364245132625546 0 -0.00033226186400742635 -0.083744359669132434 0 -0.00036375156795049132 -0.083701564964730454 0 -0.00029561437956349308 -0.083791310493943283 0 -0.00033226186400742635 -0.083744359669132434 0 -0.00036375156795049132 -0.083701564964730454 0 -0.00036375156795049132 -0.083701564964730454 0 -0.00037851204563428147 -0.083606897848217329 0 -0.00050232933545757029 -0.083565087337724775 0 -0.00036375156795049132 -0.083701564964730454 0 -0.00037851204563428147 -0.083606897848217329 0 -0.00031298360370313481 -0.083685938167467111 0 -0.0025246844073156531 -0.065073303540336372 0 -0.00019321826221445275 -0.071383000156715323 0 -0.00037851204563428147 -0.083606897848217329 0 -0.00041007455266314031 -0.083511904267058526 0 -0.00031781345658190278 -0.083592682730218928 0 -0.00076836765197988506 -0.067598639101442204 0 -0.0025005408595061467 -0.067663150361716773 0 -0.0019571622754237039 -0.068131957955871222 0 -0.00076836765197988506 -0.067598639101442204 0 -0.0016192506951433309 -0.068530951155170453 0 -0.0019571622754237039 -0.068131957955871222 0 -0.002822803956636756 -0.057253378716917193 0 -0.0030681362528106378 -0.058278339941590394 0 -0.0041811599576176287 -0.058750035371676418 0 -0.002822803956636756 -0.057253378716917193 0 -0.0030681362528106378 -0.058278339941590394 0 -0.0021094331883877433 -0.058062072112700251 0 -0.0025246844073156531 -0.065073303540336372 0 -0.0014042424685717489 -0.0667720269581321 0 -0.0025246844073156531 -0.065073303540336372 0 -0.0012857327310899977 -0.063093464342883626 0 -0.0029133227138713152 -0.05720712475273234 0 -0.00088028546263929012 -0.057124442542383587 0 -0.0010313587725036468 -0.055143406244106984 0 -0.002822803956636756 -0.057253378716917193 0 -0.0021094331883877433 -0.058062072112700251 0 -0.00084542614552417109 -0.057160672705847008 0 -0.0021094331883877433 -0.058062072112700251 0 -0.00084542614552417109 -0.057160672705847008 0 -0.00032793242111064138 -0.058330828509514009 0 -0.00037851204563428147 -0.083606897848217329 0 -0.00041007455266314031 -0.083511904267058526 0 -0.00050232933545757029 -0.083565087337724775 0 -0.0025246844073156531 -0.065073303540336372 0 -0.0022662228589621896 -0.056477815685986768 0 -0.00036375156795049132 -0.083701564964730454 0 -0.00050232933545757029 -0.083565087337724775 0 -0.00052855249371446694 -0.083576979982704802 0 -0.00088028546263929012 -0.057124442542383587 0 -0.0010313587725036468 -0.055143406244106984 0 -0.00056773018804861792 -0.054636122017078299 0 -0.0022662228589621896 -0.056477815685986768 0 -0.0013622819795169178 -0.05267185536184904 0 -0.00088028546263929012 -0.057124442542383587 0 0.00040251030616179976 -0.055770454256369 0 -0.00056773018804861792 -0.054636122017078299 0 -0.0013622819795169178 -0.05267185536184904 0 0.00053989017135244765 -0.043542960843647005 0 0.00040251030616179976 -0.055770454256369 0 -0.00056773018804861792 -0.054636122017078299 0 0.0028028033500604337 -0.055479652142814424 0 -0.0042111589431972187 -0.011467077931460349 0 -0.010938717142875613 -0.013253929171711696 0 -0.00083514131026103395 -0.015747849562396464 0 0.00040251030616179976 -0.055770454256369 0 0.0028028033500604337 -0.055479652142814424 0 0.0011546991016007843 -0.057041872684955378 0 -0.0042111589431972187 -0.011467077931460349 0 0.00020426077692166047 -0.010431984643795605 0 -0.00083514131026103395 -0.015747849562396464 0 0.0028028033500604337 -0.055479652142814424 0 0.0028798601329975654 -0.057341256592935902 0 0.0011546991016007843 -0.057041872684955378 0 0.003898564391950065 -0.050957625451973909 0 0.0013414301871417836 -0.057208693242362399 0 0.0062954111266463981 -0.052171071354501615 0 0.0024201741881549029 -0.053376203283184064 0 0.0042128178635037154 -0.05420152059323536 0 0.0028798601329975654 -0.057341256592935902 0 0.0011546991016007843 -0.057041872684955378 0 -0.00032793242111064138 -0.058330828509514009 0 -0.0012857327310899977 -0.063093464342883626 0 -0.00064028183387070039 -0.062469558148982425 0 -0.00084542614552417109 -0.057160672705847008 0 0.0011546991016007843 -0.057041872684955378 0 -0.00032793242111064138 -0.058330828509514009 0 -0.00088028546263929012 -0.057124442542383587 0 0.00040251030616179976 -0.055770454256369 0 0.0011546991016007843 -0.057041872684955378 0 0.0024201741881549029 -0.053376203283184064 0 0.0042128178635037154 -0.05420152059323536 0 0.0027612838524119676 -0.055192053493677291 0 0.0042128178635037154 -0.05420152059323536 0 0.0027612838524119676 -0.055192053493677291 0 0.0040867739939238722 -0.055670249889909408 0 0.0024201741881549029 -0.053376203283184064 0 0.0027612838524119676 -0.055192053493677291 0 0.0011519404340906286 -0.055306246770320845 0 0.0062954111266463981 -0.052171071354501615 0 0.0056135722239747995 -0.054469740016986241 0 0.0067965739285806336 -0.053461343162383497 0 0.0062954111266463981 -0.052171071354501615 0 0.0042128178635037154 -0.05420152059323536 0 0.0056135722239747995 -0.054469740016986241 0 0.0056135722239747995 -0.054469740016986241 0 0.0054301528916775093 -0.055745534547587385 0 0.0040867739939238722 -0.055670249889909408 0 0.0042128178635037154 -0.05420152059323536 0 0.0056135722239747995 -0.054469740016986241 0 0.0040867739939238722 -0.055670249889909408 0 0.0056135722239747995 -0.054469740016986241 0 0.0054301528916775093 -0.055745534547587385 0 0.0070333807047606115 -0.05546201978724697 0 0.0056135722239747995 -0.054469740016986241 0 0.0067965739285806336 -0.053461343162383497 0 0.0070333807047606115 -0.05546201978724697 0 0.004817822349342085 -0.057232936227431495 0 0.0070333807047606115 -0.05546201978724697 0 0.0055538100317153944 -0.059099919918910983 0 0.0044276328136376424 -0.052229443438575114 0 0.0033253616495962802 -0.047230096195466753 0 0.0054301528916775093 -0.055745534547587385 0 0.004817822349342085 -0.057232936227431495 0 0.0070333807047606115 -0.05546201978724697 0 0.0054301528916775093 -0.055745534547587385 0 0.004817822349342085 -0.057232936227431495 0 0.0040867739939238722 -0.055670249889909408 0 0.004817822349342085 -0.057232936227431495 0 0.0024677938477809364 -0.056782279095166935 0 0.0025444571690799683 -0.059083537479368863 0 0.004817822349342085 -0.057232936227431495 0 0.0040867739939238722 -0.055670249889909408 0 0.0024677938477809364 -0.056782279095166935 0 0.0027612838524119676 -0.055192053493677291 0 0.0040867739939238722 -0.055670249889909408 0 0.0024677938477809364 -0.056782279095166935 0 0.0027612838524119676 -0.055192053493677291 0 0.0024677938477809364 -0.056782279095166935 0 0.0011519404340906286 -0.055306246770320845 0 0.0024677938477809364 -0.056782279095166935 0 0.00019984918530304097 -0.057339698418102804 0 0.0025444571690799683 -0.059083537479368863 0 0.0024677938477809364 -0.056782279095166935 0 0.00019984918530304097 -0.057339698418102804 0 0.0011519404340906286 -0.055306246770320845 0 0.00019984918530304097 -0.057339698418102804 0 -0.00033036846465189394 -0.055881644585521029 0 0.0011519404340906286 -0.055306246770320845 0 0.00019984918530304097 -0.057339698418102804 0 -0.0013103241048082104 -0.056295645726063048 0 -0.0016715432030368167 -0.058531559543161624 0 -0.0013103241048082104 -0.056295645726063048 0 -0.0016715432030368167 -0.058531559543161624 0 -0.0033087952320829525 -0.055169899638646477 0 0.00019984918530304097 -0.057339698418102804 0 -0.0013103241048082104 -0.056295645726063048 0 -0.00033036846465189394 -0.055881644585521029 0 -0.0013103241048082104 -0.056295645726063048 0 -0.00033036846465189394 -0.055881644585521029 0 -0.0013567905887530984 -0.054600926935766708 0 -0.00085912813921954769 -0.065273084552977409 0 -0.0013703740189534594 -0.065121602185301539 0 -0.0017477510105281587 -0.065533196390082885 0 -0.0013103241048082104 -0.056295645726063048 0 -0.0013567905887530984 -0.054600926935766708 0 -0.0033087952320829525 -0.055169899638646477 0 -0.0013600530159879633 -0.064458679095350427 0 -0.00099044473327459517 -0.067005591328510819 0 -0.0030681362528106378 -0.058278339941590394 0 -0.0034817008997217068 -0.059285123492235046 0 -0.0041745557551680912 -0.058747326329531419 0 -0.0013570851250703823 -0.066396136581307857 0 -0.0014042424685717489 -0.0667720269581321 0 -0.0034817008997217068 -0.059285123492235046 0 -0.0041745557551680912 -0.058747326329531419 0 -0.0044146137509675065 -0.059011255113582253 0 -0.0013600530159879633 -0.064458679095350427 0 -0.0013059482101220384 -0.066783788556310619 0 -0.0014042424685717489 -0.0667720269581321 0 -0.0013059482101220384 -0.066783788556310619 0 -0.0030681362528106378 -0.058278339941590394 0 -0.0021094331883877433 -0.058062072112700251 0 -0.0034817008997217068 -0.059285123492235046 0 0.0013414301871417836 -0.057208693242362399 0 -0.0013600530159879633 -0.064458679095350427 0 -0.00033036846465189394 -0.055881644585521029 0 -0.0013567905887530984 -0.054600926935766708 0 0.0011519404340906286 -0.055306246770320845 0 0.0024201741881549029 -0.053376203283184064 0 -0.0014412912780203272 -0.054562755274637782 0 0.0011519404340906286 -0.055306246770320845 0 -0.0013600530159879633 -0.064458679095350427 0 -0.0014405087060008622 -0.063217060037917425 0 -0.0021094331883877433 -0.058062072112700251 0 -0.00032793242111064138 -0.058330828509514009 0 -0.0034817008997217068 -0.059285123492235046 0 0.0096433245063479289 -0.020109488610626225 0 0.0089077222945397171 -0.022717393112712075 0 0.012806491406055026 -0.020839097660504926 0 0.0096433245063479289 -0.020109488610626225 0 0.010335804373886402 -0.017817631459290648 0 0.012806491406055026 -0.020839097660504926 0 0.019330998063093463 -0.011001790615378841 0 0.020938525378266938 -0.015312943857939939 0 0.014407088148520991 -0.017236874661697491 0 0.019330998063093463 -0.011001790615378841 0 0.020938525378266938 -0.015312943857939939 0 0.027392836754896673 -0.01342703684719824 0 0.0096433245063479289 -0.020109488610626225 0 0.010335804373886402 -0.017817631459290648 0 0.0073757924200270625 -0.018685979380612332 0 0.015097415523775045 -0.019916084868371164 0 0.013553533877287817 -0.03002293593134758 0 0.012133659527961752 -0.011991227441622527 0 0.015311214757781537 -0.010518252882367051 0 0.014656497819715456 -0.016840712624216624 0 0.01718077136972207 -0.023719742239855093 0 0.013553533877287817 -0.03002293593134758 0 0.015311214757781537 -0.010518252882367051 0 0.019330998063093463 -0.011001790615378841 0 0.014656497819715456 -0.016840712624216624 0 0.012133659527961752 -0.011991227441622527 0 0.014656497819715456 -0.016840712624216624 0 0.0095514144926602887 -0.014366644763252457 0 0.013553533877287817 -0.03002293593134758 0 0.0073317495430922806 -0.041809566268096766 0 0.0073757924200270625 -0.018685979380612332 0 0.0046028821959557499 -0.022190748337853918 0 0.0089077222945397171 -0.022717393112712075 0 0.0096433245063479289 -0.020109488610626225 0 0.0073757924200270625 -0.018685979380612332 0 0.0089077222945397171 -0.022717393112712075 0 0.011464240084293207 -0.050403344689587078 0 0.010283544294200966 -0.05114453892006468 0 0.0094468114621061409 -0.052745727775199015 0 0.013553533877287817 -0.03002293593134758 0 0.0084591655620212276 -0.036955622632499338 0 0.0096246119947949998 -0.050982306893859262 0 0.0082017080418445871 -0.051784995262596799 0 0.0094468114621061409 -0.052745727775199015 0 0.011464240084293207 -0.050403344689587078 0 0.0095264755329473663 -0.050921813052443692 0 0.010283544294200966 -0.05114453892006468 0 0.0073317495430922806 -0.041809566268096766 0 0.0075921904074280787 -0.042012848338115187 0 0.0096246119947949998 -0.050982306893859262 0 0.010283544294200966 -0.05114453892006468 0 0.0094468114621061409 -0.052745727775199015 0 0.014656497819715456 -0.016840712624216624 0 0.0090570162078232666 -0.018463161134301746 0 0.0095514144926602887 -0.014366644763252457 0 0.0086515030477086596 -0.010467941606303564 0 0.0095514144926602887 -0.014366644763252457 0 0.0051992108723870204 -0.013075503009207387 0 0.0090570162078232666 -0.018463161134301746 0 0.0095514144926602887 -0.014366644763252457 0 0.0051992108723870204 -0.013075503009207387 0 -0.00083514131026103395 -0.015747849562396464 0 0.0090570162078232666 -0.018463161134301746 0 0.0051992108723870204 -0.013075503009207387 0 0.00053989017135244765 -0.043542960843647005 0 0.0073317495430922806 -0.041809566268096766 0 0.00020426077692166047 -0.010431984643795605 0 -0.00083514131026103395 -0.015747849562396464 0 0.0051992108723870204 -0.013075503009207387 0 0.0028028033500604337 -0.055479652142814424 0 0.0028798601329975654 -0.057341256592935902 0 0.0060985740914794575 -0.056356998745513198 0 0.003898564391950065 -0.050957625451973909 0 0.0073317495430922806 -0.041809566268096766 0 0.0062954111266463981 -0.052171071354501615 0 0.0096246119947949998 -0.050982306893859262 0 0.0082017080418445871 -0.051784995262596799 0 0.0062954111266463981 -0.052171071354501615 0 0.0082017080418445871 -0.051784995262596799 0 0.0067965739285806336 -0.053461343162383497 0 0.0073352277988542811 -0.054097983634448676 0 0.0078473413184590984 -0.054516042034804049 0 0.0094468114621061409 -0.052745727775199015 0 0.0082017080418445871 -0.051784995262596799 0 0.0073352277988542811 -0.054097983634448676 0 0.0094468114621061409 -0.052745727775199015 0 0.0082017080418445871 -0.051784995262596799 0 0.0067965739285806336 -0.053461343162383497 0 0.0070333807047606115 -0.05546201978724697 0 0.005324986977877145 -0.052105039891502919 0 0.0044276328136376424 -0.052229443438575114 0 0.0073352277988542811 -0.054097983634448676 0 0.0078473413184590984 -0.054516042034804049 0 0.0064858493129076487 -0.056099748996714723 0 0.0058980887974441308 -0.04138204249662672 0 0.0033253616495962802 -0.047230096195466753 0 0.0018082137823166747 -0.025717664981957385 0 0.0052851021928065588 -0.02615663399360299 0 0.0022678860106640102 -0.028976976996146268 0 0.0018082137823166747 -0.025717664981957385 0 0.0052851021928065588 -0.02615663399360299 0 0.0046028821959557499 -0.022190748337853918 0 0.0058980887974441308 -0.04138204249662672 0 0.0084591655620212276 -0.036955622632499338 0 0.0052851021928065588 -0.02615663399360299 0 0.0046028821959557499 -0.022190748337853918 0 0.0089077222945397171 -0.022717393112712075 0 0.0052851021928065588 -0.02615663399360299 0 0.009059031741234097 -0.027505643421448837 0 0.0089077222945397171 -0.022717393112712075 0 0.0068189196331455044 -0.016888988477594746 0 0.010106131447650735 -0.011938544776603683 0 0.009059031741234097 -0.027505643421448837 0 0.0089077222945397171 -0.022717393112712075 0 0.013061868046098811 -0.025162917308282198 0 0.0019361739930365768 -0.012449134021928694 0 -0.0017592848564864897 -0.0088234922693119014 0 -0.00086303255727513111 -0.017385236002596151 0 0.0076720024346877231 -0.011913659458876007 0 0.0051587417509231879 -0.012043201716831889 0 0.0069628288576502597 -0.014132421693776256 0 0.0051587417509231879 -0.012043201716831889 0 0.003899087613145787 -0.014444639362919641 0 0.0069628288576502597 -0.014132421693776256 0 0.0051587417509231879 -0.012043201716831889 0 0.0067774687681414637 -0.0097717940707964367 0 0.0027861859032977197 -0.0093737123145913853 0 0.0076720024346877231 -0.011913659458876007 0 0.0051587417509231879 -0.012043201716831889 0 0.0067774687681414637 -0.0097717940707964367 0 0.0042834222417992675 -0.0052046389243180962 0 0.0067774687681414637 -0.0097717940707964367 0 0.0098509854259718234 -0.006930103932632309 0 0.0042834222417992675 -0.0052046389243180962 0 0.0067774687681414637 -0.0097717940707964367 0 0.0027861859032977197 -0.0093737123145913853 0 0.0068189196331455044 -0.016888988477594746 0 0.0033207230651069769 -0.022308892082707549 0 0.0052851021928065588 -0.02615663399360299 0 0.009059031741234097 -0.027505643421448837 0 0.0050256704675410279 -0.029869535744616357 0 0.0042834222417992675 -0.0052046389243180962 0 0.0027861859032977197 -0.0093737123145913853 0 -0.0017592848564864897 -0.0088234922693119014 0 0.0027861859032977197 -0.0093737123145913853 0 0.0019361739930365768 -0.012449134021928694 0 -0.0017592848564864897 -0.0088234922693119014 0 0.0051587417509231879 -0.012043201716831889 0 0.0027861859032977197 -0.0093737123145913853 0 0.0019361739930365768 -0.012449134021928694 0 0.0051587417509231879 -0.012043201716831889 0 0.0019361739930365768 -0.012449134021928694 0 0.003899087613145787 -0.014444639362919641 0 -0.0017592848564864897 -0.0088234922693119014 0 -0.0076383914244311547 -0.012334382028215797 0 -0.00086303255727513111 -0.017385236002596151 0 0.0052851021928065588 -0.02615663399360299 0 0.0050256704675410279 -0.029869535744616357 0 0.0022678860106640102 -0.028976976996146268 0 0.0018082137823166747 -0.025717664981957385 0 0.0022678860106640102 -0.028976976996146268 0 -0.0010059114778783159 -0.02927288371227357 0 0.0022678860106640102 -0.028976976996146268 0 0.00095432132416077965 -0.032243528712534358 0 -0.0010059114778783159 -0.02927288371227357 0 0.0050256704675410279 -0.029869535744616357 0 0.0022678860106640102 -0.028976976996146268 0 0.00095432132416077965 -0.032243528712534358 0 0.0033207230651069769 -0.022308892082707549 0 0.00070470269069286529 -0.029526557970337333 0 -0.0076383914244311547 -0.012334382028215797 0 -0.0079732934835131559 -0.018567572268661462 0 -0.00086303255727513111 -0.017385236002596151 0 -0.0047126602008011557 -0.036163428841045203 0 -0.0057090752821766623 -0.037576960937453323 0 -0.0038638417052580484 -0.037552726698617728 0 -0.0047126602008011557 -0.036163428841045203 0 -0.0024026823001222536 -0.035744508044384525 0 -0.0038638417052580484 -0.037552726698617728 0 -0.0024026823001222536 -0.035744508044384525 0 -0.0021759613865824376 -0.037167414036265778 0 -0.0038638417052580484 -0.037552726698617728 0 -0.0042315832099111802 -0.03355660731989648 0 -0.00076821546317147832 -0.029169680232227671 0 0.0019361739930365768 -0.012449134021928694 0 -0.00086303255727513111 -0.017385236002596151 0 0.003899087613145787 -0.014444639362919641 0 -0.00086303255727513111 -0.017385236002596151 0 0.0062326856452158885 -0.016215121371358204 0 0.003899087613145787 -0.014444639362919641 0 -0.00076821546317147832 -0.029169680232227671 0 0.0048074730179840149 -0.026280412907164222 0 -0.0024026823001222536 -0.035744508044384525 0 -0.0013298842782243487 -0.036526098110171587 0 -1.9177583252371377e-05 -0.035338463926950829 0 -0.0024026823001222536 -0.035744508044384525 0 -0.0021759613865824376 -0.037167414036265778 0 -0.0013298842782243487 -0.036526098110171587 0 -0.0021759613865824376 -0.037167414036265778 0 -0.0013298842782243487 -0.036526098110171587 0 -0.00093622951771589469 -0.037830721613293414 0 0.0064045826977503217 -0.019419620979869424 0 0.0057578720385060523 -0.016681890090733471 0 0.0025548324437604151 -0.025720470996419022 0 -0.0013298842782243487 -0.036526098110171587 0 -1.9177583252371377e-05 -0.035338463926950829 0 -0.00093622951771589469 -0.037830721613293414 0 0.0048074730179840149 -0.026280412907164222 0 0.0016745183902777329 -0.031902155236502271 0 0.0064045826977503217 -0.019419620979869424 0 0.0082649584080869941 -0.021318728007824445 0 0.0025548324437604151 -0.025720470996419022 0 0.0064045826977503217 -0.019419620979869424 0 0.0082865815198930239 -0.017856467810755162 0 0.0082649584080869941 -0.021318728007824445 0 0.0064045826977503217 -0.019419620979869424 0 0.0057578720385060523 -0.016681890090733471 0 0.0062594498743019323 -0.016599600870307374 0 0.0064045826977503217 -0.019419620979869424 0 0.0062594498743019323 -0.016599600870307374 0 0.0082865815198930239 -0.017856467810755162 0 0.0062594498743019323 -0.016599600870307374 0 0.0082526829924327583 -0.015553289429251315 0 0.0082865815198930239 -0.017856467810755162 0 0.0048074730179840149 -0.026280412907164222 0 0.0048159316372784998 -0.026270706923691902 0 0.0062326856452158885 -0.016215121371358204 0 0.003899087613145787 -0.014444639362919641 0 0.0069628288576502597 -0.014132421693776256 0 0.0048074730179840149 -0.026280412907164222 0 0.0051645439990421283 -0.025130179614122936 0 0.0057699257557056911 -0.016670710612637734 0 0.0062594498743019323 -0.016599600870307374 0 0.0069628288576502597 -0.014132421693776256 0 0.0062594498743019323 -0.016599600870307374 0 0.0069628288576502597 -0.014132421693776256 0 0.0082526829924327583 -0.015553289429251315 0 0.0014694785277772518 -0.061069177015557467 0 0.00015440255805510076 -0.061917414701295879 0 0.00058354886765245924 -0.059560689874630049 0 0.0014694785277772518 -0.061069177015557467 0 0.0030883402547509527 -0.062038872408937698 0 0.0010341019881522687 -0.062575912928718114 0 0.0014694785277772518 -0.061069177015557467 0 0.00015440255805510076 -0.061917414701295879 0 0.0010341019881522687 -0.062575912928718114 0 0.00015440255805510076 -0.061917414701295879 0 -0.0011481961359916569 -0.061484120475760247 0 -0.00026885777784125555 -0.063509230295731342 0 -0.0016289216985683249 -0.061519779723486913 0 -0.0020813263241029499 -0.061521440368167195 0 0.00015440255805510076 -0.061917414701295879 0 -0.0011481961359916569 -0.061484120475760247 0 -0.00095540784554304142 -0.05995579437926965 0 -0.0011481961359916569 -0.061484120475760247 0 -0.00095540784554304142 -0.05995579437926965 0 -0.0017942062162500812 -0.059956610133966616 0 0.00015440255805510076 -0.061917414701295879 0 -0.0016715432030368167 -0.058531559543161624 0 0.00058354886765245924 -0.059560689874630049 0 0.00019984918530304097 -0.057339698418102804 0 -0.0016715432030368167 -0.058531559543161624 0 0.00058354886765245924 -0.059560689874630049 0 0.00019984918530304097 -0.057339698418102804 0 0.00058354886765245924 -0.059560689874630049 0 0.0025444571690799683 -0.059083537479368863 0 0.0014694785277772518 -0.061069177015557467 0 0.00058354886765245924 -0.059560689874630049 0 0.0025444571690799683 -0.059083537479368863 0 0.004817822349342085 -0.057232936227431495 0 0.0025444571690799683 -0.059083537479368863 0 0.0055538100317153944 -0.059099919918910983 0 0.0025444571690799683 -0.059083537479368863 0 0.0055538100317153944 -0.059099919918910983 0 0.0030883402547509527 -0.062038872408937698 0 0.0033253616495962802 -0.047230096195466753 0 0.0019450810384246272 -0.043056006494701433 0 0.0033253616495962802 -0.047230096195466753 0 0.00097285199179472637 -0.052476239176571043 0 0.00070470269069286529 -0.029526557970337333 0 0.00022788046340012908 -0.041118816954543322 0 0.003659984043065714 -0.046295950861673207 0 0.0030406770831901916 -0.047790020856494704 0 0.0019682756792754864 -0.048391998464321226 0 0.00095432132416077965 -0.032243528712534358 0 -0.0010059114778783159 -0.02927288371227357 0 -0.0020796400254590995 -0.031936602102223571 0 0.00095432132416077965 -0.032243528712534358 0 -0.0020796400254590995 -0.031936602102223571 0 -0.0031486240192757442 -0.034615670730609366 0 0.0014694785277772518 -0.061069177015557467 0 0.0025444571690799683 -0.059083537479368863 0 0.0030883402547509527 -0.062038872408937698 0 0.0019450810384246272 -0.043056006494701433 0 0.00022788046340012908 -0.041118816954543322 0 0.0030406770831901916 -0.047790020856494704 0 0.0019682756792754864 -0.048391998464321226 0 0.0024266551618508147 -0.049292244898584948 0 0.00022788046340012908 -0.041118816954543322 0 -0.00047630217629327919 -0.053792260847626672 0 0.0019682756792754864 -0.048391998464321226 0 0.0024266551618508147 -0.049292244898584948 0 0.00027131876599055136 -0.050514985648105859 0 0.0032155082967293401 -0.047135852499636581 0 0.0023158824340670466 -0.049388476672061761 0 -0.0015110158356456162 -0.049857092118579999 0 -0.013501706516365081 -0.015820321454811177 0 -0.012406192919974399 -0.016430896016502782 0 -0.014537046569332445 -0.018479411309771286 0 0.00022788046340012908 -0.041118816954543322 0 -0.0016746543990476944 -0.04076575028053752 0 -0.0015185455058967855 -0.039032207940239191 0 -0.0016746543990476944 -0.04076575028053752 0 -0.0076383914244311547 -0.012334382028215797 0 -0.0079732934835131559 -0.018567572268661462 0 -0.012406192919974399 -0.016430896016502782 0 -0.0076383914244311547 -0.012334382028215797 0 -0.013501706516365081 -0.015820321454811177 0 -0.012406192919974399 -0.016430896016502782 0 -0.0079732934835131559 -0.018567572268661462 0 -0.012406192919974399 -0.016430896016502782 0 -0.014505083100860423 -0.01839914052516628 0 -0.0042315832099111802 -0.03355660731989648 0 -0.0024821331683452679 -0.041486044929951726 0 -0.0079732934835131559 -0.018567572268661462 0 -0.0150296415569672 -0.019734709849790505 0 -0.014505083100860423 -0.01839914052516628 0 -0.0047126602008011557 -0.036163428841045203 0 -0.0070009872612288295 -0.036550751099542748 0 -0.0057090752821766623 -0.037576960937453323 0 -0.00019932041310611427 -0.048012502302302952 0 -0.0010751626698881889 -0.048149212315293469 0 -0.0017022824718287528 -0.05177475596258508 0 -0.0024821331683452679 -0.041486044929951726 0 -0.0022826043723049045 -0.047169125336602481 0 0.00089170694619621093 -0.050701509231368243 0 0.0023158824340670466 -0.049388476672061761 0 -0.0015110158356456162 -0.049857092118579999 0 -0.0024821331683452679 -0.041486044929951726 0 -0.0018840557818648523 -0.043123114293646868 0 -0.0013378429571345718 -0.043057915469897755 0 -0.001424816510284385 -0.043072698876230768 0 -0.0012954002689186993 -0.04295033866232309 0 -0.0018840557818648523 -0.043123114293646868 0 -0.0016746543990476944 -0.04076575028053752 0 -0.0024821331683452679 -0.041486044929951726 0 -0.0016746543990476944 -0.04076575028053752 0 -0.0070009872612288295 -0.036550751099542748 0 -0.0066830142041766011 -0.037726020572791029 0 -0.0057090752821766623 -0.037576960937453323 0 -0.0018840557818648523 -0.043123114293646868 0 -0.0021360718235649561 -0.044059401381151768 0 0.00089170694619621093 -0.050701509231368243 0 -0.0030610538667762591 -0.051328695981562894 0 -0.0015110158356456162 -0.049857092118579999 0 0.00089241253436587455 -0.050703955076370655 0 -0.0030610538667762591 -0.051328695981562894 0 -0.0040090988693787175 -0.055246077031782595 0 0.0030883402547509527 -0.062038872408937698 0 0.00080341734729684543 -0.064246462158624881 0 0.0010341019881522687 -0.062575912928718114 0 0.00080341734729684543 -0.064246462158624881 0 0.0010341019881522687 -0.062575912928718114 0 -0.00026885777784125555 -0.063509230295731342 0 0.00097285199179472637 -0.052476239176571043 0 -0.00047630217629327919 -0.053792260847626672 0 0.00015440255805510076 -0.061917414701295879 0 0.0010341019881522687 -0.062575912928718114 0 -0.00026885777784125555 -0.063509230295731342 0 -0.00074408552458126245 -0.062695932475079111 0 -0.00026885777784125555 -0.063509230295731342 0 -0.0010036527620197332 -0.063366270014314746 0 -0.00026885777784125555 -0.063509230295731342 0 -0.00079045349465144577 -0.064743516120505204 0 -0.0010036527620197332 -0.063366270014314746 0 -0.0014922398892594543 -0.063309523098407025 0 -0.0013120050972937035 -0.063334225127566965 0 0.00080341734729684543 -0.064246462158624881 0 -0.00026885777784125555 -0.063509230295731342 0 -0.00079045349465144577 -0.064743516120505204 0 -0.00047630217629327919 -0.053792260847626672 0 -0.00036440458932190272 -0.065287105308922663 0 -0.0030610538667762591 -0.051328695981562894 0 -0.0015110158356456162 -0.049857092118579999 0 -0.0060197142362084285 -0.052461661153719655 0 -0.00036440458932190272 -0.065287105308922663 0 0.00045644030268928587 -0.072337025617131526 0 0.00028037298904340119 -0.084708373227131359 0 0.0002657628846050947 -0.084738365868312515 0 0.00027794997386932589 -0.084718410447809159 0 0.0002657628846050947 -0.084738365868312515 0 0.00025058896600698983 -0.084758073578357365 0 0.00025467755445664371 -0.084751213813117315 0 0.0002657628846050947 -0.084738365868312515 0 0.00025467755445664371 -0.084751213813117315 0 0.00027794997386932589 -0.084718410447809159 0 0.00025467755445664371 -0.084751213813117315 0 0.00027794997386932589 -0.084718410447809159 0 0.00023534896938235019 -0.084698812050574029 0 -0.00079045349465144577 -0.064743516120505204 0 -0.0014103156971722237 -0.063356883509002024 0 -0.0010036527620197332 -0.063366270014314746 0 -0.0014103156971722237 -0.063356883509002024 0 -0.0010036527620197332 -0.063366270014314746 0 -0.0012539250282007375 -0.06328720826756036 0 -0.0010036527620197332 -0.063366270014314746 0 -0.001266823879584045 -0.06323851778668467 0 -0.0012539250282007375 -0.06328720826756036 0 -0.001374628019862894 -0.063639109795693954 0 -0.001399406798853119 -0.063784960884925815 0 -0.00074408552458126245 -0.062695932475079111 0 -0.0010036527620197332 -0.063366270014314746 0 -0.0010679719878603179 -0.062588587016607147 0 -0.001266823879584045 -0.06323851778668467 0 -0.0013137802513969675 -0.063281625805567815 0 -0.0012917259797989348 -0.063271384944525652 0 -0.001266823879584045 -0.06323851778668467 0 -0.0013137802513969675 -0.063281625805567815 0 -0.0012539250282007375 -0.06328720826756036 0 -0.0014103156971722237 -0.063356883509002024 0 -0.0013137802513969675 -0.063281625805567815 0 -0.0012539250282007375 -0.06328720826756036 0 0.00045644030268928587 -0.072337025617131526 0 -0.00050678016240789602 -0.074393306910135515 0 -0.0013137802513969675 -0.063281625805567815 0 -0.0012831516905203193 -0.063277397928943865 0 -0.0012596396407233903 -0.063260227077518022 0 -0.0014103156971722237 -0.063356883509002024 0 -0.0013137802513969675 -0.063281625805567815 0 -0.0012596396407233903 -0.063260227077518022 0 0.00027794997386932589 -0.084718410447809159 0 0.00023534896938235019 -0.084698812050574029 0 0.00023263016765893399 -0.084610377813857884 0 -0.0013137802513969675 -0.063281625805567815 0 -0.0012831516905203193 -0.063277397928943865 0 -0.0012917259797989348 -0.063271384944525652 0 -0.0012831516905203193 -0.063277397928943865 0 -0.001278167872935156 -0.063305040186801123 0 -0.0012917259797989348 -0.063271384944525652 0 -0.001278167872935156 -0.063305040186801123 0 -0.0012323421398234308 -0.063304750613722052 0 -0.0012933563641579866 -0.063379348560132817 0 -0.0012831516905203193 -0.063277397928943865 0 -0.001278167872935156 -0.063305040186801123 0 -0.0012378040107399206 -0.063297258555834707 0 -0.001278167872935156 -0.063305040186801123 0 -0.0012323421398234308 -0.063304750613722052 0 -0.0012378040107399206 -0.063297258555834707 0 -0.00087976862478881623 -0.073878885040878806 0 -0.00050678016240789602 -0.074393306910135515 0 -0.00074408552458126245 -0.062695932475079111 0 -0.0010679719878603179 -0.062588587016607147 0 -0.0011470422165990107 -0.061857406090177772 0 -0.001399406798853119 -0.063784960884925815 0 -0.0014218037324537545 -0.064686092796500463 0 -0.0014922398892594543 -0.063309523098407025 0 -0.0014218037324537545 -0.064686092796500463 0 -0.001266823879584045 -0.06323851778668467 0 -0.0013155617339584813 -0.063309006388869146 0 -0.0012917259797989348 -0.063271384944525652 0 -0.001278167872935156 -0.063305040186801123 0 -0.0013155617339584813 -0.063309006388869146 0 -0.0012917259797989348 -0.063271384944525652 0 -0.0002393291040311211 -0.077767331017419269 0 -3.1144619133255296e-05 -0.077823406983362917 0 -0.00028613459973780316 -0.077921531967276317 0 -0.00016807133676424087 -0.078338566307792568 0 -0.00041852422599327968 -0.080419964112038597 0 9.8953934521795614e-05 -0.084785552134624048 0 9.2661082140946103e-05 -0.084814709535606991 0 7.911729973403121e-05 -0.084810785320750648 0 -0.0002393291040311211 -0.077767331017419269 0 -0.00035145205649017 -0.077811406960576715 0 -0.00028613459973780316 -0.077921531967276317 0 -0.0002393291040311211 -0.077767331017419269 0 -0.00035145205649017 -0.077811406960576715 0 -0.00046355145241399318 -0.077726175419468232 0 9.8953934521795614e-05 -0.084785552134624048 0 0.00012261722471532561 -0.084768864744199854 0 0.00010518101963001155 -0.084805861922089817 0 -0.00016807133676424087 -0.078338566307792568 0 -0.00037296522979916695 -0.074973156269921598 0 -0.00037296522979916695 -0.074973156269921598 0 -0.00023209664931713291 -0.076301620679147281 0 -0.00035145205649017 -0.077811406960576715 0 -0.00046355145241399318 -0.077726175419468232 0 -0.00031900528348221716 -0.07793064934122132 0 0.00022498634537594252 -0.084597370442945283 0 0.00023263016765893399 -0.084610377813857884 0 0.00021154532281913297 -0.084660533813288336 0 -0.00037296522979916695 -0.074973156269921598 0 -0.00050678016240789602 -0.074393306910135515 0 -0.00037296522979916695 -0.074973156269921598 0 -0.0018406949023271942 -0.079544003536569249 0 0.00023534896938235019 -0.084698812050574029 0 0.00023263016765893399 -0.084610377813857884 0 0.00021154532281913297 -0.084660533813288336 0 0.00022498634537594252 -0.084597370442945283 0 0.00021154532281913297 -0.084660533813288336 0 0.00015474371418485814 -0.084682547834299307 0 0.00023534896938235019 -0.084698812050574029 0 0.00021154532281913297 -0.084660533813288336 0 0.00018573544455744885 -0.08474983662149263 0 0.00021154532281913297 -0.084660533813288336 0 0.00015474371418485814 -0.084682547834299307 0 0.00018573544455744885 -0.08474983662149263 0 9.8953934521795614e-05 -0.084785552134624048 0 0.00010518101963001155 -0.084805861922089817 0 9.2661082140946103e-05 -0.084814709535606991 0 -0.0018406949023271942 -0.079544003536569249 0 -0.0020512157352064503 -0.080564504874631696 0 0.00010518101963001155 -0.084805861922089817 0 9.2661082140946103e-05 -0.084814709535606991 0 9.8741495771608508e-05 -0.084818367132341255 0 9.2661082140946103e-05 -0.084814709535606991 0 9.8741495771608508e-05 -0.084818367132341255 0 7.6343992614278557e-05 -0.084838999853648012 0 9.8741495771608508e-05 -0.084818367132341255 0 0.00018573544455744885 -0.08474983662149263 0 0.00013369685049952702 -0.084879455744064594 0 9.8741495771608508e-05 -0.084818367132341255 0 0.00013369685049952702 -0.084879455744064594 0 6.6821727810316181e-05 -0.084877451923444355 0 0.00015474371418485814 -0.084682547834299307 0 9.8741495771608508e-05 -0.084818367132341255 0 0.00018573544455744885 -0.08474983662149263 0 0.00025467755445664371 -0.084751213813117315 0 0.00018573544455744885 -0.08474983662149263 0 0.00013369685049952702 -0.084879455744064594 0 0.00025467755445664371 -0.084751213813117315 0 0.00023534896938235019 -0.084698812050574029 0 0.00018573544455744885 -0.08474983662149263 0 0.00025058896600698983 -0.084758073578357365 0 0.00025467755445664371 -0.084751213813117315 0 0.00022127959112580117 -0.08475201039312695 0 0.0001939216105766876 -0.084816355934364179 0 0.00015869649396195584 -0.084837446541032535 0 0.00025058896600698983 -0.084758073578357365 0 0.00022127959112580117 -0.08475201039312695 0 0.00023792918273670525 -0.084783977982212141 0 0.00015869649396195584 -0.084837446541032535 0 9.8048605332000597e-05 -0.084876875432442642 0 0.00022127959112580117 -0.08475201039312695 0 0.00012386244235716983 -0.084801915589800089 0 0.00021142055910103379 -0.084813622806404629 0 0.00013369685049952702 -0.084879455744064594 0 5.5535091428118233e-05 -0.084948022188896369 0 6.6821727810316181e-05 -0.084877451923444355 0 5.5535091428118233e-05 -0.084948022188896369 0 2.8783845672626339e-05 -0.084929267656111529 0 6.6821727810316181e-05 -0.084877451923444355 0 5.5535091428118233e-05 -0.084948022188896369 0 2.8783845672626339e-05 -0.084929267656111529 0 7.6043650932663138e-06 -0.084985822443375325 0 2.8783845672626339e-05 -0.084929267656111529 0 1.7686988236547973e-05 -0.084914646272701511 0 4.8238075863493738e-05 -0.084877529309295249 0 2.8783845672626339e-05 -0.084929267656111529 0 4.8238075863493738e-05 -0.084877529309295249 0 6.6821727810316181e-05 -0.084877451923444355 0 4.8238075863493738e-05 -0.084877529309295249 0 6.6821727810316181e-05 -0.084877451923444355 0 7.6343992614278557e-05 -0.084838999853648012 0 9.8741495771608508e-05 -0.084818367132341255 0 6.6821727810316181e-05 -0.084877451923444355 0 7.6343992614278557e-05 -0.084838999853648012 0 -1.441224124480852e-08 -0.084999954863759317 0 2.7852413131180127e-06 -0.084958885115922991 0 -6.2275191819641991e-07 -0.084989697289347216 0 2.7852413131180127e-06 -0.084958885115922991 0 7.6043650932663138e-06 -0.084985822443375325 0 -6.2275191819641991e-07 -0.084989697289347216 0 2.8783845672626339e-05 -0.084929267656111529 0 2.7852413131180127e-06 -0.084958885115922991 0 7.6043650932663138e-06 -0.084985822443375325 0 2.8783845672626339e-05 -0.084929267656111529 0 1.7686988236547973e-05 -0.084914646272701511 0 2.7852413131180127e-06 -0.084958885115922991 0 1.7686988236547973e-05 -0.084914646272701511 0 2.7852413131180127e-06 -0.084958885115922991 0 -1.1185676201536605e-06 -0.084942243552144428 0 -1.441224124480852e-08 -0.084999954863759317 0 -1.1185676201536605e-06 -0.084942243552144428 0 -1.0647672689553259e-05 -0.084950083456790226 0 -1.441224124480852e-08 -0.084999954863759317 0 2.7852413131180127e-06 -0.084958885115922991 0 -1.1185676201536605e-06 -0.084942243552144428 0 -1.441224124480852e-08 -0.084999954863759317 0 6.9289674566015142e-09 -0.084999921272761667 0 -1.0647672689553259e-05 -0.084950083456790226 0 6.9289674566015142e-09 -0.084999921272761667 0 -1.0647672689553259e-05 -0.084950083456790226 0 -1.2117496985866123e-05 -0.084978908052662033 0 -0.00070114745976368735 -0.083356114189780436 0 -0.00064045768784849809 -0.083074362676888031 0 -1.0647672689553259e-05 -0.084950083456790226 0 -2.9197229369662229e-05 -0.084973296260765496 0 -1.2117496985866123e-05 -0.084978908052662033 0 -1.1185676201536605e-06 -0.084942243552144428 0 -1.0647672689553259e-05 -0.084950083456790226 0 9.1850542088088176e-06 -0.084897621491773559 0 1.7686988236547973e-05 -0.084914646272701511 0 -1.1185676201536605e-06 -0.084942243552144428 0 9.1850542088088176e-06 -0.084897621491773559 0 9.1850542088088176e-06 -0.084897621491773559 0 -1.7146445786716537e-06 -0.084843836537725675 0 2.4822601475954797e-05 -0.084852641608072293 0 -1.0647672689553259e-05 -0.084950083456790226 0 9.1850542088088176e-06 -0.084897621491773559 0 -1.7146445786716537e-06 -0.084843836537725675 0 -2.9197229369662229e-05 -0.084973296260765496 0 -2.7110137698610672e-05 -0.084979957025477143 0 -1.2117496985866123e-05 -0.084978908052662033 0 -2.9197229369662229e-05 -0.084973296260765496 0 -2.7110137698610672e-05 -0.084979957025477143 0 -3.378911250750525e-05 -0.084979021785927297 0 -2.7110137698610672e-05 -0.084979957025477143 0 -1.785599607910794e-05 -0.084987443512205427 0 -3.3265689741678338e-05 -0.084986994748748851 0 -1.785599607910794e-05 -0.084987443512205427 0 -1.2117496985866123e-05 -0.084978908052662033 0 -5.7105311752873567e-06 -0.084992755985328891 0 -2.7110137698610672e-05 -0.084979957025477143 0 -1.785599607910794e-05 -0.084987443512205427 0 -1.2117496985866123e-05 -0.084978908052662033 0 -1.785599607910794e-05 -0.084987443512205427 0 -5.7105311752873567e-06 -0.084992755985328891 0 -1.1348098675919631e-05 -0.084998250677558285 0 6.9289674566015142e-09 -0.084999921272761667 0 -5.7105311752873567e-06 -0.084992755985328891 0 -8.4715360840955096e-09 -0.085000030315190211 0 6.9289674566015142e-09 -0.084999921272761667 0 -1.2117496985866123e-05 -0.084978908052662033 0 -5.7105311752873567e-06 -0.084992755985328891 0 6.1150384080965568e-05 -0.084830803868091748 0 7.6343992614278557e-05 -0.084838999853648012 0 7.911729973403121e-05 -0.084810785320750648 0 9.2661082140946103e-05 -0.084814709535606991 0 7.6343992614278557e-05 -0.084838999853648012 0 7.911729973403121e-05 -0.084810785320750648 0 4.8238075863493738e-05 -0.084877529309295249 0 6.1150384080965568e-05 -0.084830803868091748 0 7.6343992614278557e-05 -0.084838999853648012 0 4.8238075863493738e-05 -0.084877529309295249 0 6.1150384080965568e-05 -0.084830803868091748 0 3.5827975936603119e-05 -0.084866600531657468 0 1.7686988236547973e-05 -0.084914646272701511 0 4.8238075863493738e-05 -0.084877529309295249 0 3.5827975936603119e-05 -0.084866600531657468 0 1.7686988236547973e-05 -0.084914646272701511 0 9.1850542088088176e-06 -0.084897621491773559 0 3.5827975936603119e-05 -0.084866600531657468 0 9.1850542088088176e-06 -0.084897621491773559 0 3.5827975936603119e-05 -0.084866600531657468 0 2.4822601475954797e-05 -0.084852641608072293 0 3.5827975936603119e-05 -0.084866600531657468 0 2.4822601475954797e-05 -0.084852641608072293 0 4.5010064158951743e-05 -0.084832906452335308 0 6.1150384080965568e-05 -0.084830803868091748 0 3.5827975936603119e-05 -0.084866600531657468 0 4.5010064158951743e-05 -0.084832906452335308 0 6.1150384080965568e-05 -0.084830803868091748 0 5.8772304484353718e-05 -0.084816176217846234 0 4.5010064158951743e-05 -0.084832906452335308 0 5.8772304484353718e-05 -0.084816176217846234 0 4.5010064158951743e-05 -0.084832906452335308 0 2.7446732735566752e-05 -0.084814077397437918 0 2.7446732735566752e-05 -0.084814077397437918 0 7.1512518267362297e-05 -0.084749508667217713 0 0.0001557708158001034 -0.084728610338744181 0 -0.00071555595942305271 -0.081278928638365305 0 -0.00041852422599327968 -0.080419964112038597 0 5.8772304484353718e-05 -0.084816176217846234 0 2.7446732735566752e-05 -0.084814077397437918 0 7.3091683670755054e-05 -0.084788545647474831 0 -0.00064045768784849809 -0.083074362676888031 0 -0.00032372224803049586 -0.082068016358125856 0 -1.7146445786716537e-06 -0.084843836537725675 0 2.7446732735566752e-05 -0.084814077397437918 0 7.1512518267362297e-05 -0.084749508667217713 0 -1.7146445786716537e-06 -0.084843836537725675 0 2.4822601475954797e-05 -0.084852641608072293 0 2.7446732735566752e-05 -0.084814077397437918 0 2.4822601475954797e-05 -0.084852641608072293 0 4.5010064158951743e-05 -0.084832906452335308 0 2.7446732735566752e-05 -0.084814077397437918 0 -2.7110137698610672e-05 -0.084979957025477143 0 -3.378911250750525e-05 -0.084979021785927297 0 -3.3265689741678338e-05 -0.084986994748748851 0 -2.9197229369662229e-05 -0.084973296260765496 0 -3.378911250750525e-05 -0.084979021785927297 0 -3.918142039056954e-05 -0.084978154695245417 0 -0.00034313566473600149 -0.082123053409074623 0 -0.00032372224803049586 -0.082068016358125856 0 9.0221156607812034e-05 -0.08349610584281647 0 5.5294857150887062e-05 -0.083423523532310209 0 -3.378911250750525e-05 -0.084979021785927297 0 -3.4096599825151761e-05 -0.084976501175127173 0 -3.3265689741678338e-05 -0.084986994748748851 0 -3.378911250750525e-05 -0.084979021785927297 0 -3.4096599825151761e-05 -0.084976501175127173 0 -3.2420618125871605e-05 -0.08497562750318971 0 -3.4096599825151761e-05 -0.084976501175127173 0 -2.4399132806077934e-05 -0.084968554373302252 0 -4.3552349215714105e-05 -0.084962318584172691 0 -3.4096599825151761e-05 -0.084976501175127173 0 -3.2420618125871605e-05 -0.08497562750318971 0 -2.4399132806077934e-05 -0.084968554373302252 0 -0.00032372224803049586 -0.082068016358125856 0 -0.00019025209342174554 -0.082137435381546303 0 -0.00032372224803049586 -0.082068016358125856 0 -0.00027525413347097722 -0.08130555740523282 0 -0.00061357677244273197 -0.08129469114466252 0 -0.00034815307911611538 -0.081059935127655372 0 -4.9172739709910874e-05 -0.081130581132013227 0 -0.00019025209342174554 -0.082137435381546303 0 -0.00027525413347097722 -0.08130555740523282 0 9.8953934521795614e-05 -0.084785552134624048 0 7.3091683670755054e-05 -0.084788545647474831 0 7.911729973403121e-05 -0.084810785320750648 0 7.1512518267362297e-05 -0.084749508667217713 0 0.00011998344248583379 -0.084725870030522107 0 0.0001557708158001034 -0.084728610338744181 0 -0.00027525413347097722 -0.08130555740523282 0 -0.00041852422599327968 -0.080419964112038597 0 5.8772304484353718e-05 -0.084816176217846234 0 7.3091683670755054e-05 -0.084788545647474831 0 7.911729973403121e-05 -0.084810785320750648 0 6.1150384080965568e-05 -0.084830803868091748 0 5.8772304484353718e-05 -0.084816176217846234 0 7.911729973403121e-05 -0.084810785320750648 0 -0.00027525413347097722 -0.08130555740523282 0 -0.00025113406043308006 -0.077235107909577619 0 0.0012665642796086407 -0.083507398056888019 0 0.0011082634588394571 -0.083470520125731057 0 0.00057016950987388826 -0.084135832516574582 0 6.0453518214997205e-05 -0.084793084298521573 0 1.6973397703104453e-05 -0.084788396226663273 0 6.9604752914951895e-05 -0.084821922482813367 0 0.0011082634588394571 -0.083470520125731057 0 0.00057016950987388826 -0.084135832516574582 0 -5.2693461892018799e-05 -0.083814348292933064 0 -0.00086562888900768519 -0.07945182272960695 0 -0.00065530436607925957 -0.079498474643807035 0 0.00024559974469017811 -0.079107361559797904 0 -0.00019025209342174554 -0.082137435381546303 0 -0.00037271725773671202 -0.083335281496542943 0 -0.00019025209342174554 -0.082137435381546303 0 5.5294857150887062e-05 -0.083423523532310209 0 6.0453518214997205e-05 -0.084793084298521573 0 8.1001364212024491e-05 -0.084800980637098775 0 6.9604752914951895e-05 -0.084821922482813367 0 7.0725098693065572e-05 -0.084846402393730008 0 8.7881828204315358e-05 -0.084899348773701089 0 9.571109560127026e-05 -0.084904313138059517 0 6.9604752914951895e-05 -0.084821922482813367 0 7.0725098693065572e-05 -0.084846402393730008 0 8.7881828204315358e-05 -0.084899348773701089 0 7.0725098693065572e-05 -0.084846402393730008 0 4.2404410373638089e-05 -0.084836064159557162 0 9.571109560127026e-05 -0.084904313138059517 0 1.6973397703104453e-05 -0.084788396226663273 0 7.0725098693065572e-05 -0.084846402393730008 0 4.2404410373638089e-05 -0.084836064159557162 0 1.6973397703104453e-05 -0.084788396226663273 0 6.9604752914951895e-05 -0.084821922482813367 0 7.0725098693065572e-05 -0.084846402393730008 0 4.2404410373638089e-05 -0.084836064159557162 0 2.6542985046057364e-05 -0.084868251827686217 0 -5.5039668457688688e-06 -0.084802661727069947 0 1.6973397703104453e-05 -0.084788396226663273 0 4.2404410373638089e-05 -0.084836064159557162 0 -5.5039668457688688e-06 -0.084802661727069947 0 3.0542824001892068e-07 -0.084998207952054913 0 6.1348095046682326e-05 -0.084313005775196737 0 -5.7105311752873567e-06 -0.084992755985328891 0 -8.4715360840955096e-09 -0.085000030315190211 0 -1.1348098675919631e-05 -0.084998250677558285 0 2.890493423800971e-09 -0.084999992122814741 0 -1.4252748285561638e-06 -0.08499454984296978 0 -8.295199668612512e-07 -0.084998863327609572 0 5.5294857150887062e-05 -0.083423523532310209 0 6.1348095046682326e-05 -0.084313005775196737 0 -1.785599607910794e-05 -0.084987443512205427 0 -3.3265689741678338e-05 -0.084986994748748851 0 -1.1348098675919631e-05 -0.084998250677558285 0 8.1001364212024491e-05 -0.084800980637098775 0 6.9604752914951895e-05 -0.084821922482813367 0 8.7881828204315358e-05 -0.084899348773701089 0 -5.6520700782026388e-06 -0.084990125084751261 0 -1.4252748285561638e-06 -0.08499454984296978 0 -8.295199668612512e-07 -0.084998863327609572 0 5.5294857150887062e-05 -0.083423523532310209 0 0.00017415333322471797 -0.084580813762005352 0 2.890493423800971e-09 -0.084999992122814741 0 -8.295199668612512e-07 -0.084998863327609572 0 -1.6504406095549009e-09 -0.085000000148003324 0 -8.295199668612512e-07 -0.084998863327609572 0 -1.6504406095549009e-09 -0.085000000148003324 0 1.2448897860934616e-09 -0.085000000419605426 0 0.00017415333322471797 -0.084580813762005352 0 4.1274751924867711e-07 -0.084999473605411144 0 8.7881828204315358e-05 -0.084899348773701089 0 1.0881553393600963e-07 -0.084999818687775341 0 6.0705903671721751e-05 -0.084933725163679225 0 8.7881828204315358e-05 -0.084899348773701089 0 6.0705903671721751e-05 -0.084933725163679225 0 9.571109560127026e-05 -0.084904313138059517 0 6.0705903671721751e-05 -0.084933725163679225 0 8.0058753934029504e-05 -0.084883607123453594 0 9.571109560127026e-05 -0.084904313138059517 0 6.0705903671721751e-05 -0.084933725163679225 0 8.0058753934029504e-05 -0.084883607123453594 0 2.8867096217630085e-05 -0.084938116731464897 0 -2.6196921113096132e-09 -0.084999926919951341 0 1.0881553393600963e-07 -0.084999818687775341 0 2.8867096217630085e-05 -0.084938116731464897 0 1.0881553393600963e-07 -0.084999818687775341 0 6.0705903671721751e-05 -0.084933725163679225 0 2.8867096217630085e-05 -0.084938116731464897 0 0.00021249671014998575 -0.079696606200816922 0 0.00010499568069126764 -0.080577807605426349 0 0.00022880954920558711 -0.084883266661711226 0 9.571109560127026e-05 -0.084904313138059517 0 0.00017698724647769205 -0.084843528141872473 0 4.2404410373638089e-05 -0.084836064159557162 0 2.6542985046057364e-05 -0.084868251827686217 0 9.571109560127026e-05 -0.084904313138059517 0 8.0058753934029504e-05 -0.084883607123453594 0 9.571109560127026e-05 -0.084904313138059517 0 0.00017698724647769205 -0.084843528141872473 0 0.00014611976452128881 -0.084791018351132896 0 8.0058753934029504e-05 -0.084883607123453594 0 0.00017698724647769205 -0.084843528141872473 0 0.00025756228117768202 -0.084771599274424542 0 0.00017698724647769205 -0.084843528141872473 0 0.00026095071961153841 -0.084829813605932419 0 0.00022880954920558711 -0.084883266661711226 0 0.00017698724647769205 -0.084843528141872473 0 0.00026095071961153841 -0.084829813605932419 0 0.001233473003041805 -0.082465152577216358 0 0.0016111024380961604 -0.080455970909072208 0 0.00025756228117768202 -0.084771599274424542 0 0.00026095071961153841 -0.084829813605932419 0 0.00029413909888733312 -0.084812773882566569 0 0.00026095071961153841 -0.084829813605932419 0 0.00029239111222416494 -0.084821261250087265 0 0.00029413909888733312 -0.084812773882566569 0 2.6542985046057364e-05 -0.084868251827686217 0 -0.00022096203006521245 -0.084898185313217467 0 -0.00013042694224889783 -0.084736166998357149 0 2.6542985046057364e-05 -0.084868251827686217 0 -5.5039668457688688e-06 -0.084802661727069947 0 -0.00013042694224889783 -0.084736166998357149 0 0.00022880954920558711 -0.084883266661711226 0 0.00026095071961153841 -0.084829813605932419 0 0.00028070102101925714 -0.084839717288198863 0 0.00021249671014998575 -0.079696606200816922 0 0.00082421577359514096 -0.076693266030357032 0 0.00022880954920558711 -0.084883266661711226 0 0.00028070102101925714 -0.084839717288198863 0 0.00030793847415257073 -0.084829145799296152 0 0.00026095071961153841 -0.084829813605932419 0 0.00028070102101925714 -0.084839717288198863 0 0.00029239111222416494 -0.084821261250087265 0 0.00082421577359514096 -0.076693266030357032 0 0.00055716426009721402 -0.074461281048420869 0 0.0016111024380961604 -0.080455970909072208 0 0.00055716426009721402 -0.074461281048420869 0 -0.00022096203006521245 -0.084898185313217467 0 -0.0008866810824817796 -0.084722164357736093 0 -0.00047956193134877971 -0.084556272821117745 0 0.0002932998873844757 -0.084822813930543653 0 0.00029239111222416494 -0.084821261250087265 0 0.00030781101264254615 -0.084795155868629485 0 0.00082421577359514096 -0.076693266030357032 0 0.00079287720385177248 -0.072947384180760078 0 0.00029239111222416494 -0.084821261250087265 0 0.00029413909888733312 -0.084812773882566569 0 0.00030781101264254615 -0.084795155868629485 0 0.00028070102101925714 -0.084839717288198863 0 0.0002932998873844757 -0.084822813930543653 0 0.00029239111222416494 -0.084821261250087265 0 0.00092976245046298299 -0.07692567722857041 0 0.00082421577359514096 -0.076693266030357032 0 -0.00016814877416469092 -0.083804032771314846 0 -4.6935393573849249e-05 -0.083737743087764951 0 -0.00020199252466776224 -0.083684445885526079 0 -4.6935393573849249e-05 -0.083737743087764951 0 -0.00020199252466776224 -0.083684445885526079 0 -0.0002087958601171006 -0.083541199084607151 0 -0.00025084658891706403 -0.083750833384374571 0 -0.00016814877416469092 -0.083804032771314846 0 -0.00020199252466776224 -0.083684445885526079 0 -0.00025084658891706403 -0.083750833384374571 0 -0.00020199252466776224 -0.083684445885526079 0 -0.00026925717290824107 -0.08365343052207487 0 -0.00020199252466776224 -0.083684445885526079 0 -0.00026925717290824107 -0.08365343052207487 0 -0.00023815606276920642 -0.083602368974328059 0 -0.00025084658891706403 -0.083750833384374571 0 -0.00031298360370313481 -0.083685938167467111 0 -0.00026925717290824107 -0.08365343052207487 0 -0.00026925717290824107 -0.08365343052207487 0 -0.00031781345658190278 -0.083592682730218928 0 -0.00027358850429076259 -0.08359183844554964 0 -0.00026925717290824107 -0.08365343052207487 0 -0.00027358850429076259 -0.08359183844554964 0 -0.00023815606276920642 -0.083602368974328059 0 -0.00031298360370313481 -0.083685938167467111 0 -0.00026925717290824107 -0.08365343052207487 0 -0.00031781345658190278 -0.083592682730218928 0 -0.00037851204563428147 -0.083606897848217329 0 -0.00031298360370313481 -0.083685938167467111 0 -0.00031781345658190278 -0.083592682730218928 0 -0.00041007455266314031 -0.083511904267058526 0 -0.00031781345658190278 -0.083592682730218928 0 -0.00028745201326750016 -0.083549441939291105 0 -0.00031781345658190278 -0.083592682730218928 0 -0.00028745201326750016 -0.083549441939291105 0 -0.00027358850429076259 -0.08359183844554964 0 -0.00019321826221445275 -0.071383000156715323 0 0.00031212545569965993 -0.072870751141916143 0 -0.00028745201326750016 -0.083549441939291105 0 -0.00027358850429076259 -0.08359183844554964 0 -0.00025318002159901916 -0.083549096304405393 0 -0.00019321826221445275 -0.071383000156715323 0 -0.0004176235840355956 -0.070104498869232354 0 -0.0003577515043396401 -0.070932316334774176 0 -0.001543043046527907 -0.070971873510342842 0 -0.00076256887926572396 -0.07257662557750616 0 -0.0003577515043396401 -0.070932316334774176 0 -0.00014934423480974032 -0.0730208473501784 0 -0.00076256887926572396 -0.07257662557750616 0 0.00031212545569965993 -0.072870751141916143 0 -0.00014421692486740571 -0.071107134060084509 0 -0.0025005408595061467 -0.067663150361716773 0 -0.0019571622754237039 -0.068131957955871222 0 -0.0024252707190204814 -0.068424444075761606 0 0.001164467867663404 -0.073749617834930059 0 0.0006027237828920267 -0.07375781509163451 0 0.00066411956925529982 -0.073709238954156542 0 0.001164467867663404 -0.073749617834930059 0 0.00060049119204145043 -0.073570273144576384 0 0.00066411956925529982 -0.073709238954156542 0 -0.00020199252466776224 -0.083684445885526079 0 -0.00023815606276920642 -0.083602368974328059 0 -0.0002087958601171006 -0.083541199084607151 0 -0.00027358850429076259 -0.08359183844554964 0 -0.00023815606276920642 -0.083602368974328059 0 -0.00025318002159901916 -0.083549096304405393 0 -0.00023815606276920642 -0.083602368974328059 0 -0.0002087958601171006 -0.083541199084607151 0 -0.00027023262440973195 -0.083536373162242175 0 0.00052761390829301677 -0.073543241052304253 0 0.00031212545569965993 -0.072870751141916143 0 0.0006027237828920267 -0.07375781509163451 0 0.00059947051045147162 -0.073561276797667621 0 0.00066411956925529982 -0.073709238954156542 0 0.0006027237828920267 -0.07375781509163451 0 0.00059947051045147162 -0.073561276797667621 0 0.00030142261435979343 -0.073533913919414412 0 -9.0278842323765065e-05 -0.073176568792241783 0 0.00017946263569089258 -0.073165665995325521 0 0.00033247909705540782 -0.073479178322934505 0 0.00055716426009721402 -0.074461281048420869 0 -0.00014421692486740571 -0.071107134060084509 0 0.00055716426009721402 -0.074461281048420869 0 0.00031212545569965993 -0.072870751141916143 0 0.00079287720385177248 -0.072947384180760078 0 0.00079953567100082899 -0.072974290441882542 0 -0.0008866810824817796 -0.084722164357736093 0 -0.0007620530526493539 -0.084441199518311097 0 -0.00047956193134877971 -0.084556272821117745 0 -0.0008866810824817796 -0.084722164357736093 0 -0.0010672360519082341 -0.084334175064753242 0 -0.0007620530526493539 -0.084441199518311097 0 -0.00059766698213652365 -0.069785128237225255 0 -0.00010607828536453074 -0.070854268539851592 0 0.00044207085608587751 -0.070092659687189071 0 0.00079287720385177248 -0.072947384180760078 0 -0.00047342029767246459 -0.071336222541569488 0 0.00079287720385177248 -0.072947384180760078 0 -0.00035701248378974229 -0.070390262171382001 0 0.0008059253879909513 -0.072784262463098007 0 0.00093608676212631825 -0.073066563331722026 0 -0.00031310773460081417 -0.073436716856707177 0 -0.00047342029767246459 -0.071336222541569488 0 -0.00069508915531488777 -0.069978811442937758 0 -0.00047342029767246459 -0.071336222541569488 0 -0.0007444122470257645 -0.07445369012107679 0 -0.0010672360519082341 -0.084334175064753242 0 -0.0007620530526493539 -0.084441199518311097 0 -0.00060979620179729872 -0.084148843257228115 0 -0.0007620530526493539 -0.084441199518311097 0 -0.00060979620179729872 -0.084148843257228115 0 -0.00047956193134877971 -0.084556272821117745 0 -0.0014042424685717489 -0.0667720269581321 0 -0.0011565553628725611 -0.067526427850842646 0 -0.00093028785231375551 -0.066352035631046039 0 3.6253943303607819e-05 -0.066640923470241031 0 -0.0028766601545093203 -0.069805406861719627 0 -0.00039167586808787884 -0.067568396381341475 0 -0.0020283199265852311 -0.06824339977047561 0 -0.0012310920750749261 -0.068481654621429203 0 -0.0011565553628725611 -0.067526427850842646 0 -0.0013059482101220384 -0.066783788556310619 0 -0.0016192506951433309 -0.068530951155170453 0 -0.0019571622754237039 -0.068131957955871222 0 -0.0019154339597959279 -0.06865442698252458 0 -0.0011565553628725611 -0.067526427850842646 0 -0.0004176235840355956 -0.070104498869232354 0 -0.0019571622754237039 -0.068131957955871222 0 -0.0019154339597959279 -0.06865442698252458 0 -0.0024252707190204814 -0.068424444075761606 0 -0.0011565553628725611 -0.067526427850842646 0 -0.00059707537395970931 -0.068952181236939497 0 0.0009338889200242881 -0.067896953682804281 0 -0.0021267586528295602 -0.068825092923118475 0 -0.0023695109756980046 -0.066399037915278111 0 -0.00010607828536453074 -0.070854268539851592 0 0.00063398994861574211 -0.070486949118382339 0 0.00044207085608587751 -0.070092659687189071 0 0.00059947051045147162 -0.073561276797667621 0 0.00026323156545954301 -0.073454699186073585 0 0.00030142261435979343 -0.073533913919414412 0 -0.00059707537395970931 -0.068952181236939497 0 -0.0004176235840355956 -0.070104498869232354 0 -0.00059707537395970931 -0.068952181236939497 0 -0.00035701248378974229 -0.070390262171382001 0 -0.00052585388230217431 -0.071077555575195642 0 -0.00067267556376829341 -0.069606823596381429 0 -0.0011616444420777501 -0.069771115844249901 0 0.00052688624506700148 -0.070460851387171369 0 -0.0005497447813551104 -0.070822972059881473 0 -0.0014084178714751981 -0.069057598239497364 0 -0.00035701248378974229 -0.070390262171382001 0 -0.00014421692486740571 -0.071107134060084509 0 -0.0004176235840355956 -0.070104498869232354 0 -0.00014421692486740571 -0.071107134060084509 0 -0.0004176235840355956 -0.070104498869232354 0 -0.00035701248378974229 -0.070390262171382001 0 -0.00047342029767246459 -0.071336222541569488 0 -0.00059707537395970931 -0.068952181236939497 0 -0.0022316987383900642 -0.069982203118538006 0 0.00091453368435424974 -0.068425061469020096 0 0.0011231771686028907 -0.070509694386714325 0 -0.0022316987383900642 -0.069982203118538006 0 -0.0016229362930962438 -0.071304317157735775 0 0.0011231771686028907 -0.070509694386714325 0 -0.0022492458582505665 -0.068843332716715222 0 -0.0015232716839665384 -0.068632362778422829 0 -0.0020259609453796446 -0.069329024355015229 0 -0.00069508915531488777 -0.069978811442937758 0 -0.00072416468900661772 -0.067688396715768498 0 -0.00059707537395970931 -0.068952181236939497 0 -0.00072416468900661772 -0.067688396715768498 0 -0.00093028785231375551 -0.066352035631046039 0 -0.0040937949452702809 -0.067310774724016587 0 -0.0028766601545093203 -0.069805406861719627 0 -0.00016297225579920904 -0.066259364908499582 0 3.4188116806776069e-05 -0.068235364678023658 0 0.00070700195514908164 -0.068042154419011139 0 -0.00059707537395970931 -0.068952181236939497 0 -0.00099044473327459517 -0.067005591328510819 0 -0.00072416468900661772 -0.067688396715768498 0 -0.00099044473327459517 -0.067005591328510819 0 -0.0013059482101220384 -0.066783788556310619 0 -0.00099044473327459517 -0.067005591328510819 0 -0.001278167872935156 -0.063305040186801123 0 -0.0013155617339584813 -0.063309006388869146 0 -0.0012933563641579866 -0.063379348560132817 0 -0.0014218037324537545 -0.064686092796500463 0 -0.00083052277655993776 -0.069014215815125318 0 -0.0020813263241029499 -0.061521440368167195 0 -0.00099044473327459517 -0.067005591328510819 0 -0.00095540784554304142 -0.05995579437926965 0 -0.0019512939531244034 -0.058322065210716235 0 -0.0018151292672354705 -0.05828364258371959 0 -0.0013293013182587435 -0.066120265722446642 0 -0.0010814928369479357 -0.068516924810650054 0 -0.00055830605895070776 -0.067787074505229916 0 -0.0014218037324537545 -0.064686092796500463 0 -0.00072416468900661772 -0.067688396715768498 0 -0.00095540784554304142 -0.05995579437926965 0 -0.0017942062162500812 -0.059956610133966616 0 -0.0019512939531244034 -0.058322065210716235 0 -0.00072416468900661772 -0.067688396715768498 0 -0.00083052277655993776 -0.069014215815125318 0 -0.00069508915531488777 -0.069978811442937758 0 -0.00083052277655993776 -0.069014215815125318 0 -0.00019100882316562979 -0.07248244271643417 0 -0.00010307845824194796 -0.072674017357537035 0 -0.00079940471425362205 -0.07266466316853798 0 -0.00037296522979916695 -0.074973156269921598 0 -0.00083052277655993776 -0.069014215815125318 0 -0.00089967610254426873 -0.073548010787851864 0 -0.00010307845824194796 -0.072674017357537035 0 -0.00079940471425362205 -0.07266466316853798 0 0.0008059253879909513 -0.072784262463098007 0 -0.00031310773460081417 -0.073436716856707177 0 -0.00038588510452236714 -0.073285127773425787 0 -0.00069508915531488777 -0.069978811442937758 0 -0.00048655465252117874 -0.073135849598490441 0 -0.00089967610254426873 -0.073548010787851864 0 -0.00079940471425362205 -0.07266466316853798 0 -0.0014061911050647386 -0.072845996742756172 0 -0.0007444122470257645 -0.07445369012107679 0 -0.00023209664931713291 -0.076301620679147281 0 -0.00048655465252117874 -0.073135849598490441 0 -0.00023209664931713291 -0.076301620679147281 0 -0.00031310773460081417 -0.073436716856707177 0 -0.00038588510452236714 -0.073285127773425787 0 -0.0015455519456351145 -0.073809499480511825 0 -0.00014068640679777315 -0.083921270361582104 0 3.8558433535435591e-05 -0.08414826908574323 0 -0.0002112644651354764 -0.084198491686237761 0 -0.00060979620179729872 -0.084148843257228115 0 -0.00014068640679777315 -0.083921270361582104 0 -0.0002112644651354764 -0.084198491686237761 0 -0.00035145205649017 -0.077811406960576715 0 -0.00031900528348221716 -0.07793064934122132 0 -0.00028613459973780316 -0.077921531967276317 0 -0.00041852422599327968 -0.080419964112038597 0 -0.00025113406043308006 -0.077235107909577619 0 -0.00023209664931713291 -0.076301620679147281 0 -0.00025113406043308006 -0.077235107909577619 0 0.00057016950987388826 -0.084135832516574582 0 -5.2693461892018799e-05 -0.083814348292933064 0 3.8558433535435591e-05 -0.08414826908574323 0 -0.00017632448727047148 -0.083847849743563505 0 -5.2693461892018799e-05 -0.083814348292933064 0 3.8558433535435591e-05 -0.08414826908574323 0 -0.00023209664931713291 -0.076301620679147281 0 7.9135880049607387e-05 -0.076951176124580509 0 3.8558433535435591e-05 -0.08414826908574323 0 -3.1669232157443319e-05 -0.084373524815725243 0 -0.0002112644651354764 -0.084198491686237761 0 0.00057016950987388826 -0.084135832516574582 0 -3.1669232157443319e-05 -0.084373524815725243 0 -0.00013042694224889783 -0.084736166998357149 0 1.6973397703104453e-05 -0.084788396226663273 0 -5.5039668457688688e-06 -0.084802661727069947 0 -0.00013042694224889783 -0.084736166998357149 0 -0.00037271725773671202 -0.083335281496542943 0 -0.0004687125154311397 -0.083715074059934086 0 0.00057016950987388826 -0.084135832516574582 0 3.8558433535435591e-05 -0.08414826908574323 0 -3.1669232157443319e-05 -0.084373524815725243 0 -0.00022096203006521245 -0.084898185313217467 0 -0.00013042694224889783 -0.084736166998357149 0 -0.00047956193134877971 -0.084556272821117745 0 -3.1669232157443319e-05 -0.084373524815725243 0 -0.00013042694224889783 -0.084736166998357149 0 -0.00029580596753208484 -0.084400590143545978 0 -0.00013042694224889783 -0.084736166998357149 0 -0.00047956193134877971 -0.084556272821117745 0 -0.00029580596753208484 -0.084400590143545978 0 -0.00060979620179729872 -0.084148843257228115 0 -0.00047956193134877971 -0.084556272821117745 0 -0.00029580596753208484 -0.084400590143545978 0 -0.00060979620179729872 -0.084148843257228115 0 -0.0002112644651354764 -0.084198491686237761 0 -0.00029580596753208484 -0.084400590143545978 0 -3.1669232157443319e-05 -0.084373524815725243 0 -0.0002112644651354764 -0.084198491686237761 0 -0.00029580596753208484 -0.084400590143545978 0 0.00563148661690396 0.013058534777140312 0 0.0051090272902693046 0.012734326966297943 0 0.0051903661683233484 0.013092097221293031 0 0.00563148661690396 0.013058534777140312 0 0.0051903661683233484 0.013092097221293031 0 0.0054427813035404279 0.013346393253026495 0 0.00563148661690396 0.013058534777140312 0 0.0054427813035404279 0.013346393253026495 0 0.0057862871321787933 0.01343681138030239 0 0.00563148661690396 0.013058534777140312 0 0.006014453967019758 0.013298234063252225 0 0.0060395321583331966 0.013027917671632871 0 0.00563148661690396 0.013058534777140312 0 0.006014453967019758 0.013298234063252225 0 0.0057862871321787933 0.01343681138030239 0 0.006014453967019758 0.013298234063252225 0 0.0057862871321787933 0.01343681138030239 0 0.00605232155887376 0.013513851438147236 0 0.006014453967019758 0.013298234063252225 0 0.0060395321583331966 0.013027917671632871 0 0.0061987147377134313 0.013189704736203373 0 0.00563148661690396 0.013058534777140312 0 0.0060395321583331966 0.013027917671632871 0 0.0059545488600695239 0.012764844612563882 0 0.0059545488600695239 0.012764844612563882 0 0.0062827074452035834 0.012861583508609579 0 0.0060999978104349711 0.012510621478939003 0 0.0060395321583331966 0.013027917671632871 0 0.0059545488600695239 0.012764844612563882 0 0.0062827074452035834 0.012861583508609579 0 0.0059545488600695239 0.012764844612563882 0 0.0056527735767147487 0.012621338818761867 0 0.0060999978104349711 0.012510621478939003 0 0.00563148661690396 0.013058534777140312 0 0.0056527735767147487 0.012621338818761867 0 0.0051090272902693046 0.012734326966297943 0 0.00563148661690396 0.013058534777140312 0 0.0059545488600695239 0.012764844612563882 0 0.0056527735767147487 0.012621338818761867 0 0.0056527735767147487 0.012621338818761867 0 0.0051090272902693046 0.012734326966297943 0 0.005095920389526349 0.012232721110168022 0 0.0051090272902693046 0.012734326966297943 0 0.0045173504768722022 0.012358957535670789 0 0.005095920389526349 0.012232721110168022 0 0.0051090272902693046 0.012734326966297943 0 0.0045173504768722022 0.012358957535670789 0 0.0045278761131118776 0.012764211115029619 0 0.0045173504768722022 0.012358957535670789 0 0.0037336697891966848 0.01206913600265183 0 0.0040167220983233012 0.012545999293250643 0 0.0045278761131118776 0.012764211115029619 0 0.0040896026873420933 0.012906461526800306 0 0.0040167220983233012 0.012545999293250643 0 0.0045173504768722022 0.012358957535670789 0 0.0045278761131118776 0.012764211115029619 0 0.0040167220983233012 0.012545999293250643 0 0.0045278761131118776 0.012764211115029619 0 0.0040896026873420933 0.012906461526800306 0 0.0047317500843801936 0.013057589097750897 0 0.0040896026873420933 0.012906461526800306 0 0.0047317500843801936 0.013057589097750897 0 0.0043280210164784762 0.013215131797581794 0 0.0040896026873420933 0.012906461526800306 0 0.0043280210164784762 0.013215131797581794 0 0.0037943239692808171 0.013120985133154102 0 0.0051903661683233484 0.013092097221293031 0 0.0047317500843801936 0.013057589097750897 0 0.004950072483210396 0.013488302629557006 0 0.0051090272902693046 0.012734326966297943 0 0.0051903661683233484 0.013092097221293031 0 0.0047317500843801936 0.013057589097750897 0 0.0051090272902693046 0.012734326966297943 0 0.0045278761131118776 0.012764211115029619 0 0.0047317500843801936 0.013057589097750897 0 0.0051903661683233484 0.013092097221293031 0 0.004950072483210396 0.013488302629557006 0 0.0054427813035404279 0.013346393253026495 0 0.0047317500843801936 0.013057589097750897 0 0.004950072483210396 0.013488302629557006 0 0.0043280210164784762 0.013215131797581794 0 0.004950072483210396 0.013488302629557006 0 0.0043280210164784762 0.013215131797581794 0 0.0043057451803663232 0.013560360893092874 0 0.0043280210164784762 0.013215131797581794 0 0.0043057451803663232 0.013560360893092874 0 0.0037943239692808171 0.013120985133154102 0 0.0043057451803663232 0.013560360893092874 0 0.0048442313821872524 0.013963586997760688 0 0.0042661722572573954 0.014228317365262307 0 0.004950072483210396 0.013488302629557006 0 0.0048442313821872524 0.013963586997760688 0 0.0054128847709953706 0.01398118205828661 0 0.004950072483210396 0.013488302629557006 0 0.0043057451803663232 0.013560360893092874 0 0.0048442313821872524 0.013963586997760688 0 0.0054128847709953706 0.01398118205828661 0 0.0055972565775192018 0.013644975013284372 0 0.0058646791743283931 0.01384951275761339 0 0.004950072483210396 0.013488302629557006 0 0.0054128847709953706 0.01398118205828661 0 0.0055972565775192018 0.013644975013284372 0 0.004950072483210396 0.013488302629557006 0 0.0055972565775192018 0.013644975013284372 0 0.0054427813035404279 0.013346393253026495 0 0.0055972565775192018 0.013644975013284372 0 0.0054427813035404279 0.013346393253026495 0 0.0057862871321787933 0.01343681138030239 0 0.0057862871321787933 0.01343681138030239 0 0.0058908345481856654 0.013631794606399636 0 0.00605232155887376 0.013513851438147236 0 0.0055972565775192018 0.013644975013284372 0 0.0058908345481856654 0.013631794606399636 0 0.0058646791743283931 0.01384951275761339 0 0.0055972565775192018 0.013644975013284372 0 0.0057862871321787933 0.01343681138030239 0 0.0058908345481856654 0.013631794606399636 0 0.0058908345481856654 0.013631794606399636 0 0.00605232155887376 0.013513851438147236 0 0.0060954910901944246 0.013715093652726176 0 0.0058908345481856654 0.013631794606399636 0 0.0058646791743283931 0.01384951275761339 0 0.0060954910901944246 0.013715093652726176 0 0.0054128847709953706 0.01398118205828661 0 0.0058646791743283931 0.01384951275761339 0 0.005871301313184342 0.014224928350423599 0 0.0058646791743283931 0.01384951275761339 0 0.0061154995511465355 0.013875323142818264 0 0.005871301313184342 0.014224928350423599 0 0.0061154995511465355 0.013875323142818264 0 0.0062893253149832167 0.013900159978967777 0 0.005871301313184342 0.014224928350423599 0 -0.001773343187757369 0.021300477083029463 0 -0.0017075458124004139 0.020832164152992785 0 -0.0010194766936007617 0.021880500305678702 0 0.0061154995511465355 0.013875323142818264 0 0.0062313710953654381 0.013774029567844829 0 0.0060954910901944246 0.013715093652726176 0 0.0058646791743283931 0.01384951275761339 0 0.0061154995511465355 0.013875323142818264 0 0.0060954910901944246 0.013715093652726176 0 0.0061154995511465355 0.013875323142818264 0 0.0062313710953654381 0.013774029567844829 0 0.006245835869339778 0.013839670704689229 0 0.0061154995511465355 0.013875323142818264 0 0.006245835869339778 0.013839670704689229 0 0.0062893253149832167 0.013900159978967777 0 -0.001773343187757369 0.021300477083029463 0 -0.0017075458124004139 0.020832164152992785 0 0.00090432642417776052 0.019593716455630916 0 0.0062951482829162343 0.013823896420008667 0 0.0063081900685951322 0.013790869146374334 0 0.0062975172820218476 0.013794917702442911 0 0.0030990283833018362 0.016394738126134026 0 0.0043309119020457374 0.0157328541866756 0 0.0062893253149832167 0.013900159978967777 0 0.0062951482829162343 0.013823896420008667 0 0.0062975172820218476 0.013794917702442911 0 -0.0019138323801251543 0.022127022649334135 0 -0.0013825877725102608 0.022355468332337571 0 0.006245835869339778 0.013839670704689229 0 0.0062893253149832167 0.013900159978967777 0 0.0062951482829162343 0.013823896420008667 0 0.0062313710953654381 0.013774029567844829 0 0.006245835869339778 0.013839670704689229 0 0.0062951482829162343 0.013823896420008667 0 0.0062313710953654381 0.013774029567844829 0 0.0062951482829162343 0.013823896420008667 0 0.0062963715460662255 0.013739570498498463 0 0.0062313710953654381 0.013774029567844829 0 0.0062963715460662255 0.013739570498498463 0 0.0062266149723974352 0.013630734012407901 0 0.0062963715460662255 0.013739570498498463 0 0.0063081900685951322 0.013790869146374334 0 0.0063202120547644286 0.013788120478048404 0 0.0062951482829162343 0.013823896420008667 0 0.0062963715460662255 0.013739570498498463 0 0.0063081900685951322 0.013790869146374334 0 0.0063009835113409709 0.013651850567035355 0 0.0063202120547644286 0.013788120478048404 0 0.0063235301094337884 0.013639856880391458 0 0.0062963715460662255 0.013739570498498463 0 0.0063009835113409709 0.013651850567035355 0 0.0063202120547644286 0.013788120478048404 0 0.0062963715460662255 0.013739570498498463 0 0.0063009835113409709 0.013651850567035355 0 0.0062266149723974352 0.013630734012407901 0 0.0063009835113409709 0.013651850567035355 0 0.0062266149723974352 0.013630734012407901 0 0.0062981071353181697 0.013448990311652389 0 0.0062266149723974352 0.013630734012407901 0 0.00605232155887376 0.013513851438147236 0 0.0060954910901944246 0.013715093652726176 0 0.0062266149723974352 0.013630734012407901 0 0.00605232155887376 0.013513851438147236 0 0.0061781919802137075 0.013416977881770899 0 0.0062313710953654381 0.013774029567844829 0 0.0062266149723974352 0.013630734012407901 0 0.0060954910901944246 0.013715093652726176 0 0.0053916920371207345 0.018506678959481753 0 0.0013977621270694007 0.017189708251216091 0 0.0059904129837341918 0.014615882281046433 0 -0.00089184857263489284 0.023257910850366832 0 -0.0013825877725102608 0.022355468332337571 0 0.0053916920371207345 0.018506678959481753 0 0.0013977621270694007 0.017189708251216091 0 0.00090432642417776052 0.019593716455630916 0 -0.0017075458124004139 0.020832164152992785 0 0.0013977621270694007 0.017189708251216091 0 0.00090432642417776052 0.019593716455630916 0 0.0063081900685951322 0.013790869146374334 0 0.0062975172820218476 0.013794917702442911 0 0.0063202120547644286 0.013788120478048404 0 0.0063202120547644286 0.013788120478048404 0 0.0062921570564003033 0.013751424334158956 0 0.0063235301094337884 0.013639856880391458 0 0.0063202120547644286 0.013788120478048404 0 0.0062250487608551085 0.013989675265503701 0 0.0062921570564003033 0.013751424334158956 0 0.0062250487608551085 0.013989675265503701 0 0.0062175575627985407 0.013963564564646617 0 0.0062921570564003033 0.013751424334158956 0 0.0062975172820218476 0.013794917702442911 0 0.0063202120547644286 0.013788120478048404 0 0.0062250487608551085 0.013989675265503701 0 0.0062250487608551085 0.013989675265503701 0 0.0062175575627985407 0.013963564564646617 0 0.0059904129837341918 0.014615882281046433 0 0.0062975172820218476 0.013794917702442911 0 0.0062250487608551085 0.013989675265503701 0 0.0059904129837341918 0.014615882281046433 0 0.0062175575627985407 0.013963564564646617 0 0.0059904129837341918 0.014615882281046433 0 0.0063843540858453604 0.013846493736435891 0 0.0043309119020457374 0.0157328541866756 0 0.0051914796712260259 0.015320876317180139 0 0.0062175575627985407 0.013963564564646617 0 0.0063482025984636908 0.013576099443830562 0 0.0063843540858453604 0.013846493736435891 0 0.0062175575627985407 0.013963564564646617 0 0.0062921570564003033 0.013751424334158956 0 0.0063482025984636908 0.013576099443830562 0 0.0062921570564003033 0.013751424334158956 0 0.0063860814471898737 0.013381328357518948 0 0.0063482025984636908 0.013576099443830562 0 0.0062921570564003033 0.013751424334158956 0 0.0063860814471898737 0.013381328357518948 0 0.0063492715449158781 0.013452309768892935 0 0.0062921570564003033 0.013751424334158956 0 0.0063235301094337884 0.013639856880391458 0 0.0063492715449158781 0.013452309768892935 0 0.0063860814471898737 0.013381328357518948 0 0.0063482025984636908 0.013576099443830562 0 0.0064474639803935516 0.013249259277426248 0 0.0063860814471898737 0.013381328357518948 0 0.0064474639803935516 0.013249259277426248 0 0.0064668795820215083 0.013095400664942278 0 0.0063482025984636908 0.013576099443830562 0 0.0063843540858453604 0.013846493736435891 0 0.006486199358716623 0.013417662267916693 0 0.0063482025984636908 0.013576099443830562 0 0.0064474639803935516 0.013249259277426248 0 0.006486199358716623 0.013417662267916693 0 0.0061987147377134313 0.013189704736203373 0 0.0062981071353181697 0.013448990311652389 0 0.0063319127678327456 0.013179895229953968 0 0.0061987147377134313 0.013189704736203373 0 0.0061781919802137075 0.013416977881770899 0 0.0062981071353181697 0.013448990311652389 0 0.006014453967019758 0.013298234063252225 0 0.0061987147377134313 0.013189704736203373 0 0.0061781919802137075 0.013416977881770899 0 0.006014453967019758 0.013298234063252225 0 0.00605232155887376 0.013513851438147236 0 0.0061781919802137075 0.013416977881770899 0 0.0062266149723974352 0.013630734012407901 0 0.0061781919802137075 0.013416977881770899 0 0.0062981071353181697 0.013448990311652389 0 0.0063009835113409709 0.013651850567035355 0 0.0062981071353181697 0.013448990311652389 0 0.0063235301094337884 0.013639856880391458 0 0.0062981071353181697 0.013448990311652389 0 0.0063235301094337884 0.013639856880391458 0 0.0063492715449158781 0.013452309768892935 0 0.0062981071353181697 0.013448990311652389 0 0.0063492715449158781 0.013452309768892935 0 0.0063319127678327456 0.013179895229953968 0 0.0063492715449158781 0.013452309768892935 0 0.006402842706319847 0.013210995693718563 0 0.0063319127678327456 0.013179895229953968 0 0.0063860814471898737 0.013381328357518948 0 0.0063492715449158781 0.013452309768892935 0 0.006402842706319847 0.013210995693718563 0 0.0063860814471898737 0.013381328357518948 0 0.006402842706319847 0.013210995693718563 0 0.0064668795820215083 0.013095400664942278 0 0.006402842706319847 0.013210995693718563 0 0.0064561833832819911 0.012962521501695154 0 0.0064668795820215083 0.013095400664942278 0 0.006402842706319847 0.013210995693718563 0 0.0063319127678327456 0.013179895229953968 0 0.0064561833832819911 0.012962521501695154 0 0.0063319127678327456 0.013179895229953968 0 0.0062827074452035834 0.012861583508609579 0 0.0064561833832819911 0.012962521501695154 0 0.0061987147377134313 0.013189704736203373 0 0.0063319127678327456 0.013179895229953968 0 0.0062827074452035834 0.012861583508609579 0 0.0060395321583331966 0.013027917671632871 0 0.0061987147377134313 0.013189704736203373 0 0.0062827074452035834 0.012861583508609579 0 0.0062827074452035834 0.012861583508609579 0 0.0065309420164807782 0.012690656622927902 0 0.0063547552994604583 0.012590641670375852 0 0.0062827074452035834 0.012861583508609579 0 0.0065309420164807782 0.012690656622927902 0 0.0064561833832819911 0.012962521501695154 0 0.0065309420164807782 0.012690656622927902 0 0.0064922638717957587 0.012344262649364206 0 0.0063547552994604583 0.012590641670375852 0 0.0064561833832819911 0.012962521501695154 0 0.0065555908533230052 0.012825602336128365 0 0.0064668795820215083 0.013095400664942278 0 0.0065309420164807782 0.012690656622927902 0 0.0064561833832819911 0.012962521501695154 0 0.0065555908533230052 0.012825602336128365 0 0.0065555908533230052 0.012825602336128365 0 0.0067163089647377079 0.012495529583076662 0 0.0066017721231952202 0.01289766755489649 0 0.0067163089647377079 0.012495529583076662 0 0.0068670385215301903 0.012810028653294432 0 0.0066017721231952202 0.01289766755489649 0 0.0065555908533230052 0.012825602336128365 0 0.00650902450198345 0.013067380622365159 0 0.0066017721231952202 0.01289766755489649 0 0.0067163089647377079 0.012495529583076662 0 0.0069307274197901647 0.01220504113572372 0 0.0068670385215301903 0.012810028653294432 0 0.0067163089647377079 0.012495529583076662 0 0.0069307274197901647 0.01220504113572372 0 0.0064922638717957587 0.012344262649364206 0 0.0065309420164807782 0.012690656622927902 0 0.0067163089647377079 0.012495529583076662 0 0.0064922638717957587 0.012344262649364206 0 0.0065309420164807782 0.012690656622927902 0 0.0065555908533230052 0.012825602336128365 0 0.0067163089647377079 0.012495529583076662 0 0.0064474639803935516 0.013249259277426248 0 0.00650902450198345 0.013067380622365159 0 0.0064859192684487985 0.013221243343263101 0 0.0064474639803935516 0.013249259277426248 0 0.0064859192684487985 0.013221243343263101 0 0.006486199358716623 0.013417662267916693 0 0.0065555908533230052 0.012825602336128365 0 0.0064668795820215083 0.013095400664942278 0 0.00650902450198345 0.013067380622365159 0 0.0064474639803935516 0.013249259277426248 0 0.0064668795820215083 0.013095400664942278 0 0.00650902450198345 0.013067380622365159 0 0.00650902450198345 0.013067380622365159 0 0.0065049920368330707 0.013235292764953653 0 0.0066017721231952202 0.01289766755489649 0 0.00650902450198345 0.013067380622365159 0 0.0064859192684487985 0.013221243343263101 0 0.0065049920368330707 0.013235292764953653 0 0.0065049920368330707 0.013235292764953653 0 0.0066226486154913611 0.013376197772000381 0 0.0064862234602535958 0.013491608140932351 0 0.0065049920368330707 0.013235292764953653 0 0.0064862234602535958 0.013491608140932351 0 0.0063993693548269146 0.013473280038598108 0 0.0065049920368330707 0.013235292764953653 0 0.0066226486154913611 0.013376197772000381 0 0.0066017721231952202 0.01289766755489649 0 0.0063580261343853467 0.013745825851927658 0 0.0065249961004279749 0.013453376759941842 0 0.0062308105802543756 0.013594927614459143 0 0.005560001196685896 0.014614393700109234 0 0.0066300800162002738 0.01429583402858744 0 0.0062308105802543756 0.013594927614459143 0 0.0068456797721486561 0.013567599208469186 0 0.0066300800162002738 0.01429583402858744 0 0.0066226486154913611 0.013376197772000381 0 0.0064862234602535958 0.013491608140932351 0 0.0065213393342060284 0.013725210350066802 0 0.0063580261343853467 0.013745825851927658 0 0.0059280297552310006 0.014467439718262452 0 0.0068670385215301903 0.012810028653294432 0 0.0068456797721486561 0.013567599208469186 0 0.0074428776254570851 0.013275438135668741 0 0.00790373335739155 0.011949984494036982 0 0.0079852734201401668 0.011785521273511724 0 0.0069307274197901647 0.01220504113572372 0 0.0068670385215301903 0.012810028653294432 0 0.0074428776254570851 0.013275438135668741 0 0.0068670385215301903 0.012810028653294432 0 0.0066017721231952202 0.01289766755489649 0 0.0068456797721486561 0.013567599208469186 0 0.0062308105802543756 0.013594927614459143 0 0.0066017721231952202 0.01289766755489649 0 0.0068456797721486561 0.013567599208469186 0 0.0068456797721486561 0.013567599208469186 0 0.0071011370343862729 0.014487712958727838 0 0.0076065422605192624 0.013970622410462487 0 0.0068456797721486561 0.013567599208469186 0 0.0074428776254570851 0.013275438135668741 0 0.0076065422605192624 0.013970622410462487 0 0.0079852734201401668 0.011785521273511724 0 0.0082175650437973785 0.011235690096004424 0 0.008171196162890873 0.0086153794564487723 0 0.0083125526936350183 0.0066148934000027637 0 0.01059100154368121 0.0073075989879134206 0 0.0073750352139556382 0.010655376358293991 0 0.0082175650437973785 0.011235690096004424 0 0.0069271682058391062 0.010974062710055178 0 0.0059057142931357798 0.010727909363930305 0 0.0069066223653449898 0.010284892857309135 0 0.008171196162890873 0.0086153794564487723 0 0.0065656286186578164 0.0070436568899889269 0 0.0083125526936350183 0.0066148934000027637 0 0.0059057142931357798 0.010727909363930305 0 0.0057800367054120635 0.011102019478745988 0 0.0053964751270184274 0.010158383534586224 0 0.0059057142931357798 0.010727909363930305 0 0.0057800367054120635 0.011102019478745988 0 0.0061992854131892525 0.011407225256841126 0 0.0069271682058391062 0.010974062710055178 0 0.0059057142931357798 0.010727909363930305 0 0.0061992854131892525 0.011407225256841126 0 0.0069307274197901647 0.01220504113572372 0 0.0069271682058391062 0.010974062710055178 0 0.0061992854131892525 0.011407225256841126 0 0.0069307274197901647 0.01220504113572372 0 0.0061992854131892525 0.011407225256841126 0 0.0060887922432141892 0.011914519570845989 0 0.0069307274197901647 0.01220504113572372 0 0.0064922638717957587 0.012344262649364206 0 0.0060887922432141892 0.011914519570845989 0 0.0057800367054120635 0.011102019478745988 0 0.0061992854131892525 0.011407225256841126 0 0.0060887922432141892 0.011914519570845989 0 0.0057800367054120635 0.011102019478745988 0 0.0060887922432141892 0.011914519570845989 0 0.0054206802824441061 0.011774519079320074 0 0.0060887922432141892 0.011914519570845989 0 0.0057514966667687132 0.012199742293301593 0 0.0060999978104349711 0.012510621478939003 0 0.0060887922432141892 0.011914519570845989 0 0.0057514966667687132 0.012199742293301593 0 0.0054206802824441061 0.011774519079320074 0 0.0056527735767147487 0.012621338818761867 0 0.0057514966667687132 0.012199742293301593 0 0.005095920389526349 0.012232721110168022 0 0.0056527735767147487 0.012621338818761867 0 0.0057514966667687132 0.012199742293301593 0 0.0060999978104349711 0.012510621478939003 0 0.0064922638717957587 0.012344262649364206 0 0.0060887922432141892 0.011914519570845989 0 0.0060999978104349711 0.012510621478939003 0 0.0062827074452035834 0.012861583508609579 0 0.0060999978104349711 0.012510621478939003 0 0.0063547552994604583 0.012590641670375852 0 0.0064922638717957587 0.012344262649364206 0 0.0060999978104349711 0.012510621478939003 0 0.0063547552994604583 0.012590641670375852 0 0.0045173504768722022 0.012358957535670789 0 0.0044949732371371712 0.011600840234086031 0 0.005095920389526349 0.012232721110168022 0 0.0045173504768722022 0.012358957535670789 0 0.0044949732371371712 0.011600840234086031 0 0.0037336697891966848 0.01206913600265183 0 0.0044949732371371712 0.011600840234086031 0 0.005095920389526349 0.012232721110168022 0 0.0054206802824441061 0.011774519079320074 0 0.0057514966667687132 0.012199742293301593 0 0.005095920389526349 0.012232721110168022 0 0.0054206802824441061 0.011774519079320074 0 0.0044949732371371712 0.011600840234086031 0 0.0054206802824441061 0.011774519079320074 0 0.0053964751270184274 0.010158383534586224 0 0.0057800367054120635 0.011102019478745988 0 0.0054206802824441061 0.011774519079320074 0 0.0053964751270184274 0.010158383534586224 0 0.0044949732371371712 0.011600840234086031 0 0.0053964751270184274 0.010158383534586224 0 0.0034407253340904584 0.010239984098000124 0 0.0053964751270184274 0.010158383534586224 0 0.003728937635535284 0.0085204881926353639 0 0.0034407253340904584 0.010239984098000124 0 0.0073750352139556382 0.010655376358293991 0 0.006601931720580918 0.010741196682284506 0 0.0053964751270184274 0.010158383534586224 0 0.0046936360519272751 0.0069016795264539412 0 0.0065656286186578164 0.0070436568899889269 0 0.008171196162890873 0.0086153794564487723 0 0.0053964751270184274 0.010158383534586224 0 0.0065656286186578164 0.0070436568899889269 0 0.0053964751270184274 0.010158383534586224 0 0.003728937635535284 0.0085204881926353639 0 0.0046936360519272751 0.0069016795264539412 0 0.003728937635535284 0.0085204881926353639 0 0.0018603884645436556 0.0086006714507243977 0 0.0026838475725284713 0.0051872614176961792 0 0.003728937635535284 0.0085204881926353639 0 0.0026838475725284713 0.0051872614176961792 0 0.0046936360519272751 0.0069016795264539412 0 0.003728937635535284 0.0085204881926353639 0 0.0034407253340904584 0.010239984098000124 0 0.0018603884645436556 0.0086006714507243977 0 0.0038743323242366864 0.0035718244163684891 0 0.0049606918617180074 0.0025769920677161779 0 0.0034407253340904584 0.010239984098000124 0 0.0018603884645436556 0.0086006714507243977 0 0.001891751433606001 0.010595255380365431 0 0.0038743323242366864 0.0035718244163684891 0 0.0035338708079538346 0.0040449837924113391 0 0.0030356809762453886 -0.00064813672617999103 0 0.004706580725535931 0.0030930450161217103 0 0.0026838475725284713 0.0051872614176961792 0 0.0030356809762453886 -0.00064813672617999103 0 0.009451413672976923 0.0019136251837574446 0 0.004706580725535931 0.0030930450161217103 0 0.0030356809762453886 -0.00064813672617999103 0 0.009451413672976923 0.0019136251837574446 0 0.0097051501485105676 -0.005227474237435731 0 0.018845536313596169 -0.011897448154084025 0 0.018136996069486846 -0.010546351094343164 0 0.009451413672976923 0.0019136251837574446 0 0.0097051501485105676 -0.005227474237435731 0 0.014322808797628525 -0.0037019789342090425 0 0.0030356809762453886 -0.00064813672617999103 0 0.0097051501485105676 -0.005227474237435731 0 0.0049251763984415825 -0.0063261197545896207 0 0.0049606918617180074 0.0025769920677161779 0 0.0067320937239744591 0.0019798323938332459 0 0.0097051501485105676 -0.005227474237435731 0 0.0049251763984415825 -0.0063261197545896207 0 0.0069952080844787679 -0.011335147574781343 0 0.0097051501485105676 -0.005227474237435731 0 0.01181049670232185 -0.0094715438629732682 0 0.012704757914143914 -0.0065270952563998815 0 0.0097051501485105676 -0.005227474237435731 0 0.01181049670232185 -0.0094715438629732682 0 0.0069952080844787679 -0.011335147574781343 0 0.01181049670232185 -0.0094715438629732682 0 0.0069952080844787679 -0.011335147574781343 0 0.010381190846885605 -0.01257882549166503 0 0.001891751433606001 0.010595255380365431 0 0.0019167230047195888 0.011783814337301388 0 0.0028327698208969335 0.012002670317615814 0 0.001891751433606001 0.010595255380365431 0 0.0028327698208969335 0.012002670317615814 0 0.0032838189481991182 0.011332423830425558 0 0.0044949732371371712 0.011600840234086031 0 0.0032838189481991182 0.011332423830425558 0 0.0037336697891966848 0.01206913600265183 0 0.0028327698208969335 0.012002670317615814 0 0.0032838189481991182 0.011332423830425558 0 0.0037336697891966848 0.01206913600265183 0 0.0044949732371371712 0.011600840234086031 0 0.0034407253340904584 0.010239984098000124 0 0.0032838189481991182 0.011332423830425558 0 0.0034407253340904584 0.010239984098000124 0 0.001891751433606001 0.010595255380365431 0 0.0032838189481991182 0.011332423830425558 0 0.0069628288576502597 -0.014132421693776256 0 0.0082526829924327583 -0.015553289429251315 0 0.0095413625232755733 -0.013309745800549196 0 0.0082526829924327583 -0.015553289429251315 0 0.010115876771780108 -0.016016699054884214 0 0.0095413625232755733 -0.013309745800549196 0 0.0119491927654207 -0.014358196458509682 0 0.010115876771780108 -0.016016699054884214 0 0.013092866678057874 -0.017271056651205326 0 0.0119491927654207 -0.014358196458509682 0 0.010115876771780108 -0.016016699054884214 0 0.0095413625232755733 -0.013309745800549196 0 0.010115876771780108 -0.016016699054884214 0 0.010633697679483503 -0.018569886517919586 0 0.013092866678057874 -0.017271056651205326 0 0.010115876771780108 -0.016016699054884214 0 0.010633697679483503 -0.018569886517919586 0 0.0082865815198930239 -0.017856467810755162 0 0.0082526829924327583 -0.015553289429251315 0 0.010115876771780108 -0.016016699054884214 0 0.0082865815198930239 -0.017856467810755162 0 0.010633697679483503 -0.018569886517919586 0 0.0082865815198930239 -0.017856467810755162 0 0.0082649584080869941 -0.021318728007824445 0 0.0082649584080869941 -0.021318728007824445 0 0.01172007423639768 -0.021182757063478958 0 0.0097422702532442857 -0.025653253850508491 0 0.010633697679483503 -0.018569886517919586 0 0.01172007423639768 -0.021182757063478958 0 0.013092866678057874 -0.017271056651205326 0 0.010633697679483503 -0.018569886517919586 0 0.0082649584080869941 -0.021318728007824445 0 0.01172007423639768 -0.021182757063478958 0 0.01172007423639768 -0.021182757063478958 0 0.01712833655155924 -0.021546487255935148 0 0.013756465470414746 -0.024926674424178705 0 0.01172007423639768 -0.021182757063478958 0 0.01712833655155924 -0.021546487255935148 0 0.013092866678057874 -0.017271056651205326 0 0.01712833655155924 -0.021546487255935148 0 0.013092866678057874 -0.017271056651205326 0 0.017091547726970684 -0.015925608206237771 0 0.0119491927654207 -0.014358196458509682 0 0.013092866678057874 -0.017271056651205326 0 0.014691427842921738 -0.013542493398153032 0 0.013092866678057874 -0.017271056651205326 0 0.017091547726970684 -0.015925608206237771 0 0.014691427842921738 -0.013542493398153032 0 0.01712833655155924 -0.021546487255935148 0 0.017091547726970684 -0.015925608206237771 0 0.023769861185030799 -0.01711046686980186 0 0.017091547726970684 -0.015925608206237771 0 0.023769861185030799 -0.01711046686980186 0 0.016975365855801852 -0.0097595978849061814 0 0.01712833655155924 -0.021546487255935148 0 0.023769861185030799 -0.01711046686980186 0 0.023109878208601387 -0.025108468672171622 0 0.029863185402994593 -0.023683353511041002 0 0.023769861185030799 -0.01711046686980186 0 0.023109878208601387 -0.025108468672171622 0 0.0097051501485105676 -0.005227474237435731 0 0.014322808797628525 -0.0037019789342090425 0 0.012704757914143914 -0.0065270952563998815 0 0.014322808797628525 -0.0037019789342090425 0 0.012704757914143914 -0.0065270952563998815 0 0.014770616112860534 -0.0084127113271771914 0 0.01181049670232185 -0.0094715438629732682 0 0.012704757914143914 -0.0065270952563998815 0 0.014770616112860534 -0.0084127113271771914 0 0.01181049670232185 -0.0094715438629732682 0 0.014580747699564208 -0.011431498621787951 0 0.010381190846885605 -0.01257882549166503 0 0.01181049670232185 -0.0094715438629732682 0 0.014770616112860534 -0.0084127113271771914 0 0.014580747699564208 -0.011431498621787951 0 0.014580747699564208 -0.011431498621787951 0 0.016778202886011132 -0.0094008998799785908 0 0.017401627939014213 -0.01290713060042231 0 0.014770616112860534 -0.0084127113271771914 0 0.014580747699564208 -0.011431498621787951 0 0.016778202886011132 -0.0094008998799785908 0 0.011991614770096373 -0.0061295455471177861 0 0.011046151427138147 -0.0039267161918916929 0 0.016778202886011132 -0.0094008998799785908 0 0.015763179312782191 -0.0086696366048724365 0 0.017023970224667794 -0.0050226586445249978 0 0.018136996069486846 -0.010546351094343164 0 0.017433637526778425 -0.0098343322215770183 0 0.014322808797628525 -0.0037019789342090425 0 0.014770616112860534 -0.0084127113271771914 0 0.016975365855801852 -0.0097595978849061814 0 0.014770616112860534 -0.0084127113271771914 0 0.016778202886011132 -0.0094008998799785908 0 0.016975365855801852 -0.0097595978849061814 0 0.016778202886011132 -0.0094008998799785908 0 0.016975365855801852 -0.0097595978849061814 0 0.015763179312782191 -0.0086696366048724365 0 0.017091547726970684 -0.015925608206237771 0 0.014691427842921738 -0.013542493398153032 0 0.016975365855801852 -0.0097595978849061814 0 0.014691427842921738 -0.013542493398153032 0 0.016975365855801852 -0.0097595978849061814 0 0.014680135383387242 -0.010567754304656039 0 0.014691427842921738 -0.013542493398153032 0 0.014680135383387242 -0.010567754304656039 0 0.012362979025334866 -0.011746912610106748 0 0.0119491927654207 -0.014358196458509682 0 0.014691427842921738 -0.013542493398153032 0 0.012362979025334866 -0.011746912610106748 0 0.014680135383387242 -0.010567754304656039 0 0.013575343186318633 -0.0081352847366228109 0 0.012362979025334866 -0.011746912610106748 0 0.016975365855801852 -0.0097595978849061814 0 0.014680135383387242 -0.010567754304656039 0 0.015763179312782191 -0.0086696366048724365 0 0.014680135383387242 -0.010567754304656039 0 0.015763179312782191 -0.0086696366048724365 0 0.013575343186318633 -0.0081352847366228109 0 0.011497718578779759 -0.0045307014421874124 0 0.011046151427138147 -0.0039267161918916929 0 0.015763179312782191 -0.0086696366048724365 0 0.013575343186318633 -0.0081352847366228109 0 0.017023970224667794 -0.0050226586445249978 0 0.013575343186318633 -0.0081352847366228109 0 0.0098509854259718234 -0.006930103932632309 0 0.017023970224667794 -0.0050226586445249978 0 0.013575343186318633 -0.0081352847366228109 0 0.0098509854259718234 -0.006930103932632309 0 0.010098173615443512 -0.010001044108744209 0 0.0067774687681414637 -0.0097717940707964367 0 0.0098509854259718234 -0.006930103932632309 0 0.010098173615443512 -0.010001044108744209 0 0.0076720024346877231 -0.011913659458876007 0 0.0067774687681414637 -0.0097717940707964367 0 0.010098173615443512 -0.010001044108744209 0 0.013575343186318633 -0.0081352847366228109 0 0.010098173615443512 -0.010001044108744209 0 0.012362979025334866 -0.011746912610106748 0 0.0119491927654207 -0.014358196458509682 0 0.012362979025334866 -0.011746912610106748 0 0.0095413625232755733 -0.013309745800549196 0 0.010098173615443512 -0.010001044108744209 0 0.012362979025334866 -0.011746912610106748 0 0.0095413625232755733 -0.013309745800549196 0 0.0076720024346877231 -0.011913659458876007 0 0.0069628288576502597 -0.014132421693776256 0 0.0095413625232755733 -0.013309745800549196 0 0.0076720024346877231 -0.011913659458876007 0 0.010098173615443512 -0.010001044108744209 0 0.0095413625232755733 -0.013309745800549196 0 0.013061868046098811 -0.025162917308282198 0 0.014900916307357497 -0.021890381452067634 0 0.012806491406055026 -0.020839097660504926 0 0.0089077222945397171 -0.022717393112712075 0 0.013061868046098811 -0.025162917308282198 0 0.012806491406055026 -0.020839097660504926 0 0.0042834222417992675 -0.0052046389243180962 0 0.0098509854259718234 -0.006930103932632309 0 0.010404865437031509 -0.0018038549721540878 0 0.0098509854259718234 -0.006930103932632309 0 0.010404865437031509 -0.0018038549721540878 0 0.014283947078179482 -0.0018437417642669033 0 0.0098509854259718234 -0.006930103932632309 0 0.014283947078179482 -0.0018437417642669033 0 0.017095343359476829 -0.0045014277609566724 0 0.014283947078179482 -0.0018437417642669033 0 0.016233899523576192 0.0014744248577398876 0 0.017095343359476829 -0.0045014277609566724 0 0.010404865437031509 -0.0018038549721540878 0 0.014283947078179482 -0.0018437417642669033 0 0.016233899523576192 0.0014744248577398876 0 0.010106131447650735 -0.011938544776603683 0 0.01106423041988038 -0.0068694614385161256 0 0.013061868046098811 -0.025162917308282198 0 0.017036418589641316 -0.02284258388264955 0 0.014900916307357497 -0.021890381452067634 0 0.009991942228729565 0.0044219205391734196 0 0.01028928500676623 0.0044254781395291244 0 0.010044841270755479 0.003847126584102432 0 0.009991942228729565 0.0044219205391734196 0 0.01010482371910874 0.0044748552672263736 0 0.01028928500676623 0.0044254781395291244 0 0.01106423041988038 -0.0068694614385161256 0 0.0111843132251217 -0.0066708162235974526 0 0.01106423041988038 -0.0068694614385161256 0 0.011046151427138147 -0.0039267161918916929 0 0.014580747699564208 -0.011431498621787951 0 0.017401627939014213 -0.01290713060042231 0 0.01326821025845685 -0.014398692279350898 0 0.011046151427138147 -0.0039267161918916929 0 0.01040184785781976 -0.00093211335290001632 0 0.01028928500676623 0.0044254781395291244 0 0.010044841270755479 0.003847126584102432 0 0.010580367737978122 0.004028780896294739 0 0.014580747699564208 -0.011431498621787951 0 0.01326821025845685 -0.014398692279350898 0 0.010381190846885605 -0.01257882549166503 0 0.01028928500676623 0.0044254781395291244 0 0.010580367737978122 0.004028780896294739 0 0.010713870417118522 0.0044218212006843088 0 0.01028928500676623 0.0044254781395291244 0 0.010713870417118522 0.0044218212006843088 0 0.010523658338584386 0.004674068787835931 0 0.010713870417118522 0.0044218212006843088 0 0.010523658338584386 0.004674068787835931 0 0.01090050544061907 0.0047930700633327852 0 0.01028928500676623 0.0044254781395291244 0 0.010523658338584386 0.004674068787835931 0 0.010293618679483156 0.0047752572597272074 0 0.010523658338584386 0.004674068787835931 0 0.010464226052202258 0.0049558196110914381 0 0.010293618679483156 0.0047752572597272074 0 0.010523658338584386 0.004674068787835931 0 0.010464226052202258 0.0049558196110914381 0 0.01090050544061907 0.0047930700633327852 0 0.0090607337369466908 0.0065381487985716963 0 0.0093872200131738352 0.0063821966711563784 0 0.010464226052202258 0.0049558196110914381 0 0.010420630800829785 0.0050664394819823844 0 0.010390746240074061 0.0057240349573822935 0 0.010464226052202258 0.0049558196110914381 0 0.01090050544061907 0.0047930700633327852 0 0.010390746240074061 0.0057240349573822935 0 0.010464226052202258 0.0049558196110914381 0 0.010228101839341709 0.0047441037856003985 0 0.010420630800829785 0.0050664394819823844 0 0.010420630800829785 0.0050664394819823844 0 0.010120776911925667 0.0044259699343782008 0 0.010728705888562196 0.0053557858022288416 0 0.010056171169330585 0.0035101281201293986 0 0.0098468598424348679 0.0029010854658101993 0 0.010120776911925667 0.0044259699343782008 0 0.010699343449606989 0.0026845907769286292 0 0.0088531665409001797 0.0014828324047042652 0 0.010228101839341709 0.0047441037856003985 0 0.010420630800829785 0.0050664394819823844 0 0.010120776911925667 0.0044259699343782008 0 0.010228101839341709 0.0047441037856003985 0 0.010239300055120337 0.005067273755814606 0 0.010120776911925667 0.0044259699343782008 0 0.010228101839341709 0.0047441037856003985 0 0.010293618679483156 0.0047752572597272074 0 0.010239300055120337 0.005067273755814606 0 0.010464226052202258 0.0049558196110914381 0 0.010228101839341709 0.0047441037856003985 0 0.010293618679483156 0.0047752572597272074 0 0.01010482371910874 0.0044748552672263736 0 0.01028928500676623 0.0044254781395291244 0 0.0099727942182497985 0.0046627378766966859 0 0.010025770787304288 0.0044233629290280586 0 0.01010482371910874 0.0044748552672263736 0 0.0099727942182497985 0.0046627378766966859 0 0.0097560288341739642 -0.0013020832085392832 0 0.01167889108561445 -0.0044739224279558053 0 0.01028928500676623 0.0044254781395291244 0 0.010293618679483156 0.0047752572597272074 0 0.010239300055120337 0.005067273755814606 0 0.014900916307357497 -0.021890381452067634 0 0.016678898098394287 -0.020343818665786308 0 0.012806491406055026 -0.020839097660504926 0 0.01106423041988038 -0.0068694614385161256 0 0.01167889108561445 -0.0044739224279558053 0 0.017036418589641316 -0.02284258388264955 0 0.014900916307357497 -0.021890381452067634 0 0.016678898098394287 -0.020343818665786308 0 0.01167889108561445 -0.0044739224279558053 0 0.015291774002068395 -0.010990640354146318 0 0.010406946731675016 0.0046556843632641551 0 0.010699343449606989 0.0026845907769286292 0 0.011812390613903167 0.0026040035556812503 0 0.010406946731675016 0.0046556843632641551 0 0.01231191585528487 0.0027415230569755927 0 0.011812390613903167 0.0026040035556812503 0 0.01167889108561445 -0.0044739224279558053 0 0.011139086061504246 -0.00067777398010020814 0 0.010239300055120337 0.005067273755814606 0 0.010120776911925667 0.0044259699343782008 0 0.010699343449606989 0.0026845907769286292 0 0.010335804373886402 -0.017817631459290648 0 0.013282523249942994 -0.016950136479474635 0 0.012806491406055026 -0.020839097660504926 0 0.015097415523775045 -0.019916084868371164 0 0.015291774002068395 -0.010990640354146318 0 0.015291774002068395 -0.010990640354146318 0 0.015272402796638039 -0.01083714801527301 0 0.016678898098394287 -0.020343818665786308 0 0.013282523249942994 -0.016950136479474635 0 0.012806491406055026 -0.020839097660504926 0 0.0031755070344940948 0.013275764802269446 0 0.003536493220722115 0.012979826463518959 0 0.0031045649013683439 0.012748734995589388 0 0.0031755070344940948 0.013275764802269446 0 0.0031045649013683439 0.012748734995589388 0 0.0025393994402544682 0.012546169729049693 0 0.0031755070344940948 0.013275764802269446 0 0.0050086603380557829 0.012772422840077558 0 0.0032900364591783153 0.012433343315339209 0 0.0031755070344940948 0.013275764802269446 0 0.003536493220722115 0.012979826463518959 0 0.0033785065078019848 0.012950402738519615 0 0.003536493220722115 0.012979826463518959 0 0.0037943239692808171 0.013120985133154102 0 0.0033785065078019848 0.012950402738519615 0 0.0040896026873420933 0.012906461526800306 0 0.003536493220722115 0.012979826463518959 0 0.0037943239692808171 0.013120985133154102 0 0.0040896026873420933 0.012906461526800306 0 0.003536493220722115 0.012979826463518959 0 0.0035013489469530729 0.012603876530178904 0 0.003536493220722115 0.012979826463518959 0 0.0035013489469530729 0.012603876530178904 0 0.0031045649013683439 0.012748734995589388 0 0.0028327698208969335 0.012002670317615814 0 0.0037336697891966848 0.01206913600265183 0 0.0035013489469530729 0.012603876530178904 0 0.0040896026873420933 0.012906461526800306 0 0.0035013489469530729 0.012603876530178904 0 0.0040167220983233012 0.012545999293250643 0 0.0037336697891966848 0.01206913600265183 0 0.0035013489469530729 0.012603876530178904 0 0.0040167220983233012 0.012545999293250643 0 0.0028327698208969335 0.012002670317615814 0 0.0035013489469530729 0.012603876530178904 0 0.0031045649013683439 0.012748734995589388 0 0.0019167230047195888 0.011783814337301388 0 0.0028327698208969335 0.012002670317615814 0 0.0025393994402544682 0.012546169729049693 0 0.0028327698208969335 0.012002670317615814 0 0.0031045649013683439 0.012748734995589388 0 0.0025393994402544682 0.012546169729049693 0 0.0067320937239744591 0.0019798323938332459 0 0.0090201943816441352 0.0038261935681144867 0 0.0019167230047195888 0.011783814337301388 0 0.0025393994402544682 0.012546169729049693 0 0.0015759831641414285 0.012911360104289343 0 0.01040184785781976 -0.00093211335290001632 0 0.0090201943816441352 0.0038261935681144867 0 0.0069952080844787679 -0.011335147574781343 0 0.010381190846885605 -0.01257882549166503 0 0.0089120188132374763 -0.015898532682789086 0 0.01326821025845685 -0.014398692279350898 0 0.010381190846885605 -0.01257882549166503 0 0.0089120188132374763 -0.015898532682789086 0 0.010580367737978122 0.004028780896294739 0 0.010713870417118522 0.0044218212006843088 0 0.011098775608808141 0.0042035216732538841 0 0.0090201943816441352 0.0038261935681144867 0 0.0090607337369466908 0.0065381487985716963 0 0.010713870417118522 0.0044218212006843088 0 0.011098775608808141 0.0042035216732538841 0 0.01090050544061907 0.0047930700633327852 0 0.0068798652423551028 0.0059936047119925166 0 0.0090201943816441352 0.0038261935681144867 0 0.0074824275311166704 0.015130924989444463 0 0.0050086603380557829 0.012772422840077558 0 0.0063996562902540509 0.01192975514274486 0 0.0031755070344940948 0.013275764802269446 0 0.0074824275311166704 0.015130924989444463 0 0.0050086603380557829 0.012772422840077558 0 0.0031755070344940948 0.013275764802269446 0 0.0025393994402544682 0.012546169729049693 0 0.0015759831641414285 0.012911360104289343 0 0.0050086603380557829 0.012772422840077558 0 0.0063996562902540509 0.01192975514274486 0 0.0050299840542834991 0.011338641001008695 0 0.0063996562902540509 0.01192975514274486 0 0.0092815689709160164 0.010705474009375401 0 0.0056889300785841757 0.0092656556166920163 0 0.0063996562902540509 0.01192975514274486 0 0.0050299840542834991 0.011338641001008695 0 0.0056889300785841757 0.0092656556166920163 0 0.0074824275311166704 0.015130924989444463 0 0.0063996562902540509 0.01192975514274486 0 0.0092815689709160164 0.010705474009375401 0 0.0092815689709160164 0.010705474009375401 0 0.0078999468339406784 0.007914507162057648 0 0.0056889300785841757 0.0092656556166920163 0 0.0092815689709160164 0.010705474009375401 0 0.0078999468339406784 0.007914507162057648 0 0.010390746240074061 0.0057240349573822935 0 0.0050299840542834991 0.011338641001008695 0 0.0056889300785841757 0.0092656556166920163 0 0.002996385271396508 0.0083453915531345579 0 0.0078999468339406784 0.007914507162057648 0 0.0056889300785841757 0.0092656556166920163 0 0.0058657694822647367 0.0068501620880438152 0 0.0056889300785841757 0.0092656556166920163 0 0.003735770688103168 0.0083147245672307735 0 0.0058657694822647367 0.0068501620880438152 0 0.0044083583189820771 0.011222745063135591 0 0.0044076866916633577 0.011424775014655834 0 0.0050299840542834991 0.011338641001008695 0 0.002996385271396508 0.0083453915531345579 0 0.0032900364591783153 0.012433343315339209 0 0.0044076866916633577 0.011424775014655834 0 0.0042672498440761751 0.011628092992441183 0 0.0031090515896021209 0.013700518557640486 0 0.0032900364591783153 0.012433343315339209 0 0.0035976382539621289 0.013275206280272116 0 0.0031755070344940948 0.013275764802269446 0 0.0032900364591783153 0.012433343315339209 0 0.0033785065078019848 0.012950402738519615 0 0.0032900364591783153 0.012433343315339209 0 0.0033785065078019848 0.012950402738519615 0 0.0035976382539621289 0.013275206280272116 0 0.0050086603380557829 0.012772422840077558 0 0.0050299840542834991 0.011338641001008695 0 0.0032900364591783153 0.012433343315339209 0 0.0043057451803663232 0.013560360893092874 0 0.0037943239692808171 0.013120985133154102 0 0.0035976382539621289 0.013275206280272116 0 0.0037943239692808171 0.013120985133154102 0 0.0033785065078019848 0.012950402738519615 0 0.0035976382539621289 0.013275206280272116 0 0.0043057451803663232 0.013560360893092874 0 0.0035976382539621289 0.013275206280272116 0 0.0042661722572573954 0.014228317365262307 0 0.0031090515896021209 0.013700518557640486 0 0.0035976382539621289 0.013275206280272116 0 0.0042661722572573954 0.014228317365262307 0 0.0044076866916633577 0.011424775014655834 0 0.0042652347909297788 0.013386505033184221 0 0.0045270638873579913 0.012664609854506129 0 0.004413047158202738 0.012753470807856535 0 0.0044085909647060863 0.012582769510350412 0 0.00464751802321022 0.012834435429822903 0 0.0045270638873579913 0.012664609854506129 0 0.004413047158202738 0.012753470807856535 0 0.0058499170293217408 0.010228906326253531 0 0.0043904840322959385 0.013927864605140325 0 0.0045270638873579913 0.012664609854506129 0 0.0046447310481586958 0.01249318085145582 0 0.0044085909647060863 0.012582769510350412 0 0.0039153466042649342 0.0052296850123579978 0 0.0053268122678844796 0.0030372471217452071 0 0.0039983756562026922 0.0024217649783471098 0 0.0045270638873579913 0.012664609854506129 0 0.004645472545558439 0.012665760467667379 0 0.0046447310481586958 0.01249318085145582 0 0.004991490410098923 0.010015460876272652 0 0.0058499170293217408 0.010228906326253531 0 0.0044076866916633577 0.011424775014655834 0 0.004991490410098923 0.010015460876272652 0 0.003735770688103168 0.0083147245672307735 0 0.0039153466042649342 0.0052296850123579978 0 0.0058657694822647367 0.0068501620880438152 0 0.00464751802321022 0.012834435429822903 0 0.0045270638873579913 0.012664609854506129 0 0.004645472545558439 0.012665760467667379 0 0.0078999468339406784 0.007914507162057648 0 0.0058657694822647367 0.0068501620880438152 0 0.007865436808888954 0.0058263149843999912 0 0.0058657694822647367 0.0068501620880438152 0 0.007865436808888954 0.0058263149843999912 0 0.0061710944584550736 0.0046126125199241873 0 0.007865436808888954 0.0058263149843999912 0 0.0075573720152892964 0.0040285454418998879 0 0.0061710944584550736 0.0046126125199241873 0 0.0039153466042649342 0.0052296850123579978 0 0.0058657694822647367 0.0068501620880438152 0 0.0061710944584550736 0.0046126125199241873 0 0.0078999468339406784 0.007914507162057648 0 0.007865436808888954 0.0058263149843999912 0 0.010390746240074061 0.0057240349573822935 0 0.007865436808888954 0.0058263149843999912 0 0.0090373110470045037 0.0046423055473901109 0 0.010390746240074061 0.0057240349573822935 0 0.007865436808888954 0.0058263149843999912 0 0.0090373110470045037 0.0046423055473901109 0 0.0075573720152892964 0.0040285454418998879 0 0.0090373110470045037 0.0046423055473901109 0 0.0085620342249783515 0.0036561181374432199 0 0.0094220803453275211 0.0035060194609505381 0 0.0090373110470045037 0.0046423055473901109 0 0.0085620342249783515 0.0036561181374432199 0 0.0075573720152892964 0.0040285454418998879 0 0.0085620342249783515 0.0036561181374432199 0 0.0075573720152892964 0.0040285454418998879 0 0.0079514597507552194 0.0025647378739021252 0 0.0085620342249783515 0.0036561181374432199 0 0.008744278063088513 0.0027033251958784223 0 0.0079514597507552194 0.0025647378739021252 0 0.0075573720152892964 0.0040285454418998879 0 0.0068267672200511744 0.0030682888004428814 0 0.0079514597507552194 0.0025647378739021252 0 0.0085620342249783515 0.0036561181374432199 0 0.008744278063088513 0.0027033251958784223 0 0.0094220803453275211 0.0035060194609505381 0 0.008744278063088513 0.0027033251958784223 0 0.009326460465154356 0.0022182722936859153 0 0.0094220803453275211 0.0035060194609505381 0 0.0039153466042649342 0.0052296850123579978 0 0.0061710944584550736 0.0046126125199241873 0 0.0053268122678844796 0.0030372471217452071 0 0.0075573720152892964 0.0040285454418998879 0 0.0061710944584550736 0.0046126125199241873 0 0.0068267672200511744 0.0030682888004428814 0 0.0068267672200511744 0.0030682888004428814 0 0.0053268122678844796 0.0030372471217452071 0 0.0067068206022777507 0.0018843925884074947 0 0.0061710944584550736 0.0046126125199241873 0 0.0068267672200511744 0.0030682888004428814 0 0.0053268122678844796 0.0030372471217452071 0 0.0053268122678844796 0.0030372471217452071 0 0.0067068206022777507 0.0018843925884074947 0 0.006602467773566335 0.0016169470476131635 0 0.0067346582007697161 0.0071841096707923697 0 0.0058499170293217408 0.010228906326253531 0 0.0053268122678844796 0.0030372471217452071 0 0.006602467773566335 0.0016169470476131635 0 0.0039983756562026922 0.0024217649783471098 0 0.0074127563412706831 0.0022057585336551057 0 0.0067068206022777507 0.0018843925884074947 0 0.0081851041977728262 0.0013152761607987348 0 0.0068267672200511744 0.0030682888004428814 0 0.0074127563412706831 0.0022057585336551057 0 0.0067068206022777507 0.0018843925884074947 0 0.0067068206022777507 0.0018843925884074947 0 0.0066121712888473488 0.0016234005649696688 0 0.0081851041977728262 0.0013152761607987348 0 0.0068267672200511744 0.0030682888004428814 0 0.0074127563412706831 0.0022057585336551057 0 0.0079514597507552194 0.0025647378739021252 0 0.0067266280653585859 0.0071542524869242152 0 0.0067346582007697161 0.0071841096707923697 0 0.0076767622741363839 0.0014219583402000108 0 0.0081851041977728262 0.0013152761607987348 0 0.0081632007891011913 0.00048102807208197585 0 0.0067346582007697161 0.0071841096707923697 0 0.0070911932920465527 0.0068253109670065289 0 0.008744278063088513 0.0027033251958784223 0 0.009326460465154356 0.0022182722936859153 0 0.0081851041977728262 0.0013152761607987348 0 0.008744278063088513 0.0027033251958784223 0 0.0079514597507552194 0.0025647378739021252 0 0.0081851041977728262 0.0013152761607987348 0 0.0074127563412706831 0.0022057585336551057 0 0.0079514597507552194 0.0025647378739021252 0 0.0081851041977728262 0.0013152761607987348 0 0.009326460465154356 0.0022182722936859153 0 0.0081851041977728262 0.0013152761607987348 0 0.0093109285556800918 0.00061270558976923232 0 0.0089834347658624657 0.00050200151895378855 0 0.0087662583664237514 2.0037491463802229e-05 0 0.0081632007891011913 0.00048102807208197585 0 0.0093109285556800918 0.00061270558976923232 0 0.0084355902999918055 -0.0005965607896634478 0 0.0081851041977728262 0.0013152761607987348 0 0.0081632007891011913 0.00048102807208197585 0 0.0093109285556800918 0.00061270558976923232 0 0.0067346582007697161 0.0071841096707923697 0 0.0067972287502951418 0.0044806286979151306 0 0.0075483661883353368 0.0080563185033999066 0 0.00675294121456212 0.007056620421930674 0 0.0071398286891770418 0.0069181473278808591 0 0.0076767622741363839 0.0014219583402000108 0 0.0081632007891011913 0.00048102807208197585 0 0.0075107241165236864 -0.00019134109652415809 0 0.009860083629403547 0.0152820776558163 0 0.0067436761646556143 0.018261203772076077 0 0.0054532148420979283 0.015532657652911116 0 0.0067436761646556143 0.018261203772076077 0 0.0095945568135166349 0.01966206604649905 0 0.0053564440483720851 0.020861666253951791 0 0.009860083629403547 0.0152820776558163 0 0.0067436761646556143 0.018261203772076077 0 0.0095945568135166349 0.01966206604649905 0 0.0071136962225405104 0.0099198434211839482 0 0.0058499170293217408 0.010228906326253531 0 0.0075483661883353368 0.0080563185033999066 0 0.00675294121456212 0.007056620421930674 0 0.0067772738202238709 0.0083314535952069384 0 0.013917198661155461 0.0006737409237634861 0 0.012767408791400908 -0.00080927484889003077 0 0.012228709706761825 0.0012519875253990337 0 0.012767408791400908 -0.00080927484889003077 0 0.012228709706761825 0.0012519875253990337 0 0.011175534413991993 0.00069243172980147541 0 0.013917198661155461 0.0006737409237634861 0 0.012396906664621567 0.0027177945550118138 0 0.012228709706761825 0.0012519875253990337 0 0.01490628069791133 -0.0070155194721999341 0 0.015291774002068395 -0.010990640354146318 0 0.011812390613903167 0.0026040035556812503 0 0.012228709706761825 0.0012519875253990337 0 0.011202884218248275 0.0017419268026019606 0 0.012396906664621567 0.0027177945550118138 0 0.011812390613903167 0.0026040035556812503 0 0.012228709706761825 0.0012519875253990337 0 0.012228709706761825 0.0012519875253990337 0 0.011175534413991993 0.00069243172980147541 0 0.011202884218248275 0.0017419268026019606 0 0.010699343449606989 0.0026845907769286292 0 0.011812390613903167 0.0026040035556812503 0 0.011202884218248275 0.0017419268026019606 0 0.010699343449606989 0.0026845907769286292 0 0.011202884218248275 0.0017419268026019606 0 0.010112262546090905 0.0013752736088451854 0 0.011175534413991993 0.00069243172980147541 0 0.011202884218248275 0.0017419268026019606 0 0.010112262546090905 0.0013752736088451854 0 0.011175534413991993 0.00069243172980147541 0 0.010112262546090905 0.0013752736088451854 0 0.0093054096165249844 -8.3011799660119326e-05 0 0.010288665695110841 -0.0074608073706779405 0 0.0097089224225926484 -0.0053161549604420011 0 0.0096643878355584644 -0.00037067939955477008 0 0.0093054096165249844 -8.3011799660119326e-05 0 0.0094086604390845319 -0.00050479654376146571 0 0.012767408791400908 -0.00080927484889003077 0 0.011175534413991993 0.00069243172980147541 0 0.0093054096165249844 -8.3011799660119326e-05 0 0.0093054096165249844 -8.3011799660119326e-05 0 0.0088531665409001797 0.0014828324047042652 0 0.0086286684615819106 -0.00025052313995379345 0 0.0098468598424348679 0.0029010854658101993 0 0.0094237293212711959 0.0016342704417528877 0 0.010112262546090905 0.0013752736088451854 0 0.0093054096165249844 -8.3011799660119326e-05 0 0.0088531665409001797 0.0014828324047042652 0 0.010699343449606989 0.0026845907769286292 0 0.010112262546090905 0.0013752736088451854 0 0.0088531665409001797 0.0014828324047042652 0 0.010420630800829785 0.0050664394819823844 0 0.010728705888562196 0.0053557858022288416 0 0.010390746240074061 0.0057240349573822935 0 0.010728705888562196 0.0053557858022288416 0 0.010390746240074061 0.0057240349573822935 0 0.010163830242180439 0.0045947520332308761 0 0.0090373110470045037 0.0046423055473901109 0 0.010390746240074061 0.0057240349573822935 0 0.010163830242180439 0.0045947520332308761 0 0.010728705888562196 0.0053557858022288416 0 0.010163830242180439 0.0045947520332308761 0 0.010619993305829972 0.0031458392952756144 0 0.010163830242180439 0.0045947520332308761 0 0.010619993305829972 0.0031458392952756144 0 0.0094220803453275211 0.0035060194609505381 0 0.0090373110470045037 0.0046423055473901109 0 0.010163830242180439 0.0045947520332308761 0 0.0094220803453275211 0.0035060194609505381 0 0.009326460465154356 0.0022182722936859153 0 0.010619993305829972 0.0031458392952756144 0 0.0094220803453275211 0.0035060194609505381 0 0.009326460465154356 0.0022182722936859153 0 0.010619993305829972 0.0031458392952756144 0 0.0093109285556800918 0.00061270558976923232 0 0.0086286684615819106 -0.00025052313995379345 0 0.0086326474304195822 -0.00057116863211195874 0 0.0089877524567472215 -0.0005191577573389239 0 0.0094237293212711959 0.0016342704417528877 0 0.0089834347658624657 0.00050200151895378855 0 0.0086326474304195822 -0.00057116863211195874 0 0.0088536312283040118 -0.00066228595194469503 0 0.0089877524567472215 -0.0005191577573389239 0 0.0086326474304195822 -0.00057116863211195874 0 0.0088536312283040118 -0.00066228595194469503 0 0.008659875486891155 -0.00066007200747227664 0 0.0088536312283040118 -0.00066228595194469503 0 0.0089877524567472215 -0.0005191577573389239 0 0.0092960092284167309 -0.0008135688479938626 0 0.0093054096165249844 -8.3011799660119326e-05 0 0.0086286684615819106 -0.00025052313995379345 0 0.0089877524567472215 -0.0005191577573389239 0 0.0093054096165249844 -8.3011799660119326e-05 0 0.0089877524567472215 -0.0005191577573389239 0 0.0094086604390845319 -0.00050479654376146571 0 0.0089877524567472215 -0.0005191577573389239 0 0.0094086604390845319 -0.00050479654376146571 0 0.0092960092284167309 -0.0008135688479938626 0 0.0094086604390845319 -0.00050479654376146571 0 0.0092960092284167309 -0.0008135688479938626 0 0.0097102020888660632 -0.00075503653779370372 0 0.0095425539064238219 -0.00072363418895962607 0 0.0097102020888660632 -0.00075503653779370372 0 0.009780853886137043 -0.00098636442006319602 0 0.00927011765208644 -0.00070639926995023721 0 0.0094280384826236699 -0.00066415509094584475 0 0.0096643878355584644 -0.00037067939955477008 0 0.0094086604390845319 -0.00050479654376146571 0 0.0097102020888660632 -0.00075503653779370372 0 0.0098409319675343762 -0.00070153873410632372 0 0.0096643878355584644 -0.00037067939955477008 0 0.0097102020888660632 -0.00075503653779370372 0 0.010020048958868625 -0.0010188107762937125 0 0.009780853886137043 -0.00098636442006319602 0 0.0095536100481260575 -0.0010175633643446276 0 0.0098122238263721583 -0.0010419888654506749 0 0.0097102020888660632 -0.00075503653779370372 0 0.009780853886137043 -0.00098636442006319602 0 0.0095425539064238219 -0.00072363418895962607 0 0.009780853886137043 -0.00098636442006319602 0 0.0095536100481260575 -0.0010175633643446276 0 0.0095536100481260575 -0.0010175633643446276 0 0.0090599173811992412 -0.00067736440159021677 0 0.0088616606698609292 -0.0010268520668016456 0 0.00927011765208644 -0.00070639926995023721 0 0.0089293889389674298 -0.0007921618374550569 0 0.0088536312283040118 -0.00066228595194469503 0 0.0092960092284167309 -0.0008135688479938626 0 0.00887097130263792 -0.00083547716720140739 0 0.0095425539064238219 -0.00072363418895962607 0 0.0095536100481260575 -0.0010175633643446276 0 0.0090599173811992412 -0.00067736440159021677 0 0.00887097130263792 -0.00083547716720140739 0 0.008659875486891155 -0.00066007200747227664 0 0.0085057351287271005 -0.0008527063788413339 0 0.0088536312283040118 -0.00066228595194469503 0 0.00887097130263792 -0.00083547716720140739 0 0.008659875486891155 -0.00066007200747227664 0 0.0088616606698609292 -0.0010268520668016456 0 0.008390667445539424 -0.00083577860537998379 0 0.0082819874771353236 -0.0012942105975296036 0 0.0090599173811992412 -0.00067736440159021677 0 0.0088616606698609292 -0.0010268520668016456 0 0.008390667445539424 -0.00083577860537998379 0 0.0089293889389674298 -0.0007921618374550569 0 0.008554229089402475 -0.00089983067666915605 0 0.0088616606698609292 -0.0010268520668016456 0 0.0088170162580103514 -0.0015136504150563821 0 0.0082819874771353236 -0.0012942105975296036 0 0.0084165144712561903 -0.0018202205200048766 0 0.0084917036730487432 -0.0025776502075986136 0 0.0082123158044849435 -0.001888297087196104 0 0.0084165144712561903 -0.0018202205200048766 0 0.0088170162580103514 -0.0015136504150563821 0 0.0084917036730487432 -0.0025776502075986136 0 0.0084165144712561903 -0.0018202205200048766 0 0.0088170162580103514 -0.0015136504150563821 0 0.0082819874771353236 -0.0012942105975296036 0 0.0088170162580103514 -0.0015136504150563821 0 0.0099733614254931633 -0.0014656546257003375 0 0.0092707747835297557 -0.0028540698786365185 0 0.0088170162580103514 -0.0015136504150563821 0 0.0092707747835297557 -0.0028540698786365185 0 0.0084917036730487432 -0.0025776502075986136 0 0.0095536100481260575 -0.0010175633643446276 0 0.0088616606698609292 -0.0010268520668016456 0 0.0088170162580103514 -0.0015136504150563821 0 0.0095536100481260575 -0.0010175633643446276 0 0.0088170162580103514 -0.0015136504150563821 0 0.0099733614254931633 -0.0014656546257003375 0 0.012700890230736521 -0.0020409356259811526 0 0.0099733614254931633 -0.0014656546257003375 0 0.011205962364489831 -0.0035056587089247939 0 0.012700890230736521 -0.0020409356259811526 0 0.012572982739776068 0.00098170878775862913 0 0.0099733614254931633 -0.0014656546257003375 0 0.010020048958868625 -0.0010188107762937125 0 0.0095536100481260575 -0.0010175633643446276 0 0.0099733614254931633 -0.0014656546257003375 0 0.016198341151021627 -0.011692892027499959 0 0.015566440168083947 -0.0080094826983740756 0 0.00772713045956234 -0.00086223698094554132 0 0.0075107241165236864 -0.00019134109652415809 0 0.007794674729312584 -0.00077635626008888323 0 0.007794674729312584 -0.00077635626008888323 0 0.0079017804408022807 -0.00093792902586931201 0 0.0077744914549267722 -0.00088142149452666838 0 0.00772713045956234 -0.00086223698094554132 0 0.007794674729312584 -0.00077635626008888323 0 0.0077744914549267722 -0.00088142149452666838 0 0.0073013293753686689 0.0047677213691813269 0 0.0073021248395137382 0.0045713682503354062 0 0.0070019904077297359 0.012273611934834819 0 0.0068435700892965703 0.0061226381313711116 0 0.0042167201697419993 0.010261113660252815 0 0.010850915967479467 0.0088986316686061172 0 0.0070019904077297359 0.012273611934834819 0 0.0068435700892965703 0.0061226381313711116 0 0.009860083629403547 0.0152820776558163 0 0.0070019904077297359 0.012273611934834819 0 0.0054532148420979283 0.015532657652911116 0 0.0073013293753686689 0.0047677213691813269 0 0.0067972287502951418 0.0044806286979151306 0 0.00675294121456212 0.007056620421930674 0 0.0067380251118546956 0.0057674836823475434 0 0.0071398286891770418 0.0069181473278808591 0 0.0071136962225405104 0.0099198434211839482 0 0.0073013293753686689 0.0047677213691813269 0 0.009860083629403547 0.0152820776558163 0 0.010850915967479467 0.0088986316686061172 0 0.0070019904077297359 0.012273611934834819 0 0.0081632007891011913 0.00048102807208197585 0 0.0075107241165236864 -0.00019134109652415809 0 0.0084355902999918055 -0.0005965607896634478 0 0.0075107241165236864 -0.00019134109652415809 0 0.0084355902999918055 -0.0005965607896634478 0 0.0080668320839312191 -0.00072929783538645322 0 0.0075107241165236864 -0.00019134109652415809 0 0.0080668320839312191 -0.00072929783538645322 0 0.007794674729312584 -0.00077635626008888323 0 0.008659875486891155 -0.00066007200747227664 0 0.0084355902999918055 -0.0005965607896634478 0 0.0085057351287271005 -0.0008527063788413339 0 0.0086326474304195822 -0.00057116863211195874 0 0.008659875486891155 -0.00066007200747227664 0 0.0084355902999918055 -0.0005965607896634478 0 0.008554229089402475 -0.00089983067666915605 0 0.0083423270790762075 -0.0009705564945346923 0 0.0085057351287271005 -0.0008527063788413339 0 0.0080668320839312191 -0.00072929783538645322 0 0.0079017804408022807 -0.00093792902586931201 0 0.0084355902999918055 -0.0005965607896634478 0 0.0085057351287271005 -0.0008527063788413339 0 0.0080668320839312191 -0.00072929783538645322 0 0.0080668320839312191 -0.00072929783538645322 0 0.007794674729312584 -0.00077635626008888323 0 0.0079017804408022807 -0.00093792902586931201 0 0.0079017804408022807 -0.00093792902586931201 0 0.0080136198549573909 -0.0012810234627270581 0 0.0077844951682119207 -0.00074282808408749235 0 0.0079017804408022807 -0.00093792902586931201 0 0.0082819874771353236 -0.0012942105975296036 0 0.0080136198549573909 -0.0012810234627270581 0 0.008390667445539424 -0.00083577860537998379 0 0.0079017804408022807 -0.00093792902586931201 0 0.0082819874771353236 -0.0012942105975296036 0 0.0082819874771353236 -0.0012942105975296036 0 0.0080136198549573909 -0.0012810234627270581 0 0.0082123158044849435 -0.001888297087196104 0 0.0084165144712561903 -0.0018202205200048766 0 0.0082819874771353236 -0.0012942105975296036 0 0.0082123158044849435 -0.001888297087196104 0 0.0080136198549573909 -0.0012810234627270581 0 0.0082123158044849435 -0.001888297087196104 0 0.0080608703340171606 -0.001949501413128836 0 0.0080136198549573909 -0.0012810234627270581 0 0.0079289518200150299 -0.0012545407065705403 0 0.0080608703340171606 -0.001949501413128836 0 0.0080136198549573909 -0.0012810234627270581 0 0.0079289518200150299 -0.0012545407065705403 0 0.0077844951682119207 -0.00074282808408749235 0 0.0079289518200150299 -0.0012545407065705403 0 0.0077800247361245823 0.0003450697933141058 0 0.0077759028158252436 -0.0016867782169914076 0 0.0079289518200150299 -0.0012545407065705403 0 0.0077844951682119207 -0.00074282808408749235 0 0.0077800247361245823 0.0003450697933141058 0 0.0078592269430865554 -0.0011643395938467362 0 0.0077744914549267722 -0.00088142149452666838 0 0.0077800247361245823 0.0003450697933141058 0 0.0079017804408022807 -0.00093792902586931201 0 0.0077844951682119207 -0.00074282808408749235 0 0.0077744914549267722 -0.00088142149452666838 0 0.0073013293753686689 0.0047677213691813269 0 0.0071264757270129778 0.0028746366881356538 0 0.0077844951682119207 -0.00074282808408749235 0 0.0077744914549267722 -0.00088142149452666838 0 0.0077800247361245823 0.0003450697933141058 0 0.010850915967479467 0.0088986316686061172 0 0.0068435700892965703 0.0061226381313711116 0 0.0077800247361245823 0.0003450697933141058 0 0.0068435700892965703 0.0061226381313711116 0 0.0077800247361245823 0.0003450697933141058 0 0.0034177616500267009 0.0020793396756335226 0 0.0077800247361245823 0.0003450697933141058 0 0.0034177616500267009 0.0020793396756335226 0 0.0058222278102059771 -0.00098727696347476052 0 0.0038240313775864845 0.0088666772360559889 0 0.0028265613433046187 0.0079057188803577736 0 0.0038022764478445668 0.0070970731084445899 0 0.0032276380357052739 0.0051956618226453068 0 0.0028359686302074933 0.0018931121243217744 0 0.0034177616500267009 0.0020793396756335226 0 0.0042251615381664401 -0.0026343592993518057 0 0.0058222278102059771 -0.00098727696347476052 0 0.0038240313775864845 0.0088666772360559889 0 0.0028265613433046187 0.0079057188803577736 0 0.0028047932813304263 0.0088123347032198901 0 0.0018301725897255849 0.0085822076897673853 0 0.0028047932813304263 0.0088123347032198901 0 0.0027152657356240635 0.0097217672138944916 0 0.0028265613433046187 0.0079057188803577736 0 0.0018301725897255849 0.0085822076897673853 0 0.0017850195013332487 0.0073705212359438128 0 0.0028265613433046187 0.0079057188803577736 0 0.0018301725897255849 0.0085822076897673853 0 0.0028047932813304263 0.0088123347032198901 0 0.0027152657356240635 0.0097217672138944916 0 0.0011485198475456528 0.0096879476499297599 0 0.0015745706648516902 0.011788641828946456 0 0.0018301725897255849 0.0085822076897673853 0 0.0027152657356240635 0.0097217672138944916 0 0.0011485198475456528 0.0096879476499297599 0 0.0068435700892965703 0.0061226381313711116 0 0.0034177616500267009 0.0020793396756335226 0 0.0042167201697419993 0.010261113660252815 0 0.0032276380357052739 0.0051956618226453068 0 0.0033658923700107648 0.0070572997062868098 0 0.0038240313775864845 0.0088666772360559889 0 0.0028047932813304263 0.0088123347032198901 0 0.0027152657356240635 0.0097217672138944916 0 0.0038240313775864845 0.0088666772360559889 0 0.0027152657356240635 0.0097217672138944916 0 0.0042167201697419993 0.010261113660252815 0 -0.00033461631023082257 0.0083297982717050623 0 -0.00023124284804239002 0.0094171145273079775 0 -0.0009226255040020101 0.0088314301534800285 0 -0.00033461631023082257 0.0083297982717050623 0 0.00065827348022921243 0.0088339445516531501 0 0.00079962132347662432 0.0078659933395629072 0 -0.00033461631023082257 0.0083297982717050623 0 0.00065827348022921243 0.0088339445516531501 0 -0.00023124284804239002 0.0094171145273079775 0 0.0018301725897255849 0.0085822076897673853 0 0.00079962132347662432 0.0078659933395629072 0 0.0017850195013332487 0.0073705212359438128 0 0.0018301725897255849 0.0085822076897673853 0 0.00065827348022921243 0.0088339445516531501 0 0.00079962132347662432 0.0078659933395629072 0 0.0018301725897255849 0.0085822076897673853 0 0.00065827348022921243 0.0088339445516531501 0 0.0011485198475456528 0.0096879476499297599 0 0.00049435859420369718 0.010460155076778201 0 0.0011485198475456528 0.0096879476499297599 0 -0.00023124284804239002 0.0094171145273079775 0 0.00065827348022921243 0.0088339445516531501 0 0.0011485198475456528 0.0096879476499297599 0 -0.00023124284804239002 0.0094171145273079775 0 0.00049435859420369718 0.010460155076778201 0 0.0011485198475456528 0.0096879476499297599 0 0.0015745706648516902 0.011788641828946456 0 -0.00023124284804239002 0.0094171145273079775 0 -0.00041830287379788334 0.011058850295450612 0 -0.0025483448319461614 0.010616779056582011 0 0.00049435859420369718 0.010460155076778201 0 -0.00023124284804239002 0.0094171145273079775 0 -0.00041830287379788334 0.011058850295450612 0 -0.00023124284804239002 0.0094171145273079775 0 -0.0010906253097745238 0.0094146090487884689 0 -0.0009226255040020101 0.0088314301534800285 0 -0.0033588094498946748 0.012991018085946663 0 -0.0020603590030029628 0.011226686745564467 0 -0.00098932936367345133 0.013171226392237854 0 -0.0020603590030029628 0.011226686745564467 0 0.0015745706648516902 0.011788641828946456 0 -0.00098932936367345133 0.013171226392237854 0 -0.0012705812153403812 0.011637385683503115 0 -0.00017172441815147416 0.011777662485807387 0 0.00049435859420369718 0.010460155076778201 0 -0.00041830287379788334 0.011058850295450612 0 0.0015745706648516902 0.011788641828946456 0 0.0015745706648516902 0.011788641828946456 0 -0.00022306111112139815 0.015744722105200518 0 -0.00098932936367345133 0.013171226392237854 0 0.0015745706648516902 0.011788641828946456 0 -0.00022306111112139815 0.015744722105200518 0 0.002104103146056413 0.015734252557799679 0 -0.0033588094498946748 0.012991018085946663 0 -0.00022306111112139815 0.015744722105200518 0 -0.00098932936367345133 0.013171226392237854 0 -0.0016117347225548043 0.013283612168608676 0 -0.00095311248671572685 0.014103872167021711 0 -0.0011839846991853959 0.015664244912140825 0 -0.00022306111112139815 0.015744722105200518 0 -0.001387171634668765 0.016852139274037153 0 0.0027152657356240635 0.0097217672138944916 0 0.0042167201697419993 0.010261113660252815 0 0.0031924436305135616 0.012905795567733776 0 0.0070019904077297359 0.012273611934834819 0 0.0042167201697419993 0.010261113660252815 0 0.0031924436305135616 0.012905795567733776 0 0.0027152657356240635 0.0097217672138944916 0 0.0015745706648516902 0.011788641828946456 0 0.0031924436305135616 0.012905795567733776 0 0.0015745706648516902 0.011788641828946456 0 0.0031924436305135616 0.012905795567733776 0 0.002104103146056413 0.015734252557799679 0 0.0070019904077297359 0.012273611934834819 0 0.0031924436305135616 0.012905795567733776 0 0.0054532148420979283 0.015532657652911116 0 0.0031924436305135616 0.012905795567733776 0 0.0054532148420979283 0.015532657652911116 0 0.002104103146056413 0.015734252557799679 0 0.0067436761646556143 0.018261203772076077 0 0.0054532148420979283 0.015532657652911116 0 0.0038470831308829393 0.018188263432497406 0 0.0054532148420979283 0.015532657652911116 0 0.0038470831308829393 0.018188263432497406 0 0.002104103146056413 0.015734252557799679 0 0.0067436761646556143 0.018261203772076077 0 0.0038470831308829393 0.018188263432497406 0 0.0053564440483720851 0.020861666253951791 0 0.0038470831308829393 0.018188263432497406 0 0.0017348436053876179 0.018394662505790436 0 0.0020857498697272 0.020042584028703719 0 0.0038470831308829393 0.018188263432497406 0 0.0017348436053876179 0.018394662505790436 0 0.002104103146056413 0.015734252557799679 0 0.0017348436053876179 0.018394662505790436 0 0.002104103146056413 0.015734252557799679 0 -0.00017381280039923706 0.017795617673776742 0 -0.00022306111112139815 0.015744722105200518 0 0.002104103146056413 0.015734252557799679 0 -0.00017381280039923706 0.017795617673776742 0 -0.00022306111112139815 0.015744722105200518 0 -0.00017381280039923706 0.017795617673776742 0 -0.001387171634668765 0.016852139274037153 0 -0.00017381280039923706 0.017795617673776742 0 -0.001688450984541908 0.018647896008156539 0 -0.001387171634668765 0.016852139274037153 0 -0.00017381280039923706 0.017795617673776742 0 -0.00087093429332465414 0.019681004922717151 0 -0.001688450984541908 0.018647896008156539 0 -0.00017381280039923706 0.017795617673776742 0 0.00056395869295869795 0.019700205805704793 0 -0.00087093429332465414 0.019681004922717151 0 0.0017348436053876179 0.018394662505790436 0 -0.00017381280039923706 0.017795617673776742 0 0.00056395869295869795 0.019700205805704793 0 0.0017348436053876179 0.018394662505790436 0 0.00056395869295869795 0.019700205805704793 0 0.0020857498697272 0.020042584028703719 0 0.00056395869295869795 0.019700205805704793 0 -0.0003489614014555665 0.020808314755233839 0 0.0012334500180020212 0.021414108606697773 0 0.00056395869295869795 0.019700205805704793 0 0.0012334500180020212 0.021414108606697773 0 0.0020857498697272 0.020042584028703719 0 0.0016498431576534849 0.021642164836530212 0 0.0012334500180020212 0.021414108606697773 0 0.0020857498697272 0.020042584028703719 0 0.00056395869295869795 0.019700205805704793 0 -0.00087093429332465414 0.019681004922717151 0 -0.0003489614014555665 0.020808314755233839 0 -0.00087093429332465414 0.019681004922717151 0 -0.0003489614014555665 0.020808314755233839 0 -0.001457897667726221 0.021161923015221192 0 -0.0003489614014555665 0.020808314755233839 0 -0.0010194766936007617 0.021880500305678702 0 -0.001457897667726221 0.021161923015221192 0 0.0027732846515193263 0.016405023325995721 0 0.0037152976519559291 0.015142640077787459 0 -0.0010194766936007617 0.021880500305678702 0 0.0015906186334457997 0.021590657400730257 0 0.0012334500180020212 0.021414108606697773 0 0.0054128847709953706 0.01398118205828661 0 0.005871301313184342 0.014224928350423599 0 0.0051961937174879996 0.014546141752521802 0 -0.0003489614014555665 0.020808314755233839 0 -0.0010194766936007617 0.021880500305678702 0 0.0012334500180020212 0.021414108606697773 0 0.0037152976519559291 0.015142640077787459 0 0.0037044347499991053 0.015175865828908031 0 0.0048442313821872524 0.013963586997760688 0 0.0051961937174879996 0.014546141752521802 0 0.0042661722572573954 0.014228317365262307 0 0.0037152976519559291 0.015142640077787459 0 0.0042652347909297788 0.013386505033184221 0 0.0048442313821872524 0.013963586997760688 0 0.0054128847709953706 0.01398118205828661 0 0.0051961937174879996 0.014546141752521802 0 0.004173191516168788 0.012673275509648035 0 0.004413047158202738 0.012753470807856535 0 0.0044085909647060863 0.012582769510350412 0 0.0038470831308829393 0.018188263432497406 0 0.0053564440483720851 0.020861666253951791 0 0.0020857498697272 0.020042584028703719 0 0.0016498431576534849 0.021642164836530212 0 0.0053564440483720851 0.020861666253951791 0 0.0020857498697272 0.020042584028703719 0 0.0037152976519559291 0.015142640077787459 0 0.0043904840322959385 0.013927864605140325 0 -0.0032398843601084575 0.021283289480924464 0 -0.0055900027134757587 0.020219385894557452 0 -0.0042626250110759881 0.019601225244365094 0 -0.0036239350661208133 0.02178629669611324 0 -0.0043459403545992427 0.021727285914007157 0 -0.0032398843601084575 0.021283289480924464 0 -0.0030429734687291619 0.022149415748450165 0 -0.002555268293507084 0.021624832582004094 0 -0.0032454065963987257 0.023207123229161214 0 -0.003122458056032203 0.022955306416751142 0 -0.003328851318049616 0.023893847155887462 0 -0.0032398843601084575 0.021283289480924464 0 -0.0032454065963987257 0.023207123229161214 0 -0.003122458056032203 0.022955306416751142 0 -0.0029549458104043721 0.022874235322807565 0 -0.0031014483478375215 0.022558264498214922 0 -0.003122458056032203 0.022955306416751142 0 -0.003234796284789111 0.02474246923756393 0 -0.003122458056032203 0.022955306416751142 0 -0.003328851318049616 0.023893847155887462 0 -0.00089184857263489284 0.023257910850366832 0 -0.0016018716260053627 0.023595479258775493 0 -0.0031014483478375215 0.022558264498214922 0 -0.003122458056032203 0.022955306416751142 0 -0.0030429734687291619 0.022149415748450165 0 -0.0032398843601084575 0.021283289480924464 0 -0.003122458056032203 0.022955306416751142 0 -0.0030429734687291619 0.022149415748450165 0 -0.0031014483478375215 0.022558264498214922 0 -0.0030429734687291619 0.022149415748450165 0 -0.002555268293507084 0.021624832582004094 0 -0.001773343187757369 0.021300477083029463 0 -0.0031014483478375215 0.022558264498214922 0 -0.0023148476681299729 0.021681602409178071 0 -0.0031014483478375215 0.022558264498214922 0 -0.0023148476681299729 0.021681602409178071 0 -0.002555268293507084 0.021624832582004094 0 -0.001773343187757369 0.021300477083029463 0 -0.0023148476681299729 0.021681602409178071 0 -0.0019153601180119976 0.021320401825476499 0 -0.0023148476681299729 0.021681602409178071 0 -0.002555268293507084 0.021624832582004094 0 -0.0019153601180119976 0.021320401825476499 0 -0.002555268293507084 0.021624832582004094 0 -0.0019153601180119976 0.021320401825476499 0 -0.0019506683002064884 0.020663658470251738 0 -0.001773343187757369 0.021300477083029463 0 -0.0010194766936007617 0.021880500305678702 0 -0.001457897667726221 0.021161923015221192 0 0.0030990283833018362 0.016394738126134026 0 0.0027732846515193263 0.016405023325995721 0 -0.001773343187757369 0.021300477083029463 0 -0.0019153601180119976 0.021320401825476499 0 -0.001457897667726221 0.021161923015221192 0 -0.00087093429332465414 0.019681004922717151 0 -0.001457897667726221 0.021161923015221192 0 -0.0019506683002064884 0.020663658470251738 0 -0.0019153601180119976 0.021320401825476499 0 -0.001457897667726221 0.021161923015221192 0 -0.0019506683002064884 0.020663658470251738 0 -0.0032398843601084575 0.021283289480924464 0 -0.0019506683002064884 0.020663658470251738 0 -0.0028868010472928151 0.01937050102333451 0 -0.0032398843601084575 0.021283289480924464 0 -0.002555268293507084 0.021624832582004094 0 -0.0019506683002064884 0.020663658470251738 0 -0.0019506683002064884 0.020663658470251738 0 -0.0028868010472928151 0.01937050102333451 0 -0.001688450984541908 0.018647896008156539 0 -0.0028868010472928151 0.01937050102333451 0 -0.001688450984541908 0.018647896008156539 0 -0.0025835718195759182 0.017718916953300353 0 -0.00087093429332465414 0.019681004922717151 0 -0.0019506683002064884 0.020663658470251738 0 -0.001688450984541908 0.018647896008156539 0 -0.001688450984541908 0.018647896008156539 0 -0.001387171634668765 0.016852139274037153 0 -0.0025835718195759182 0.017718916953300353 0 -0.001387171634668765 0.016852139274037153 0 -0.0025835718195759182 0.017718916953300353 0 -0.0024470655273591147 0.016299099245739732 0 -0.0028868010472928151 0.01937050102333451 0 -0.0025835718195759182 0.017718916953300353 0 -0.0041277512271974334 0.01828182000620995 0 -0.0025835718195759182 0.017718916953300353 0 -0.0041277512271974334 0.01828182000620995 0 -0.003564948359160654 0.016999275238190059 0 -0.0041277512271974334 0.01828182000620995 0 -0.0046895515254352423 0.017117802855035835 0 -0.003564948359160654 0.016999275238190059 0 -0.0032398843601084575 0.021283289480924464 0 -0.0028868010472928151 0.01937050102333451 0 -0.0042626250110759881 0.019601225244365094 0 -0.0028868010472928151 0.01937050102333451 0 -0.0041277512271974334 0.01828182000620995 0 -0.0042626250110759881 0.019601225244365094 0 -0.0041277512271974334 0.01828182000620995 0 -0.0042626250110759881 0.019601225244365094 0 -0.0053039899944655397 0.019012423594293008 0 -0.0055900027134757587 0.020219385894557452 0 -0.0053039899944655397 0.019012423594293008 0 -0.0063844617610694342 0.018825504060547449 0 -0.0055900027134757587 0.020219385894557452 0 -0.0042626250110759881 0.019601225244365094 0 -0.0053039899944655397 0.019012423594293008 0 -0.0053039899944655397 0.019012423594293008 0 -0.0053758175996246769 0.017985504563008285 0 -0.0063844617610694342 0.018825504060547449 0 -0.0041277512271974334 0.01828182000620995 0 -0.0053039899944655397 0.019012423594293008 0 -0.0053758175996246769 0.017985504563008285 0 -0.0041277512271974334 0.01828182000620995 0 -0.0053758175996246769 0.017985504563008285 0 -0.0046895515254352423 0.017117802855035835 0 -0.0053758175996246769 0.017985504563008285 0 -0.0046895515254352423 0.017117802855035835 0 -0.0059966016969737156 0.016738419626031582 0 -0.003800846008441001 0.01316274343535895 0 -0.0045017623444551045 0.013006081289259142 0 -0.0046548032660191996 0.013621518589988908 0 -0.0046895515254352423 0.017117802855035835 0 -0.0040274933696501274 0.015641849705974632 0 -0.0059966016969737156 0.016738419626031582 0 -0.0040812786609849211 0.013840531866850225 0 -0.005478161685910244 0.015267197662062604 0 -0.0048802236319464374 0.013343754301397132 0 -0.005478161685910244 0.015267197662062604 0 -0.0046895515254352423 0.017117802855035835 0 -0.003564948359160654 0.016999275238190059 0 -0.0040274933696501274 0.015641849705974632 0 -0.003800846008441001 0.01316274343535895 0 -0.0040798014312406847 0.012774240834146291 0 -0.0036676911029879804 0.012534930850584863 0 -0.004162625840875402 0.013889644130609644 0 -0.0036454760855638563 0.011742739386320906 0 -0.0056808060606600977 0.013147821351944094 0 -0.0045017623444551045 0.013006081289259142 0 -0.0040798014312406847 0.012774240834146291 0 -0.0043493811591256851 0.012393314820765061 0 -0.003800846008441001 0.01316274343535895 0 -0.0045017623444551045 0.013006081289259142 0 -0.0040798014312406847 0.012774240834146291 0 -0.0048802236319464374 0.013343754301397132 0 -0.0044238181782864112 0.011407207514495558 0 -0.0011839846991853959 0.015664244912140825 0 -0.001387171634668765 0.016852139274037153 0 -0.0024470655273591147 0.016299099245739732 0 -0.0025835718195759182 0.017718916953300353 0 -0.003564948359160654 0.016999275238190059 0 -0.0024470655273591147 0.016299099245739732 0 -0.003564948359160654 0.016999275238190059 0 -0.0040274933696501274 0.015641849705974632 0 -0.0024470655273591147 0.016299099245739732 0 -0.0040812786609849211 0.013840531866850225 0 -0.0023124890652723358 0.011743234192571478 0 -0.003800846008441001 0.01316274343535895 0 -0.0029149650877830441 0.012688701904539003 0 -0.0029853586304598137 0.012674385456879194 0 -0.0040274933696501274 0.015641849705974632 0 -0.0024470655273591147 0.016299099245739732 0 -0.0022143411926216724 0.014666996541102104 0 -0.003800846008441001 0.01316274343535895 0 -0.0029853586304598137 0.012674385456879194 0 -0.0036676911029879804 0.012534930850584863 0 -0.0012705812153403812 0.011637385683503115 0 -0.0023124890652723358 0.011743234192571478 0 -0.0033588094498946748 0.012991018085946663 0 -0.0020603590030029628 0.011226686745564467 0 -0.006022044427082862 0.010395836602909688 0 -0.0011839846991853959 0.015664244912140825 0 -0.0024470655273591147 0.016299099245739732 0 -0.0022143411926216724 0.014666996541102104 0 -0.0016117347225548043 0.013283612168608676 0 -0.0023124890652723358 0.011743234192571478 0 -0.00023124284804239002 0.0094171145273079775 0 -0.0016657150326739683 0.010127626871164261 0 -0.0010906253097745238 0.0094146090487884689 0 -0.0011230492442977366 0.010801624905288935 0 -0.0023124890652723358 0.011743234192571478 0 -0.0016657150326739683 0.010127626871164261 0 -0.0010906253097745238 0.0094146090487884689 0 -0.00169028050434386 0.0097800496541306948 0 -0.0010906253097745238 0.0094146090487884689 0 -0.0015209621152991464 0.0093472946842748979 0 -0.0014610756069262623 0.0089326070032017275 0 -0.0010906253097745238 0.0094146090487884689 0 -0.00169028050434386 0.0097800496541306948 0 -0.0015209621152991464 0.0093472946842748979 0 -0.0018125619548928563 0.010098092267221444 0 -0.0025425033187725121 0.0094467935696302928 0 -0.0028583456454348197 0.0098750706478358836 0 -0.0024435110344312142 0.011620196899176026 0 -0.0033803382443373174 0.011478231743584616 0 -0.00169028050434386 0.0097800496541306948 0 -0.0015209621152991464 0.0093472946842748979 0 -0.0020231078294664553 0.0091626192844181248 0 -0.00169028050434386 0.0097800496541306948 0 -0.0025341200966906923 0.0094335650264945597 0 -0.0020231078294664553 0.0091626192844181248 0 -0.00169028050434386 0.0097800496541306948 0 -0.0017758814073175506 0.010104010649417105 0 -0.0025341200966906923 0.0094335650264945597 0 -0.0016657150326739683 0.010127626871164261 0 -0.00169028050434386 0.0097800496541306948 0 -0.0017758814073175506 0.010104010649417105 0 -0.0023124890652723358 0.011743234192571478 0 -0.0024435110344312142 0.011620196899176026 0 -0.0024435110344312142 0.011620196899176026 0 -0.0029252337933326931 0.010625001319951652 0 -0.0025341200966906923 0.0094335650264945597 0 -0.0020231078294664553 0.0091626192844181248 0 -0.0026565618542256238 0.0088261642103483282 0 -0.0023259406612436504 0.0084559972447933712 0 -0.0020231078294664553 0.0091626192844181248 0 -0.0026565618542256238 0.0088261642103483282 0 -0.0023259406612436504 0.0084559972447933712 0 -0.0018299018317352168 0.0086824539858527186 0 -0.0020231078294664553 0.0091626192844181248 0 -0.0023259406612436504 0.0084559972447933712 0 -0.0018299018317352168 0.0086824539858527186 0 -0.0014215005747761416 0.0081473428265041083 0 -0.0018299018317352168 0.0086824539858527186 0 -0.0020231078294664553 0.0091626192844181248 0 -0.0014610756069262623 0.0089326070032017275 0 -0.00033461631023082257 0.0083297982717050623 0 -0.0009226255040020101 0.0088314301534800285 0 -0.0014215005747761416 0.0081473428265041083 0 -0.0015209621152991464 0.0093472946842748979 0 -0.0020231078294664553 0.0091626192844181248 0 -0.0014610756069262623 0.0089326070032017275 0 -0.0014610756069262623 0.0089326070032017275 0 -0.0009226255040020101 0.0088314301534800285 0 -0.0014215005747761416 0.0081473428265041083 0 -0.0018299018317352168 0.0086824539858527186 0 -0.0014610756069262623 0.0089326070032017275 0 -0.0014215005747761416 0.0081473428265041083 0 -0.0010906253097745238 0.0094146090487884689 0 -0.0014610756069262623 0.0089326070032017275 0 -0.0009226255040020101 0.0088314301534800285 0 -0.0040798014312406847 0.012774240834146291 0 -0.0043493811591256851 0.012393314820765061 0 -0.0036676911029879804 0.012534930850584863 0 -0.0039072173553289652 0.0096539013613783174 0 -0.0028583456454348197 0.0098750706478358836 0 -0.0031150184967630983 0.0093530977214364257 0 -0.0044238181782864112 0.011407207514495558 0 -0.0033803382443373174 0.011478231743584616 0 -0.0025425033187725121 0.0094467935696302928 0 -0.0028583456454348197 0.0098750706478358836 0 -0.0031150184967630983 0.0093530977214364257 0 -0.0039072173553289652 0.0096539013613783174 0 -0.0031150184967630983 0.0093530977214364257 0 -0.0032753841823017576 0.0087919393223326054 0 -0.0025341200966906923 0.0094335650264945597 0 -0.0026565618542256238 0.0088261642103483282 0 -0.0032753841823017576 0.0087919393223326054 0 -0.0025425033187725121 0.0094467935696302928 0 -0.0031150184967630983 0.0093530977214364257 0 -0.0032753841823017576 0.0087919393223326054 0 -0.0029252337933326931 0.010625001319951652 0 -0.0031610652940981948 0.01024190044762751 0 -0.0023259406612436504 0.0084559972447933712 0 -0.0026565618542256238 0.0088261642103483282 0 -0.0029972706927351945 0.0081655732856880658 0 -0.0026565618542256238 0.0088261642103483282 0 -0.0032753841823017576 0.0087919393223326054 0 -0.0029972706927351945 0.0081655732856880658 0 -0.0032753841823017576 0.0087919393223326054 0 -0.003604887424507295 0.0084645716391355576 0 -0.0029972706927351945 0.0081655732856880658 0 -0.0041815679300823746 0.01159004022849232 0 -0.0037246768627520457 0.0094905830106873819 0 -0.005285185117741337 0.0097232400399810785 0 -0.0039072173553289652 0.0096539013613783174 0 -0.0032753841823017576 0.0087919393223326054 0 -0.003604887424507295 0.0084645716391355576 0 -0.0044238181782864112 0.011407207514495558 0 -0.0039110660699449877 0.0095122049066798092 0 -0.0037246768627520457 0.0094905830106873819 0 -0.0046212295665783703 0.0083687365212779478 0 -0.005285185117741337 0.0097232400399810785 0 -0.0037246768627520457 0.0094905830106873819 0 -0.0046212295665783703 0.0083687365212779478 0 -0.0034066871858843702 0.0073771381519968657 0 -0.0039110660699449877 0.0095122049066798092 0 -0.0037080525857345315 0.0087074689235838321 0 -0.0029972706927351945 0.0081655732856880658 0 -0.0034066871858843702 0.0073771381519968657 0 -0.0021973434976223566 0.0076951887536533866 0 -0.003604887424507295 0.0084645716391355576 0 -0.0029972706927351945 0.0081655732856880658 0 -0.0034066871858843702 0.0073771381519968657 0 -0.0034066871858843702 0.0073771381519968657 0 -0.0024149144328896224 0.0059132572875331031 0 -0.002138642856018769 0.0068787089067879285 0 -0.0046212295665783703 0.0083687365212779478 0 -0.0034066871858843702 0.0073771381519968657 0 -0.0048862843565388595 0.0071368797583534352 0 -0.0034066871858843702 0.0073771381519968657 0 -0.0048862843565388595 0.0071368797583534352 0 -0.0043830652861498159 0.0061754178896162998 0 -0.0043830652861498159 0.0061754178896162998 0 -0.0033663977851004982 0.0053949139845421452 0 -0.004735117026579804 0.0049537669084684629 0 -0.0043830652861498159 0.0061754178896162998 0 -0.004735117026579804 0.0049537669084684629 0 -0.0055531970368696013 0.0060584953825472314 0 -0.0048862843565388595 0.0071368797583534352 0 -0.0043830652861498159 0.0061754178896162998 0 -0.0055531970368696013 0.0060584953825472314 0 -0.0034066871858843702 0.0073771381519968657 0 -0.0043830652861498159 0.0061754178896162998 0 -0.0033663977851004982 0.0053949139845421452 0 -0.0034066871858843702 0.0073771381519968657 0 -0.0033663977851004982 0.0053949139845421452 0 -0.0024149144328896224 0.0059132572875331031 0 -0.0033663977851004982 0.0053949139845421452 0 -0.0024149144328896224 0.0059132572875331031 0 -0.0021460393760663141 0.0037766061648339543 0 -0.0033663977851004982 0.0053949139845421452 0 -0.0037986028006530724 0.0040292200017588223 0 -0.0021460393760663141 0.0037766061648339543 0 -0.0033663977851004982 0.0053949139845421452 0 -0.004735117026579804 0.0049537669084684629 0 -0.0037986028006530724 0.0040292200017588223 0 -0.0011628337292091387 0.0043637057976409549 0 -0.0011928661473181853 0.0045252887149294018 0 -0.00033374778804057769 0.0040705273857381931 0 -0.0011628337292091387 0.0043637057976409549 0 -0.0015695720449960251 0.0047913457155581377 0 -0.0014241911753339993 0.0038687238009951978 0 -0.0011628337292091387 0.0043637057976409549 0 -0.0011928661473181853 0.0045252887149294018 0 -0.0015695720449960251 0.0047913457155581377 0 -0.0016762836544670493 0.0010268590416839521 0 -0.0014944914174404155 -4.2375004322036761e-05 0 -0.0011628337292091387 0.0043637057976409549 0 -0.00078594168977149195 0.0039253023439464281 0 -0.00098568924243952992 0.0037165040499662935 0 -0.0011628337292091387 0.0043637057976409549 0 -0.0014241911753339993 0.0038687238009951978 0 -0.00091706900544798273 0.0037182432355124255 0 -0.001491520410153781 0.00537976154245792 0 -0.0017946470142867056 0.004661835210418951 0 -0.0015695720449960251 0.0047913457155581377 0 -0.0021460393760663141 0.0037766061648339543 0 -0.0014241911753339993 0.0038687238009951978 0 -0.0024149144328896224 0.0059132572875331031 0 -0.0014272402318454593 0.0056234601870837333 0 -0.0021460393760663141 0.0037766061648339543 0 -0.0024149144328896224 0.0059132572875331031 0 -0.0014272402318454593 0.0056234601870837333 0 -0.002138642856018769 0.0068787089067879285 0 -0.001491520410153781 0.00537976154245792 0 -0.00097667633647418586 0.0066325903796682429 0 -0.0015695720449960251 0.0047913457155581377 0 -0.00074032432335668322 0.0052612263707464153 0 -0.00099680001823750802 0.006389648798701018 0 -0.0011928661473181853 0.0045252887149294018 0 -0.00074032432335668322 0.0052612263707464153 0 -0.00020111939094461943 0.0046413744718963286 0 -0.0011928661473181853 0.0045252887149294018 0 -0.0015695720449960251 0.0047913457155581377 0 -0.00074032432335668322 0.0052612263707464153 0 -0.0014272402318454593 0.0056234601870837333 0 -0.00092181550140728536 0.0071597982016673401 0 -0.002138642856018769 0.0068787089067879285 0 -0.0034066871858843702 0.0073771381519968657 0 -0.002138642856018769 0.0068787089067879285 0 -0.0021973434976223566 0.0076951887536533866 0 -0.00092181550140728536 0.0071597982016673401 0 -0.002138642856018769 0.0068787089067879285 0 -0.0021973434976223566 0.0076951887536533866 0 -0.0023259406612436504 0.0084559972447933712 0 -0.0021973434976223566 0.0076951887536533866 0 -0.0014215005747761416 0.0081473428265041083 0 -0.0023259406612436504 0.0084559972447933712 0 -0.0029972706927351945 0.0081655732856880658 0 -0.0021973434976223566 0.0076951887536533866 0 -0.00092181550140728536 0.0071597982016673401 0 -0.0021973434976223566 0.0076951887536533866 0 -0.0014215005747761416 0.0081473428265041083 0 -0.00033461631023082257 0.0083297982717050623 0 -0.00092181550140728536 0.0071597982016673401 0 -0.0014215005747761416 0.0081473428265041083 0 -0.00033461631023082257 0.0083297982717050623 0 -0.00099680001823750802 0.006389648798701018 0 7.5456948711021042e-05 0.0071153584739823217 0 -0.00066504297524077921 0.0073841182848779583 0 -0.00097667633647418586 0.0066325903796682429 0 -0.00033461631023082257 0.0083297982717050623 0 7.5456948711021042e-05 0.0071153584739823217 0 0.00079962132347662432 0.0078659933395629072 0 0.00079962132347662432 0.0078659933395629072 0 0.00088362410207535843 0.0068370450452379722 0 0.0017850195013332487 0.0073705212359438128 0 0.00088362410207535843 0.0068370450452379722 0 0.0017850195013332487 0.0073705212359438128 0 0.0016979655290166706 0.0064428719379085782 0 7.5456948711021042e-05 0.0071153584739823217 0 0.00079962132347662432 0.0078659933395629072 0 0.00088362410207535843 0.0068370450452379722 0 0.00088362410207535843 0.0068370450452379722 0 0.0010114660863770656 0.005955800094564802 0 7.2995128405446068e-05 0.006121320393999906 0 0.00088362410207535843 0.0068370450452379722 0 0.0010114660863770656 0.005955800094564802 0 0.0016979655290166706 0.0064428719379085782 0 0.0010114660863770656 0.005955800094564802 0 0.0016979655290166706 0.0064428719379085782 0 0.0020262378803816302 0.0055226428908279057 0 0.0010114660863770656 0.005955800094564802 0 7.2995128405446068e-05 0.006121320393999906 0 0.00026627852032745213 0.0052596503091969886 0 -0.00074032432335668322 0.0052612263707464153 0 -0.00099680001823750802 0.006389648798701018 0 7.2995128405446068e-05 0.006121320393999906 0 -0.00099680001823750802 0.006389648798701018 0 7.5456948711021042e-05 0.0071153584739823217 0 7.2995128405446068e-05 0.006121320393999906 0 7.5456948711021042e-05 0.0071153584739823217 0 0.00088362410207535843 0.0068370450452379722 0 7.2995128405446068e-05 0.006121320393999906 0 0.0028265613433046187 0.0079057188803577736 0 0.0038022764478445668 0.0070970731084445899 0 0.0026728662249572671 0.0066979306988942649 0 0.0028265613433046187 0.0079057188803577736 0 0.0026728662249572671 0.0066979306988942649 0 0.0017850195013332487 0.0073705212359438128 0 0.0026728662249572671 0.0066979306988942649 0 0.0017850195013332487 0.0073705212359438128 0 0.0016979655290166706 0.0064428719379085782 0 0.0026728662249572671 0.0066979306988942649 0 0.0029790446468637671 0.0056400544249850118 0 0.0019726287948348756 0.0051504727571242467 0 0.0026728662249572671 0.0066979306988942649 0 0.0016979655290166706 0.0064428719379085782 0 0.0020262378803816302 0.0055226428908279057 0 0.0022254399247125167 0.0045332121673658026 0 0.0018370329223303282 0.0034657643803280278 0 0.0042251615381664401 -0.0026343592993518057 0 0.0042976819431424845 -0.0061505951379660683 0 0.0058380852389182817 -0.0035597683822956219 0 0.0038022764478445668 0.0070970731084445899 0 0.0029790446468637671 0.0056400544249850118 0 0.0038709146652675915 0.0050146252266959892 0 0.0028359686302074933 0.0018931121243217744 0 0.0019174245194383771 -0.0026841982905456176 0 0.0038022764478445668 0.0070970731084445899 0 0.0026728662249572671 0.0066979306988942649 0 0.0029790446468637671 0.0056400544249850118 0 0.0019174245194383771 -0.0026841982905456176 0 0.0004431322055777632 -0.0070088167521338155 0 0.00095106802634800831 -0.0034009847357954009 0 0.00054449168644161094 -0.0036223518711207578 0 0.00095977247223451355 -0.0041074072597190705 0 0.0029790446468637671 0.0056400544249850118 0 0.0038709146652675915 0.0050146252266959892 0 0.002598931315757465 0.0042960021211691322 0 0.0019174245194383771 -0.0026841982905456176 0 0.0015116940480038176 -0.0010184963834122425 0 0.002598931315757465 0.0042960021211691322 0 0.0019726287948348756 0.0051504727571242467 0 0.0012890497606715149 0.0035731221123482533 0 0.0018370329223303282 0.0034657643803280278 0 0.0006393747954108257 0.00010841157269308585 0 0.0029790446468637671 0.0056400544249850118 0 0.002598931315757465 0.0042960021211691322 0 0.0019726287948348756 0.0051504727571242467 0 0.0015116940480038176 -0.0010184963834122425 0 0.0006393747954108257 0.00010841157269308585 0 0.00047987030059594969 -0.0040704532717854135 0 0.00013933454429491905 -0.0038423424953792076 0 -4.8301598537819179e-05 -0.0042736161191296732 0 0.00054449168644161094 -0.0036223518711207578 0 0.00047987030059594969 -0.0040704532717854135 0 0.00013933454429491905 -0.0038423424953792076 0 -0.0042778363843916367 -0.0082554383937331957 0 -0.0042361763265709503 -0.011694381132340989 0 -0.0030650640596660617 -0.010755810401309629 0 0.00054449168644161094 -0.0036223518711207578 0 0.00047987030059594969 -0.0040704532717854135 0 0.00095977247223451355 -0.0041074072597190705 0 -0.00020111939094461943 0.0046413744718963286 0 0.00026627852032745213 0.0052596503091969886 0 0.000565479783978083 0.0046287246671916343 0 -0.00074032432335668322 0.0052612263707464153 0 -0.00020111939094461943 0.0046413744718963286 0 0.00026627852032745213 0.0052596503091969886 0 -0.00074032432335668322 0.0052612263707464153 0 7.2995128405446068e-05 0.006121320393999906 0 0.00026627852032745213 0.0052596503091969886 0 0.0010114660863770656 0.005955800094564802 0 0.00026627852032745213 0.0052596503091969886 0 0.0011254293730569218 0.0051991586598895021 0 0.0020262378803816302 0.0055226428908279057 0 0.0011254293730569218 0.0051991586598895021 0 0.0014513405305868893 0.004340550954511805 0 0.0010114660863770656 0.005955800094564802 0 0.0020262378803816302 0.0055226428908279057 0 0.0011254293730569218 0.0051991586598895021 0 0.0011254293730569218 0.0051991586598895021 0 0.000565479783978083 0.0046287246671916343 0 0.0014513405305868893 0.004340550954511805 0 0.00026627852032745213 0.0052596503091969886 0 0.0011254293730569218 0.0051991586598895021 0 0.000565479783978083 0.0046287246671916343 0 0.000565479783978083 0.0046287246671916343 0 0.0014513405305868893 0.004340550954511805 0 0.0001832855721805368 0.0036898021172645742 0 0.0006393747954108257 0.00010841157269308585 0 -0.00073855950599248301 -0.00031855136585508525 0 -0.00093238735399974327 -0.00077786090871226007 0 0.000106222046811997 -0.00021613574676009146 0 -0.00054364433422224821 0.00011949839297130541 0 0.0006393747954108257 0.00010841157269308585 0 -0.00040497183458455577 -0.0020977851556000615 0 -0.00073855950599248301 -0.00031855136585508525 0 -0.00040497183458455577 -0.0020977851556000615 0 -0.0011628337292091387 0.0043637057976409549 0 -0.00033374778804057769 0.0040705273857381931 0 -0.00078594168977149195 0.0039253023439464281 0 -0.0011928661473181853 0.0045252887149294018 0 -0.00020111939094461943 0.0046413744718963286 0 0.0001832855721805368 0.0036898021172645742 0 -0.00073855950599248301 -0.00031855136585508525 0 -0.0012140266875065289 -0.00046673442397669848 0 -0.0013938275438013209 0.00079154966716772212 0 -0.00073855950599248301 -0.00031855136585508525 0 -0.00020111939094461943 0.0046413744718963286 0 0.000565479783978083 0.0046287246671916343 0 0.0001832855721805368 0.0036898021172645742 0 -0.00033374778804057769 0.0040705273857381931 0 -0.00078594168977149195 0.0039253023439464281 0 -0.00069264837287612085 0.0038766916948193997 0 -0.001222358360138604 -0.00045222874759064802 0 -0.0012140266875065289 -0.00046673442397669848 0 -0.0012140266875065289 -0.00046673442397669848 0 -0.00059417090637497181 -0.002260192656484211 0 -0.00099516778249633415 -0.0013292888700950402 0 -0.0012124273021922112 -0.0012191276043775055 0 -0.0009355201487419026 -0.0011830606450244656 0 -0.00078594168977149195 0.0039253023439464281 0 -0.00068953626256967925 0.0038749640114447963 0 -0.00098568924243952992 0.0037165040499662935 0 -0.00064248497404082046 -0.0016779884619443359 0 -0.00024772680089997794 -0.0014630444124423226 0 -0.0010282660428742655 -0.0010640512730691666 0 -0.0012140266875065289 -0.00046673442397669848 0 -0.0014944914174404155 -4.2375004322036761e-05 0 -0.00099516778249633415 -0.0013292888700950402 0 -0.00090701562145061791 -0.0012816193247442769 0 -0.0009355201487419026 -0.0011830606450244656 0 -0.00059417090637497181 -0.002260192656484211 0 -0.00025605279541509923 -0.0049607757801427609 0 -0.00064248497404082046 -0.0016779884619443359 0 -0.0011755346648424107 -0.0014035550722232061 0 -0.0010282660428742655 -0.0010640512730691666 0 -0.0012376113025725729 -0.0044870086643931627 0 -0.0014393887800774683 -0.0049521528012952103 0 -4.3814113639753584e-05 -0.0051121439427335722 0 -0.00040497183458455577 -0.0020977851556000615 0 -0.00059417090637497181 -0.002260192656484211 0 -0.00079255421118944213 3.5757403210486514e-05 0 -0.00015413414268242899 -0.0014147861362387747 0 0.00097899172994876356 -0.00086303783013635938 0 -0.00079255421118944213 3.5757403210486514e-05 0 -0.00015413414268242899 -0.0014147861362387747 0 -0.0017569147621182594 -0.0021833723129210205 0 -0.0012124273021922112 -0.0012191276043775055 0 -0.0010679180901701354 -0.00088442526325136449 0 -0.0009355201487419026 -0.0011830606450244656 0 -0.0010198452842360263 -0.00089237635063637796 0 -0.0010679180901701354 -0.00088442526325136449 0 -0.0009355201487419026 -0.0011830606450244656 0 -0.0015432551205727463 -0.00076957678292570897 0 -0.0015096620339006982 1.7478838463461917e-05 0 -0.00059417090637497181 -0.002260192656484211 0 -0.0012704939400223938 -0.0010790845739046177 0 0.00095977247223451355 -0.0041074072597190705 0 0.00045823619812659846 -0.004543790716692149 0 0.00096926791393335792 -0.0048170912070840139 0 0.0004431322055777632 -0.0070088167521338155 0 1.9887008807258726e-05 -0.0089247492571723399 0 -0.0042361763265709503 -0.011694381132340989 0 -0.0036704596015567871 -0.013358188527340387 0 -0.0041786853330671178 -0.01506334197593584 0 0.00047987030059594969 -0.0040704532717854135 0 0.00095977247223451355 -0.0041074072597190705 0 0.00045823619812659846 -0.004543790716692149 0 -0.00012314941538171825 -0.0054185552128821739 0 1.9887008807258726e-05 -0.0089247492571723399 0 -0.00063341091410658659 -0.011043843635804221 0 -0.00037678533383575801 -0.0099392715442149383 0 0.00047987030059594969 -0.0040704532717854135 0 -4.8301598537819179e-05 -0.0042736161191296732 0 0.00045823619812659846 -0.004543790716692149 0 -0.0014393887800774683 -0.0049521528012952103 0 -4.3814113639753584e-05 -0.0051121439427335722 0 -0.00014134462880113256 -0.0056277620976462545 0 -0.00040497183458455577 -0.0020977851556000615 0 -0.00012314941538171825 -0.0054185552128821739 0 -4.3814113639753584e-05 -0.0051121439427335722 0 -0.00014134462880113256 -0.0056277620976462545 0 0.0011541899142420587 -0.0057386850264488322 0 -0.00015413414268242899 -0.0014147861362387747 0 0.00097899172994876356 -0.00086303783013635938 0 0.00095831010917398678 -0.0026503447444315674 0 0.00097899172994876356 -0.00086303783013635938 0 0.0019382378754990246 -0.0024128421790232395 0 0.00095831010917398678 -0.0026503447444315674 0 -0.00025605279541509923 -0.0049607757801427609 0 5.4498307264843966e-05 -0.0084766347826672073 0 -0.00014134462880113256 -0.0056277620976462545 0 0.0011613013273432408 -0.006304994360702549 0 0.0011541899142420587 -0.0057386850264488322 0 0.00097899172994876356 -0.00086303783013635938 0 0.0027900307780743447 -0.0017746836007553808 0 0.0019382378754990246 -0.0024128421790232395 0 -0.00021201450059978914 -0.0089839425709397382 0 -0.00010999943263894133 -0.009036269487207137 0 -0.0002124496151363094 -0.009216343383051431 0 5.4498307264843966e-05 -0.0084766347826672073 0 1.9887008807258726e-05 -0.0089247492571723399 0 -0.00014055851444281435 -0.0096924400261479797 0 -0.00037678533383575801 -0.0099392715442149383 0 -0.00014055851444281435 -0.0096924400261479797 0 5.4498307264843966e-05 -0.0084766347826672073 0 -0.0036704596015567871 -0.013358188527340387 0 -0.0036593062807475335 -0.015328886364339401 0 -0.0041786853330671178 -0.01506334197593584 0 -0.00010999943263894133 -0.009036269487207137 0 -0.0002124496151363094 -0.009216343383051431 0 -0.00010752472516340415 -0.0092705716374336701 0 -0.00037678533383575801 -0.0099392715442149383 0 1.9887008807258726e-05 -0.0089247492571723399 0 0.0031189588505416105 -0.0019682486636464821 0 0.0028251691239136495 -0.0030423658846583579 0 0.0032001739993444433 -0.0044069266096569302 0 -0.00014055851444281435 -0.0096924400261479797 0 0.00037254405446188177 -0.012267644783660898 0 5.4498307264843966e-05 -0.0084766347826672073 0 0.00023319980199160658 -0.0070541776886098532 0 0.0027900307780743447 -0.0017746836007553808 0 0.0028251691239136495 -0.0030423658846583579 0 0.0019382378754990246 -0.0024128421790232395 0 0.0031189588505416105 -0.0019682486636464821 0 0.0027797582479096848 -0.0017978883199322271 0 0.0028251691239136495 -0.0030423658846583579 0 0.0028251691239136495 -0.0030423658846583579 0 0.0019382378754990246 -0.0024128421790232395 0 0.0019864263499114478 -0.003776697229590828 0 0.0019382378754990246 -0.0024128421790232395 0 0.00095831010917398678 -0.0026503447444315674 0 0.0019864263499114478 -0.003776697229590828 0 0.00080347555994440909 -0.0048458093752616936 0 0.0019864263499114478 -0.003776697229590828 0 0.0020230779306950834 -0.0053909405294567192 0 0.00095831010917398678 -0.0026503447444315674 0 0.00080347555994440909 -0.0048458093752616936 0 -0.00033942590617565364 -0.0042359342401076848 0 0.00095831010917398678 -0.0026503447444315674 0 0.00080347555994440909 -0.0048458093752616936 0 0.0019864263499114478 -0.003776697229590828 0 0.0019864263499114478 -0.003776697229590828 0 0.0032001739993444433 -0.0044069266096569302 0 0.0020230779306950834 -0.0053909405294567192 0 0.0028251691239136495 -0.0030423658846583579 0 0.0019864263499114478 -0.003776697229590828 0 0.0032001739993444433 -0.0044069266096569302 0 -0.0020083171996083328 -0.0026058144609981573 0 -0.00093730410109098023 -0.0032135315775815854 0 -0.0014934490986223991 -0.0043147516154837832 0 -0.0013062051355595789 0.00064053593439920245 0 -0.0023929069808855626 -0.0019583473753282707 0 -0.0026043447561894229 -0.00015731690809917906 0 -0.0014739180127138426 -0.0013498259482868319 0 -0.0012153265364164797 -0.0031529182164470137 0 -0.0014739180127138426 -0.0013498259482868319 0 -0.0021323797776259153 -0.0024273897096004581 0 -0.0013062051355595789 0.00064053593439920245 0 -0.0015523272968682605 0.0014629562146791029 0 -0.0026043447561894229 -0.00015731690809917906 0 -0.0014739180127138426 -0.0013498259482868319 0 -0.0015432551205727463 -0.00076957678292570897 0 -0.0011591653806566093 1.9359646315608863e-05 0 -0.0005773723746493256 -0.0019674150857353872 0 -0.0019221874182618396 -0.0017396203741389938 0 -0.0014739180127138426 -0.0013498259482868319 0 -0.0012704939400223938 -0.0010790845739046177 0 -0.0020083171996083328 -0.0026058144609981573 0 -0.001825504746587556 -0.0021755098896524979 0 -0.00093730410109098023 -0.0032135315775815854 0 -0.0015432551205727463 -0.00076957678292570897 0 -0.0012704939400223938 -0.0010790845739046177 0 0.00095831010917398678 -0.0026503447444315674 0 -0.00093730410109098023 -0.0032135315775815854 0 -0.00033942590617565364 -0.0042359342401076848 0 0.00095831010917398678 -0.0026503447444315674 0 -0.001825504746587556 -0.0021755098896524979 0 -0.00093730410109098023 -0.0032135315775815854 0 -0.00015413414268242899 -0.0014147861362387747 0 0.00095831010917398678 -0.0026503447444315674 0 -0.0017569147621182594 -0.0021833723129210205 0 -0.00021497384202644402 -0.0016059263854902412 0 -0.0012704939400223938 -0.0010790845739046177 0 -0.00033942590617565364 -0.0042359342401076848 0 -0.0014934490986223991 -0.0043147516154837832 0 -0.0010615909838749744 -0.0059265961676794494 0 -0.00093730410109098023 -0.0032135315775815854 0 -0.00033942590617565364 -0.0042359342401076848 0 -0.0014934490986223991 -0.0043147516154837832 0 -0.0022377977150965208 -0.001494788442505311 0 -0.001634085694453301 -0.0035386888379717227 0 -0.0030183263748434761 -0.0032957164047135732 0 -0.001634085694453301 -0.0035386888379717227 0 -0.0030183263748434761 -0.0032957164047135732 0 -0.0024976953943229947 -0.0048203738321842392 0 -0.0023929069808855626 -0.0019583473753282707 0 -0.0045283538499211557 -0.0027628024499467439 0 -0.0037428558704108118 -0.0048416172324288638 0 -0.0021323797776259153 -0.0024273897096004581 0 -0.002483958908750829 -0.0030964266216596155 0 -0.0045283538499211557 -0.0027628024499467439 0 -0.0037747849111929343 -0.00125323354319821 0 -0.0058988339233819308 -0.0014796011929521483 0 -0.0023929069808855626 -0.0019583473753282707 0 -0.0037747849111929343 -0.00125323354319821 0 -0.0026043447561894229 -0.00015731690809917906 0 -0.0023929069808855626 -0.0019583473753282707 0 -0.0045283538499211557 -0.0027628024499467439 0 -0.0037747849111929343 -0.00125323354319821 0 -0.0037747849111929343 -0.00125323354319821 0 -0.0026043447561894229 -0.00015731690809917906 0 -0.0040073949703896246 0.0002892525894542173 0 -0.0015523272968682605 0.0014629562146791029 0 -0.0040073949703896246 0.0002892525894542173 0 -0.005908403046117232 0.0022079919806022494 0 -0.0037747849111929343 -0.00125323354319821 0 -0.0040073949703896246 0.0002892525894542173 0 -0.0058988339233819308 -0.0014796011929521483 0 -0.0015523272968682605 0.0014629562146791029 0 -0.0026043447561894229 -0.00015731690809917906 0 -0.0040073949703896246 0.0002892525894542173 0 -0.0040073949703896246 0.0002892525894542173 0 -0.0069018257201174582 0.00030612462563912537 0 -0.0058988339233819308 -0.0014796011929521483 0 -0.0040073949703896246 0.0002892525894542173 0 -0.0069018257201174582 0.00030612462563912537 0 -0.005908403046117232 0.0022079919806022494 0 -0.0069018257201174582 0.00030612462563912537 0 -0.0087292094313593371 0.0012671680400513407 0 -0.005908403046117232 0.0022079919806022494 0 -0.0069018257201174582 0.00030612462563912537 0 -0.0058988339233819308 -0.0014796011929521483 0 -0.0075536296364704485 -0.0011133556386064916 0 -0.0058988339233819308 -0.0014796011929521483 0 -0.0075523740830543661 -0.002527326898627523 0 -0.0075536296364704485 -0.0011133556386064916 0 -0.0045283538499211557 -0.0027628024499467439 0 -0.0058988339233819308 -0.0014796011929521483 0 -0.0062783164736184794 -0.0032225247580725818 0 -0.0058988339233819308 -0.0014796011929521483 0 -0.0062783164736184794 -0.0032225247580725818 0 -0.0075523740830543661 -0.002527326898627523 0 -0.0062783164736184794 -0.0032225247580725818 0 -0.0075523740830543661 -0.002527326898627523 0 -0.0077587485347203264 -0.0036918927726016194 0 -0.0075523740830543661 -0.002527326898627523 0 -0.0085071210357080523 -0.003135722432468558 0 -0.0077587485347203264 -0.0036918927726016194 0 -0.0075523740830543661 -0.002527326898627523 0 -0.0085071210357080523 -0.003135722432468558 0 -0.0085774118720066909 -0.0019941292561332382 0 -0.0085071210357080523 -0.003135722432468558 0 -0.0093198181634491506 -0.003557566882218758 0 -0.0085774118720066909 -0.0019941292561332382 0 -0.0093198181634491506 -0.003557566882218758 0 -0.0085774118720066909 -0.0019941292561332382 0 -0.0093351472802601244 -0.00075631939571964085 0 -0.0085774118720066909 -0.0019941292561332382 0 -0.0093351472802601244 -0.00075631939571964085 0 -0.0086056102577341149 -0.00027038126513209476 0 -0.0085774118720066909 -0.0019941292561332382 0 -0.0075536296364704485 -0.0011133556386064916 0 -0.0086056102577341149 -0.00027038126513209476 0 -0.0075523740830543661 -0.002527326898627523 0 -0.0085774118720066909 -0.0019941292561332382 0 -0.0075536296364704485 -0.0011133556386064916 0 -0.0093198181634491506 -0.003557566882218758 0 -0.0093351472802601244 -0.00075631939571964085 0 -0.010782205185298776 0.0014249060434588668 0 -0.010952781158795466 0.0017711852398793308 0 -0.01084165759024646 0.00156123725970001 0 -0.010782205185298776 0.0014249060434588668 0 -0.0099804591915754158 -0.00014226362367840691 0 -0.010247310073764034 0.00040570140423000251 0 -0.010791332840262787 0.0017536751692561275 0 -0.010847688097403777 0.001700373193052399 0 -0.01079933217745371 0.0016731352576577401 0 -0.010791332840262787 0.0017536751692561275 0 -0.01085106110730419 0.0017729174999248547 0 -0.010791145276800522 0.0018150053147939144 0 -0.010791332840262787 0.0017536751692561275 0 -0.01085106110730419 0.0017729174999248547 0 -0.010847688097403777 0.001700373193052399 0 -0.010952781158795466 0.0017711852398793308 0 -0.010847688097403777 0.001700373193052399 0 -0.01084165759024646 0.00156123725970001 0 -0.010952781158795466 0.0017711852398793308 0 -0.01085106110730419 0.0017729174999248547 0 -0.010847688097403777 0.001700373193052399 0 -0.010847688097403777 0.001700373193052399 0 -0.01084165759024646 0.00156123725970001 0 -0.01079933217745371 0.0016731352576577401 0 -0.01084165759024646 0.00156123725970001 0 -0.01079933217745371 0.0016731352576577401 0 -0.010780883747586484 0.0016151490084942257 0 -0.01084165759024646 0.00156123725970001 0 -0.0108695306151488 0.001396291099712389 0 -0.010782205185298776 0.0014249060434588668 0 -0.01084165759024646 0.00156123725970001 0 -0.010809133144405491 0.0015304682944196864 0 -0.010780883747586484 0.0016151490084942257 0 -0.01084165759024646 0.00156123725970001 0 -0.010809133144405491 0.0015304682944196864 0 -0.0108695306151488 0.001396291099712389 0 -0.0093351472802601244 -0.00075631939571964085 0 -0.010782205185298776 0.0014249060434588668 0 -0.0094987385969735154 0.00057277797324325282 0 -0.010782205185298776 0.0014249060434588668 0 -0.009822007790238502 0.0014942477149895714 0 -0.0094987385969735154 0.00057277797324325282 0 -0.0069018257201174582 0.00030612462563912537 0 -0.0075536296364704485 -0.0011133556386064916 0 -0.0086056102577341149 -0.00027038126513209476 0 -0.0069018257201174582 0.00030612462563912537 0 -0.0086056102577341149 -0.00027038126513209476 0 -0.0087292094313593371 0.0012671680400513407 0 -0.0086056102577341149 -0.00027038126513209476 0 -0.0094987385969735154 0.00057277797324325282 0 -0.0087292094313593371 0.0012671680400513407 0 -0.0093351472802601244 -0.00075631939571964085 0 -0.0086056102577341149 -0.00027038126513209476 0 -0.0094987385969735154 0.00057277797324325282 0 -0.009822007790238502 0.0014942477149895714 0 -0.0094987385969735154 0.00057277797324325282 0 -0.0087292094313593371 0.0012671680400513407 0 -0.0039237739213300116 0.0025246814081206427 0 -0.0021460393760663141 0.0037766061648339543 0 -0.0020162428507664318 0.0022752684516636392 0 -0.0067392638344316884 0.002072955274426966 0 -0.0041368227689837604 0.0010674501215832738 0 -0.0087292094313593371 0.0012671680400513407 0 -0.010089757528402734 0.0027989864013609062 0 -0.005908403046117232 0.0022079919806022494 0 -0.009822007790238502 0.0014942477149895714 0 -0.0087292094313593371 0.0012671680400513407 0 -0.010089757528402734 0.0027989864013609062 0 -0.0039237739213300116 0.0025246814081206427 0 -0.0048337343738286921 0.0036165771516321246 0 -0.0060182636472957823 0.0028348233128635907 0 -0.010782205185298776 0.0014249060434588668 0 -0.010089757528402734 0.0027989864013609062 0 -0.01257207203103199 0.0029820116397686444 0 -0.010782205185298776 0.0014249060434588668 0 -0.009822007790238502 0.0014942477149895714 0 -0.010089757528402734 0.0027989864013609062 0 -0.004735117026579804 0.0049537669084684629 0 -0.0037986028006530724 0.0040292200017588223 0 -0.0048337343738286921 0.0036165771516321246 0 -0.0039237739213300116 0.0025246814081206427 0 -0.0037986028006530724 0.0040292200017588223 0 -0.0048337343738286921 0.0036165771516321246 0 -0.0039237739213300116 0.0025246814081206427 0 -0.0037986028006530724 0.0040292200017588223 0 -0.0021460393760663141 0.0037766061648339543 0 -0.0021460393760663141 0.0037766061648339543 0 -0.001454652205471784 0.0031245769714569002 0 -0.0020162428507664318 0.0022752684516636392 0 -0.0021460393760663141 0.0037766061648339543 0 -0.0014241911753339993 0.0038687238009951978 0 -0.001454652205471784 0.0031245769714569002 0 -0.0014241911753339993 0.0038687238009951978 0 -0.00091706900544798273 0.0037182432355124255 0 -0.0007676400344966656 0.0033075520866004317 0 -0.0014944914174404155 -4.2375004322036761e-05 0 -0.0015096620339006982 1.7478838463461917e-05 0 -0.0007676400344966656 0.0033075520866004317 0 -0.001454652205471784 0.0031245769714569002 0 -0.0011446210431164999 0.0026934135835678498 0 -0.0014241911753339993 0.0038687238009951978 0 -0.0007676400344966656 0.0033075520866004317 0 -0.001454652205471784 0.0031245769714569002 0 -0.00036602381867841823 0.0020437268857982707 0 -0.0007676400344966656 0.0033075520866004317 0 -0.0011446210431164999 0.0026934135835678498 0 -0.00036602381867841823 0.0020437268857982707 0 -0.0011446210431164999 0.0026934135835678498 0 -0.0020162428507664318 0.0022752684516636392 0 -0.001454652205471784 0.0031245769714569002 0 -0.0011446210431164999 0.0026934135835678498 0 -0.0020162428507664318 0.0022752684516636392 0 -0.0015432551205727463 -0.00076957678292570897 0 -0.0041368227689837604 0.0010674501215832738 0 0.013159570527972873 -0.0075318737035256177 0 0.011717789778246814 -0.0097386182418640888 0 0.011036163301186237 -0.0074918564082334851 0 0.011717789778246814 -0.0097386182418640888 0 0.0097903023803154049 -0.0097697788828059549 0 0.011036163301186237 -0.0074918564082334851 0 0.0097903023803154049 -0.0097697788828059549 0 0.0087156906773979987 -0.0073889792780145866 0 0.0069047619984741329 -0.010486444792561887 0 0.0097903023803154049 -0.0097697788828059549 0 0.0087156906773979987 -0.0073889792780145866 0 0.011036163301186237 -0.0074918564082334851 0 0.0087156906773979987 -0.0073889792780145866 0 0.011036163301186237 -0.0074918564082334851 0 0.010361489102869666 -0.0052858045795380407 0 0.0087156906773979987 -0.0073889792780145866 0 0.010361489102869666 -0.0052858045795380407 0 0.0086097762775728115 -0.0042957436793072939 0 0.013159570527972873 -0.0075318737035256177 0 0.011036163301186237 -0.0074918564082334851 0 0.012213060414898268 -0.0055632217824985331 0 0.011036163301186237 -0.0074918564082334851 0 0.012213060414898268 -0.0055632217824985331 0 0.010361489102869666 -0.0052858045795380407 0 0.012213060414898268 -0.0055632217824985331 0 0.011205962364489831 -0.0035056587089247939 0 0.010361489102869666 -0.0052858045795380407 0 0.013074647650297514 -0.0041312771918670319 0 0.012213060414898268 -0.0055632217824985331 0 0.011205962364489831 -0.0035056587089247939 0 0.011205962364489831 -0.0035056587089247939 0 0.0092707747835297557 -0.0028540698786365185 0 0.010361489102869666 -0.0052858045795380407 0 0.0099733614254931633 -0.0014656546257003375 0 0.011205962364489831 -0.0035056587089247939 0 0.0092707747835297557 -0.0028540698786365185 0 0.0092707747835297557 -0.0028540698786365185 0 0.010361489102869666 -0.0052858045795380407 0 0.0086097762775728115 -0.0042957436793072939 0 0.0086097762775728115 -0.0042957436793072939 0 0.0084917036730487432 -0.0025776502075986136 0 0.0083932338492080944 -0.0031331093446626259 0 0.007410869362020245 -0.0046864758071876282 0 0.0064170492077346855 -0.0049386017614191872 0 0.0092707747835297557 -0.0028540698786365185 0 0.0086097762775728115 -0.0042957436793072939 0 0.0084917036730487432 -0.0025776502075986136 0 0.0084917036730487432 -0.0025776502075986136 0 0.0083932338492080944 -0.0031331093446626259 0 0.008228972359952574 -0.0024991969507781645 0 0.0044353316514290538 -0.0049547748173327444 0 0.0058507869903295096 -0.0075337635036816378 0 0.0028903131952555884 -0.0075116560903986758 0 0.0086097762775728115 -0.0042957436793072939 0 0.0044353316514290538 -0.0049547748173327444 0 0.0058507869903295096 -0.0075337635036816378 0 0.0087156906773979987 -0.0073889792780145866 0 0.0086097762775728115 -0.0042957436793072939 0 0.0058507869903295096 -0.0075337635036816378 0 0.0087156906773979987 -0.0073889792780145866 0 0.0058507869903295096 -0.0075337635036816378 0 0.0069047619984741329 -0.010486444792561887 0 0.0058507869903295096 -0.0075337635036816378 0 0.0040038070673992553 -0.0095968215998525307 0 0.0028903131952555884 -0.0075116560903986758 0 0.0058507869903295096 -0.0075337635036816378 0 0.0040038070673992553 -0.0095968215998525307 0 0.0069047619984741329 -0.010486444792561887 0 0.0020488121618468954 -0.0093203955484476193 0 0.00025790991568724219 -0.0079591040819532791 0 0.0028903131952555884 -0.0075116560903986758 0 0.0040038070673992553 -0.0095968215998525307 0 0.0020488121618468954 -0.0093203955484476193 0 0.0028903131952555884 -0.0075116560903986758 0 0.0040038070673992553 -0.0095968215998525307 0 0.0020488121618468954 -0.0093203955484476193 0 0.0026557191197913227 -0.010758377800118046 0 0.0020488121618468954 -0.0093203955484476193 0 0.0003757819274979542 -0.010349083101977198 0 0.00025790991568724219 -0.0079591040819532791 0 0.0020488121618468954 -0.0093203955484476193 0 0.0003757819274979542 -0.010349083101977198 0 0.0026557191197913227 -0.010758377800118046 0 0.0009130354727323013 -0.011392476375916468 0 -0.0010584965395876418 -0.009259501566036615 0 -0.00015318117918816741 -0.01173977203705109 0 0.0016882374992536716 -0.010610910788927867 0 0.0013675732876518316 -0.0089678816213477498 0 0.0003757819274979542 -0.010349083101977198 0 0.00025790991568724219 -0.0079591040819532791 0 -0.0021067341319903838 -0.0076758473606461358 0 0.0045180336177092703 -0.00571645004996641 0 0.0020423873492006954 -0.0072879212203451494 0 0.00025790991568724219 -0.0079591040819532791 0 0.00086354709523008607 -0.0056354144371530699 0 -0.0021067341319903838 -0.0076758473606461358 0 0.00086354709523008607 -0.0056354144371530699 0 -0.0026393929162686568 -0.006225515639403479 0 -0.0021067341319903838 -0.0076758473606461358 0 0.0044353316514290538 -0.0049547748173327444 0 0.00086354709523008607 -0.0056354144371530699 0 0.0028903131952555884 -0.0075116560903986758 0 0.00025790991568724219 -0.0079591040819532791 0 0.00086354709523008607 -0.0056354144371530699 0 0.0028903131952555884 -0.0075116560903986758 0 0.0064170492077346855 -0.0049386017614191872 0 0.0045180336177092703 -0.00571645004996641 0 0.0083932338492080944 -0.0031331093446626259 0 0.0081128048370294348 -0.0027123067102717462 0 0.008228972359952574 -0.0024991969507781645 0 0.008228972359952574 -0.0024991969507781645 0 0.0082123158044849435 -0.001888297087196104 0 0.0080608703340171606 -0.001949501413128836 0 0.0084917036730487432 -0.0025776502075986136 0 0.008228972359952574 -0.0024991969507781645 0 0.0082123158044849435 -0.001888297087196104 0 0.008228972359952574 -0.0024991969507781645 0 0.0080608703340171606 -0.001949501413128836 0 0.0079822307311366841 -0.0023558959344344185 0 0.0079289518200150299 -0.0012545407065705403 0 0.0080608703340171606 -0.001949501413128836 0 0.0079012175376274116 -0.0019953394449096925 0 0.0080608703340171606 -0.001949501413128836 0 0.0079012175376274116 -0.0019953394449096925 0 0.0079822307311366841 -0.0023558959344344185 0 0.0081128048370294348 -0.0027123067102717462 0 0.0077556742965751834 -0.0025138672003951878 0 0.0076566778728501313 -0.0027247475306420728 0 0.0081128048370294348 -0.0027123067102717462 0 0.008228972359952574 -0.0024991969507781645 0 0.0079822307311366841 -0.0023558959344344185 0 0.0079012175376274116 -0.0019953394449096925 0 0.0079822307311366841 -0.0023558959344344185 0 0.0077185804902904637 -0.0022698372958637795 0 0.0081128048370294348 -0.0027123067102717462 0 0.0079822307311366841 -0.0023558959344344185 0 0.0077556742965751834 -0.0025138672003951878 0 0.0077556742965751834 -0.0025138672003951878 0 0.0075216562157391564 -0.0023899256364891572 0 0.0076566778728501313 -0.0027247475306420728 0 -0.00103524095134652 -0.0064950914476951073 0 -0.0012475157514236414 -0.008674935574474716 0 -0.00028790471134900532 -0.0085200307709449013 0 0.0022485951275480628 -0.0039364708534190994 0 0.0020423873492006954 -0.0072879212203451494 0 0.0074384160132722451 -0.0024367783820700485 0 0.0077185804902904637 -0.0022698372958637795 0 0.0072298754294484579 -0.0020668004961841881 0 0.0022485951275480628 -0.0039364708534190994 0 0.0027516968557751514 -0.0036984397208309943 0 0.0077556742965751834 -0.0025138672003951878 0 0.0075216562157391564 -0.0023899256364891572 0 0.0077185804902904637 -0.0022698372958637795 0 0.0079822307311366841 -0.0023558959344344185 0 0.0077556742965751834 -0.0025138672003951878 0 0.0077185804902904637 -0.0022698372958637795 0 0.0077800247361245823 0.0003450697933141058 0 0.0077759028158252436 -0.0016867782169914076 0 0.0072298754294484579 -0.0020668004961841881 0 0.0079012175376274116 -0.0019953394449096925 0 0.0077185804902904637 -0.0022698372958637795 0 0.0077759028158252436 -0.0016867782169914076 0 0.0022485951275480628 -0.0039364708534190994 0 0.0026042675976887357 -0.0038944160551903769 0 0.0077185804902904637 -0.0022698372958637795 0 0.0077759028158252436 -0.0016867782169914076 0 0.0072298754294484579 -0.0020668004961841881 0 0.0079289518200150299 -0.0012545407065705403 0 0.0079012175376274116 -0.0019953394449096925 0 0.0077759028158252436 -0.0016867782169914076 0 0.0042251615381664401 -0.0026343592993518057 0 0.0058222278102059771 -0.00098727696347476052 0 0.0058380852389182817 -0.0035597683822956219 0 0.0058222278102059771 -0.00098727696347476052 0 0.0072298754294484579 -0.0020668004961841881 0 0.0058380852389182817 -0.0035597683822956219 0 0.0077800247361245823 0.0003450697933141058 0 0.0058222278102059771 -0.00098727696347476052 0 0.0072298754294484579 -0.0020668004961841881 0 0.0042976819431424845 -0.0061505951379660683 0 0.0079596975375220459 -0.0042147356140572632 0 0.0058380852389182817 -0.0035597683822956219 0 -0.0042778363843916367 -0.0082554383937331957 0 -0.00103524095134652 -0.0064950914476951073 0 -0.0023108854443022382 -0.0084647353707146267 0 0.0019174245194383771 -0.0026841982905456176 0 0.0022485951275480628 -0.0039364708534190994 0 0.0079596975375220459 -0.0042147356140572632 0 0.0072298754294484579 -0.0020668004961841881 0 0.0058380852389182817 -0.0035597683822956219 0 -0.00103524095134652 -0.0064950914476951073 0 -0.0023108854443022382 -0.0084647353707146267 0 -0.0012475157514236414 -0.008674935574474716 0 -0.0042778363843916367 -0.0082554383937331957 0 -0.0023227062739906608 -0.0098442749421694224 0 -0.0023108854443022382 -0.0084647353707146267 0 -0.0042778363843916367 -0.0082554383937331957 0 -0.0023227062739906608 -0.0098442749421694224 0 -0.0030650640596660617 -0.010755810401309629 0 -0.0023227062739906608 -0.0098442749421694224 0 -0.0016975588457624347 -0.0093303244712554904 0 -0.0023108854443022382 -0.0084647353707146267 0 -0.0015577115809745979 -0.010077024698845815 0 -0.0023227062739906608 -0.0098442749421694224 0 -0.0016975588457624347 -0.0093303244712554904 0 -0.0016975588457624347 -0.0093303244712554904 0 -0.0023108854443022382 -0.0084647353707146267 0 -0.0012475157514236414 -0.008674935574474716 0 0.0018204133405876929 -0.0073397305842097058 0 0.0020423873492006954 -0.0072879212203451494 0 -0.0012475157514236414 -0.008674935574474716 0 -0.00029947632873916698 -0.0085254900321283782 0 -0.0006837999390116316 -0.0090625808763358084 0 -0.00029947632873916698 -0.0085254900321283782 0 -0.00016355488354840845 -0.0094683364854263354 0 -0.0006837999390116316 -0.0090625808763358084 0 -0.00029947632873916698 -0.0085254900321283782 0 -0.00016355488354840845 -0.0094683364854263354 0 0.00018654336183426766 -0.0098469326258828344 0 0.0020423873492006954 -0.0072879212203451494 0 0.0013675732876518316 -0.0089678816213477498 0 -0.00016355488354840845 -0.0094683364854263354 0 0.0001857288016683886 -0.0098487779980043367 0 -0.00043617781852719746 -0.010021325968837551 0 0.0013544096181376316 -0.008965329534560796 0 0.0013675732876518316 -0.0089678816213477498 0 -0.0016975588457624347 -0.0093303244712554904 0 -0.0012475157514236414 -0.008674935574474716 0 -0.0010502158045328899 -0.0095885120065516295 0 -0.0012475157514236414 -0.008674935574474716 0 -0.0006837999390116316 -0.0090625808763358084 0 -0.0010502158045328899 -0.0095885120065516295 0 -0.00016355488354840845 -0.0094683364854263354 0 -0.0006837999390116316 -0.0090625808763358084 0 -0.0010502158045328899 -0.0095885120065516295 0 -0.00043617781852719746 -0.010021325968837551 0 -0.0010502158045328899 -0.0095885120065516295 0 -0.00090090674713590797 -0.010497827191899978 0 -0.00016355488354840845 -0.0094683364854263354 0 -0.00043617781852719746 -0.010021325968837551 0 -0.0010502158045328899 -0.0095885120065516295 0 -0.0015577115809745979 -0.010077024698845815 0 -0.0016975588457624347 -0.0093303244712554904 0 -0.0010502158045328899 -0.0095885120065516295 0 -0.0015577115809745979 -0.010077024698845815 0 -0.0010502158045328899 -0.0095885120065516295 0 -0.00090090674713590797 -0.010497827191899978 0 -0.00090090674713590797 -0.010497827191899978 0 -0.00059780593372497405 -0.011341445650127338 0 -0.0017213579808987454 -0.011200988575586875 0 0.0001857288016683886 -0.0098487779980043367 0 0.00023358440523553781 -0.011436392897163163 0 0.0012141090037690325 -0.012676732991905181 0 0.0013675732876518316 -0.0089678816213477498 0 0.001522582773772345 -0.011978926742647958 0 -0.0015577115809745979 -0.010077024698845815 0 -0.00090090674713590797 -0.010497827191899978 0 -0.0017213579808987454 -0.011200988575586875 0 -0.00043617781852719746 -0.010021325968837551 0 -0.00090090674713590797 -0.010497827191899978 0 -0.00029103347715574379 -0.01063463079740524 0 -0.00090090674713590797 -0.010497827191899978 0 -0.00029103347715574379 -0.01063463079740524 0 -0.00059780593372497405 -0.011341445650127338 0 0.0001857288016683886 -0.0098487779980043367 0 -0.00029103347715574379 -0.01063463079740524 0 0.00023358440523553781 -0.011436392897163163 0 0.0001857288016683886 -0.0098487779980043367 0 -0.00043617781852719746 -0.010021325968837551 0 -0.00029103347715574379 -0.01063463079740524 0 -0.00029103347715574379 -0.01063463079740524 0 0.00023358440523553781 -0.011436392897163163 0 -0.00059780593372497405 -0.011341445650127338 0 0.00023358440523553781 -0.011436392897163163 0 0.00037276161972043544 -0.012270990090390909 0 0.0012141090037690325 -0.012676732991905181 0 0.00023358440523553781 -0.011436392897163163 0 -0.00013923291903878251 -0.012071175633150161 0 -0.00059780593372497405 -0.011341445650127338 0 0.00023358440523553781 -0.011436392897163163 0 -0.00013923291903878251 -0.012071175633150161 0 0.00037276161972043544 -0.012270990090390909 0 -0.0008755053386371673 -0.012316381608054891 0 -0.0017487738919219017 -0.01231235318728062 0 -0.0017213579808987454 -0.011200988575586875 0 -0.00059780593372497405 -0.011341445650127338 0 -0.0008755053386371673 -0.012316381608054891 0 -0.0017213579808987454 -0.011200988575586875 0 -0.00013923291903878251 -0.012071175633150161 0 -0.00059780593372497405 -0.011341445650127338 0 -0.0008755053386371673 -0.012316381608054891 0 -0.0030650640596660617 -0.010755810401309629 0 -0.0017213579808987454 -0.011200988575586875 0 -0.0027138030039592712 -0.012355713619958637 0 -0.0017487738919219017 -0.01231235318728062 0 -0.0017213579808987454 -0.011200988575586875 0 -0.0027138030039592712 -0.012355713619958637 0 -0.0042361763265709503 -0.011694381132340989 0 -0.0030650640596660617 -0.010755810401309629 0 -0.0027138030039592712 -0.012355713619958637 0 -0.0015577115809745979 -0.010077024698845815 0 -0.0023227062739906608 -0.0098442749421694224 0 -0.0017213579808987454 -0.011200988575586875 0 -0.0023227062739906608 -0.0098442749421694224 0 -0.0030650640596660617 -0.010755810401309629 0 -0.0017213579808987454 -0.011200988575586875 0 -0.0024176832501022804 -0.013742148306448572 0 -0.0016661743009195522 -0.01316837299843448 0 -0.0014880775119625849 -0.014085329695963489 0 -0.0024176832501022804 -0.013742148306448572 0 -0.0014880775119625849 -0.014085329695963489 0 -0.0020048128197743082 -0.014840861200433316 0 -0.0024176832501022804 -0.013742148306448572 0 -0.0029883990951772438 -0.014493546697667198 0 -0.0020048128197743082 -0.014840861200433316 0 -0.0036704596015567871 -0.013358188527340387 0 -0.0036806606850952103 -0.015384607937169646 0 -0.0029883990951772438 -0.014493546697667198 0 -0.0036704596015567871 -0.013358188527340387 0 -0.0024176832501022804 -0.013742148306448572 0 -0.0029883990951772438 -0.014493546697667198 0 -0.0036704596015567871 -0.013358188527340387 0 -0.0024176832501022804 -0.013742148306448572 0 -0.0027138030039592712 -0.012355713619958637 0 -0.0042361763265709503 -0.011694381132340989 0 -0.0036704596015567871 -0.013358188527340387 0 -0.0027138030039592712 -0.012355713619958637 0 -0.0024176832501022804 -0.013742148306448572 0 -0.0027138030039592712 -0.012355713619958637 0 -0.0016661743009195522 -0.01316837299843448 0 -0.0017487738919219017 -0.01231235318728062 0 -0.0027138030039592712 -0.012355713619958637 0 -0.0016661743009195522 -0.01316837299843448 0 -0.0008755053386371673 -0.012316381608054891 0 -0.0017487738919219017 -0.01231235318728062 0 -0.0016661743009195522 -0.01316837299843448 0 -0.0008755053386371673 -0.012316381608054891 0 -0.0016661743009195522 -0.01316837299843448 0 -0.00087309338068800306 -0.013513565930375095 0 -0.0008755053386371673 -0.012316381608054891 0 0.00017154203704292044 -0.012993575143827062 0 -0.00087309338068800306 -0.013513565930375095 0 0.00037276161972043544 -0.012270990090390909 0 0.00017154203704292044 -0.012993575143827062 0 0.0012141090037690325 -0.012676732991905181 0 -0.00013923291903878251 -0.012071175633150161 0 -0.0008755053386371673 -0.012316381608054891 0 0.00017154203704292044 -0.012993575143827062 0 -0.00013923291903878251 -0.012071175633150161 0 0.00037276161972043544 -0.012270990090390909 0 0.00017154203704292044 -0.012993575143827062 0 -0.00087309338068800306 -0.013513565930375095 0 -0.0014880775119625849 -0.014085329695963489 0 -0.000531531793153215 -0.014844800836152347 0 0.00017154203704292044 -0.012993575143827062 0 -0.00087309338068800306 -0.013513565930375095 0 -0.000531531793153215 -0.014844800836152347 0 -0.0016661743009195522 -0.01316837299843448 0 -0.00087309338068800306 -0.013513565930375095 0 -0.0014880775119625849 -0.014085329695963489 0 -0.000531531793153215 -0.014844800836152347 0 0.00064896583414405704 -0.015945319121069133 0 -0.0016350838178856423 -0.016454231717398102 0 -0.0014880775119625849 -0.014085329695963489 0 -0.000531531793153215 -0.014844800836152347 0 -0.0020048128197743082 -0.014840861200433316 0 0.00017154203704292044 -0.012993575143827062 0 -0.000531531793153215 -0.014844800836152347 0 0.00064896583414405704 -0.015945319121069133 0 -0.000531531793153215 -0.014844800836152347 0 -0.0016350838178856423 -0.016454231717398102 0 -0.0020048128197743082 -0.014840861200433316 0 0.00064896583414405704 -0.015945319121069133 0 -0.0016350838178856423 -0.016454231717398102 0 0.00038744859090822955 -0.017523023375279997 0 -0.0016350838178856423 -0.016454231717398102 0 -0.0025768801019039199 -0.015293846282276076 0 -0.0020048128197743082 -0.014840861200433316 0 -0.0029883990951772438 -0.014493546697667198 0 -0.0025768801019039199 -0.015293846282276076 0 -0.0020048128197743082 -0.014840861200433316 0 -0.0036806606850952103 -0.015384607937169646 0 -0.0029883990951772438 -0.014493546697667198 0 -0.0025768801019039199 -0.015293846282276076 0 -0.00037678533383575801 -0.0099392715442149383 0 6.3715952752383941e-05 -0.011933102360269959 0 -0.003554464720209166 -0.016554034028588471 0 -0.0035537366157795051 -0.015425698232790419 0 -0.0015757435368557735 -0.016470386586436101 0 -0.0036806606850952103 -0.015384607937169646 0 -0.0016350838178856423 -0.016454231717398102 0 -0.0025768801019039199 -0.015293846282276076 0 -0.00014055851444281435 -0.0096924400261479797 0 0.0013582955833981065 -0.01420932319364133 0 -0.0017336164381925026 -0.017586417429269367 0 -0.0009635297643143171 -0.018862534255693262 0 0.00036619227034066342 -0.018691704402056301 0 -0.003554464720209166 -0.016554034028588471 0 -0.0015757435368557735 -0.016470386586436101 0 -0.0005531390623726612 -0.018134533809279905 0 -0.0017336164381925026 -0.017586417429269367 0 -0.0017226479347202291 -0.020105170651542485 0 -0.0009635297643143171 -0.018862534255693262 0 -0.0009635297643143171 -0.018862534255693262 0 -0.0001626006375007076 -0.019699864953464003 0 0.00036619227034066342 -0.018691704402056301 0 -0.0017226479347202291 -0.020105170651542485 0 -0.0009635297643143171 -0.018862534255693262 0 -0.0001626006375007076 -0.019699864953464003 0 -0.0017226479347202291 -0.020105170651542485 0 -0.0001626006375007076 -0.019699864953464003 0 0.00054642519246123186 -0.020941737977064879 0 0.0010010692760669725 -0.019970458107733964 0 0.0016393180770041705 -0.02083040055224325 0 0.00054642519246123186 -0.020941737977064879 0 0.0010010692760669725 -0.019970458107733964 0 -0.0001626006375007076 -0.019699864953464003 0 0.00054642519246123186 -0.020941737977064879 0 0.0010010692760669725 -0.019970458107733964 0 -0.0001626006375007076 -0.019699864953464003 0 0.00036619227034066342 -0.018691704402056301 0 -0.0005531390623726612 -0.018134533809279905 0 0.00038744859090822955 -0.017523023375279997 0 0.0014228195929754399 -0.01819814532937997 0 6.3715952752383941e-05 -0.011933102360269959 0 0.00046788654702274669 -0.012690758767963816 0 -0.0015757435368557735 -0.016470386586436101 0 -0.0005531390623726612 -0.018134533809279905 0 0.00038744859090822955 -0.017523023375279997 0 0.00064896583414405704 -0.015945319121069133 0 0.00038744859090822955 -0.017523023375279997 0 0.0015787863494168889 -0.017119969793798713 0 0.0015787863494168889 -0.017119969793798713 0 0.0031692011378524243 -0.0187379252629481 0 0.0021870041207333333 -0.015526140727766809 0 0.00038744859090822955 -0.017523023375279997 0 0.0015787863494168889 -0.017119969793798713 0 0.0014228195929754399 -0.01819814532937997 0 -0.0005531390623726612 -0.018134533809279905 0 0.0014228195929754399 -0.01819814532937997 0 0.0024299960583324966 -0.019662072700473026 0 0.0026399296494390417 -0.016613498226771363 0 0.0021292739400896941 -0.015079064490048203 0 0.0015787863494168889 -0.017119969793798713 0 0.0014228195929754399 -0.01819814532937997 0 0.0031692011378524243 -0.0187379252629481 0 0.0014228195929754399 -0.01819814532937997 0 0.0024299960583324966 -0.019662072700473026 0 0.0031692011378524243 -0.0187379252629481 0 0.0013582955833981065 -0.01420932319364133 0 0.0022773656963463655 -0.015735148663751728 0 0.0010010692760669725 -0.019970458107733964 0 0.00036619227034066342 -0.018691704402056301 0 0.0024299960583324966 -0.019662072700473026 0 0.0010010692760669725 -0.019970458107733964 0 0.0024299960583324966 -0.019662072700473026 0 0.0016393180770041705 -0.02083040055224325 0 0.0036642675859340102 -0.020072964948081091 0 0.0038686023366727509 -0.018326350515482356 0 0.0053758380920227097 -0.020275723527206212 0 0.0024299960583324966 -0.019662072700473026 0 0.0036642675859340102 -0.020072964948081091 0 0.0026805751882734014 -0.021532552722797964 0 0.0036642675859340102 -0.020072964948081091 0 0.0038686023366727509 -0.018326350515482356 0 0.0031692011378524243 -0.0187379252629481 0 0.0024299960583324966 -0.019662072700473026 0 0.0036642675859340102 -0.020072964948081091 0 0.0031692011378524243 -0.0187379252629481 0 0.0035270190111726819 -0.017284387652883579 0 0.0021292739400896941 -0.015079064490048203 0 0.0038686023366727509 -0.018326350515482356 0 0.0031692011378524243 -0.0187379252629481 0 0.002320579163727088 -0.016459503616896909 0 0.0027008383682790541 -0.016664207953384393 0 0.0029266328081728227 -0.013548236365190534 0 0.00075380190846995293 -0.014256827005360748 0 0.00017154203704292044 -0.012993575143827062 0 0.00064896583414405704 -0.015945319121069133 0 0.0021870041207333333 -0.015526140727766809 0 0.00064896583414405704 -0.015945319121069133 0 0.0015787863494168889 -0.017119969793798713 0 0.0021870041207333333 -0.015526140727766809 0 0.0014774326276984957 -0.014349688897088641 0 0.0021292739400896941 -0.015079064490048203 0 0.00017154203704292044 -0.012993575143827062 0 0.0022555735102735611 -0.015500893105017229 0 0.0012141090037690325 -0.012676732991905181 0 0.0009130354727323013 -0.011392476375916468 0 0.00075380190846995293 -0.014256827005360748 0 -0.00015318117918816741 -0.01173977203705109 0 0.0021292739400896941 -0.015079064490048203 0 0.001522582773772345 -0.011978926742647958 0 0.0003757819274979542 -0.010349083101977198 0 0.0028389496973613183 -0.012944157349069852 0 0.0026557191197913227 -0.010758377800118046 0 0.0016882374992536716 -0.010610910788927867 0 0.0032396289329189192 -0.0129203937498499 0 0.0009130354727323013 -0.011392476375916468 0 0.0029266328081728227 -0.013548236365190534 0 0.00075380190846995293 -0.014256827005360748 0 0.0028389496973613183 -0.012944157349069852 0 0.0026557191197913227 -0.010758377800118046 0 0.0040040730117494863 -0.011550298456026771 0 0.0040038070673992553 -0.0095968215998525307 0 0.0040040730117494863 -0.011550298456026771 0 0.0069047619984741329 -0.010486444792561887 0 0.0028389496973613183 -0.012944157349069852 0 0.0040040730117494863 -0.011550298456026771 0 0.0056039227295168331 -0.012377434312074284 0 0.0040040730117494863 -0.011550298456026771 0 0.0069047619984741329 -0.010486444792561887 0 0.0056039227295168331 -0.012377434312074284 0 0.0040038070673992553 -0.0095968215998525307 0 0.0026557191197913227 -0.010758377800118046 0 0.0040040730117494863 -0.011550298456026771 0 0.0069047619984741329 -0.010486444792561887 0 0.0056039227295168331 -0.012377434312074284 0 0.0077846067087590535 -0.013313393937645312 0 0.0077846067087590535 -0.013313393937645312 0 0.0051181463570277698 -0.015453699572557409 0 0.0084600660314277203 -0.015794535134731419 0 0.0056039227295168331 -0.012377434312074284 0 0.0077846067087590535 -0.013313393937645312 0 0.0051181463570277698 -0.015453699572557409 0 0.0027008383682790541 -0.016664207953384393 0 0.0029266328081728227 -0.013548236365190534 0 0.0050176751555849088 -0.015752694759320462 0 0.0028389496973613183 -0.012944157349069852 0 0.0056039227295168331 -0.012377434312074284 0 0.0051181463570277698 -0.015453699572557409 0 0.0032396289329189192 -0.0129203937498499 0 0.004974197297220294 -0.015084175500731873 0 0.0027008383682790541 -0.016664207953384393 0 0.0049053271033566697 -0.017421433836291623 0 0.0050176751555849088 -0.015752694759320462 0 0.0035270190111726819 -0.017284387652883579 0 0.0049996825460318951 -0.019313014355921629 0 0.0027008383682790541 -0.016664207953384393 0 0.0049053271033566697 -0.017421433836291623 0 0.0047170365459418655 -0.019246700259274805 0 0.0047170365459418655 -0.019246700259274805 0 0.0072626218133067617 -0.018037269586803989 0 0.0080352778243645631 -0.020073619327494362 0 0.0049053271033566697 -0.017421433836291623 0 0.0047170365459418655 -0.019246700259274805 0 0.0072626218133067617 -0.018037269586803989 0 0.0051181463570277698 -0.015453699572557409 0 0.0072626218133067617 -0.018037269586803989 0 0.0084600660314277203 -0.015794535134731419 0 0.004974197297220294 -0.015084175500731873 0 0.0059539085162160403 -0.016229325651398556 0 0.0049053271033566697 -0.017421433836291623 0 0.0050176751555849088 -0.015752694759320462 0 0.0072626218133067617 -0.018037269586803989 0 0.0084600660314277203 -0.015794535134731419 0 0.0095773613453621551 -0.018560539994850501 0 0.011292123374864457 -0.016370876139896753 0 0.0072626218133067617 -0.018037269586803989 0 0.0095773613453621551 -0.018560539994850501 0 0.0080352778243645631 -0.020073619327494362 0 0.0072626218133067617 -0.018037269586803989 0 0.0084600660314277203 -0.015794535134731419 0 0.0095773613453621551 -0.018560539994850501 0 0.01242172331270428 -0.019635672229277219 0 0.0095773613453621551 -0.018560539994850501 0 0.011292123374864457 -0.016370876139896753 0 0.0084600660314277203 -0.015794535134731419 0 0.011292123374864457 -0.016370876139896753 0 0.010204685150327431 -0.013824200991482783 0 0.012609533795064944 -0.013888600866791889 0 0.010204685150327431 -0.013824200991482783 0 0.011419122661344117 -0.011835649064822609 0 0.012609533795064944 -0.013888600866791889 0 0.011292123374864457 -0.016370876139896753 0 0.010204685150327431 -0.013824200991482783 0 0.0077846067087590535 -0.013313393937645312 0 0.010204685150327431 -0.013824200991482783 0 0.009319463273705992 -0.011843602766829857 0 0.0077846067087590535 -0.013313393937645312 0 0.0084600660314277203 -0.015794535134731419 0 0.010204685150327431 -0.013824200991482783 0 0.0097903023803154049 -0.0097697788828059549 0 0.0069047619984741329 -0.010486444792561887 0 0.009319463273705992 -0.011843602766829857 0 0.0069047619984741329 -0.010486444792561887 0 0.0077846067087590535 -0.013313393937645312 0 0.009319463273705992 -0.011843602766829857 0 0.011717789778246814 -0.0097386182418640888 0 0.0097903023803154049 -0.0097697788828059549 0 0.011419122661344117 -0.011835649064822609 0 0.0097903023803154049 -0.0097697788828059549 0 0.009319463273705992 -0.011843602766829857 0 0.011419122661344117 -0.011835649064822609 0 0.013263117828399269 -0.011505265699844482 0 0.011717789778246814 -0.0097386182418640888 0 0.011419122661344117 -0.011835649064822609 0 0.010204685150327431 -0.013824200991482783 0 0.009319463273705992 -0.011843602766829857 0 0.011419122661344117 -0.011835649064822609 0 0.0096376314233507284 -0.031170236449193527 0 0.0062837563857658209 -0.028716572059906995 0 0.0098752298305414734 -0.027285097240864625 0 0.0096376314233507284 -0.031170236449193527 0 0.0062837563857658209 -0.028716572059906995 0 0.0056877930161241558 -0.031769933872544801 0 0.0062837563857658209 -0.028716572059906995 0 0.0023455330027788821 -0.02719185904621621 0 0.0039399828084644819 -0.030018280536992167 0 0.0062837563857658209 -0.028716572059906995 0 0.0039399828084644819 -0.030018280536992167 0 0.0056877930161241558 -0.031769933872544801 0 0.0039399828084644819 -0.030018280536992167 0 0.0035684985034720308 -0.031863405601490397 0 0.0056877930161241558 -0.031769933872544801 0 0.0076012226006503397 -0.024689200567724674 0 0.0046988419836969048 -0.025732734375046785 0 0.0062837563857658209 -0.028716572059906995 0 0.0065060059425384852 -0.025215822729536198 0 0.0023455330027788821 -0.02719185904621621 0 0.011937840345723434 -0.023179389721405912 0 0.0098752298305414734 -0.027285097240864625 0 0.0065060059425384852 -0.025215822729536198 0 0.0062837563857658209 -0.028716572059906995 0 0.0098752298305414734 -0.027285097240864625 0 0.0065060059425384852 -0.025215822729536198 0 0.011937840345723434 -0.023179389721405912 0 0.0098520016769204685 -0.021328547826352531 0 0.009139905982970176 -0.023880104935408698 0 0.0093104445775301532 -0.024080636998471742 0 0.0076012226006503397 -0.024689200567724674 0 0.01242172331270428 -0.019635672229277219 0 0.0095773613453621551 -0.018560539994850501 0 0.0098520016769204685 -0.021328547826352531 0 0.01242172331270428 -0.019635672229277219 0 0.011937840345723434 -0.023179389721405912 0 0.0098520016769204685 -0.021328547826352531 0 0.0095773613453621551 -0.018560539994850501 0 0.0098520016769204685 -0.021328547826352531 0 0.0080352778243645631 -0.020073619327494362 0 0.0098520016769204685 -0.021328547826352531 0 0.0080352778243645631 -0.020073619327494362 0 0.0069479739644971294 -0.022008437862639299 0 0.0098520016769204685 -0.021328547826352531 0 0.009139905982970176 -0.023880104935408698 0 0.0069479739644971294 -0.022008437862639299 0 0.0069479739644971294 -0.022008437862639299 0 0.0050589275727463568 -0.023450857591189332 0 0.0064790175992904958 -0.024643193960248996 0 0.009139905982970176 -0.023880104935408698 0 0.0069479739644971294 -0.022008437862639299 0 0.0064790175992904958 -0.024643193960248996 0 0.0049996825460318951 -0.019313014355921629 0 0.0058436408764719894 -0.020401620182978177 0 0.0047170365459418655 -0.019246700259274805 0 0.0080352778243645631 -0.020073619327494362 0 0.0069479739644971294 -0.022008437862639299 0 0.0036642675859340102 -0.020072964948081091 0 0.0053758380920227097 -0.020275723527206212 0 0.0044251738344612624 -0.021777615805276863 0 0.0053758380920227097 -0.020275723527206212 0 0.0069479739644971294 -0.022008437862639299 0 0.0044251738344612624 -0.021777615805276863 0 0.0044251738344612624 -0.021777615805276863 0 0.0050589275727463568 -0.023450857591189332 0 0.0033989740544986464 -0.023416154796389494 0 0.0069479739644971294 -0.022008437862639299 0 0.0044251738344612624 -0.021777615805276863 0 0.0050589275727463568 -0.023450857591189332 0 0.0046988419836969048 -0.025732734375046785 0 0.0021144716141969408 -0.026628710551208735 0 0.0050589275727463568 -0.023450857591189332 0 0.0064790175992904958 -0.024643193960248996 0 0.0041384771165909433 -0.025405280914125809 0 0.0023455330027788821 -0.02719185904621621 0 0.0039399828084644819 -0.030018280536992167 0 0.0019006086469100221 -0.030435645880570017 0 0.0039399828084644819 -0.030018280536992167 0 0.0019006086469100221 -0.030435645880570017 0 0.0035684985034720308 -0.031863405601490397 0 0.0021144716141969408 -0.026628710551208735 0 0.00207463655835902 -0.029547867708062919 0 0.0023455330027788821 -0.02719185904621621 0 0.0019006086469100221 -0.030435645880570017 0 -0.0013817738224193327 -0.028761637830278252 0 0.0019006086469100221 -0.030435645880570017 0 -0.0013817738224193327 -0.028761637830278252 0 0.00051009549721318069 -0.03276365855770437 0 -8.2720489242543702e-05 -0.025927872206278978 0 -0.00060553455207027211 -0.027188318913972675 0 0.0012787491528632744 -0.028192335141928648 0 0.0021144716141969408 -0.026628710551208735 0 0.0013527757343922292 -0.026577687345031294 0 -8.2720489242543702e-05 -0.025927872206278978 0 -0.00056994909239598945 -0.02670064448160487 0 -0.00060553455207027211 -0.027188318913972675 0 -0.00056994909239598945 -0.02670064448160487 0 0.00015886970945628022 -0.026238275833488631 0 -0.00023255321777002701 -0.026431165940713989 0 0.0013527757343922292 -0.026577687345031294 0 0.00097461192722800424 -0.026610312198475639 0 0.0021448214005482221 -0.025740945816267069 0 0.001951757858382755 -0.02421941291458939 0 0.0005009169385563043 -0.024998637713344984 0 0.0039567584977737054 -0.025121556531023104 0 0.0021448214005482221 -0.025740945816267069 0 0.001951757858382755 -0.02421941291458939 0 0.0050589275727463568 -0.023450857591189332 0 0.0041384771165909433 -0.025405280914125809 0 0.0033989740544986464 -0.023416154796389494 0 0.0021144716141969408 -0.026628710551208735 0 0.0021256464047181168 -0.024532083284906296 0 0.0039567584977737054 -0.025121556531023104 0 0.001951757858382755 -0.02421941291458939 0 0.0032922714590029791 -0.023354127185014024 0 0.0044251738344612624 -0.021777615805276863 0 0.0033989740544986464 -0.023416154796389494 0 0.0026805751882734014 -0.021532552722797964 0 0.0021256464047181168 -0.024532083284906296 0 0.0020168882310061705 -0.023612574283203725 0 0.0036642675859340102 -0.020072964948081091 0 0.0044251738344612624 -0.021777615805276863 0 0.0026805751882734014 -0.021532552722797964 0 0.0024299960583324966 -0.019662072700473026 0 0.0026805751882734014 -0.021532552722797964 0 0.0016393180770041705 -0.02083040055224325 0 0.0026805751882734014 -0.021532552722797964 0 0.0016393180770041705 -0.02083040055224325 0 0.0013847888414702336 -0.022350394780987971 0 0.0032922714590029791 -0.023354127185014024 0 0.0026805751882734014 -0.021532552722797964 0 0.0013847888414702336 -0.022350394780987971 0 0.001951757858382755 -0.02421941291458939 0 0.0013847888414702336 -0.022350394780987971 0 0.00015939740042410626 -0.023698520492948457 0 0.001951757858382755 -0.02421941291458939 0 0.0032922714590029791 -0.023354127185014024 0 0.0013847888414702336 -0.022350394780987971 0 0.0013847888414702336 -0.022350394780987971 0 -0.00018633166632971908 -0.022319726275937424 0 0.00015939740042410626 -0.023698520492948457 0 0.0013847888414702336 -0.022350394780987971 0 -0.00018633166632971908 -0.022319726275937424 0 0.00054642519246123186 -0.020941737977064879 0 0.0016393180770041705 -0.02083040055224325 0 0.0013847888414702336 -0.022350394780987971 0 0.00054642519246123186 -0.020941737977064879 0 -0.0017226479347202291 -0.020105170651542485 0 -0.00018633166632971908 -0.022319726275937424 0 0.00054642519246123186 -0.020941737977064879 0 -0.0017226479347202291 -0.020105170651542485 0 -0.00018633166632971908 -0.022319726275937424 0 -0.0016061991653655995 -0.022678986621416011 0 -0.00018633166632971908 -0.022319726275937424 0 0.00015939740042410626 -0.023698520492948457 0 -0.0016061991653655995 -0.022678986621416011 0 0.00015939740042410626 -0.023698520492948457 0 -0.0016061991653655995 -0.022678986621416011 0 -0.0011553328624405268 -0.025144345401893177 0 0.00015939740042410626 -0.023698520492948457 0 0.0005009169385563043 -0.024998637713344984 0 -0.0011553328624405268 -0.025144345401893177 0 0.001951757858382755 -0.02421941291458939 0 0.00015939740042410626 -0.023698520492948457 0 0.0005009169385563043 -0.024998637713344984 0 0.0005009169385563043 -0.024998637713344984 0 0.00015886970945628022 -0.026238275833488631 0 -0.0011553328624405268 -0.025144345401893177 0 0.0021448214005482221 -0.025740945816267069 0 0.0005009169385563043 -0.024998637713344984 0 0.00015886970945628022 -0.026238275833488631 0 0.00015886970945628022 -0.026238275833488631 0 -0.0011553328624405268 -0.025144345401893177 0 -0.00027687566037930234 -0.026289947506991217 0 0.00015886970945628022 -0.026238275833488631 0 -0.00011376220038454521 -0.026225979270429724 0 -0.00027687566037930234 -0.026289947506991217 0 0.00015886970945628022 -0.026238275833488631 0 -0.00011376220038454521 -0.026225979270429724 0 -0.00023255321777002701 -0.026431165940713989 0 -0.00011376220038454521 -0.026225979270429724 0 -0.00029459778641731745 -0.026071170669454771 0 -0.00023255321777002701 -0.026431165940713989 0 -0.00011376220038454521 -0.026225979270429724 0 -0.00052049529217263705 -0.025384590120360519 0 -0.00029459778641731745 -0.026071170669454771 0 -0.00011376220038454521 -0.026225979270429724 0 -0.00027687566037930234 -0.026289947506991217 0 0.00053293794304910185 -0.025668242510917493 0 -0.00024645139569461039 -0.024024801770957515 0 -0.00052049529217263705 -0.025384590120360519 0 0.00053293794304910185 -0.025668242510917493 0 -0.00011376220038454521 -0.026225979270429724 0 -0.00052049529217263705 -0.025384590120360519 0 0.00053293794304910185 -0.025668242510917493 0 -0.00024645139569461039 -0.024024801770957515 0 -1.6945558052314688e-06 -0.024353960115843631 0 2.9921720631940539e-06 -0.021252144203991484 0 -0.00024645139569461039 -0.024024801770957515 0 0.00053293794304910185 -0.025668242510917493 0 2.9921720631940539e-06 -0.021252144203991484 0 -1.6945558052314688e-06 -0.024353960115843631 0 -0.00052049529217263705 -0.025384590120360519 0 -3.3388821797786923e-07 -0.027449724836035264 0 -0.00024645139569461039 -0.024024801770957515 0 -1.6945558052314688e-06 -0.024353960115843631 0 -0.00052049529217263705 -0.025384590120360519 0 -0.00052049529217263705 -0.025384590120360519 0 -0.00013158978285655976 -0.026002388051480717 0 -0.00029459778641731745 -0.026071170669454771 0 -0.00013158978285655976 -0.026002388051480717 0 -3.3388821797786923e-07 -0.027449724836035264 0 3.8318103574126436e-05 -0.026347665567558163 0 1.8680159984457675e-07 -0.027462845439548564 0 -8.4688869655107055e-05 -0.029947762647244254 0 -0.00052049529217263705 -0.025384590120360519 0 -0.00013158978285655976 -0.026002388051480717 0 -3.3388821797786923e-07 -0.027449724836035264 0 1.8064195517647082e-06 -0.027460113515014616 0 -1.8081293458456698e-06 -0.031653759356602112 0 -0.00010468958310242511 -0.031978613320866059 0 -1.8081293458456698e-06 -0.031653759356602112 0 -0.00010468958310242511 -0.031978613320866059 0 -0.00013020865723657648 -0.032815295911417276 0 -0.00013158978285655976 -0.026002388051480717 0 3.8318103574126436e-05 -0.026347665567558163 0 -0.00023286916617131889 -0.026171092745772503 0 -0.00013158978285655976 -0.026002388051480717 0 -0.00023286916617131889 -0.026171092745772503 0 -0.0003099710678456014 -0.026285832512549932 0 -0.00023286916617131889 -0.026171092745772503 0 -0.0003099710678456014 -0.026285832512549932 0 -0.00051948093894846109 -0.026336886185280153 0 -0.00013158978285655976 -0.026002388051480717 0 -0.0003099710678456014 -0.026285832512549932 0 -0.00029459778641731745 -0.026071170669454771 0 -0.0003099710678456014 -0.026285832512549932 0 -0.00029459778641731745 -0.026071170669454771 0 -0.00023255321777002701 -0.026431165940713989 0 -0.00056994909239598945 -0.02670064448160487 0 -0.00023255321777002701 -0.026431165940713989 0 -0.00060553455207027211 -0.027188318913972675 0 -0.0003099710678456014 -0.026285832512549932 0 -0.00023255321777002701 -0.026431165940713989 0 -0.00060553455207027211 -0.027188318913972675 0 -0.0003099710678456014 -0.026285832512549932 0 -0.00060553455207027211 -0.027188318913972675 0 -0.00051948093894846109 -0.026336886185280153 0 -0.00052692225095255017 -0.029829701074116272 0 -0.00029684211490427334 -0.030610257775957255 0 -0.00060553455207027211 -0.027188318913972675 0 0.0012787491528632744 -0.028192335141928648 0 -0.00032554327340961068 -0.032095642592015888 0 0.0019006086469100221 -0.030435645880570017 0 0.00051009549721318069 -0.03276365855770437 0 0.0021759767940280053 -0.032465649153673171 0 0.0019006086469100221 -0.030435645880570017 0 0.0021759767940280053 -0.032465649153673171 0 0.0035684985034720308 -0.031863405601490397 0 0.0021759767940280053 -0.032465649153673171 0 0.0035684985034720308 -0.031863405601490397 0 0.0030626974692961363 -0.033460187977143903 0 0.0030626974692961363 -0.033460187977143903 0 0.0036476038821193464 -0.034591700305787537 0 0.0043597640928518004 -0.03360140688536143 0 0.0035684985034720308 -0.031863405601490397 0 0.0030626974692961363 -0.033460187977143903 0 0.0043597640928518004 -0.03360140688536143 0 0.00051009549721318069 -0.03276365855770437 0 0.0021759767940280053 -0.032465649153673171 0 0.0022011213675671923 -0.033680135962601554 0 0.0021759767940280053 -0.032465649153673171 0 0.0030626974692961363 -0.033460187977143903 0 0.0022011213675671923 -0.033680135962601554 0 0.0022011213675671923 -0.033680135962601554 0 0.0029137308181167534 -0.034381132700155213 0 0.0025062455367434898 -0.034897774372877957 0 0.0030626974692961363 -0.033460187977143903 0 0.0022011213675671923 -0.033680135962601554 0 0.0029137308181167534 -0.034381132700155213 0 0.0030626974692961363 -0.033460187977143903 0 0.0029137308181167534 -0.034381132700155213 0 0.0036476038821193464 -0.034591700305787537 0 0.0029137308181167534 -0.034381132700155213 0 0.0036476038821193464 -0.034591700305787537 0 0.0034280326954136409 -0.034999639160048057 0 0.0029137308181167534 -0.034381132700155213 0 0.0034280326954136409 -0.034999639160048057 0 0.0025062455367434898 -0.034897774372877957 0 0.0012787491528632744 -0.028192335141928648 0 0.0025062455367434898 -0.034897774372877957 0 -0.00032554327340961068 -0.032095642592015888 0 0.00051009549721318069 -0.03276365855770437 0 0.0022011213675671923 -0.033680135962601554 0 0.0025062455367434898 -0.034897774372877957 0 -0.00029684211490427334 -0.030610257775957255 0 0.00029512347032620111 -0.032586520919738703 0 0.00207463655835902 -0.029547867708062919 0 0.0024188130805433399 -0.031274706757057437 0 0.0025062455367434898 -0.034897774372877957 0 -0.00032554327340961068 -0.032095642592015888 0 0.0015901219287231831 -0.03645384973453001 0 -0.00023286916617131889 -0.026171092745772503 0 -0.00051948093894846109 -0.026336886185280153 0 -0.00033474595627462281 -0.026161186382745786 0 3.8318103574126436e-05 -0.026347665567558163 0 -0.00023286916617131889 -0.026171092745772503 0 -0.00033474595627462281 -0.026161186382745786 0 -8.4688869655107055e-05 -0.029947762647244254 0 0.00029512347032620111 -0.032586520919738703 0 0.00012604147856902154 -0.032121056997919409 0 -0.00013020865723657648 -0.032815295911417276 0 1.8044550941453828e-06 -0.035840061319540172 0 -0.00010468958310242511 -0.031978613320866059 0 0.00012604147856902154 -0.032121056997919409 0 -0.00013020865723657648 -0.032815295911417276 0 -1.8081293458456698e-06 -0.031653759356602112 0 -0.00013020865723657648 -0.032815295911417276 0 1.8044550941453828e-06 -0.035840061319540172 0 6.4697046390390428e-06 -0.035856620041504771 0 0.0010675438110587302 -0.04001575051038947 0 0.0017092215033652513 -0.041908988395859978 0 0.00029512347032620111 -0.032586520919738703 0 2.1136284024579732e-06 -0.035843334996950187 0 0.0028110251309651732 -0.040579853426533502 0 6.4697046390390428e-06 -0.035856620041504771 0 0.0010675438110587302 -0.04001575051038947 0 0.00049910727525801413 -0.039960787054969409 0 0.0028110251309651732 -0.040579853426533502 0 0.0010675438110587302 -0.04001575051038947 0 0.0012992160588874159 -0.03359673317101701 0 0.00029512347032620111 -0.032586520919738703 0 0.0034280326954136409 -0.034999639160048057 0 0.0025062455367434898 -0.034897774372877957 0 0.0015901219287231831 -0.03645384973453001 0 0.00049910727525801413 -0.039960787054969409 0 0.0010675438110587302 -0.04001575051038947 0 0.0017092215033652513 -0.041908988395859978 0 0.00049910727525801413 -0.039960787054969409 0 0.0017092215033652513 -0.041908988395859978 0 0.0031756581368570782 -0.038426183026587145 0 0.0017092215033652513 -0.041908988395859978 0 0.00055526607731157609 -0.044537509503452852 0 0.0015490297968558835 -0.047510302314471953 0 6.4697046390390428e-06 -0.035856620041504771 0 0.0017092215033652513 -0.041908988395859978 0 0.00047663835696311004 -0.042217428843322087 0 6.4697046390390428e-06 -0.035856620041504771 0 -6.6315880192176487e-07 -0.040825683019648763 0 0.00047663835696311004 -0.042217428843322087 0 -0.00026497634807426618 -0.045234736667321765 0 -6.6315880192176487e-07 -0.040825683019648763 0 0.00047663835696311004 -0.042217428843322087 0 -0.00026497634807426618 -0.045234736667321765 0 0.00055526607731157609 -0.044537509503452852 0 0.00012300526308429898 -0.046815464879939761 0 -0.00026497634807426618 -0.045234736667321765 0 0.00047663835696311004 -0.042217428843322087 0 0.00055526607731157609 -0.044537509503452852 0 0.0017092215033652513 -0.041908988395859978 0 0.00047663835696311004 -0.042217428843322087 0 0.00055526607731157609 -0.044537509503452852 0 0.00055526607731157609 -0.044537509503452852 0 0.00012300526308429898 -0.046815464879939761 0 0.0015490297968558835 -0.047510302314471953 0 0.00012300526308429898 -0.046815464879939761 0 0.0015490297968558835 -0.047510302314471953 0 0.00045127930564792056 -0.048260309049030052 0 0.0017092215033652513 -0.041908988395859978 0 0.0070733730025861856 -0.035370733889711306 0 0.0031756581368570782 -0.038426183026587145 0 0.0042457298728736997 -0.042198583612903934 0 0.0049412909509379916 -0.041737787204303295 0 0.0012992160588874159 -0.03359673317101701 0 0.0020372426511354128 -0.033618830090111164 0 0.0036476038821193464 -0.034591700305787537 0 0.0034280326954136409 -0.034999639160048057 0 0.0046435752610075945 -0.035629872108791649 0 0.00049910727525801413 -0.039960787054969409 0 0.0031756581368570782 -0.038426183026587145 0 0.0046435752610075945 -0.035629872108791649 0 0.0036476038821193464 -0.034591700305787537 0 0.0046435752610075945 -0.035629872108791649 0 0.0043597640928518004 -0.03360140688536143 0 0.0070733730025861856 -0.035370733889711306 0 0.0031756581368570782 -0.038426183026587145 0 0.0046435752610075945 -0.035629872108791649 0 0.0070733730025861856 -0.035370733889711306 0 0.0046435752610075945 -0.035629872108791649 0 0.0063301064169140192 -0.033429432422574061 0 0.0046435752610075945 -0.035629872108791649 0 0.0063301064169140192 -0.033429432422574061 0 0.0043597640928518004 -0.03360140688536143 0 0.0063301064169140192 -0.033429432422574061 0 0.0043597640928518004 -0.03360140688536143 0 0.0056877930161241558 -0.031769933872544801 0 0.0035684985034720308 -0.031863405601490397 0 0.0043597640928518004 -0.03360140688536143 0 0.0056877930161241558 -0.031769933872544801 0 0.0096376314233507284 -0.031170236449193527 0 0.0063301064169140192 -0.033429432422574061 0 0.0056877930161241558 -0.031769933872544801 0 0.00039806338272901546 -0.049723822394637164 0 0.0015490297968558835 -0.047510302314471953 0 0.00045127930564792056 -0.048260309049030052 0 0.0096376314233507284 -0.031170236449193527 0 0.0070733730025861856 -0.035370733889711306 0 0.0063301064169140192 -0.033429432422574061 0 0.0062525393065934812 -0.041145945352609341 0 0.0049412909509379916 -0.041737787204303295 0 -0.0085188412773127432 -0.0016440254598189122 0 -0.0082973699982728036 -0.00053001167243794489 0 -0.0083923391452226572 -0.0030648588749851847 0 -0.0085188412773127432 -0.0016440254598189122 0 -0.0088143494458710267 -0.00062043176612637204 0 -0.0085299181101351259 -0.0029437374569068367 0 -0.0065642466423674823 -0.0055666307399259473 0 -0.0073865474856086716 -0.0049724749831300454 0 -0.0058546346773200543 -0.0086476426579045317 0 -0.0057218924125080513 -0.010369053932530039 0 -0.0074340679944878228 -0.0075546538204722732 0 -0.0050970322243256549 -0.0095226724570297728 0 -0.0058546346773200543 -0.0086476426579045317 0 -0.0057218924125080513 -0.010369053932530039 0 -0.0085188412773127432 -0.0016440254598189122 0 -0.0088143494458710267 -0.00062043176612637204 0 -0.0085864207337335088 -0.00072837261284298157 0 -0.0058546346773200543 -0.0086476426579045317 0 -0.0052155821551511357 -0.0078521086002535032 0 -0.0061794781108134769 -0.0075805816031838434 0 -0.0050970322243256549 -0.0095226724570297728 0 -0.0058546346773200543 -0.0086476426579045317 0 -0.0049302122794279328 -0.0087347924655018869 0 -0.0058546346773200543 -0.0086476426579045317 0 -0.0049302122794279328 -0.0087347924655018869 0 -0.0052155821551511357 -0.0078521086002535032 0 -0.0049302122794279328 -0.0087347924655018869 0 -0.0052155821551511357 -0.0078521086002535032 0 -0.0040692010596423897 -0.0080142375288061 0 -0.0049302122794279328 -0.0087347924655018869 0 -0.0041549171893525225 -0.0096220343624077286 0 -0.0040692010596423897 -0.0080142375288061 0 -0.0041549171893525225 -0.0096220343624077286 0 -0.0040692010596423897 -0.0080142375288061 0 -0.0029890703393682314 -0.0089064410138478076 0 -0.0041549171893525225 -0.0096220343624077286 0 -0.0029890703393682314 -0.0089064410138478076 0 -0.0026787210597909879 -0.010661529698862009 0 -0.0050970322243256549 -0.0095226724570297728 0 -0.0049302122794279328 -0.0087347924655018869 0 -0.0041549171893525225 -0.0096220343624077286 0 -0.0050970322243256549 -0.0095226724570297728 0 -0.0041549171893525225 -0.0096220343624077286 0 -0.0047913870225571266 -0.0101610560585323 0 -0.0047913870225571266 -0.0101610560585323 0 -0.0042070182216456175 -0.011121031982134265 0 -0.0057218924125080513 -0.010369053932530039 0 -0.0041549171893525225 -0.0096220343624077286 0 -0.0047913870225571266 -0.0101610560585323 0 -0.0042070182216456175 -0.011121031982134265 0 -0.0042070182216456175 -0.011121031982134265 0 -0.0057218924125080513 -0.010369053932530039 0 -0.0041750737941946836 -0.012831058452876709 0 -0.0041549171893525225 -0.0096220343624077286 0 -0.0042070182216456175 -0.011121031982134265 0 -0.0026787210597909879 -0.010661529698862009 0 -0.0042070182216456175 -0.011121031982134265 0 -0.0026787210597909879 -0.010661529698862009 0 -0.0028889076836338748 -0.012023446079617982 0 -0.0086814730674376721 -0.00047784654505813912 0 -0.0086233725613396751 -0.00034063498702794265 0 -0.0086701209158197793 -0.0002716851101680268 0 -0.0088143494458710267 -0.00062043176612637204 0 -0.0086814730674376721 -0.00047784654505813912 0 -0.0086701209158197793 -0.0002716851101680268 0 -0.0065642466423674823 -0.0055666307399259473 0 -0.0052006894524006001 -0.0065222711048089251 0 -0.0050970322243256549 -0.0095226724570297728 0 -0.0047913870225571266 -0.0101610560585323 0 -0.0057218924125080513 -0.010369053932530039 0 -0.0085188412773127432 -0.0016440254598189122 0 -0.0085864207337335088 -0.00072837261284298157 0 -0.0082973699982728036 -0.00053001167243794489 0 -0.0088143494458710267 -0.00062043176612637204 0 -0.0085864207337335088 -0.00072837261284298157 0 -0.0086814730674376721 -0.00047784654505813912 0 -0.0094763546341479158 0.00028453690999367709 0 -0.0094992347701170748 0.00029575824997653521 0 -0.0085864207337335088 -0.00072837261284298157 0 -0.0086814730674376721 -0.00047784654505813912 0 -0.0082973699982728036 -0.00053001167243794489 0 -0.0086814730674376721 -0.00047784654505813912 0 -0.008591128024893183 -0.00037094099706271651 0 -0.0085985276842078118 -0.00035429131134118218 0 -0.0086814730674376721 -0.00047784654505813912 0 -0.0085985276842078118 -0.00035429131134118218 0 -0.0086233725613396751 -0.00034063498702794265 0 -0.0085985276842078118 -0.00035429131134118218 0 -0.0086233725613396751 -0.00034063498702794265 0 -0.0086045147858212039 -0.0003018808174571518 0 -0.008591128024893183 -0.00037094099706271651 0 -0.0086160242804474395 -0.00022191871197613759 0 -0.0086836134276003975 0.00022797809657088588 0 -0.0094992347701170748 0.00029575824997653521 0 -0.0099597680931657415 0.00088450355076177584 0 -0.0086233725613396751 -0.00034063498702794265 0 -0.0086045147858212039 -0.0003018808174571518 0 -0.0086142128692960705 -0.00029189697274498481 0 -0.0085985276842078118 -0.00035429131134118218 0 -0.0086045147858212039 -0.0003018808174571518 0 -0.0086160242804474395 -0.00022191871197613759 0 -0.0086183410696237181 -0.00025438520696817381 0 -0.0086142128692960705 -0.00029189697274498481 0 -0.0086423784368513494 -0.00019543209501575586 0 -0.0086045147858212039 -0.0003018808174571518 0 -0.0086183410696237181 -0.00025438520696817381 0 -0.0086160242804474395 -0.00022191871197613759 0 -0.0086045147858212039 -0.0003018808174571518 0 -0.0086183410696237181 -0.00025438520696817381 0 -0.0086142128692960705 -0.00029189697274498481 0 -0.0086423784368513494 -0.00019543209501575586 0 -0.008690246280818258 -0.00020212934572089096 0 -0.0086595150152912401 -0.00027427114282456622 0 -0.0086142128692960705 -0.00029189697274498481 0 -0.0086423784368513494 -0.00019543209501575586 0 -0.0086595150152912401 -0.00027427114282456622 0 -0.0086183410696237181 -0.00025438520696817381 0 -0.0086423784368513494 -0.00019543209501575586 0 -0.0086160242804474395 -0.00022191871197613759 0 -0.0086423784368513494 -0.00019543209501575586 0 -0.0086160242804474395 -0.00022191871197613759 0 -0.0086836134276003975 0.00022797809657088588 0 -0.008591128024893183 -0.00037094099706271651 0 -0.0085985276842078118 -0.00035429131134118218 0 -0.0086160242804474395 -0.00022191871197613759 0 -0.0087673419732601197 -0.00023665090401944972 0 -0.0087332164136821652 -7.2735645986243664e-05 0 -0.0090282576237011389 9.9434753809063195e-05 0 -0.0086423784368513494 -0.00019543209501575586 0 -0.008690246280818258 -0.00020212934572089096 0 -0.0087332164136821652 -7.2735645986243664e-05 0 -0.0087673419732601197 -0.00023665090401944972 0 -0.008690246280818258 -0.00020212934572089096 0 -0.0086595150152912401 -0.00027427114282456622 0 -0.0087673419732601197 -0.00023665090401944972 0 -0.008690246280818258 -0.00020212934572089096 0 -0.0087332164136821652 -7.2735645986243664e-05 0 -0.0086423784368513494 -0.00019543209501575586 0 -0.0087332164136821652 -7.2735645986243664e-05 0 -0.0086836134276003975 0.00022797809657088588 0 -0.0087332164136821652 -7.2735645986243664e-05 0 -0.0086836134276003975 0.00022797809657088588 0 -0.0090282576237011389 9.9434753809063195e-05 0 -0.01084711896634942 0.0020621731526227795 0 -0.010898972024459141 0.002014158647901429 0 -0.010870255462715623 0.0019537655273134621 0 -0.01084711896634942 0.0020621731526227795 0 -0.010774757598340175 0.0019672100875736142 0 -0.010870255462715623 0.0019537655273134621 0 -0.010978464759309759 0.0021020222287448966 0 -0.01084711896634942 0.0020621731526227795 0 -0.010898972024459141 0.002014158647901429 0 -0.010978464759309759 0.0021020222287448966 0 -0.010898972024459141 0.002014158647901429 0 -0.010938129209555872 0.0019606680493431798 0 -0.0094992347701170748 0.00029575824997653521 0 -0.0097262615834734154 -7.9388652150947224e-05 0 -0.0085188412773127432 -0.0016440254598189122 0 -0.0083923391452226572 -0.0030648588749851847 0 -0.0085299181101351259 -0.0029437374569068367 0 -0.0083923391452226572 -0.0030648588749851847 0 -0.0085299181101351259 -0.0029437374569068367 0 -0.0090825722801652249 -0.0035313005453402927 0 -0.0073865474856086716 -0.0049724749831300454 0 -0.0078183637765465996 -0.0044575127157944179 0 -0.010898972024459141 0.002014158647901429 0 -0.010938129209555872 0.0019606680493431798 0 -0.010870255462715623 0.0019537655273134621 0 -0.010938129209555872 0.0019606680493431798 0 -0.010870255462715623 0.0019537655273134621 0 -0.010897101938343546 0.0018708443393141527 0 -0.010774757598340175 0.0019672100875736142 0 -0.010870255462715623 0.0019537655273134621 0 -0.010785586652233968 0.0019169811652193858 0 -0.010870255462715623 0.0019537655273134621 0 -0.010785586652233968 0.0019169811652193858 0 -0.010841269966704842 0.001891153970016901 0 -0.010870255462715623 0.0019537655273134621 0 -0.010841269966704842 0.001891153970016901 0 -0.010897101938343546 0.0018708443393141527 0 -0.010785586652233968 0.0019169811652193858 0 -0.010797767553663453 0.0018639170176498172 0 -0.010841269966704842 0.001891153970016901 0 -0.010797767553663453 0.0018639170176498172 0 -0.010857112952248926 0.0018488859713361486 0 -0.010841269966704842 0.001891153970016901 0 -0.010857112952248926 0.0018488859713361486 0 -0.010897101938343546 0.0018708443393141527 0 -0.010885365756147212 0.0018115756684994959 0 -0.010857112952248926 0.0018488859713361486 0 -0.010841269966704842 0.001891153970016901 0 -0.010897101938343546 0.0018708443393141527 0 -0.010952781158795466 0.0017711852398793308 0 -0.01085106110730419 0.0017729174999248547 0 -0.010885365756147212 0.0018115756684994959 0 -0.010952781158795466 0.0017711852398793308 0 -0.010897101938343546 0.0018708443393141527 0 -0.010885365756147212 0.0018115756684994959 0 -0.01085106110730419 0.0017729174999248547 0 -0.010885365756147212 0.0018115756684994959 0 -0.010835369534100546 0.0018207703518069499 0 -0.010857112952248926 0.0018488859713361486 0 -0.010885365756147212 0.0018115756684994959 0 -0.010835369534100546 0.0018207703518069499 0 -0.010797767553663453 0.0018639170176498172 0 -0.010857112952248926 0.0018488859713361486 0 -0.010835369534100546 0.0018207703518069499 0 -0.01085106110730419 0.0017729174999248547 0 -0.010835369534100546 0.0018207703518069499 0 -0.010791145276800522 0.0018150053147939144 0 -0.010797767553663453 0.0018639170176498172 0 -0.010835369534100546 0.0018207703518069499 0 -0.010791145276800522 0.0018150053147939144 0 -0.010952781158795466 0.0017711852398793308 0 -0.010938129209555872 0.0019606680493431798 0 -0.010897101938343546 0.0018708443393141527 0 -0.0074340679944878228 -0.0075546538204722732 0 -0.0075702742900285004 -0.0050691838466944677 0 -0.0090825722801652249 -0.0035313005453402927 0 -0.0093198181634491506 -0.003557566882218758 0 -0.0083923391452226572 -0.0030648588749851847 0 -0.0090825722801652249 -0.0035313005453402927 0 -0.0099804591915754158 -0.00014226362367840691 0 -0.0097262615834734154 -7.9388652150947224e-05 0 -0.0085071210357080523 -0.003135722432468558 0 -0.0093198181634491506 -0.003557566882218758 0 -0.0090825722801652249 -0.0035313005453402927 0 -0.0085071210357080523 -0.003135722432468558 0 -0.0090825722801652249 -0.0035313005453402927 0 -0.0077587485347203264 -0.0036918927726016194 0 -0.0075702742900285004 -0.0050691838466944677 0 -0.0090825722801652249 -0.0035313005453402927 0 -0.0077587485347203264 -0.0036918927726016194 0 -0.0062783164736184794 -0.0032225247580725818 0 -0.0077587485347203264 -0.0036918927726016194 0 -0.0066081155122608599 -0.0046342712790164364 0 -0.0062783164736184794 -0.0032225247580725818 0 -0.0052958709327198513 -0.0042068388760961228 0 -0.0066081155122608599 -0.0046342712790164364 0 -0.0045283538499211557 -0.0027628024499467439 0 -0.0062783164736184794 -0.0032225247580725818 0 -0.0052958709327198513 -0.0042068388760961228 0 -0.0052958709327198513 -0.0042068388760961228 0 -0.0052999284919030701 -0.0055717551901281245 0 -0.0066081155122608599 -0.0046342712790164364 0 -0.0052999284919030701 -0.0055717551901281245 0 -0.0066081155122608599 -0.0046342712790164364 0 -0.0068626946754748019 -0.0061579089148116094 0 -0.0075702742900285004 -0.0050691838466944677 0 -0.0066081155122608599 -0.0046342712790164364 0 -0.0068626946754748019 -0.0061579089148116094 0 -0.0075702742900285004 -0.0050691838466944677 0 -0.0077587485347203264 -0.0036918927726016194 0 -0.0066081155122608599 -0.0046342712790164364 0 -0.0074340679944878228 -0.0075546538204722732 0 -0.0075702742900285004 -0.0050691838466944677 0 -0.0068626946754748019 -0.0061579089148116094 0 -0.0068626946754748019 -0.0061579089148116094 0 -0.0057179703674829011 -0.0067887524926090468 0 -0.0066389005490378539 -0.007029441468466846 0 -0.0052999284919030701 -0.0055717551901281245 0 -0.0068626946754748019 -0.0061579089148116094 0 -0.0057179703674829011 -0.0067887524926090468 0 -0.0057179703674829011 -0.0067887524926090468 0 -0.0052155821551511357 -0.0078521086002535032 0 -0.0061794781108134769 -0.0075805816031838434 0 -0.0057179703674829011 -0.0067887524926090468 0 -0.0061794781108134769 -0.0075805816031838434 0 -0.0066389005490378539 -0.007029441468466846 0 -0.0074340679944878228 -0.0075546538204722732 0 -0.0068626946754748019 -0.0061579089148116094 0 -0.0066389005490378539 -0.007029441468466846 0 -0.0058546346773200543 -0.0086476426579045317 0 -0.0074340679944878228 -0.0075546538204722732 0 -0.0061794781108134769 -0.0075805816031838434 0 -0.0074340679944878228 -0.0075546538204722732 0 -0.0061794781108134769 -0.0075805816031838434 0 -0.0066389005490378539 -0.007029441468466846 0 -0.0040692010596423897 -0.0080142375288061 0 -0.0028940233504678174 -0.0066968887811557397 0 -0.0029890703393682314 -0.0089064410138478076 0 -0.0040692010596423897 -0.0080142375288061 0 -0.0042591700349154478 -0.0064591498332168557 0 -0.0028940233504678174 -0.0066968887811557397 0 -0.0052155821551511357 -0.0078521086002535032 0 -0.0040692010596423897 -0.0080142375288061 0 -0.0042591700349154478 -0.0064591498332168557 0 -0.0057179703674829011 -0.0067887524926090468 0 -0.0052155821551511357 -0.0078521086002535032 0 -0.0042591700349154478 -0.0064591498332168557 0 -0.0052999284919030701 -0.0055717551901281245 0 -0.0057179703674829011 -0.0067887524926090468 0 -0.0042591700349154478 -0.0064591498332168557 0 -0.0042591700349154478 -0.0064591498332168557 0 -0.0037428558704108118 -0.0048416172324288638 0 -0.0028940233504678174 -0.0066968887811557397 0 -0.0030183263748434761 -0.0032957164047135732 0 -0.0037428558704108118 -0.0048416172324288638 0 -0.0024976953943229947 -0.0048203738321842392 0 -0.0052999284919030701 -0.0055717551901281245 0 -0.0042591700349154478 -0.0064591498332168557 0 -0.0037428558704108118 -0.0048416172324288638 0 -0.0052958709327198513 -0.0042068388760961228 0 -0.0052999284919030701 -0.0055717551901281245 0 -0.0037428558704108118 -0.0048416172324288638 0 -0.0045283538499211557 -0.0027628024499467439 0 -0.0052958709327198513 -0.0042068388760961228 0 -0.0037428558704108118 -0.0048416172324288638 0 -0.001634085694453301 -0.0035386888379717227 0 -0.0024976953943229947 -0.0048203738321842392 0 -0.0010615909838749744 -0.0059265961676794494 0 -0.0024976953943229947 -0.0048203738321842392 0 -0.0010615909838749744 -0.0059265961676794494 0 -0.0028940233504678174 -0.0066968887811557397 0 -0.0037428558704108118 -0.0048416172324288638 0 -0.0024976953943229947 -0.0048203738321842392 0 -0.0028940233504678174 -0.0066968887811557397 0 0.00080347555994440909 -0.0048458093752616936 0 -0.00033942590617565364 -0.0042359342401076848 0 -0.0010615909838749744 -0.0059265961676794494 0 -0.0012153265364164797 -0.0031529182164470137 0 -0.0010558311654844156 -0.0039882699056451327 0 -0.00053364957259207626 -0.0074929130280237772 0 0.00083109842209372613 -0.0069502366331652366 0 -0.00017431600319064031 -0.009074344468452419 0 -0.0010615909838749744 -0.0059265961676794494 0 -0.00053364957259207626 -0.0074929130280237772 0 -0.0018157313540758293 -0.0083095336934148785 0 -0.0010615909838749744 -0.0059265961676794494 0 -0.00053364957259207626 -0.0074929130280237772 0 0.00083109842209372613 -0.0069502366331652366 0 -0.0010615909838749744 -0.0059265961676794494 0 -0.0028940233504678174 -0.0066968887811557397 0 -0.0018157313540758293 -0.0083095336934148785 0 -0.0028940233504678174 -0.0066968887811557397 0 -0.0029890703393682314 -0.0089064410138478076 0 -0.0018157313540758293 -0.0083095336934148785 0 0.0032001739993444433 -0.0044069266096569302 0 0.0020230779306950834 -0.0053909405294567192 0 0.0033021247379004799 -0.0070716605752491101 0 0.00037254405446188177 -0.012267644783660898 0 0.00065765446546624902 -0.014778486578788979 0 0.0020230779306950834 -0.0053909405294567192 0 0.00083109842209372613 -0.0069502366331652366 0 0.0033021247379004799 -0.0070716605752491101 0 0.00080347555994440909 -0.0048458093752616936 0 -0.0010615909838749744 -0.0059265961676794494 0 0.00083109842209372613 -0.0069502366331652366 0 0.00080347555994440909 -0.0048458093752616936 0 0.0020230779306950834 -0.0053909405294567192 0 0.00083109842209372613 -0.0069502366331652366 0 0.00083109842209372613 -0.0069502366331652366 0 0.0033021247379004799 -0.0070716605752491101 0 0.0016481266279384319 -0.0088747662625650106 0 0.0032446871429049023 -0.010023190810970195 0 0.0016481266279384319 -0.0088747662625650106 0 0.0010603533655740409 -0.011312046318896461 0 0.00065765446546624902 -0.014778486578788979 0 0.00081875190051109467 -0.017117893703079586 0 0.0033021247379004799 -0.0070716605752491101 0 0.0032446871429049023 -0.010023190810970195 0 0.0016481266279384319 -0.0088747662625650106 0 0.00083109842209372613 -0.0069502366331652366 0 0.0016481266279384319 -0.0088747662625650106 0 -0.00017431600319064031 -0.009074344468452419 0 0.0016481266279384319 -0.0088747662625650106 0 0.0010603533655740409 -0.011312046318896461 0 -0.00017431600319064031 -0.009074344468452419 0 0.0032446871429049023 -0.010023190810970195 0 0.0010603533655740409 -0.011312046318896461 0 0.0028714042910800933 -0.012915084286178352 0 0.00081875190051109467 -0.017117893703079586 0 0.00083743618704024592 -0.01896763576376238 0 -0.0016549051290174351 -0.0098257293425615781 0 -0.0029890703393682314 -0.0089064410138478076 0 -0.0026787210597909879 -0.010661529698862009 0 -0.0016549051290174351 -0.0098257293425615781 0 -0.0029890703393682314 -0.0089064410138478076 0 -0.0018157313540758293 -0.0083095336934148785 0 -0.0016549051290174351 -0.0098257293425615781 0 -0.0018157313540758293 -0.0083095336934148785 0 -0.00017431600319064031 -0.009074344468452419 0 -0.00053364957259207626 -0.0074929130280237772 0 -0.0018157313540758293 -0.0083095336934148785 0 -0.00017431600319064031 -0.009074344468452419 0 -0.0016549051290174351 -0.0098257293425615781 0 -0.00017431600319064031 -0.009074344468452419 0 -0.00091032163315174074 -0.011043655394709228 0 0.0010603533655740409 -0.011312046318896461 0 -0.00017431600319064031 -0.009074344468452419 0 -0.00091032163315174074 -0.011043655394709228 0 0.0010603533655740409 -0.011312046318896461 0 -0.00091032163315174074 -0.011043655394709228 0 -0.00037384235830371086 -0.013096128446977407 0 -0.00091032163315174074 -0.011043655394709228 0 -0.0026787210597909879 -0.010661529698862009 0 -0.0016995975756757872 -0.012039628777620539 0 -0.0016549051290174351 -0.0098257293425615781 0 -0.00091032163315174074 -0.011043655394709228 0 -0.0026787210597909879 -0.010661529698862009 0 -0.0026787210597909879 -0.010661529698862009 0 -0.0028889076836338748 -0.012023446079617982 0 -0.0016995975756757872 -0.012039628777620539 0 -0.0028889076836338748 -0.012023446079617982 0 -0.0018638157494191912 -0.013242933722878027 0 -0.0016995975756757872 -0.012039628777620539 0 -0.00091032163315174074 -0.011043655394709228 0 -0.0016995975756757872 -0.012039628777620539 0 -0.00037384235830371086 -0.013096128446977407 0 -0.0018638157494191912 -0.013242933722878027 0 -0.0016995975756757872 -0.012039628777620539 0 -0.00037384235830371086 -0.013096128446977407 0 -0.0018638157494191912 -0.013242933722878027 0 -0.00037384235830371086 -0.013096128446977407 0 -0.0010422323690560419 -0.014657618458820212 0 -0.00037384235830371086 -0.013096128446977407 0 -0.0010422323690560419 -0.014657618458820212 0 -0.00031850914616777062 -0.015564061922658934 0 -0.0010422323690560419 -0.014657618458820212 0 -0.0018457323626828739 -0.014392569617440518 0 -0.0012921437746706284 -0.015228234697385762 0 -0.0018638157494191912 -0.013242933722878027 0 -0.0018457323626828739 -0.014392569617440518 0 -0.0041750737941946836 -0.012831058452876709 0 -0.0018457323626828739 -0.014392569617440518 0 -0.0012921437746706284 -0.015228234697385762 0 -0.0025514783979851191 -0.015031043021110909 0 -0.0018638157494191912 -0.013242933722878027 0 -0.0010422323690560419 -0.014657618458820212 0 -0.0018457323626828739 -0.014392569617440518 0 0.0010603533655740409 -0.011312046318896461 0 0.0028714042910800933 -0.012915084286178352 0 0.00092295919708543282 -0.014281953069433749 0 0.0010603533655740409 -0.011312046318896461 0 -0.00037384235830371086 -0.013096128446977407 0 0.00092295919708543282 -0.014281953069433749 0 -0.00037384235830371086 -0.013096128446977407 0 0.00092295919708543282 -0.014281953069433749 0 -0.00031850914616777062 -0.015564061922658934 0 0.00083743618704024592 -0.01896763576376238 0 0.00059141477002494069 -0.020208290431936601 0 0.0028714042910800933 -0.012915084286178352 0 0.00092295919708543282 -0.014281953069433749 0 0.002296587794754756 -0.015833904115420846 0 0.00092295919708543282 -0.014281953069433749 0 0.002296587794754756 -0.015833904115420846 0 9.2707382265127815e-05 -0.017011277359813823 0 0.00092295919708543282 -0.014281953069433749 0 9.2707382265127815e-05 -0.017011277359813823 0 -0.00031850914616777062 -0.015564061922658934 0 9.2707382265127815e-05 -0.017011277359813823 0 -0.00031850914616777062 -0.015564061922658934 0 -0.00050343248416858809 -0.015963486720244325 0 9.2707382265127815e-05 -0.017011277359813823 0 -2.7383548922671942e-06 -0.017094384284684863 0 -0.00050343248416858809 -0.015963486720244325 0 0.002296587794754756 -0.015833904115420846 0 9.2707382265127815e-05 -0.017011277359813823 0 5.5762289520856664e-06 -0.021239759174417581 0 9.2707382265127815e-05 -0.017011277359813823 0 -2.7383548922671942e-06 -0.017094384284684863 0 5.5762289520856664e-06 -0.021239759174417581 0 0.00059141477002494069 -0.020208290431936601 0 1.27074406798694e-06 -0.021245650293567269 0 -0.0012921437746706284 -0.015228234697385762 0 -0.00073806220253942951 -0.015421750579080748 0 -0.00052279124164362535 -0.015270744396199219 0 -0.00073806220253942951 -0.015421750579080748 0 -0.00049927724751024159 -0.015006715019396252 0 -0.00052279124164362535 -0.015270744396199219 0 -0.0011083777561166279 -0.01120477338277856 0 -0.0026342185680439164 -0.0086624359043831808 0 -1.2607371787526267e-06 -0.0096602692173998819 0 -0.00018267556775924653 -0.0090953282346495929 0 -0.00039094313498631367 -0.009037095548484057 0 -0.0012921437746706284 -0.015228234697385762 0 -0.00052279124164362535 -0.015270744396199219 0 -0.0014958315199624323 -0.015209975288457201 0 -0.0023632617371287085 -0.0089507230252065806 0 -0.0026342185680439164 -0.0086624359043831808 0 -0.0010422323690560419 -0.014657618458820212 0 -0.0012921437746706284 -0.015228234697385762 0 -0.00073806220253942951 -0.015421750579080748 0 -0.0010422323690560419 -0.014657618458820212 0 -0.00031850914616777062 -0.015564061922658934 0 -0.00073806220253942951 -0.015421750579080748 0 -0.00031850914616777062 -0.015564061922658934 0 -0.00073806220253942951 -0.015421750579080748 0 -0.00050343248416858809 -0.015963486720244325 0 -2.7383548922671942e-06 -0.017094384284684863 0 -0.00050343248416858809 -0.015963486720244325 0 8.9468494289987853e-08 -0.012947207377595124 0 -0.00049927724751024159 -0.015006715019396252 0 -0.00050343248416858809 -0.015963486720244325 0 8.9468494289987853e-08 -0.012947207377595124 0 -0.00073806220253942951 -0.015421750579080748 0 -0.00049927724751024159 -0.015006715019396252 0 -0.00050343248416858809 -0.015963486720244325 0 -2.1174059380131163e-06 -0.012938697245114853 0 -0.0011083777561166279 -0.01120477338277856 0 2.9464894328217993e-06 -0.012936648791393382 0 -1.2607371787526267e-06 -0.0096602692173998819 0 -2.8265687672264933e-06 -0.0093626974279947348 0 -0.00049927724751024159 -0.015006715019396252 0 8.9468494289987853e-08 -0.012947207377595124 0 -0.00052279124164362535 -0.015270744396199219 0 -1.2607371787526267e-06 -0.0096602692173998819 0 -2.8265687672264933e-06 -0.0093626974279947348 0 -0.00018267556775924653 -0.0090953282346495929 0 -2.8265687672264933e-06 -0.0093626974279947348 0 -0.0002244829362361273 -0.008521831410272053 0 -0.00018267556775924653 -0.0090953282346495929 0 -2.8265687672264933e-06 -0.0093626974279947348 0 2.6248325812457037e-06 -0.0057929737175473417 0 -0.0002244829362361273 -0.008521831410272053 0 2.6248325812457037e-06 -0.0057929737175473417 0 -0.0002244829362361273 -0.008521831410272053 0 0.00076297106255102749 -0.0081835680754304384 0 -0.0002244829362361273 -0.008521831410272053 0 0.0003387529905379352 -0.0096736548744867906 0 0.00076297106255102749 -0.0081835680754304384 0 -0.0002244829362361273 -0.008521831410272053 0 -0.00039094313498631367 -0.009037095548484057 0 0.0003387529905379352 -0.0096736548744867906 0 -0.0002244829362361273 -0.008521831410272053 0 -0.00018267556775924653 -0.0090953282346495929 0 -0.00039094313498631367 -0.009037095548484057 0 -0.0086207688411046226 -0.00033030719370202269 0 -0.0086333056952652421 -0.00029783434043202835 0 -0.0086701209158197793 -0.0002716851101680268 0 -0.0026342185680439164 -0.0086624359043831808 0 -0.0039933341577813803 -0.0050669720806521953 0 -0.0018457323626828739 -0.014392569617440518 0 -0.0025514783979851191 -0.015031043021110909 0 -0.0041750737941946836 -0.012831058452876709 0 -0.0026342185680439164 -0.0086624359043831808 0 -0.0052006894524006001 -0.0065222711048089251 0 -0.0086233725613396751 -0.00034063498702794265 0 -0.0086262017274179315 -0.00030333442074106595 0 -0.0086701209158197793 -0.0002716851101680268 0 -0.0086333056952652421 -0.00029783434043202835 0 -0.0086262017274179315 -0.00030333442074106595 0 -0.0086701209158197793 -0.0002716851101680268 0 -0.0086333056952652421 -0.00029783434043202835 0 -0.0086262017274179315 -0.00030333442074106595 0 -0.0086362018405685172 -0.0002968560506919428 0 -0.0086233725613396751 -0.00034063498702794265 0 -0.0086142128692960705 -0.00029189697274498481 0 -0.0086262017274179315 -0.00030333442074106595 0 -0.0028889076836338748 -0.012023446079617982 0 -0.0018638157494191912 -0.013242933722878027 0 -0.0041750737941946836 -0.012831058452876709 0 -0.0042070182216456175 -0.011121031982134265 0 -0.0028889076836338748 -0.012023446079617982 0 -0.0041750737941946836 -0.012831058452876709 0 -0.0087673419732601197 -0.00023665090401944972 0 -0.0087017926958847108 -0.00057590870426887724 0 -0.0093618995493391331 -0.00028969373789641448 0 -0.0087673419732601197 -0.00023665090401944972 0 -0.0086912955384226449 -0.00031810744091840219 0 -0.0086595150152912401 -0.00027427114282456622 0 -0.0053208139825557076 -0.0013181161166011168 0 -0.005126434153832563 -0.0015938083494057105 0 -0.0086142128692960705 -0.00029189697274498481 0 -0.0086595150152912401 -0.00027427114282456622 0 -0.0086362018405685172 -0.0002968560506919428 0 -0.0086333056952652421 -0.00029783434043202835 0 -0.0086912955384226449 -0.00031810744091840219 0 -0.0086362018405685172 -0.0002968560506919428 0 -0.0039933341577813803 -0.0050669720806521953 0 -0.005126434153832563 -0.0015938083494057105 0 -0.0086912955384226449 -0.00031810744091840219 0 -0.0086595150152912401 -0.00027427114282456622 0 -0.0086362018405685172 -0.0002968560506919428 0 -0.0086142128692960705 -0.00029189697274498481 0 -0.0086262017274179315 -0.00030333442074106595 0 -0.0086362018405685172 -0.0002968560506919428 0 0.0003387529905379352 -0.0096736548744867906 0 0.002118572233364232 -0.010485651627567821 0 0.0018832886554706002 -0.0088767915215936261 0 -0.005126434153832563 -0.0015938083494057105 0 -0.0022533152103078164 -0.0031412452753162641 0 -0.0040378195919664427 0.0027352241663849476 0 -0.0038820479152204268 0.0019476782059415576 0 -0.0044802576967572644 0.0022977185873014729 0 -0.0038820479152204268 0.0019476782059415576 0 -0.0042803318712337571 0.0017209771354664916 0 -0.0044802576967572644 0.0022977185873014729 0 -0.0038820479152204268 0.0019476782059415576 0 -0.0042803318712337571 0.0017209771354664916 0 -0.0037240904586351353 0.0011429037091166517 0 -0.0022533152103078164 -0.0031412452753162641 0 -0.00031002584863443574 -0.0034390536811539441 0 0.0018832886554706002 -0.0088767915215936261 0 0.00076297106255102749 -0.0081835680754304384 0 0.0018253772400410445 -0.0064697655848221436 0 0.0003387529905379352 -0.0096736548744867906 0 0.0018832886554706002 -0.0088767915215936261 0 0.00076297106255102749 -0.0081835680754304384 0 2.6248325812457037e-06 -0.0057929737175473417 0 0.00076297106255102749 -0.0081835680754304384 0 0.0018253772400410445 -0.0064697655848221436 0 -0.00031002584863443574 -0.0034390536811539441 0 -4.598284420869771e-06 -0.0033389118291511058 0 -1.2664085486834107e-07 -0.0057788193182254565 0 -0.00031002584863443574 -0.0034390536811539441 0 -5.9920058173521157e-10 -0.0057844367283006017 0 -1.0917216535105052e-07 -0.0032384504086352701 0 -2.215125410027479e-10 -0.0033394808140338275 0 -0.0042803318712337571 0.0017209771354664916 0 -0.0037240904586351353 0.0011429037091166517 0 -0.0044623278447450199 0.0013178869976461437 0 -0.00031002584863443574 -0.0034390536811539441 0 -0.0026327683227232381 0.00031536721197768258 0 5.9555996828812455e-05 -0.0028670169610482128 0 9.5665226360138094e-07 -0.0033333003230655825 0 3.72687101363382e-06 0.0011885280628994301 0 9.5665226360138094e-07 -0.0033333003230655825 0 3.72687101363382e-06 0.0011885280628994301 0 -6.4842061108876177e-07 0.0015787872023780678 0 -0.0026327683227232381 0.00031536721197768258 0 -0.0033818940421248157 0.0032755123389268575 0 3.72687101363382e-06 0.0011885280628994301 0 -6.4842061108876177e-07 0.0015787872023780678 0 -1.8034849596118738e-05 0.0040741982678951455 0 9.8878294287835191e-07 0.0015835401413666027 0 -3.2160704539378149e-07 0.0061401689172540398 0 9.878291916985788e-05 0.0063312138055111921 0 -3.6458863051599544e-07 0.0015857548736811632 0 -0.00048378605699149751 0.0035104868797746812 0 -6.4842061108876177e-07 0.0015787872023780678 0 -1.8034849596118738e-05 0.0040741982678951455 0 -0.00017961904682153434 0.0041625230622141171 0 -0.0051874033568188238 0.0014977063466873033 0 -0.0048443024727768636 0.0018881028227305733 0 -0.0053275849552388782 0.0020804348638138711 0 -0.0044623278447450199 0.0013178869976461437 0 -0.0051874033568188238 0.0014977063466873033 0 -0.0048443024727768636 0.0018881028227305733 0 -0.0042803318712337571 0.0017209771354664916 0 -0.0044623278447450199 0.0013178869976461437 0 -0.0048443024727768636 0.0018881028227305733 0 -0.0042803318712337571 0.0017209771354664916 0 -0.0048443024727768636 0.0018881028227305733 0 -0.0044802576967572644 0.0022977185873014729 0 -0.00023198153708967872 0.0078884329867348196 0 -3.2160704539378149e-07 0.0061401689172540398 0 -1.7737861772281596e-06 0.010695469484705532 0 -0.00023198153708967872 0.0078884329867348196 0 -0.00052049481492639127 0.0090326637882163184 0 -1.7737861772281596e-06 0.010695469484705532 0 -0.00017961904682153434 0.0041625230622141171 0 -0.00055170169978778917 0.0086527532156315395 0 -0.00052049481492639127 0.0090326637882163184 0 -1.8034849596118738e-05 0.0040741982678951455 0 -0.00017961904682153434 0.0041625230622141171 0 -0.00055170169978778917 0.0086527532156315395 0 -0.00048378605699149751 0.0035104868797746812 0 -0.00063394204719775208 0.0044006486421681616 0 -0.00023198153708967872 0.0078884329867348196 0 9.878291916985788e-05 0.0063312138055111921 0 -0.00052049481492639127 0.0090326637882163184 0 -0.00023198153708967872 0.0078884329867348196 0 -3.2160704539378149e-07 0.0061401689172540398 0 9.878291916985788e-05 0.0063312138055111921 0 -0.0059160594606114583 0.0016803817793517699 0 -0.0057089689979857245 0.0022259924264590165 0 -0.0053275849552388782 0.0020804348638138711 0 -0.0033818940421248157 0.0032755123389268575 0 -0.0037398063003173674 0.0062385850502252429 0 -0.0051874033568188238 0.0014977063466873033 0 -0.0059160594606114583 0.0016803817793517699 0 -0.0053275849552388782 0.0020804348638138711 0 -0.0059160594606114583 0.0016803817793517699 0 -0.0060999875890561661 0.0024498819530045968 0 -0.0066359466301623973 0.0018609630471851609 0 -0.00055170169978778917 0.0086527532156315395 0 -0.00052049481492639127 0.0090326637882163184 0 0.00020594501941538797 0.010103031053820179 0 -0.0037398063003173674 0.0062385850502252429 0 -0.004238499944632516 0.0098078805423165612 0 -0.0059160594606114583 0.0016803817793517699 0 -0.0060999875890561661 0.0024498819530045968 0 -0.0057089689979857245 0.0022259924264590165 0 -0.0060999875890561661 0.0024498819530045968 0 -0.0057089689979857245 0.0022259924264590165 0 -0.0054412427235267721 0.00257842581226898 0 -0.0057089689979857245 0.0022259924264590165 0 -0.0053275849552388782 0.0020804348638138711 0 -0.0054412427235267721 0.00257842581226898 0 -0.0069995065681641997 0.0024197229021975988 0 -0.0072041215480186382 0.0026184508225862769 0 -0.0060999875890561661 0.0024498819530045968 0 -0.0054412427235267721 0.00257842581226898 0 -0.0055551103233136244 0.0030616896860628925 0 -0.0072041215480186382 0.0026184508225862769 0 -0.0078309771650191245 0.0031328488853738334 0 -0.0054328152554725135 0.0025359705610780909 0 -0.0055432826303487403 0.0030012195118450653 0 -0.0051937740609523048 0.0028427291679654254 0 -0.010852861710578149 0.0062948114659749799 0 -0.011780718320173944 0.0052872077672917461 0 -0.010883208988359792 0.0049813541818528465 0 -0.007451492441091034 0.0050362526638929352 0 -0.0078309771650191245 0.0031328488853738334 0 -0.010852861710578149 0.0062948114659749799 0 -0.010883208988359792 0.0049813541818528465 0 -0.010054159376824325 0.0053243647873096695 0 -0.0048443024727768636 0.0018881028227305733 0 -0.0044802576967572644 0.0022977185873014729 0 -0.004992862734924013 0.0024431098790182793 0 -0.0048443024727768636 0.0018881028227305733 0 -0.0053275849552388782 0.0020804348638138711 0 -0.004992862734924013 0.0024431098790182793 0 -0.0053275849552388782 0.0020804348638138711 0 -0.0054328152554725135 0.0025359705610780909 0 -0.004992862734924013 0.0024431098790182793 0 -0.004992862734924013 0.0024431098790182793 0 -0.0051937740609523048 0.0028427291679654254 0 -0.0046661378882554517 0.003012885080473321 0 -0.0054328152554725135 0.0025359705610780909 0 -0.004992862734924013 0.0024431098790182793 0 -0.0051937740609523048 0.0028427291679654254 0 -0.0044802576967572644 0.0022977185873014729 0 -0.004992862734924013 0.0024431098790182793 0 -0.0046661378882554517 0.003012885080473321 0 -0.0040378195919664427 0.0027352241663849476 0 -0.0044802576967572644 0.0022977185873014729 0 -0.0046661378882554517 0.003012885080473321 0 -0.005126434153832563 -0.0015938083494057105 0 -0.0069003496376383215 0.00066085178813328721 0 -0.0087673419732601197 -0.00023665090401944972 0 -0.0093618995493391331 -0.00028969373789641448 0 -0.0090282576237011389 9.9434753809063195e-05 0 -0.0093618995493391331 -0.00028969373789641448 0 -0.0095069283004776961 0.0003131782757170996 0 -0.0090282576237011389 9.9434753809063195e-05 0 -0.0099597680931657415 0.00088450355076177584 0 -0.010260846434636491 0.0012341843918268363 0 -0.01084711896634942 0.0020621731526227795 0 -0.010774757598340175 0.0019672100875736142 0 -0.010670427524420659 0.0019863845242708562 0 -0.0095069283004776961 0.0003131782757170996 0 -0.0090282576237011389 9.9434753809063195e-05 0 -0.0094309133742708218 0.00094451305748301055 0 -0.0086836134276003975 0.00022797809657088588 0 -0.0090282576237011389 9.9434753809063195e-05 0 -0.0094309133742708218 0.00094451305748301055 0 -0.0094309133742708218 0.00094451305748301055 0 -0.0099339280377718723 0.00075271763315188538 0 -0.010618467159051875 0.0017453997659830742 0 -0.0099339280377718723 0.00075271763315188538 0 -0.010453408002133142 0.00087938821638064912 0 -0.010618467159051875 0.0017453997659830742 0 -0.0095069283004776961 0.0003131782757170996 0 -0.0099339280377718723 0.00075271763315188538 0 -0.010091340942420562 0.00026558754682832152 0 -0.0095069283004776961 0.0003131782757170996 0 -0.0094309133742708218 0.00094451305748301055 0 -0.0099339280377718723 0.00075271763315188538 0 -0.0099339280377718723 0.00075271763315188538 0 -0.010221613295969061 0.00058898079042987998 0 -0.010453408002133142 0.00087938821638064912 0 -0.0099339280377718723 0.00075271763315188538 0 -0.010221613295969061 0.00058898079042987998 0 -0.010091340942420562 0.00026558754682832152 0 -0.010221613295969061 0.00058898079042987998 0 -0.010091340942420562 0.00026558754682832152 0 -0.010423345022552641 0.00046249022893536169 0 -0.010091340942420562 0.00026558754682832152 0 -0.010264023109300472 7.0882229159756658e-05 0 -0.010423345022552641 0.00046249022893536169 0 -0.0051937740609523048 0.0028427291679654254 0 -0.0046661378882554517 0.003012885080473321 0 -0.0052883947391682978 0.0032856547599043121 0 -0.0093618995493391331 -0.00028969373789641448 0 -0.0095069283004776961 0.0003131782757170996 0 -0.010091340942420562 0.00026558754682832152 0 -0.0069003496376383215 0.00066085178813328721 0 -0.0080139470714474734 0.0023580135232252682 0 -0.0093618995493391331 -0.00028969373789641448 0 -0.010091340942420562 0.00026558754682832152 0 -0.010232445066172538 0.00010878096381570102 0 -0.00808962821395149 0.0022759829829035526 0 -0.0080139470714474734 0.0023580135232252682 0 -0.0055432826303487403 0.0030012195118450653 0 -0.0051937740609523048 0.0028427291679654254 0 -0.0052883947391682978 0.0032856547599043121 0 -0.0081516868561196821 0.002489502691762117 0 -0.0082551488676422067 0.002374348543844614 0 -0.008112666118308156 0.0023115663104505708 0 -0.011780718320173944 0.0052872077672917461 0 -0.011618793923550598 0.0045161470026307254 0 -0.010883208988359792 0.0049813541818528465 0 -0.0078309771650191245 0.0031328488853738334 0 -0.0080139470714474734 0.0023580135232252682 0 -0.0078309771650191245 0.0031328488853738334 0 -0.0088523396129638818 0.0030490877719477334 0 -0.010264023109300472 7.0882229159756658e-05 0 -0.010916501566401629 0.00037642685826198434 0 -0.010423345022552641 0.00046249022893536169 0 -0.0080139470714474734 0.0023580135232252682 0 -0.0088523396129638818 0.0030490877719477334 0 -0.011618793923550598 0.0045161470026307254 0 -0.010883208988359792 0.0049813541818528465 0 -0.010904717382255022 0.0041844682955777457 0 -0.010883208988359792 0.0049813541818528465 0 -0.010904717382255022 0.0041844682955777457 0 -0.010277466714945579 0.0041785155075417576 0 -0.0115636687889116 0.0044742816251153736 0 -0.010904717382255022 0.0041844682955777457 0 -0.011277355975049455 0.0033748641721328132 0 -0.010904717382255022 0.0041844682955777457 0 -0.010725716788076959 0.0036288248043223666 0 -0.010277466714945579 0.0041785155075417576 0 -0.0088523396129638818 0.0030490877719477334 0 -0.0094654519131489121 0.0033374580591060102 0 -0.010904717382255022 0.0041844682955777457 0 -0.010725716788076959 0.0036288248043223666 0 -0.011277355975049455 0.0033748641721328132 0 -0.0088523396129638818 0.0030490877719477334 0 -0.0096056145843664772 0.0027697217559501698 0 -0.010916501566401629 0.00037642685826198434 0 -0.010745435279064481 0.0011610137562710311 0 -0.011008282968709 0.0016255966099884154 0 -0.010916501566401629 0.00037642685826198434 0 -0.010453408002133142 0.00087938821638064912 0 -0.010423345022552641 0.00046249022893536169 0 -0.010916501566401629 0.00037642685826198434 0 -0.010453408002133142 0.00087938821638064912 0 -0.010745435279064481 0.0011610137562710311 0 -0.010221613295969061 0.00058898079042987998 0 -0.010453408002133142 0.00087938821638064912 0 -0.010423345022552641 0.00046249022893536169 0 -0.010453408002133142 0.00087938821638064912 0 -0.010745435279064481 0.0011610137562710311 0 -0.010618467159051875 0.0017453997659830742 0 -0.011008282968709 0.0016255966099884154 0 -0.010746095548223785 0.0023022420043034304 0 -0.010680217146743049 0.0020654492174268474 0 -0.010745435279064481 0.0011610137562710311 0 -0.010618467159051875 0.0017453997659830742 0 -0.011008282968709 0.0016255966099884154 0 -0.010618467159051875 0.0017453997659830742 0 -0.011008282968709 0.0016255966099884154 0 -0.010680217146743049 0.0020654492174268474 0 -0.010618467159051875 0.0017453997659830742 0 -0.010680217146743049 0.0020654492174268474 0 -0.010625829033661187 0.0019571997475160891 0 -0.0096056145843664772 0.0027697217559501698 0 -0.0097983968734528786 0.0026529359299742976 0 -0.011277355975049455 0.0033748641721328132 0 -0.010659748501220017 0.0030600835091193069 0 -0.010746095548223785 0.0023022420043034304 0 -0.010725716788076959 0.0036288248043223666 0 -0.010659748501220017 0.0030600835091193069 0 -0.010297177101621301 0.003336073175286659 0 -0.010725716788076959 0.0036288248043223666 0 -0.011277355975049455 0.0033748641721328132 0 -0.010659748501220017 0.0030600835091193069 0 -0.010746095548223785 0.0023022420043034304 0 -0.010309854288155994 0.0026756834148743925 0 -0.010398581002540512 0.0022252506636676922 0 -0.010659748501220017 0.0030600835091193069 0 -0.010746095548223785 0.0023022420043034304 0 -0.010309854288155994 0.0026756834148743925 0 -0.010680217146743049 0.0020654492174268474 0 -0.010649213472215004 0.0020103651433688871 0 -0.010625829033661187 0.0019571997475160891 0 -0.010746095548223785 0.0023022420043034304 0 -0.010680217146743049 0.0020654492174268474 0 -0.010657674762416467 0.0021351052855362478 0 -0.010680217146743049 0.0020654492174268474 0 -0.010649213472215004 0.0020103651433688871 0 -0.010657674762416467 0.0021351052855362478 0 -0.010649213472215004 0.0020103651433688871 0 -0.01064579500606296 0.0019365968709641236 0 -0.010666130593016443 0.0019213526904095582 0 -0.010649213472215004 0.0020103651433688871 0 -0.010625829033661187 0.0019571997475160891 0 -0.01064579500606296 0.0019365968709641236 0 -0.010625829033661187 0.0019571997475160891 0 -0.01064579500606296 0.0019365968709641236 0 -0.010628785159027418 0.0019003422562787332 0 -0.01064579500606296 0.0019365968709641236 0 -0.010676964986408527 0.0019012159827060369 0 -0.010628785159027418 0.0019003422562787332 0 -0.01064579500606296 0.0019365968709641236 0 -0.010686399519452371 0.0018805394291540676 0 -0.010676964986408527 0.0019012159827060369 0 -0.01064579500606296 0.0019365968709641236 0 -0.010686399519452371 0.0018805394291540676 0 -0.010666130593016443 0.0019213526904095582 0 -0.010686399519452371 0.0018805394291540676 0 -0.010733975169342996 0.0018599420995226241 0 -0.010676964986408527 0.0019012159827060369 0 -0.010686399519452371 0.0018805394291540676 0 -0.010733975169342996 0.0018599420995226241 0 -0.010734126550461525 0.0018178423556575152 0 -0.010791145276800522 0.0018150053147939144 0 -0.010733975169342996 0.0018599420995226241 0 -0.010734126550461525 0.0018178423556575152 0 -0.010797767553663453 0.0018639170176498172 0 -0.010791145276800522 0.0018150053147939144 0 -0.010733975169342996 0.0018599420995226241 0 -0.010797767553663453 0.0018639170176498172 0 -0.010733975169342996 0.0018599420995226241 0 -0.010729520825613577 0.0018942019013714413 0 -0.010785586652233968 0.0019169811652193858 0 -0.010797767553663453 0.0018639170176498172 0 -0.010729520825613577 0.0018942019013714413 0 -0.010729520825613577 0.0018942019013714413 0 -0.010676964986408527 0.0019012159827060369 0 -0.01070463525104331 0.0019239424095217833 0 -0.010733975169342996 0.0018599420995226241 0 -0.010729520825613577 0.0018942019013714413 0 -0.010676964986408527 0.0019012159827060369 0 -0.010676964986408527 0.0019012159827060369 0 -0.01070463525104331 0.0019239424095217833 0 -0.010628785159027418 0.0019003422562787332 0 -0.010785586652233968 0.0019169811652193858 0 -0.010729520825613577 0.0018942019013714413 0 -0.01070463525104331 0.0019239424095217833 0 -0.010774757598340175 0.0019672100875736142 0 -0.010785586652233968 0.0019169811652193858 0 -0.01070463525104331 0.0019239424095217833 0 -0.010774757598340175 0.0019672100875736142 0 -0.010670427524420659 0.0019863845242708562 0 -0.01070463525104331 0.0019239424095217833 0 -0.010670427524420659 0.0019863845242708562 0 -0.01070463525104331 0.0019239424095217833 0 -0.010628785159027418 0.0019003422562787332 0 -0.010670427524420659 0.0019863845242708562 0 -0.010618467159051875 0.0017453997659830742 0 -0.010628785159027418 0.0019003422562787332 0 -0.010260846434636491 0.0012341843918268363 0 -0.010484797193957974 0.0013954731519059541 0 -0.010618467159051875 0.0017453997659830742 0 -0.010625829033661187 0.0019571997475160891 0 -0.010628785159027418 0.0019003422562787332 0 -0.0090972145796704186 0.0038252207696604446 0 -0.0097632539509284414 0.0043801009655276748 0 -0.0086943793172800619 0.0046592960802524872 0 -0.0084531287963260995 0.0038785719181206914 0 -0.0086943793172800619 0.0046592960802524872 0 -0.0077995678381193329 0.0041525198985691509 0 -0.0084531287963260995 0.0038785719181206914 0 -0.0090972145796704186 0.0038252207696604446 0 -0.0086943793172800619 0.0046592960802524872 0 -0.0084531287963260995 0.0038785719181206914 0 -0.0090972145796704186 0.0038252207696604446 0 -0.0085626573337534932 0.0031583231158955043 0 -0.0090972145796704186 0.0038252207696604446 0 -0.0091768483465222012 0.0031846612909155986 0 -0.0085626573337534932 0.0031583231158955043 0 -0.0098607762184655598 0.0032137680539052181 0 -0.0097040480018627702 0.0039111038741229676 0 -0.0090972145796704186 0.0038252207696604446 0 -0.0099654343724745065 0.0035177633498941884 0 -0.0097632539509284414 0.0043801009655276748 0 -0.0090972145796704186 0.0038252207696604446 0 -0.0099654343724745065 0.0035177633498941884 0 -0.0091768483465222012 0.0031846612909155986 0 -0.0099786055105617489 0.0024172419935063164 0 -0.010309854288155994 0.0026756834148743925 0 -0.010398581002540512 0.0022252506636676922 0 -0.0099786055105617489 0.0024172419935063164 0 -0.010309854288155994 0.0026756834148743925 0 -0.0095896804560488633 0.0032974186299568765 0 -0.010309854288155994 0.0026756834148743925 0 -0.010297177101621301 0.003336073175286659 0 -0.0095896804560488633 0.0032974186299568765 0 -0.010659748501220017 0.0030600835091193069 0 -0.010309854288155994 0.0026756834148743925 0 -0.010297177101621301 0.003336073175286659 0 -0.0097040480018627702 0.0039111038741229676 0 -0.0095473058349929297 0.0046715402420636652 0 -0.0097632539509284414 0.0043801009655276748 0 -0.0095386087638739524 0.0051747356852496562 0 -0.0086943793172800619 0.0046592960802524872 0 -0.010297177101621301 0.003336073175286659 0 -0.0095896804560488633 0.0032974186299568765 0 -0.010277466714945579 0.0041785155075417576 0 -0.0095896804560488633 0.0032974186299568765 0 -0.010277466714945579 0.0041785155075417576 0 -0.0093589934119979283 0.0045626414910890463 0 -0.010725716788076959 0.0036288248043223666 0 -0.010297177101621301 0.003336073175286659 0 -0.010277466714945579 0.0041785155075417576 0 -0.010277466714945579 0.0041785155075417576 0 -0.0093589934119979283 0.0045626414910890463 0 -0.010054159376824325 0.0053243647873096695 0 -0.010883208988359792 0.0049813541818528465 0 -0.010277466714945579 0.0041785155075417576 0 -0.010054159376824325 0.0053243647873096695 0 -0.0095473058349929297 0.0046715402420636652 0 -0.0094697273521746061 0.0050911594601139674 0 -0.0093589934119979283 0.0045626414910890463 0 -0.010054159376824325 0.0053243647873096695 0 -0.0093199488074264102 0.0058657680532874529 0 -0.0095386087638739524 0.0051747356852496562 0 -0.0088270284427164752 0.0053535306698871826 0 -0.0093199488074264102 0.0058657680532874529 0 -0.0095386087638739524 0.0051747356852496562 0 -0.0088270284427164752 0.0053535306698871826 0 -0.0086943793172800619 0.0046592960802524872 0 -0.0099255016404274175 0.01014195462801443 0 -0.0068524524991662398 0.017782718969779374 0 -0.0088270284427164752 0.0053535306698871826 0 -0.0086943793172800619 0.0046592960802524872 0 -0.0081052234876709626 0.0054996628352824654 0 -0.0088270284427164752 0.0053535306698871826 0 -0.0085480946210177589 0.0060496505559990473 0 -0.0081052234876709626 0.0054996628352824654 0 -0.0085480946210177589 0.0060496505559990473 0 -0.0080267157475954094 0.0062302940335553208 0 -0.0079714278217706061 0.0054800327387938439 0 -0.0053553434088890531 0.013807612508893908 0 -0.0068524524991662398 0.017782718969779374 0 -0.0088270284427164752 0.0053535306698871826 0 -0.0085480946210177589 0.0060496505559990473 0 -0.0093199488074264102 0.0058657680532874529 0 -0.0085480946210177589 0.0060496505559990473 0 -0.0093199488074264102 0.0058657680532874529 0 -0.00904156786482525 0.006897575582227782 0 -0.0030727717420258338 0.018349019627313168 0 -0.0039149963147934912 0.014106183884182506 0 -0.0085480946210177589 0.0060496505559990473 0 -0.0081942827621999306 0.0067351557899587187 0 -0.00904156786482525 0.006897575582227782 0 -0.0085480946210177589 0.0060496505559990473 0 -0.0080267157475954094 0.0062302940335553208 0 -0.0081942827621999306 0.0067351557899587187 0 -0.010852861710578149 0.0062948114659749799 0 -0.010054159376824325 0.0053243647873096695 0 -0.0099996164551310711 0.0062225236212437376 0 -0.010054159376824325 0.0053243647873096695 0 -0.0093199488074264102 0.0058657680532874529 0 -0.0099996164551310711 0.0062225236212437376 0 -0.0093199488074264102 0.0058657680532874529 0 -0.0099996164551310711 0.0062225236212437376 0 -0.00904156786482525 0.006897575582227782 0 -0.0099996164551310711 0.0062225236212437376 0 -0.010017984550586312 0.0071448363058708103 0 -0.00904156786482525 0.006897575582227782 0 -0.007451492441091034 0.0050362526638929352 0 -0.004238499944632516 0.0098078805423165612 0 -0.010852861710578149 0.0062948114659749799 0 -0.0099996164551310711 0.0062225236212437376 0 -0.010017984550586312 0.0071448363058708103 0 -0.00052049481492639127 0.0090326637882163184 0 0.00020594501941538797 0.010103031053820179 0 8.4210119469561853e-06 0.012087664069784178 0 0.00475830319831313 0.020608837240485702 0 0.00087837415529225639 0.019244469372109378 0 0.00032278834433517193 0.021038632879524195 0 -0.004238499944632516 0.0098078805423165612 0 -0.0039149963147934912 0.014106183884182506 0 -0.004238499944632516 0.0098078805423165612 0 -0.0010496499612496772 0.013349727882147765 0 3.5200146832315803e-06 0.015254114914132347 0 0.00022554903441076243 0.015727039010764686 0 8.4210119469561853e-06 0.012087664069784178 0 0.00475830319831313 0.020608837240485702 0 0.00087837415529225639 0.019244469372109378 0 0.00022554903441076243 0.015727039010764686 0 0.00020594501941538797 0.010103031053820179 0 0.00022554903441076243 0.015727039010764686 0 8.4210119469561853e-06 0.012087664069784178 0 3.5200146832315803e-06 0.015254114914132347 0 -1.7737861772281596e-06 0.010695469484705532 0 8.4210119469561853e-06 0.012087664069784178 0 -0.00052049481492639127 0.0090326637882163184 0 -1.7737861772281596e-06 0.010695469484705532 0 8.4210119469561853e-06 0.012087664069784178 0 -0.00088233642033175861 0.022101413747297211 0 -0.00028137644549615278 0.019691500260260723 0 -0.00048693145676462229 0.021720617617512872 0 -0.00088233642033175861 0.022101413747297211 0 0.00032278834433517193 0.021038632879524195 0 -0.00028137644549615278 0.019691500260260723 0 0.00087837415529225639 0.019244469372109378 0 0.00032278834433517193 0.021038632879524195 0 -0.00028137644549615278 0.019691500260260723 0 3.5200146832315803e-06 0.015254114914132347 0 0.00022554903441076243 0.015727039010764686 0 -2.1584983171329887e-06 0.019812268251605068 0 0.00022554903441076243 0.015727039010764686 0 -0.00028137644549615278 0.019691500260260723 0 -2.1584983171329887e-06 0.019812268251605068 0 0.00087837415529225639 0.019244469372109378 0 0.00022554903441076243 0.015727039010764686 0 -0.00028137644549615278 0.019691500260260723 0 -0.00028137644549615278 0.019691500260260723 0 -2.1584983171329887e-06 0.019812268251605068 0 -0.00048693145676462229 0.021720617617512872 0 -2.1584983171329887e-06 0.019812268251605068 0 -0.00048693145676462229 0.021720617617512872 0 -1.9054663426872895e-07 0.02436853917698175 0 -0.00048693145676462229 0.021720617617512872 0 -0.00039509862992035793 0.023553604615821403 0 -1.9054663426872895e-07 0.02436853917698175 0 -0.00088233642033175861 0.022101413747297211 0 -0.00048693145676462229 0.021720617617512872 0 -0.00039509862992035793 0.023553604615821403 0 -0.00088233642033175861 0.022101413747297211 0 -0.00039509862992035793 0.023553604615821403 0 -3.7357730749575415e-05 0.022372198092336319 0 0.00020569471892390082 0.026487428383183152 0 -0.00036094191655725532 0.028609961310329203 0 0.0019324293444396257 0.029314257622103383 0 0.00014685571940753906 0.025312820598649779 0 -0.00037983030774316819 0.024300051777750617 0 -0.00039509862992035793 0.023553604615821403 0 0.00020569471892390082 0.026487428383183152 0 -3.7357730749575415e-05 0.022372198092336319 0 -0.00039509862992035793 0.023553604615821403 0 -1.9054663426872895e-07 0.02436853917698175 0 0.00020569471892390082 0.026487428383183152 0 0.00020569471892390082 0.026487428383183152 0 -2.4699322702078722e-07 0.028924591565583677 0 -0.00028020732620082084 0.029802628899692308 0 -1.9054663426872895e-07 0.02436853917698175 0 0.00020569471892390082 0.026487428383183152 0 -2.4699322702078722e-07 0.028924591565583677 0 0.00020569471892390082 0.026487428383183152 0 -0.00028020732620082084 0.029802628899692308 0 -0.00053122930182884201 0.02936832309584244 0 -2.4699322702078722e-07 0.028924591565583677 0 -0.00028020732620082084 0.029802628899692308 0 -1.1097706980961412e-06 0.033482184924832355 0 -0.00028020732620082084 0.029802628899692308 0 -0.00053122930182884201 0.02936832309584244 0 -0.00013146376018300136 0.031197921858108674 0 0.00076849282888964536 0.037752051282770205 0 0.00042019365364301089 0.03889327017404709 0 -0.00053122930182884201 0.02936832309584244 0 -0.00035360017137965182 0.029008027086267169 0 -0.00015075468563005098 0.029203395259878296 0 -0.00053122930182884201 0.02936832309584244 0 -0.00051801912752164558 0.028955433744086382 0 -0.00036094191655725532 0.028609961310329203 0 -0.00053122930182884201 0.02936832309584244 0 -0.00051801912752164558 0.028955433744086382 0 -0.00055785612756902925 0.028980978845821445 0 -0.00053122930182884201 0.02936832309584244 0 -0.00035360017137965182 0.029008027086267169 0 -0.00055785612756902925 0.028980978845821445 0 0.00020569471892390082 0.026487428383183152 0 -0.00053122930182884201 0.02936832309584244 0 -0.00036094191655725532 0.028609961310329203 0 -0.00067394073913453487 0.03179210008868695 0 -0.00087041873995334185 0.038358057800640444 0 -0.00036094191655725532 0.028609961310329203 0 0.00039350896075137997 0.029576835404529631 0 0.0019324293444396257 0.029314257622103383 0 0.00039350896075137997 0.029576835404529631 0 -0.00047369217003483778 0.029078542158747049 0 -0.00054217588389891477 0.029473945374340837 0 -0.00051801912752164558 0.028955433744086382 0 -0.00036094191655725532 0.028609961310329203 0 -0.00047369217003483778 0.029078542158747049 0 -0.00036094191655725532 0.028609961310329203 0 0.00039350896075137997 0.029576835404529631 0 -0.00047369217003483778 0.029078542158747049 0 -0.00070966695444318363 0.028947949832420074 0 -0.00055785612756902925 0.028980978845821445 0 -0.00054217588389891477 0.029473945374340837 0 0.00028222231282202853 0.039389499217521204 0 0.00020647528903838835 0.039229099683702022 0 -0.00051801912752164558 0.028955433744086382 0 -0.00055785612756902925 0.028980978845821445 0 -0.00047369217003483778 0.029078542158747049 0 -0.00055785612756902925 0.028980978845821445 0 -0.00047369217003483778 0.029078542158747049 0 -0.00054217588389891477 0.029473945374340837 0 0.00028222231282202853 0.039389499217521204 0 -0.00087041873995334185 0.038358057800640444 0 0.00014239024885654179 0.042021516717565315 0 0.00062669134221743524 0.041279788672775125 0 0.0015263313901766359 0.041649291321109318 0 0.00014239024885654179 0.042021516717565315 0 0.00062669134221743524 0.041279788672775125 0 -0.00065043986758907095 0.041310604911330609 0 -0.00082207534542098372 0.042156769125983616 0 -0.00065043986758907095 0.041310604911330609 0 -0.0013659290554950505 0.041528030855982612 0 -0.00082207534542098372 0.042156769125983616 0 3.972035586250888e-05 0.041962628797474671 0 -0.00065043986758907095 0.041310604911330609 0 -0.00087041873995334185 0.038358057800640444 0 -0.00033708635091540839 0.039179693726978181 0 -0.00065043986758907095 0.041310604911330609 0 -0.0013659290554950505 0.041528030855982612 0 -0.00091602446964359017 0.040740304346909596 0 -0.0013659290554950505 0.041528030855982612 0 -0.001783068904354297 0.040995672098636665 0 -0.00091602446964359017 0.040740304346909596 0 -0.0013659290554950505 0.041528030855982612 0 -0.0022442149309185363 0.041536735604042349 0 -0.0017283655617621268 0.042340202013678337 0 -0.0013659290554950505 0.041528030855982612 0 -0.0022442149309185363 0.041536735604042349 0 -0.001783068904354297 0.040995672098636665 0 -0.0080267157475954094 0.0062302940335553208 0 -0.007628058812706822 0.0060144086664882844 0 -0.0079714278217706061 0.0054800327387938439 0 -0.0022442149309185363 0.041536735604042349 0 -0.0027541409468236312 0.040717102341925965 0 -0.001783068904354297 0.040995672098636665 0 -0.0035471486348277381 0.021652871276719374 0 -0.0068524524991662398 0.017782718969779374 0 -0.0080267157475954094 0.0062302940335553208 0 -0.007628058812706822 0.0060144086664882844 0 -0.0072725478651491683 0.0065830701520359957 0 -0.0030727717420258338 0.018349019627313168 0 -0.00037983030774316819 0.024300051777750617 0 -0.0080267157475954094 0.0062302940335553208 0 -0.0081942827621999306 0.0067351557899587187 0 -0.0072725478651491683 0.0065830701520359957 0 -0.0035471486348277381 0.021652871276719374 0 -0.00037983030774316819 0.024300051777750617 0 -0.00067394073913453487 0.03179210008868695 0 -0.00037983030774316819 0.024300051777750617 0 -0.00082207534542098372 0.042156769125983616 0 -0.0013659290554950505 0.041528030855982612 0 -0.0017283655617621268 0.042340202013678337 0 0.0011082596247685395 0.044964535086911589 0 0.00053693523599389174 0.045511348794898189 0 0.00085890424048936211 0.045852195809880841 0 0.0025593426882578869 0.047776771423030037 0 -0.00054032823902648943 0.047463620049199892 0 0.00085890424048936211 0.045852195809880841 0 0.0039941734390297242 0.045372326277380838 0 0.0025593426882578869 0.047776771423030037 0 0.00085890424048936211 0.045852195809880841 0 4.7590074530060143e-06 0.041850522867562294 0 0.0039941734390297242 0.045372326277380838 0 7.827595803435146e-07 0.04184317013916173 0 0.00086700761275496161 0.042399909753786665 0 1.5487407389451524e-08 0.038048572885551371 0 -6.0218478931264518e-05 0.038673531780233424 0 0.00058582568974954784 0.038575261824405953 0 -1.4358801940853318e-08 0.041834849970277012 0 1.5487407389451524e-08 0.038048572885551371 0 -6.0218478931264518e-05 0.038673531780233424 0 0.0050520371392835037 0.047279725777596336 0 0.0067408510132299501 0.048016418030490247 0 0.0025593426882578869 0.047776771423030037 0 0.0039941734390297242 0.045372326277380838 0 0.0050520371392835037 0.047279725777596336 0 0.0069852901042105342 0.048028451665720583 0 0.0039941734390297242 0.045372326277380838 0 0.0050520371392835037 0.047279725777596336 0 0.0025593426882578869 0.047776771423030037 0 0.00086700761275496161 0.042399909753786665 0 0.00047358809071252949 0.04245088598793522 0 0.00058582568974954784 0.038575261824405953 0 0.0010973853519497931 0.039061023143966943 0 0.00061501626397592621 0.039266485028568825 0 -6.0218478931264518e-05 0.038673531780233424 0 0.00058582568974954784 0.038575261824405953 0 0.00061501626397592621 0.039266485028568825 0 3.1537183868451199e-06 0.03803547006419878 0 0.00048834720240699761 0.032991455368832044 0 -1.1097706980961412e-06 0.033482184924832355 0 -1.0319717270060445e-06 0.038038586474685429 0 -0.00037497966207014432 0.037529419676463789 0 0.00048834720240699761 0.032991455368832044 0 -1.1097706980961412e-06 0.033482184924832355 0 -0.00013146376018300136 0.031197921858108674 0 -0.00028020732620082084 0.029802628899692308 0 -1.1097706980961412e-06 0.033482184924832355 0 -0.00013146376018300136 0.031197921858108674 0 0.00048834720240699761 0.032991455368832044 0 -0.00013146376018300136 0.031197921858108674 0 6.2829131321232674e-05 0.030391153686574718 0 -0.00053122930182884201 0.02936832309584244 0 -0.00013146376018300136 0.031197921858108674 0 6.2829131321232674e-05 0.030391153686574718 0 -0.00037497966207014432 0.037529419676463789 0 0.00042019365364301089 0.03889327017404709 0 0.00042019365364301089 0.03889327017404709 0 0.00047358809071252949 0.04245088598793522 0 0.00028222231282202853 0.039389499217521204 0 0.00042019365364301089 0.03889327017404709 0 0.00046066615816683833 0.047329021769808848 0 0.00024174578428582823 0.0474340476181207 0 0.00011169258416294031 0.047314567252029982 0 0.00046066615816683833 0.047329021769808848 0 0.00066460647083012433 0.047509786201818074 0 0.00024411521303446733 0.047632831165238934 0 0.00046066615816683833 0.047329021769808848 0 0.00024174578428582823 0.0474340476181207 0 0.00024411521303446733 0.047632831165238934 0 -3.9478571119344353e-05 0.041099559288924697 0 0.00027288421037462119 0.041394388216276959 0 0.00085185825640101136 0.041153820909087133 0 0.00028222231282202853 0.039389499217521204 0 0.00047358809071252949 0.04245088598793522 0 -0.00087041873995334185 0.038358057800640444 0 0.00019749614018879197 0.041756729113311686 0 0.00024411521303446733 0.047632831165238934 0 5.7530073169263257e-05 0.047554594541654983 0 -0.00015762764288625313 0.047757389501382599 0 0.00019749614018879197 0.041756729113311686 0 0.00086919337591905661 0.043342542987051723 0 0.0015263313901766359 0.041649291321109318 0 0.0025176587718901567 0.04140332669999934 0 0.0021430404386469995 0.04067027164732339 0 -3.3610064791410361e-05 0.047494603457355206 0 5.7530073169263257e-05 0.047554594541654983 0 9.8074625227608357e-05 0.047427703794718362 0 -3.3610064791410361e-05 0.047494603457355206 0 5.7530073169263257e-05 0.047554594541654983 0 -0.00010973469240846466 0.047585830987672981 0 0.00024174578428582823 0.0474340476181207 0 5.7530073169263257e-05 0.047554594541654983 0 9.8074625227608357e-05 0.047427703794718362 0 0.00024174578428582823 0.0474340476181207 0 0.00024411521303446733 0.047632831165238934 0 5.7530073169263257e-05 0.047554594541654983 0 0.00024174578428582823 0.0474340476181207 0 9.8074625227608357e-05 0.047427703794718362 0 0.00012248888244750504 0.047343421065564939 0 0.00071526756017462056 0.042872748661137744 0 0.00047358809071252949 0.04245088598793522 0 9.8074625227608357e-05 0.047427703794718362 0 0.00012248888244750504 0.047343421065564939 0 9.7289555852290516e-05 0.047341622194325472 0 0.00047358809071252949 0.04245088598793522 0 0.0005874428557903188 0.042856399880647482 0 0.0050520371392835037 0.047279725777596336 0 0.0069852901042105342 0.048028451665720583 0 0.0067408510132299501 0.048016418030490247 0 -3.3610064791410361e-05 0.047494603457355206 0 9.8074625227608357e-05 0.047427703794718362 0 9.7289555852290516e-05 0.047341622194325472 0 0.0005874428557903188 0.042856399880647482 0 -0.00060111368878305123 0.045541467250413456 0 0.00030393376865761704 0.047456049925448447 0 -0.00015402995235590345 0.047649144185106712 0 -0.00012860679398036008 0.047457550100801112 0 -3.3610064791410361e-05 0.047494603457355206 0 9.7289555852290516e-05 0.047341622194325472 0 -0.00030725484976830284 0.047565918169269861 0 -3.3610064791410361e-05 0.047494603457355206 0 -0.00010973469240846466 0.047585830987672981 0 -0.00030725484976830284 0.047565918169269861 0 0.0005874428557903188 0.042856399880647482 0 0.0011082596247685395 0.044964535086911589 0 5.7530073169263257e-05 0.047554594541654983 0 -0.00010973469240846466 0.047585830987672981 0 -0.00015762764288625313 0.047757389501382599 0 -0.00010973469240846466 0.047585830987672981 0 -0.00015762764288625313 0.047757389501382599 0 -0.00030725484976830284 0.047565918169269861 0 0.00086919337591905661 0.043342542987051723 0 0.0013007026182651265 0.044161722469199298 0 -0.00015762764288625313 0.047757389501382599 0 -0.00030725484976830284 0.047565918169269861 0 -0.00050274619422899594 0.047870542780304073 0 -0.00015402995235590345 0.047649144185106712 0 -0.00012860679398036008 0.047457550100801112 0 -0.00054032823902648943 0.047463620049199892 0 0.00285344566466676 0.040671723794892992 0 0.0029546629542478958 0.040232747504080735 0 0.0033756343053179191 0.040559023145273522 0 0.00285344566466676 0.040671723794892992 0 0.0025369490161667417 0.040277463394582137 0 0.0029546629542478958 0.040232747504080735 0 0.00285344566466676 0.040671723794892992 0 0.0033524688759859547 0.041247863546169265 0 0.0033756343053179191 0.040559023145273522 0 0.0025176587718901567 0.04140332669999934 0 0.00285344566466676 0.040671723794892992 0 0.0033524688759859547 0.041247863546169265 0 0.0025176587718901567 0.04140332669999934 0 0.00285344566466676 0.040671723794892992 0 0.0021430404386469995 0.04067027164732339 0 0.00285344566466676 0.040671723794892992 0 0.0025369490161667417 0.040277463394582137 0 0.0021430404386469995 0.04067027164732339 0 0.0025369490161667417 0.040277463394582137 0 0.0021430404386469995 0.04067027164732339 0 0.0020247386492507308 0.040109633611130409 0 0.0021430404386469995 0.04067027164732339 0 0.00117332728593018 0.040326299453499595 0 0.0020247386492507308 0.040109633611130409 0 0.0015263313901766359 0.041649291321109318 0 0.0021430404386469995 0.04067027164732339 0 0.00117332728593018 0.040326299453499595 0 0.00062669134221743524 0.041279788672775125 0 0.0015263313901766359 0.041649291321109318 0 0.00117332728593018 0.040326299453499595 0 0.00097740963670221292 0.038677185102627194 0 0.0013447235733222947 0.037871727908466386 0 0.00117332728593018 0.040326299453499595 0 0.0015482464504854554 0.039008575386066224 0 0.0007527316884497528 0.03904609437523663 0 0.00117332728593018 0.040326299453499595 0 0.0015482464504854554 0.039008575386066224 0 0.0025977978616070988 0.039216528291101671 0 0.0015482464504854554 0.039008575386066224 0 0.0012174376520918064 0.038374061083984626 0 0.0007527316884497528 0.03904609437523663 0 0.0015482464504854554 0.039008575386066224 0 0.0012174376520918064 0.038374061083984626 0 0.0021848581225958059 0.038431079652170561 0 -0.00048279315386635143 0.027761829289226572 0 -0.0028425604396420815 0.02242986719295156 0 -0.0024493591761377302 0.023724234472056436 0 -0.003073599200750302 0.023603980095698876 0 -0.0025819336084580246 0.023164635402149424 0 -0.0024493591761377302 0.023724234472056436 0 -0.0021626317025255104 0.023361986110398036 0 -0.0025819336084580246 0.023164635402149424 0 0.0012174376520918064 0.038374061083984626 0 0.0018008881321410308 0.037789650064954203 0 0.0005911951367406483 0.037588584525574245 0 0.0012174376520918064 0.038374061083984626 0 0.0018008881321410308 0.037789650064954203 0 0.0021848581225958059 0.038431079652170561 0 -0.00048279315386635143 0.027761829289226572 0 0.0010848231683845575 0.032086647548583355 0 -0.0018177359722992342 0.023851875895802954 0 -0.0017423975140480664 0.023165313987909469 0 -0.0021626317025255104 0.023361986110398036 0 0.0018008881321410308 0.037789650064954203 0 0.0021848581225958059 0.038431079652170561 0 0.0030402707321758485 0.038004441887449052 0 -0.0024493591761377302 0.023724234472056436 0 -0.0018177359722992342 0.023851875895802954 0 -0.0021626317025255104 0.023361986110398036 0 0.0030107217076592294 0.038265309425832741 0 0.0021848581225958059 0.038431079652170561 0 0.0030402707321758485 0.038004441887449052 0 0.0030107217076592294 0.038265309425832741 0 0.0021848581225958059 0.038431079652170561 0 0.0025977978616070988 0.039216528291101671 0 0.0015482464504854554 0.039008575386066224 0 0.0021848581225958059 0.038431079652170561 0 0.0025977978616070988 0.039216528291101671 0 0.0025369490161667417 0.040277463394582137 0 0.0026930820934779852 0.039791837243628371 0 0.0029546629542478958 0.040232747504080735 0 0.0030107217076592294 0.038265309425832741 0 0.0025977978616070988 0.039216528291101671 0 0.0039475117585692958 0.038166616818785318 0 0.0025369490161667417 0.040277463394582137 0 0.0020247386492507308 0.040109633611130409 0 0.0026930820934779852 0.039791837243628371 0 0.0013447235733222947 0.037871727908466386 0 0.0020128160610211544 0.035419755001355156 0 0.0010848231683845575 0.032086647548583355 0 0.0020128160610211544 0.035419755001355156 0 0.0010848231683845575 0.032086647548583355 0 -0.00075755984466534699 0.027224029108948306 0 0.0030107217076592294 0.038265309425832741 0 0.00304037874556167 0.038006617172426441 0 0.0039475117585692958 0.038166616818785318 0 0.0024520734278665056 0.03541036816433385 0 0.0023284738214578498 0.035608167850319256 0 0.0023921113319308766 0.035872063830361428 0 0.0024520734278665056 0.03541036816433385 0 0.0023284738214578498 0.035608167850319256 0 0.0021207686913811371 0.035347062271445483 0 0.0010842302606525894 0.032224690727657046 0 0.0010848231683845575 0.032086647548583355 0 0.0019813438497308551 0.035735168631402296 0 0.0016283397966052808 0.035816028028729359 0 0.0017570911648229534 0.03585728365958829 0 0.0014830393910986595 0.035809265539858304 0 0.0014885715756677114 0.036059070947144022 0 0.0023284738214578498 0.035608167850319256 0 0.0021207686913811371 0.035347062271445483 0 0.0016238725839680843 0.035722186769824554 0 0.0020128160610211544 0.035419755001355156 0 0.0016283397966052808 0.035816028028729359 0 0.0029546629542478958 0.040232747504080735 0 0.0033756343053179191 0.040559023145273522 0 0.0033167752515022727 0.040006864339728089 0 0.0020128160610211544 0.035419755001355156 0 0.0023644980144751477 0.037271165703549304 0 0.0026930820934779852 0.039791837243628371 0 0.0029546629542478958 0.040232747504080735 0 0.0033167752515022727 0.040006864339728089 0 -0.0018859211598588302 0.039726721727890817 0 -0.00117503586026873 0.039758551799146107 0 -0.0015909235733470128 0.040360185033076278 0 -0.00117503586026873 0.039758551799146107 0 -0.0015909235733470128 0.040360185033076278 0 -0.00089914833377175405 0.040115271089206407 0 -0.0018859211598588302 0.039726721727890817 0 -0.00117503586026873 0.039758551799146107 0 -0.001004517868241254 0.039021047479828604 0 -0.0086943793172800619 0.0046592960802524872 0 -0.0075940378051183198 0.0049262365612008944 0 -0.0081628201059051244 0.0055945625651346838 0 -0.0018859211598588302 0.039726721727890817 0 -0.0027541409468236312 0.040717102341925965 0 -0.0015909235733470128 0.040360185033076278 0 -0.0027541409468236312 0.040717102341925965 0 -0.001783068904354297 0.040995672098636665 0 -0.0015909235733470128 0.040360185033076278 0 -0.006482400154434023 0.019646107647959533 0 -0.0068524524991662398 0.017782718969779374 0 -0.0015909235733470128 0.040360185033076278 0 -0.00091602446964359017 0.040740304346909596 0 -0.00089914833377175405 0.040115271089206407 0 -0.001783068904354297 0.040995672098636665 0 -0.0015909235733470128 0.040360185033076278 0 -0.00091602446964359017 0.040740304346909596 0 -0.00091602446964359017 0.040740304346909596 0 0.00014671789334668448 0.040667970069242783 0 -0.00036310697372729772 0.0401631440915192 0 -0.00065043986758907095 0.041310604911330609 0 -0.00091602446964359017 0.040740304346909596 0 0.00014671789334668448 0.040667970069242783 0 -0.00091602446964359017 0.040740304346909596 0 -0.00089914833377175405 0.040115271089206407 0 -0.00036310697372729772 0.0401631440915192 0 0.00062669134221743524 0.041279788672775125 0 -0.00065043986758907095 0.041310604911330609 0 0.00014671789334668448 0.040667970069242783 0 0.00062669134221743524 0.041279788672775125 0 0.00117332728593018 0.040326299453499595 0 0.00014671789334668448 0.040667970069242783 0 0.00117332728593018 0.040326299453499595 0 0.00014671789334668448 0.040667970069242783 0 0.00015365651801604557 0.03963959853102856 0 0.00117332728593018 0.040326299453499595 0 0.00015365651801604557 0.03963959853102856 0 0.0007527316884497528 0.03904609437523663 0 0.00014671789334668448 0.040667970069242783 0 0.00015365651801604557 0.03963959853102856 0 -0.00036310697372729772 0.0401631440915192 0 -0.00117503586026873 0.039758551799146107 0 -0.00089914833377175405 0.040115271089206407 0 -0.00057739797607452253 0.039617517407390598 0 -0.00089914833377175405 0.040115271089206407 0 -0.00036310697372729772 0.0401631440915192 0 -0.00057739797607452253 0.039617517407390598 0 0.00015365651801604557 0.03963959853102856 0 -0.00036310697372729772 0.0401631440915192 0 -0.00057739797607452253 0.039617517407390598 0 0.00015365651801604557 0.03963959853102856 0 -0.00057739797607452253 0.039617517407390598 0 -0.00029855658949625867 0.039090975060725772 0 -0.00057739797607452253 0.039617517407390598 0 -0.00029855658949625867 0.039090975060725772 0 -0.001004517868241254 0.039021047479828604 0 -0.00117503586026873 0.039758551799146107 0 -0.00057739797607452253 0.039617517407390598 0 -0.001004517868241254 0.039021047479828604 0 -0.0043167420087204906 0.02875111181828675 0 -0.0046740137140107415 0.030605755507304395 0 -0.00029855658949625867 0.039090975060725772 0 -0.0002342897303790138 0.03837413676133971 0 0.00016781933953984664 0.038882842430009439 0 -0.00029855658949625867 0.039090975060725772 0 -0.0002342897303790138 0.03837413676133971 0 -0.001004517868241254 0.039021047479828604 0 1.4370512372907238e-05 0.038045705039938572 0 -0.0009181494414799748 0.038453322840810433 0 -0.001004517868241254 0.039021047479828604 0 0.0007527316884497528 0.03904609437523663 0 0.00016781933953984664 0.038882842430009439 0 0.00046336465627841086 0.038386972741266762 0 0.00015365651801604557 0.03963959853102856 0 0.0007527316884497528 0.03904609437523663 0 0.00016781933953984664 0.038882842430009439 0 0.00015365651801604557 0.03963959853102856 0 -0.00029855658949625867 0.039090975060725772 0 0.00016781933953984664 0.038882842430009439 0 -0.0002342897303790138 0.03837413676133971 0 0.00016781933953984664 0.038882842430009439 0 0.00046336465627841086 0.038386972741266762 0 0.0012174376520918064 0.038374061083984626 0 0.0007527316884497528 0.03904609437523663 0 0.00046336465627841086 0.038386972741266762 0 0.0012174376520918064 0.038374061083984626 0 0.00046336465627841086 0.038386972741266762 0 0.0005911951367406483 0.037588584525574245 0 -0.0043167420087204906 0.02875111181828675 0 -0.0028425604396420815 0.02242986719295156 0 -0.0002342897303790138 0.03837413676133971 0 0.00046336465627841086 0.038386972741266762 0 0.0005911951367406483 0.037588584525574245 0 1.4370512372907238e-05 0.038045705039938572 0 0.00034171029380709118 0.036864636049397562 0 0.0011145420004755329 0.036993257578843468 0 -0.0054347733347351757 0.016210577862277253 0 -0.0028425604396420815 0.02242986719295156 0 -0.0038186164773737438 0.016130031020266927 0 -0.0038460636881170575 0.01612757443878915 0 -0.0038365695456560782 0.016149298231145574 0 -0.0057671223458076988 0.014468929913582791 0 -0.0048018452692999061 0.013929710096513904 0 -0.0059245296791190305 0.013187096078571048 0 -0.0052695256242999509 0.013307566332447148 0 -0.0067599177246346984 0.014119819701901955 0 -0.0054347733347351757 0.016210577862277253 0 -0.0048018452692999061 0.013929710096513904 0 -0.0070270554094452676 0.004283200477342603 0 -0.0064736287870232273 0.0036757403427744684 0 -0.0068509607899004364 0.0037565504399537895 0 -0.0066183248772073051 0.0036450160941656263 0 -0.0068509607899004364 0.0037565504399537895 0 -0.0075374606418601615 0.0034083251517721645 0 -0.0058449208049634544 0.018925056790615964 0 -0.0054347733347351757 0.016210577862277253 0 1.4370512372907238e-05 0.038045705039938572 0 -0.0009181494414799748 0.038453322840810433 0 0.00034171029380709118 0.036864636049397562 0 -0.0070270554094452676 0.004283200477342603 0 -0.0068509607899004364 0.0037565504399537895 0 -0.0073173731928191524 0.0038744670745052196 0 -0.0064736287870232273 0.0036757403427744684 0 -0.0066277712858559103 0.0036453170752374663 0 -0.0068509607899004364 0.0037565504399537895 0 -0.0057671223458076988 0.014468929913582791 0 -0.0055614348334522209 0.014115201620467147 0 -0.0054347733347351757 0.016210577862277253 0 -0.0057671223458076988 0.014468929913582791 0 -0.0073173731928191524 0.0038744670745052196 0 -0.0077995678381193329 0.0041525198985691509 0 -0.0075374606418601615 0.0034083251517721645 0 -0.0068509607899004364 0.0037565504399537895 0 -0.0073173731928191524 0.0038744670745052196 0 -0.0075374606418601615 0.0034083251517721645 0 -0.0057671223458076988 0.014468929913582791 0 -0.0081544646212484764 0.0091658567701647167 0 -0.0070270554094452676 0.004283200477342603 0 -0.0073173731928191524 0.0038744670745052196 0 -0.0077995678381193329 0.0041525198985691509 0 -0.0075940378051183198 0.0049262365612008944 0 -0.0070270554094452676 0.004283200477342603 0 -0.0077995678381193329 0.0041525198985691509 0 -0.0018859211598588302 0.039726721727890817 0 -0.0009181494414799748 0.038453322840810433 0 -0.001004517868241254 0.039021047479828604 0 -0.006482400154434023 0.019646107647959533 0 -0.0058449208049634544 0.018925056790615964 0 -0.0086943793172800619 0.0046592960802524872 0 -0.0075940378051183198 0.0049262365612008944 0 -0.0077995678381193329 0.0041525198985691509 0 -0.0084531287963260995 0.0038785719181206914 0 -0.0075374606418601615 0.0034083251517721645 0 -0.0085626573337534932 0.0031583231158955043 0 -0.0084531287963260995 0.0038785719181206914 0 -0.0077995678381193329 0.0041525198985691509 0 -0.0075374606418601615 0.0034083251517721645 0 -0.0082515997770707412 0.0029521607399746069 0 -0.0081097220831503284 0.0032593839822282781 0 -0.0085626573337534932 0.0031583231158955043 0 -0.0081544646212484764 0.0091658567701647167 0 -0.0086811141821208117 0.0077113975013008819 0 -0.0082515997770707412 0.0029521607399746069 0 -0.0083291387126181345 0.0026580704948386256 0 -0.0086725289975581963 0.0027098877709171684 0 -0.0082515997770707412 0.0029521607399746069 0 -0.0083291387126181345 0.0026580704948386256 0 -0.0079878700809778158 0.002814590861272104 0 -0.0082515997770707412 0.0029521607399746069 0 -0.0079878700809778158 0.002814590861272104 0 -0.0079429534057289305 0.0030583051871480326 0 -0.0079878700809778158 0.002814590861272104 0 -0.0077946160793917101 0.0028297995914332726 0 -0.008028903778280241 0.0025840218721094317 0 -0.0079878700809778158 0.002814590861272104 0 -0.0079429534057289305 0.0030583051871480326 0 -0.007820627519693979 0.0029652931884723015 0 -0.0082515997770707412 0.0029521607399746069 0 -0.0079429534057289305 0.0030583051871480326 0 -0.0081097220831503284 0.0032593839822282781 0 -0.0076742459605851111 0.0033646106945402123 0 -0.0079429534057289305 0.0030583051871480326 0 -0.0081097220831503284 0.0032593839822282781 0 -0.0076742459605851111 0.0033646106945402123 0 -0.0079429534057289305 0.0030583051871480326 0 -0.0077083644429829148 0.003101391857897093 0 -0.0076742459605851111 0.0033646106945402123 0 -0.0077083644429829148 0.003101391857897093 0 -0.0076021008502507367 0.0032226532936304396 0 -0.0079429534057289305 0.0030583051871480326 0 -0.0077083644429829148 0.003101391857897093 0 -0.007820627519693979 0.0029652931884723015 0 -0.0038460636881170575 0.01612757443878915 0 -0.0038365695456560782 0.016149298231145574 0 -0.0038847175627507715 0.01616138263605843 0 -0.0048018452692999061 0.013929710096513904 0 -0.0038296182360816576 0.01428445056885133 0 -0.0048018452692999061 0.013929710096513904 0 -0.0042447654234765249 0.012328305220004783 0 -0.0076742459605851111 0.0033646106945402123 0 -0.0076021008502507367 0.0032226532936304396 0 -0.0075226352406423252 0.0032743934368834821 0 -0.0076021008502507367 0.0032226532936304396 0 -0.0075226352406423252 0.0032743934368834821 0 -0.0075213392212176719 0.0031506697785546123 0 -0.0077083644429829148 0.003101391857897093 0 -0.0076021008502507367 0.0032226532936304396 0 -0.0075213392212176719 0.0031506697785546123 0 -0.0077083644429829148 0.003101391857897093 0 -0.0075213392212176719 0.0031506697785546123 0 -0.0075485777360343965 0.0030228452522667068 0 -0.0075213392212176719 0.0031506697785546123 0 -0.0074535009974686772 0.0030684781468412023 0 -0.0075485777360343965 0.0030228452522667068 0 -0.0075213392212176719 0.0031506697785546123 0 -0.0074535009974686772 0.0030684781468412023 0 -0.007396072399109715 0.0031521683256229226 0 -0.0075226352406423252 0.0032743934368834821 0 -0.0075213392212176719 0.0031506697785546123 0 -0.007396072399109715 0.0031521683256229226 0 -0.0074535009974686772 0.0030684781468412023 0 -0.0075485777360343965 0.0030228452522667068 0 -0.0074243979687849994 0.0029615601304116921 0 -0.0074535009974686772 0.0030684781468412023 0 -0.0074243979687849994 0.0029615601304116921 0 -0.0073306448607590047 0.0030605427740343677 0 -0.0075485777360343965 0.0030228452522667068 0 -0.0075984309496615844 0.0028887094134323762 0 -0.0076904758628463703 0.0029689564691364008 0 -0.0075485777360343965 0.0030228452522667068 0 -0.0075984309496615844 0.0028887094134323762 0 -0.0074243979687849994 0.0029615601304116921 0 -0.0074243979687849994 0.0029615601304116921 0 -0.0074981579474782904 0.0028246707638268182 0 -0.0073592974335142296 0.0028260646945010492 0 -0.0075984309496615844 0.0028887094134323762 0 -0.0074243979687849994 0.0029615601304116921 0 -0.0074981579474782904 0.0028246707638268182 0 -0.007820627519693979 0.0029652931884723015 0 -0.0076904758628463703 0.0029689564691364008 0 -0.0077946160793917101 0.0028297995914332726 0 -0.0077083644429829148 0.003101391857897093 0 -0.0075485777360343965 0.0030228452522667068 0 -0.0076904758628463703 0.0029689564691364008 0 -0.0077083644429829148 0.003101391857897093 0 -0.007820627519693979 0.0029652931884723015 0 -0.0076904758628463703 0.0029689564691364008 0 -0.0075984309496615844 0.0028887094134323762 0 -0.0077946160793917101 0.0028297995914332726 0 -0.0076453200685004871 0.0027216837228539814 0 -0.0075984309496615844 0.0028887094134323762 0 -0.0076904758628463703 0.0029689564691364008 0 -0.0077946160793917101 0.0028297995914332726 0 -0.0079878700809778158 0.002814590861272104 0 -0.007820627519693979 0.0029652931884723015 0 -0.0077946160793917101 0.0028297995914332726 0 -0.0077946160793917101 0.0028297995914332726 0 -0.0076453200685004871 0.0027216837228539814 0 -0.0078060646523437013 0.0025593072891119937 0 -0.0077946160793917101 0.0028297995914332726 0 -0.0078060646523437013 0.0025593072891119937 0 -0.008028903778280241 0.0025840218721094317 0 -0.0076453200685004871 0.0027216837228539814 0 -0.0078060646523437013 0.0025593072891119937 0 -0.0076437695731731859 0.0025615709730547197 0 -0.0074981579474782904 0.0028246707638268182 0 -0.0074742345646754997 0.0026867066926834263 0 -0.0073592974335142296 0.0028260646945010492 0 -0.0075984309496615844 0.0028887094134323762 0 -0.0076453200685004871 0.0027216837228539814 0 -0.0074981579474782904 0.0028246707638268182 0 -0.0076453200685004871 0.0027216837228539814 0 -0.0074981579474782904 0.0028246707638268182 0 -0.0074742345646754997 0.0026867066926834263 0 -0.0076453200685004871 0.0027216837228539814 0 -0.0074742345646754997 0.0026867066926834263 0 -0.0076437695731731859 0.0025615709730547197 0 -0.0076437695731731859 0.0025615709730547197 0 -0.0074521994874641095 0.0024988975766072337 0 -0.0077727158323659864 0.0023917959611473088 0 -0.0074742345646754997 0.0026867066926834263 0 -0.0076437695731731859 0.0025615709730547197 0 -0.0074521994874641095 0.0024988975766072337 0 -0.0078060646523437013 0.0025593072891119937 0 -0.0077727158323659864 0.0023917959611473088 0 -0.0079862573033021439 0.0023139639188343285 0 -0.0078060646523437013 0.0025593072891119937 0 -0.0076437695731731859 0.0025615709730547197 0 -0.0077727158323659864 0.0023917959611473088 0 -0.0079862573033021439 0.0023139639188343285 0 -0.007918590822591328 0.0019958183513137371 0 -0.008575244259931827 0.0019450900782970553 0 -0.0077727158323659864 0.0023917959611473088 0 -0.0079862573033021439 0.0023139639188343285 0 -0.0079231935121979423 0.0022668502749347503 0 -0.0091666117226450548 0.011176025769293047 0 -0.0097169362195298429 0.013973158341537716 0 -0.0083204577401150854 0.0023643181244958826 0 -0.008575244259931827 0.0019450900782970553 0 -0.0087223412654094806 0.0023026859528020864 0 -0.0079862573033021439 0.0023139639188343285 0 -0.0083204577401150854 0.0023643181244958826 0 -0.008575244259931827 0.0019450900782970553 0 -0.0083291387126181345 0.0026580704948386256 0 -0.0083204577401150854 0.0023643181244958826 0 -0.0087223412654094806 0.0023026859528020864 0 -0.0083291387126181345 0.0026580704948386256 0 -0.0083204577401150854 0.0023643181244958826 0 -0.008028903778280241 0.0025840218721094317 0 -0.0079862573033021439 0.0023139639188343285 0 -0.0083204577401150854 0.0023643181244958826 0 -0.008028903778280241 0.0025840218721094317 0 -0.0078060646523437013 0.0025593072891119937 0 -0.0079862573033021439 0.0023139639188343285 0 -0.008028903778280241 0.0025840218721094317 0 -0.0083291387126181345 0.0026580704948386256 0 -0.0079878700809778158 0.002814590861272104 0 -0.008028903778280241 0.0025840218721094317 0 0.0020020609656690954 0.036184514561492423 0 0.002329067888789507 0.036289359412322995 0 0.0019256073879041315 0.036512177552450439 0 0.0020020609656690954 0.036184514561492423 0 0.0019256073879041315 0.036512177552450439 0 0.0016596859354017055 0.036198079656732503 0 0.0023284738214578498 0.035608167850319256 0 0.0020355299553662066 0.035837405123869265 0 0.0016974166508506134 0.035756519259554823 0 0.0020355299553662066 0.035837405123869265 0 0.0016596859354017055 0.036198079656732503 0 0.0016974166508506134 0.035756519259554823 0 0.0020020609656690954 0.036184514561492423 0 0.0020355299553662066 0.035837405123869265 0 0.0016596859354017055 0.036198079656732503 0 0.0020020609656690954 0.036184514561492423 0 0.0020355299553662066 0.035837405123869265 0 0.0021882978267015133 0.036018544240293972 0 0.0021882978267015133 0.036018544240293972 0 0.0022354085323553706 0.035835645273632026 0 0.0023921113319308766 0.035872063830361428 0 0.0020355299553662066 0.035837405123869265 0 0.0021882978267015133 0.036018544240293972 0 0.0022354085323553706 0.035835645273632026 0 0.0023284738214578498 0.035608167850319256 0 0.0020355299553662066 0.035837405123869265 0 0.0022354085323553706 0.035835645273632026 0 0.0023284738214578498 0.035608167850319256 0 0.0022354085323553706 0.035835645273632026 0 0.0023921113319308766 0.035872063830361428 0 -0.0017423975140480664 0.023165313987909469 0 -0.0016673210898766931 0.022474171420599185 0 -0.0020891302712787454 0.022713292435654987 0 0.0021882978267015133 0.036018544240293972 0 0.0023921113319308766 0.035872063830361428 0 0.002329067888789507 0.036289359412322995 0 -0.00075755984466534699 0.027224029108948306 0 -0.0026395540902930245 0.01896924223173457 0 0.0020020609656690954 0.036184514561492423 0 0.0021882978267015133 0.036018544240293972 0 0.002329067888789507 0.036289359412322995 0 -0.006910119453107477 0.0030135979899810501 0 -0.0069740048804291643 0.0030123821614766099 0 -0.0070025450577770286 0.0029003136274444127 0 -0.0069740048804291643 0.0030123821614766099 0 -0.0071066152394993571 0.0029562513449793927 0 -0.0070025450577770286 0.0029003136274444127 0 -0.0069740048804291643 0.0030123821614766099 0 -0.0071066152394993571 0.0029562513449793927 0 -0.0070703205432777368 0.0030736828453690863 0 -0.006910119453107477 0.0030135979899810501 0 -0.0069740048804291643 0.0030123821614766099 0 -0.007093301445144507 0.0031893560406969484 0 -0.0071066152394993571 0.0029562513449793927 0 -0.0070703205432777368 0.0030736828453690863 0 -0.007206080451844391 0.0030426861650364886 0 -0.0026253567104064213 0.01522597776156513 0 -0.0029645758395489977 0.016281116215072628 0 -0.0026395540902930245 0.01896924223173457 0 -0.0029645758395489977 0.016281116215072628 0 -0.0017423975140480664 0.023165313987909469 0 -0.0020891302712787454 0.022713292435654987 0 -0.0021626317025255104 0.023361986110398036 0 -0.0020891302712787454 0.022713292435654987 0 -0.0021626317025255104 0.023361986110398036 0 -0.0025819336084580246 0.023164635402149424 0 -0.0029645758395489977 0.016281116215072628 0 -0.0038296182360816576 0.01428445056885133 0 -0.0029645758395489977 0.016281116215072628 0 -0.00304593085366272 0.019483705133454113 0 -0.0075600787254627407 0.0033863715574936133 0 -0.0072727332910123366 0.0031760123270184607 0 -0.007396072399109715 0.0031521683256229226 0 -0.0038365695456560782 0.016149298231145574 0 -0.0038809626376678967 0.016169080370316037 0 -0.0038847175627507715 0.01616138263605843 0 -0.003909231090657485 0.016178631359083231 0 -0.0038809626376678967 0.016169080370316037 0 -0.0038847175627507715 0.01616138263605843 0 -0.0028425604396420815 0.02242986719295156 0 -0.00304593085366272 0.019483705133454113 0 -0.0072727332910123366 0.0031760123270184607 0 -0.007396072399109715 0.0031521683256229226 0 -0.0073306448607590047 0.0030605427740343677 0 -0.0074535009974686772 0.0030684781468412023 0 -0.007396072399109715 0.0031521683256229226 0 -0.0073306448607590047 0.0030605427740343677 0 -0.0074243979687849994 0.0029615601304116921 0 -0.0073306448607590047 0.0030605427740343677 0 -0.0072618029219538973 0.0029553558339314888 0 -0.0070703205432777368 0.0030736828453690863 0 -0.0072727332910123366 0.0031760123270184607 0 -0.007206080451844391 0.0030426861650364886 0 -0.0073306448607590047 0.0030605427740343677 0 -0.007206080451844391 0.0030426861650364886 0 -0.0072618029219538973 0.0029553558339314888 0 -0.0072727332910123366 0.0031760123270184607 0 -0.0073306448607590047 0.0030605427740343677 0 -0.007206080451844391 0.0030426861650364886 0 -0.0071066152394993571 0.0029562513449793927 0 -0.007206080451844391 0.0030426861650364886 0 -0.0072618029219538973 0.0029553558339314888 0 -0.0071066152394993571 0.0029562513449793927 0 -0.0072618029219538973 0.0029553558339314888 0 -0.0072284739458450889 0.0028493632400302328 0 -0.0074243979687849994 0.0029615601304116921 0 -0.0072618029219538973 0.0029553558339314888 0 -0.0073592974335142296 0.0028260646945010492 0 -0.0073592974335142296 0.0028260646945010492 0 -0.0072284739458450889 0.0028493632400302328 0 -0.0072798616959072965 0.002729531236493199 0 -0.0072618029219538973 0.0029553558339314888 0 -0.0073592974335142296 0.0028260646945010492 0 -0.0072284739458450889 0.0028493632400302328 0 -0.0072284739458450889 0.0028493632400302328 0 -0.0072798616959072965 0.002729531236493199 0 -0.0071117831749250458 0.0028109533844875747 0 -0.0074742345646754997 0.0026867066926834263 0 -0.0073592974335142296 0.0028260646945010492 0 -0.0072798616959072965 0.002729531236493199 0 -0.0074521994874641095 0.0024988975766072337 0 -0.0072798616959072965 0.002729531236493199 0 -0.007082629453028848 0.0026672555364886785 0 -0.0074742345646754997 0.0026867066926834263 0 -0.0074521994874641095 0.0024988975766072337 0 -0.0072798616959072965 0.002729531236493199 0 -0.007082629453028848 0.0026672555364886785 0 -0.0068689833237205655 0.0027443093837239449 0 -0.0069020607343005238 0.0025846593266256909 0 -0.007082629453028848 0.0026672555364886785 0 -0.0070153019226061311 0.0027752447078706133 0 -0.0068689833237205655 0.0027443093837239449 0 -0.007082629453028848 0.0026672555364886785 0 -0.0070153019226061311 0.0027752447078706133 0 -0.0071117831749250458 0.0028109533844875747 0 -0.0070153019226061311 0.0027752447078706133 0 -0.0071117831749250458 0.0028109533844875747 0 -0.0070025450577770286 0.0029003136274444127 0 -0.0072798616959072965 0.002729531236493199 0 -0.007082629453028848 0.0026672555364886785 0 -0.0071117831749250458 0.0028109533844875747 0 -0.0071066152394993571 0.0029562513449793927 0 -0.0072284739458450889 0.0028493632400302328 0 -0.0071117831749250458 0.0028109533844875747 0 -0.0071066152394993571 0.0029562513449793927 0 -0.0071117831749250458 0.0028109533844875747 0 -0.0070025450577770286 0.0029003136274444127 0 -0.006910119453107477 0.0030135979899810501 0 -0.0070025450577770286 0.0029003136274444127 0 -0.0068689833237205655 0.0027443093837239449 0 -0.0026395540902930245 0.01896924223173457 0 -0.0038928716283101517 0.0086149779281243927 0 -0.0080393743422080589 0.013676032693207692 0 -0.0073892654846478677 0.008123960457862291 0 -0.003827770496130005 0.011354125762166436 0 -0.0026395540902930245 0.01896924223173457 0 -0.0013000756716387621 0.024085766551995014 0 -0.0070153019226061311 0.0027752447078706133 0 -0.0070025450577770286 0.0029003136274444127 0 -0.0068689833237205655 0.0027443093837239449 0 -0.0038928716283101517 0.0086149779281243927 0 -0.0042599156268113723 0.0058480333685853765 0 -0.0073892654846478677 0.008123960457862291 0 -0.0034929233782010198 0.0081257892156318869 0 -0.004953693890431825 0.0050182144585497529 0 -0.0034929233782010198 0.0081257892156318869 0 -0.0023348538557919269 0.0051313470151573047 0 -0.004953693890431825 0.0050182144585497529 0 -0.0073892654846478677 0.008123960457862291 0 -0.0034929233782010198 0.0081257892156318869 0 -0.003827770496130005 0.011354125762166436 0 -0.0034929233782010198 0.0081257892156318869 0 -0.003827770496130005 0.011354125762166436 0 0.00038493472269193751 0.0090646263899176113 0 -0.0057954437788961741 0.044583105607488398 0 -0.0056089421099975575 0.044855708190343242 0 -0.0024542744526262353 0.044026471034086884 0 -0.0055966146341355407 0.071614235091163159 0 -0.0055194870526432361 0.071955529705489352 0 -0.0056812229036328722 0.071786128465383764 0 -0.0042916630478171992 0.040803951358191051 0 -0.0027733849432436245 0.052966548772590064 0 -0.0055966146341355407 0.071614235091163159 0 -0.0056812229036328722 0.071786128465383764 0 -0.0058658134524156077 0.071612654165756753 0 -0.00093787534739579487 0.059323363242985254 0 -0.0027733849432436245 0.052966548772590064 0 -0.0042916630478171992 0.040803951358191051 0 -0.0049293690272129518 0.039491958406045462 0 -0.0051246654754884945 0.0015611906301418322 0 -0.004953693890431825 0.0050182144585497529 0 -0.0065947500501024464 0.0025884247259949636 0 -0.0051246654754884945 0.0015611906301418322 0 -0.0023348538557919269 0.0051313470151573047 0 -0.004953693890431825 0.0050182144585497529 0 -0.0049293690272129518 0.039491958406045462 0 -0.0044495205258185946 0.030267126007799516 0 -0.0036811351201083515 0.039798866042460079 0 -0.0032202944861814964 0.040453198320216675 0 -0.002650636044648796 0.039825160884830735 0 -0.0068689833237205655 0.0027443093837239449 0 -0.0065947500501024464 0.0025884247259949636 0 -0.0069020607343005238 0.0025846593266256909 0 -0.0073892654846478677 0.008123960457862291 0 -0.004953693890431825 0.0050182144585497529 0 -0.0065947500501024464 0.0025884247259949636 0 -0.0065947500501024464 0.0025884247259949636 0 -0.0069020607343005238 0.0025846593266256909 0 -0.0066820848159412491 0.0021039656668951877 0 -0.0069186832930308228 0.0315257319291459 0 -0.0071565221809892377 0.031558246974906869 0 -0.0073148444856310415 0.03097113793319178 0 -0.0071565221809892377 0.031558246974906869 0 -0.0075402667721006121 0.031242433545029265 0 -0.0073148444856310415 0.03097113793319178 0 -0.0053027123314565664 0.036993361332120708 0 -0.0066737030698826019 0.035671497497676202 0 -0.0042916630478171992 0.040803951358191051 0 -0.0050674223591711609 0.04686675790173829 0 -0.0051246654754884945 0.0015611906301418322 0 -0.0065947500501024464 0.0025884247259949636 0 -0.0066820848159412491 0.0021039656668951877 0 -0.0023539870841376687 0.037126140937448968 0 -0.0018202810466257115 0.037905442890850023 0 -0.0063770499769053995 0.037808929136829587 0 -0.0049293690272129518 0.039491958406045462 0 -0.0053027123314565664 0.036993361332120708 0 -0.0042916630478171992 0.040803951358191051 0 -0.0053027123314565664 0.036993361332120708 0 -0.0075949061961572487 0.031487906500119123 0 -0.0078722900183851811 0.031606891583696277 0 -0.008059751791831115 0.031464083313537748 0 -0.0071123081208808638 0.031529625328423752 0 -0.0075949061961572487 0.031487906500119123 0 -0.0078722900183851811 0.031606891583696277 0 -0.0053027123314565664 0.036993361332120708 0 -0.0064310486807715546 0.025470304134186012 0 -0.0066737030698826019 0.035671497497676202 0 -0.0070902576447206623 0.035259100395154223 0 -0.0078266293993699138 0.031262340508152374 0 -0.0076197648634334552 0.031523781320651804 0 -0.008059751791831115 0.031464083313537748 0 -0.0071565221809892377 0.031558246974906869 0 -0.0075402667721006121 0.031242433545029265 0 -0.0076197648634334552 0.031523781320651804 0 -0.0075402667721006121 0.031242433545029265 0 -0.0078266293993699138 0.031262340508152374 0 -0.0076197648634334552 0.031523781320651804 0 -0.007082629453028848 0.0026672555364886785 0 -0.0069020607343005238 0.0025846593266256909 0 -0.0072384474915969431 0.0023533993731762559 0 -0.0069020607343005238 0.0025846593266256909 0 -0.0066820848159412491 0.0021039656668951877 0 -0.0072384474915969431 0.0023533993731762559 0 -0.0078722900183851811 0.031606891583696277 0 -0.008059751791831115 0.031464083313537748 0 -0.0085532408665116924 0.031647175490101979 0 -0.0074521994874641095 0.0024988975766072337 0 -0.0072384474915969431 0.0023533993731762559 0 -0.0075788661193882667 0.0023090528420838339 0 -0.0074521994874641095 0.0024988975766072337 0 -0.007082629453028848 0.0026672555364886785 0 -0.0072384474915969431 0.0023533993731762559 0 -0.0064310486807715546 0.025470304134186012 0 -0.0078925245363771126 0.019072941525865104 0 -0.0078266293993699138 0.031262340508152374 0 -0.008059751791831115 0.031464083313537748 0 -0.0081226935323230921 0.031140756249422804 0 -0.008059751791831115 0.031464083313537748 0 -0.0081226935323230921 0.031140756249422804 0 -0.0083952732405523228 0.031282719504105189 0 -0.0081226935323230921 0.031140756249422804 0 -0.0081557720236946091 0.030746898051926583 0 -0.0084992371455986961 0.030963761195469959 0 -0.0078266293993699138 0.031262340508152374 0 -0.0081226935323230921 0.031140756249422804 0 -0.0077807029687517277 0.030975410292408752 0 -0.0081226935323230921 0.031140756249422804 0 -0.0081557720236946091 0.030746898051926583 0 -0.0077807029687517277 0.030975410292408752 0 -0.0083234626749354636 0.046113639900476969 0 -0.011851349879700534 0.0363106634264952 0 -0.0081557720236946091 0.030746898051926583 0 -0.0076941415082341404 0.030455780245581019 0 -0.0082915702072162787 0.030316665426638696 0 -0.0081557720236946091 0.030746898051926583 0 -0.0076941415082341404 0.030455780245581019 0 -0.0077807029687517277 0.030975410292408752 0 -0.0083234626749354636 0.046113639900476969 0 -0.0050674223591711609 0.04686675790173829 0 -0.0067854868228353531 0.071008872620286517 0 -0.0061079570046883077 0.071289426019397459 0 -0.0056029137642650082 0.071981116948910684 0 -0.0067854868228353531 0.071008872620286517 0 -0.0063620167806122153 0.071064990781000106 0 -0.0061079570046883077 0.071289426019397459 0 -0.0069757592987145312 0.071009251308122495 0 -0.0063620167806122153 0.071064990781000106 0 -0.0068050380102501681 0.070115262870132547 0 -0.0083234626749354636 0.046113639900476969 0 -0.0079844455164364003 0.04657543431789949 0 -0.0076941415082341404 0.030455780245581019 0 -0.0077807029687517277 0.030975410292408752 0 -0.0073148444856310415 0.03097113793319178 0 -0.0075402667721006121 0.031242433545029265 0 -0.0077807029687517277 0.030975410292408752 0 -0.0073148444856310415 0.03097113793319178 0 -0.0075402667721006121 0.031242433545029265 0 -0.0078266293993699138 0.031262340508152374 0 -0.0077807029687517277 0.030975410292408752 0 -0.0055966146341355407 0.071614235091163159 0 -0.0056029137642650082 0.071981116948910684 0 -0.0055194870526432361 0.071955529705489352 0 -0.0055194870526432361 0.071955529705489352 0 -0.0053903697113328181 0.071544363935814467 0 -0.0049518060638460834 0.07177849929340098 0 -0.0055194870526432361 0.071955529705489352 0 -0.0056025650915770778 0.071688684975355396 0 -0.0053903697113328181 0.071544363935814467 0 -0.0056029137642650082 0.071981116948910684 0 -0.0056025650915770778 0.071688684975355396 0 -0.005780872383184232 0.071508658600453079 0 -0.0061079570046883077 0.071289426019397459 0 -0.0056029137642650082 0.071981116948910684 0 -0.005780872383184232 0.071508658600453079 0 -0.0056029137642650082 0.071981116948910684 0 -0.0055194870526432361 0.071955529705489352 0 -0.0056025650915770778 0.071688684975355396 0 -0.0056025650915770778 0.071688684975355396 0 -0.005780872383184232 0.071508658600453079 0 -0.0056206359111782289 0.0713255741877558 0 -0.0056206359111782289 0.0713255741877558 0 -0.0058354931928053695 0.071094880344307235 0 -0.0053134336964350774 0.071104651649836828 0 -0.005780872383184232 0.071508658600453079 0 -0.0056206359111782289 0.0713255741877558 0 -0.0058354931928053695 0.071094880344307235 0 -0.0061079570046883077 0.071289426019397459 0 -0.005780872383184232 0.071508658600453079 0 -0.0058354931928053695 0.071094880344307235 0 -0.0063620167806122153 0.071064990781000106 0 -0.0061079570046883077 0.071289426019397459 0 -0.0058354931928053695 0.071094880344307235 0 -0.0058354931928053695 0.071094880344307235 0 -0.005479256429975014 0.07059205680439963 0 -0.0060323618912953448 0.07055427841751738 0 -0.0063620167806122153 0.071064990781000106 0 -0.0058354931928053695 0.071094880344307235 0 -0.0060323618912953448 0.07055427841751738 0 -0.0049420935700160455 0.070661367855454432 0 -0.0053134336964350774 0.071104651649836828 0 -0.005479256429975014 0.07059205680439963 0 -0.0058354931928053695 0.071094880344307235 0 -0.0053134336964350774 0.071104651649836828 0 -0.005479256429975014 0.07059205680439963 0 -0.0053134336964350774 0.071104651649836828 0 -0.0053903697113328181 0.071544363935814467 0 -0.0049760629115873627 0.071382421015693698 0 -0.0056206359111782289 0.0713255741877558 0 -0.0053134336964350774 0.071104651649836828 0 -0.0053903697113328181 0.071544363935814467 0 -0.0056025650915770778 0.071688684975355396 0 -0.0056206359111782289 0.0713255741877558 0 -0.0053903697113328181 0.071544363935814467 0 -0.0053903697113328181 0.071544363935814467 0 -0.0049760629115873627 0.071382421015693698 0 -0.0049518060638460834 0.07177849929340098 0 -0.0049760629115873627 0.071382421015693698 0 -0.0043319939532268908 0.07165779914925513 0 -0.0049518060638460834 0.07177849929340098 0 -0.0053134336964350774 0.071104651649836828 0 -0.0049760629115873627 0.071382421015693698 0 -0.0046022901219983968 0.071050422092942253 0 -0.0049760629115873627 0.071382421015693698 0 -0.0046022901219983968 0.071050422092942253 0 -0.0043319939532268908 0.07165779914925513 0 -0.0049420935700160455 0.070661367855454432 0 -0.0046022901219983968 0.071050422092942253 0 -0.0043197370370576943 0.070367983086465594 0 -0.0049420935700160455 0.070661367855454432 0 -0.0053134336964350774 0.071104651649836828 0 -0.0046022901219983968 0.071050422092942253 0 -0.0046022901219983968 0.071050422092942253 0 -0.003568234941394216 0.071029535646247283 0 -0.0043197370370576943 0.070367983086465594 0 -0.0046022901219983968 0.071050422092942253 0 -0.0043319939532268908 0.07165779914925513 0 -0.003568234941394216 0.071029535646247283 0 -0.0043319939532268908 0.07165779914925513 0 -0.0036451147405646878 0.072100924243468881 0 -0.003568234941394216 0.071029535646247283 0 -0.0043319939532268908 0.07165779914925513 0 -0.0044049583867321425 0.072690904058613129 0 -0.0036451147405646878 0.072100924243468881 0 -0.0044049583867321425 0.072690904058613129 0 -0.0034198620366399477 0.073302147794444689 0 -0.0036451147405646878 0.072100924243468881 0 -0.0043319939532268908 0.07165779914925513 0 -0.0049518060638460834 0.07177849929340098 0 -0.0044049583867321425 0.072690904058613129 0 -0.0055194870526432361 0.071955529705489352 0 -0.0049518060638460834 0.07177849929340098 0 -0.0044049583867321425 0.072690904058613129 0 -0.00069665921970370908 0.061073001798718787 0 -0.00093787534739579487 0.059323363242985254 0 -0.020669479816914353 0.0077208574675823143 0 -0.022793522895363579 0.0084047549164336967 0 -0.021631637498669733 0.0098966735986018607 0 -0.020669479816914353 0.0077208574675823143 0 -0.022321835713357781 0.0063206156654177798 0 -0.022793522895363579 0.0084047549164336967 0 -0.0097169362195298429 0.013973158341537716 0 -0.012790394009411574 0.007956775904207531 0 -0.020669479816914353 0.0077208574675823143 0 -0.022321835713357781 0.0063206156654177798 0 -0.0195411870608364 0.0058270172238884593 0 -0.0097169362195298429 0.013973158341537716 0 -0.013143610034136912 0.019066055644082407 0 -0.0097169362195298429 0.013973158341537716 0 -0.0078925245363771126 0.019072941525865104 0 -0.0077727158323659864 0.0023917959611473088 0 -0.0079231935121979423 0.0022668502749347503 0 -0.0075788661193882667 0.0023090528420838339 0 -0.0091718320573754963 0.031697625949833337 0 -0.0085532408665116924 0.031647175490101979 0 -0.0090699999800547566 0.03122196305779994 0 -0.0074521994874641095 0.0024988975766072337 0 -0.0077727158323659864 0.0023917959611473088 0 -0.0075788661193882667 0.0023090528420838339 0 -0.0085532408665116924 0.031647175490101979 0 -0.0083952732405523228 0.031282719504105189 0 -0.0087071436116069635 0.031175343114503432 0 -0.008059751791831115 0.031464083313537748 0 -0.0085532408665116924 0.031647175490101979 0 -0.0083952732405523228 0.031282719504105189 0 -0.0083952732405523228 0.031282719504105189 0 -0.0087071436116069635 0.031175343114503432 0 -0.0084992371455986961 0.030963761195469959 0 -0.0085532408665116924 0.031647175490101979 0 -0.0090699999800547566 0.03122196305779994 0 -0.0087071436116069635 0.031175343114503432 0 -0.0090699999800547566 0.03122196305779994 0 -0.0087071436116069635 0.031175343114503432 0 -0.008977435806246381 0.030714199051348312 0 -0.0087071436116069635 0.031175343114503432 0 -0.0084992371455986961 0.030963761195469959 0 -0.008977435806246381 0.030714199051348312 0 -0.013143610034136912 0.019066055644082407 0 -0.015049414644722267 0.021862653863479308 0 -0.0084992371455986961 0.030963761195469959 0 -0.0085851385118297565 0.03060344731882016 0 -0.008977435806246381 0.030714199051348312 0 -0.0081557720236946091 0.030746898051926583 0 -0.0084992371455986961 0.030963761195469959 0 -0.0085851385118297565 0.03060344731882016 0 -0.0081226935323230921 0.031140756249422804 0 -0.0083952732405523228 0.031282719504105189 0 -0.0084992371455986961 0.030963761195469959 0 -0.0081557720236946091 0.030746898051926583 0 -0.0085851385118297565 0.03060344731882016 0 -0.0082915702072162787 0.030316665426638696 0 -0.0085851385118297565 0.03060344731882016 0 -0.0088788633667508735 0.030181078390592319 0 -0.0082915702072162787 0.030316665426638696 0 -0.015049414644722267 0.021862653863479308 0 -0.016852876953899414 0.026638759821295439 0 -0.023295123533533302 0.010492680211357316 0 -0.022239653849408108 0.011610715395127163 0 -0.023812602150209115 0.012645433857972699 0 -0.0085851385118297565 0.03060344731882016 0 -0.008977435806246381 0.030714199051348312 0 -0.0088788633667508735 0.030181078390592319 0 -0.023295123533533302 0.010492680211357316 0 -0.022239653849408108 0.011610715395127163 0 -0.021631637498669733 0.0098966735986018607 0 -0.022239653849408108 0.011610715395127163 0 -0.021631637498669733 0.0098966735986018607 0 -0.020991520960126984 0.01151966088250626 0 -0.022793522895363579 0.0084047549164336967 0 -0.023295123533533302 0.010492680211357316 0 -0.021631637498669733 0.0098966735986018607 0 -0.020669479816914353 0.0077208574675823143 0 -0.021631637498669733 0.0098966735986018607 0 -0.019570119252959071 0.0094968684581477267 0 -0.021631637498669733 0.0098966735986018607 0 -0.020991520960126984 0.01151966088250626 0 -0.019570119252959071 0.0094968684581477267 0 -0.019356392714111319 0.010229426224607149 0 -0.018409561043857867 0.0091419876188651109 0 -0.020991520960126984 0.01151966088250626 0 -0.019288454785272822 0.0086681939147285249 0 -0.018991640557211323 0.012097705857001925 0 -0.016695333366958168 0.011172746406076402 0 -0.019288454785272822 0.0086681939147285249 0 -0.018991640557211323 0.012097705857001925 0 -0.016695333366958168 0.011172746406076402 0 -0.014630683426993711 0.011404419765625371 0 -0.014811258008631768 0.012985525353822943 0 -0.016695333366958168 0.011172746406076402 0 -0.014953923004426056 0.0099820106753165626 0 -0.014630683426993711 0.011404419765625371 0 -0.016695333366958168 0.011172746406076402 0 -0.016878086913325728 0.008497026129629057 0 -0.014953923004426056 0.0099820106753165626 0 -0.016878086913325728 0.008497026129629057 0 -0.014909308327586947 0.0082228995032992778 0 -0.014953923004426056 0.0099820106753165626 0 -0.016878086913325728 0.008497026129629057 0 -0.015650012190322669 0.0069602650320211342 0 -0.014909308327586947 0.0082228995032992778 0 -0.016695333366958168 0.011172746406076402 0 -0.016878086913325728 0.008497026129629057 0 -0.019288454785272822 0.0086681939147285249 0 -0.018409561043857867 0.0091419876188651109 0 -0.016274604556765732 0.0071289930360377883 0 -0.020669479816914353 0.0077208574675823143 0 -0.019570119252959071 0.0094968684581477267 0 -0.018144698178571374 0.0074298013024416262 0 -0.016878086913325728 0.008497026129629057 0 -0.019288454785272822 0.0086681939147285249 0 -0.017381979300270006 0.0058672436500724163 0 -0.016878086913325728 0.008497026129629057 0 -0.017381979300270006 0.0058672436500724163 0 -0.015650012190322669 0.0069602650320211342 0 -0.017381979300270006 0.0058672436500724163 0 -0.015650012190322669 0.0069602650320211342 0 -0.014739830725276876 0.0055015940033228093 0 -0.017381979300270006 0.0058672436500724163 0 -0.014739830725276876 0.0055015940033228093 0 -0.015512484730264871 0.003191803734754424 0 -0.016274604556765732 0.0071289930360377883 0 -0.012722992869216632 0.0044695958963390384 0 -0.018144698178571374 0.0074298013024416262 0 -0.0195411870608364 0.0058270172238884593 0 -0.016722973333283507 0.0053387077804261966 0 -0.020669479816914353 0.0077208574675823143 0 -0.018144698178571374 0.0074298013024416262 0 -0.0195411870608364 0.0058270172238884593 0 -0.01310649836704003 0.0045642163442331154 0 -0.010917138341458285 0.005142546933155385 0 -0.011969706813825819 0.0026424479235933498 0 -0.01310649836704003 0.0045642163442331154 0 -0.012425376931269962 0.0063417719483496613 0 -0.010917138341458285 0.005142546933155385 0 -0.01310649836704003 0.0045642163442331154 0 -0.014739830725276876 0.0055015940033228093 0 -0.012425376931269962 0.0063417719483496613 0 -0.01310649836704003 0.0045642163442331154 0 -0.014739830725276876 0.0055015940033228093 0 -0.015512484730264871 0.003191803734754424 0 -0.014739830725276876 0.0055015940033228093 0 -0.013846452359486269 0.007228838994444018 0 -0.012425376931269962 0.0063417719483496613 0 -0.015650012190322669 0.0069602650320211342 0 -0.014739830725276876 0.0055015940033228093 0 -0.013846452359486269 0.007228838994444018 0 -0.015650012190322669 0.0069602650320211342 0 -0.013846452359486269 0.007228838994444018 0 -0.014909308327586947 0.0082228995032992778 0 -0.013846452359486269 0.007228838994444018 0 -0.012425376931269962 0.0063417719483496613 0 -0.012573002938902889 0.0078909718599388251 0 -0.012425376931269962 0.0063417719483496613 0 -0.011181358495014507 0.0065560357560229326 0 -0.010917138341458285 0.005142546933155385 0 -0.012425376931269962 0.0063417719483496613 0 -0.011181358495014507 0.0065560357560229326 0 -0.011380614804590319 0.0076239753788107439 0 -0.012425376931269962 0.0063417719483496613 0 -0.011380614804590319 0.0076239753788107439 0 -0.012573002938902889 0.0078909718599388251 0 -0.011380614804590319 0.0076239753788107439 0 -0.012047764721581746 0.0083824740135398541 0 -0.011634681122593575 0.009000845001322498 0 -0.010827184761564844 0.0092292007284900807 0 -0.011245978913055675 0.0087222363607109468 0 -0.0131771177518507 0.010898636965241005 0 -0.011380614804590319 0.0076239753788107439 0 -0.012047764721581746 0.0083824740135398541 0 -0.012573002938902889 0.0078909718599388251 0 -0.012047764721581746 0.0083824740135398541 0 -0.012600691094352618 0.0090096326117624428 0 -0.011634681122593575 0.009000845001322498 0 -0.012047764721581746 0.0083824740135398541 0 -0.012573002938902889 0.0078909718599388251 0 -0.012600691094352618 0.0090096326117624428 0 -0.012573002938902889 0.0078909718599388251 0 -0.012600691094352618 0.0090096326117624428 0 -0.013621302406493918 0.0088747120739934415 0 -0.012600691094352618 0.0090096326117624428 0 -0.011634681122593575 0.009000845001322498 0 -0.0131771177518507 0.010898636965241005 0 -0.013846452359486269 0.007228838994444018 0 -0.014909308327586947 0.0082228995032992778 0 -0.013621302406493918 0.0088747120739934415 0 -0.013846452359486269 0.007228838994444018 0 -0.012573002938902889 0.0078909718599388251 0 -0.013621302406493918 0.0088747120739934415 0 -0.012600691094352618 0.0090096326117624428 0 -0.013621302406493918 0.0088747120739934415 0 -0.0131771177518507 0.010898636965241005 0 -0.014909308327586947 0.0082228995032992778 0 -0.013621302406493918 0.0088747120739934415 0 -0.014953923004426056 0.0099820106753165626 0 -0.014953923004426056 0.0099820106753165626 0 -0.0131771177518507 0.010898636965241005 0 -0.014630683426993711 0.011404419765625371 0 -0.013621302406493918 0.0088747120739934415 0 -0.014953923004426056 0.0099820106753165626 0 -0.0131771177518507 0.010898636965241005 0 -0.0131771177518507 0.010898636965241005 0 -0.012291648938903388 0.011874451614711802 0 -0.013473887518314678 0.01216999430798262 0 -0.0131771177518507 0.010898636965241005 0 -0.014630683426993711 0.011404419765625371 0 -0.013473887518314678 0.01216999430798262 0 -0.010827184761564844 0.0092292007284900807 0 -0.0131771177518507 0.010898636965241005 0 -0.012291648938903388 0.011874451614711802 0 -0.010820266039162413 0.0090778926480759442 0 -0.012291648938903388 0.011874451614711802 0 -0.01056295947050577 0.010977598767490434 0 -0.010789120442908667 0.0086048418592439956 0 -0.011332008498713088 0.0096549102479375898 0 -0.011158888680808185 0.0082954912520288148 0 -0.011831629584000155 0.0090946679749080109 0 -0.012291648938903388 0.011874451614711802 0 -0.01056295947050577 0.010977598767490434 0 -0.010996808411004108 0.012216012870780422 0 -0.0093572983941909681 0.010023839133986263 0 -0.0093760985294160902 0.011765348290269755 0 -0.006751893752429166 0.010125174331382719 0 -0.01056295947050577 0.010977598767490434 0 -0.0093572983941909681 0.010023839133986263 0 -0.0093760985294160902 0.011765348290269755 0 -0.01056295947050577 0.010977598767490434 0 -0.0093760985294160902 0.011765348290269755 0 -0.010996808411004108 0.012216012870780422 0 -0.010820266039162413 0.0090778926480759442 0 -0.01056295947050577 0.010977598767490434 0 -0.0093572983941909681 0.010023839133986263 0 -0.0093760985294160902 0.011765348290269755 0 -0.006751893752429166 0.010125174331382719 0 -0.0083286393828908845 0.013601011782327439 0 -0.0093572983941909681 0.010023839133986263 0 -0.006751893752429166 0.010125174331382719 0 -0.0088662268534384532 0.0083580061939137005 0 -0.0075020743575665138 0.0098643772688839105 0 -0.0077359916297345824 0.0083966157237007309 0 -0.0080909522049403756 0.0082547636418965533 0 -0.0073658414946841042 0.0066395890667434116 0 -0.0080547997623052325 0.0063598497801598064 0 -0.006751893752429166 0.010125174331382719 0 -0.0088662268534384532 0.0083580061939137005 0 -0.0080547997623052325 0.0063598497801598064 0 -0.010827184761564844 0.0092292007284900807 0 -0.011245978913055675 0.0087222363607109468 0 -0.0093312935002432436 0.0065616633160254078 0 -0.010789120442908667 0.0086048418592439956 0 -0.0098954255754524975 0.0067491381345173703 0 -0.010820266039162413 0.0090778926480759442 0 -0.0088662268534384532 0.0083580061939137005 0 -0.0093399656010756428 0.0064922008165194459 0 -0.011158888680808185 0.0082954912520288148 0 -0.0098954255754524975 0.0067491381345173703 0 -0.011380614804590319 0.0076239753788107439 0 -0.011634681122593575 0.009000845001322498 0 -0.010007446968902363 0.0071175054657149567 0 -0.010820266039162413 0.0090778926480759442 0 -0.0093572983941909681 0.010023839133986263 0 -0.0088662268534384532 0.0083580061939137005 0 -0.005827341415402418 0.0082470479183955493 0 -0.006860411661732708 0.0094611209787308134 0 -0.005285185117741337 0.0097232400399810785 0 -0.0046212295665783703 0.0083687365212779478 0 -0.005827341415402418 0.0082470479183955493 0 -0.005285185117741337 0.0097232400399810785 0 -0.0046212295665783703 0.0083687365212779478 0 -0.0048862843565388595 0.0071368797583534352 0 -0.005827341415402418 0.0082470479183955493 0 -0.0080909522049403756 0.0082547636418965533 0 -0.005827341415402418 0.0082470479183955493 0 -0.006860411661732708 0.0094611209787308134 0 -0.0080909522049403756 0.0082547636418965533 0 -0.005827341415402418 0.0082470479183955493 0 -0.0063957987683561906 0.0070125758013262632 0 -0.0080909522049403756 0.0082547636418965533 0 -0.0063957987683561906 0.0070125758013262632 0 -0.0073658414946841042 0.0066395890667434116 0 -0.0048862843565388595 0.0071368797583534352 0 -0.005827341415402418 0.0082470479183955493 0 -0.0063957987683561906 0.0070125758013262632 0 -0.0048862843565388595 0.0071368797583534352 0 -0.0063957987683561906 0.0070125758013262632 0 -0.0055531970368696013 0.0060584953825472314 0 -0.0055531970368696013 0.0060584953825472314 0 -0.0066795134043464042 0.005897516352466897 0 -0.0058325888127902983 0.00518540978805804 0 -0.0063957987683561906 0.0070125758013262632 0 -0.0066795134043464042 0.005897516352466897 0 -0.0073658414946841042 0.0066395890667434116 0 -0.0063957987683561906 0.0070125758013262632 0 -0.0055531970368696013 0.0060584953825472314 0 -0.0066795134043464042 0.005897516352466897 0 -0.0066795134043464042 0.005897516352466897 0 -0.0073658414946841042 0.0066395890667434116 0 -0.0075932474915889284 0.0056327918307335495 0 -0.0066795134043464042 0.005897516352466897 0 -0.0065777527831534077 0.004730974738270677 0 -0.0075932474915889284 0.0056327918307335495 0 -0.0065777527831534077 0.004730974738270677 0 -0.0075932474915889284 0.0056327918307335495 0 -0.0075251015794975196 0.0045009503132187201 0 -0.0066795134043464042 0.005897516352466897 0 -0.0065777527831534077 0.004730974738270677 0 -0.0058325888127902983 0.00518540978805804 0 -0.004735117026579804 0.0049537669084684629 0 -0.0048337343738286921 0.0036165771516321246 0 -0.005643131524384842 0.0043109648870022178 0 -0.0065777527831534077 0.004730974738270677 0 -0.0058325888127902983 0.00518540978805804 0 -0.005643131524384842 0.0043109648870022178 0 -0.004735117026579804 0.0049537669084684629 0 -0.0058325888127902983 0.00518540978805804 0 -0.005643131524384842 0.0043109648870022178 0 -0.004735117026579804 0.0049537669084684629 0 -0.0055531970368696013 0.0060584953825472314 0 -0.0058325888127902983 0.00518540978805804 0 -0.0098954255754524975 0.0067491381345173703 0 -0.009035632836544889 0.0052303211066113643 0 -0.011181358495014507 0.0065560357560229326 0 -0.010007446968902363 0.0071175054657149567 0 -0.010917138341458285 0.005142546933155385 0 -0.011181358495014507 0.0065560357560229326 0 -0.011380614804590319 0.0076239753788107439 0 -0.010007446968902363 0.0071175054657149567 0 -0.0088662268534384532 0.0083580061939137005 0 -0.0093399656010756428 0.0064922008165194459 0 -0.0080547997623052325 0.0063598497801598064 0 -0.0093399656010756428 0.0064922008165194459 0 -0.0075932474915889284 0.0056327918307335495 0 -0.0075251015794975196 0.0045009503132187201 0 -0.0093399656010756428 0.0064922008165194459 0 -0.0080547997623052325 0.0063598497801598064 0 -0.0075932474915889284 0.0056327918307335495 0 -0.0073658414946841042 0.0066395890667434116 0 -0.0080547997623052325 0.0063598497801598064 0 -0.0075932474915889284 0.0056327918307335495 0 -0.0098954255754524975 0.0067491381345173703 0 -0.0083804198625705723 0.0041583969612984713 0 -0.0099402888377090222 0.0068051302915272758 0 -0.0087739042531037939 0.0047383357744627949 0 -0.0076205019947093782 0.0041972861539359627 0 -0.0087739042531037939 0.0047383357744627949 0 -0.0076205019947093782 0.0041972861539359627 0 -0.0076063507199999733 0.0026711791731466291 0 -0.0087808463050110114 0.004864606434571794 0 -0.0097791740317921035 0.0036359667675277666 0 -0.0087164143269357584 0.0034282842915940655 0 -0.010007446968902363 0.0071175054657149567 0 -0.0087808463050110114 0.004864606434571794 0 -0.010917138341458285 0.005142546933155385 0 -0.010917138341458285 0.005142546933155385 0 -0.0097791740317921035 0.0036359667675277666 0 -0.011969706813825819 0.0026424479235933498 0 -0.0087808463050110114 0.004864606434571794 0 -0.010917138341458285 0.005142546933155385 0 -0.0097791740317921035 0.0036359667675277666 0 -0.0097791740317921035 0.0036359667675277666 0 -0.0085326938972600155 0.0021210896109849797 0 -0.011969706813825819 0.0026424479235933498 0 -0.0095683260233919015 0.0025861603374669317 0 -0.011007869105183763 0.0031484630734341132 0 -0.0097791740317921035 0.0036359667675277666 0 -0.0087164143269357584 0.0034282842915940655 0 -0.0085326938972600155 0.0021210896109849797 0 -0.0087808463050110114 0.004864606434571794 0 -0.0087164143269357584 0.0034282842915940655 0 -0.0076063507199999733 0.0026711791731466291 0 -0.009035632836544889 0.0052303211066113643 0 -0.0085687639581905149 0.0044002995153514836 0 -0.0087164143269357584 0.0034282842915940655 0 -0.0076063507199999733 0.0026711791731466291 0 -0.0085326938972600155 0.0021210896109849797 0 -0.010596481222894359 0.0016785380690772435 0 -0.010661435155337923 0.0017904752506199887 0 -0.010548563876119259 0.0019704123688829493 0 -0.010596481222894359 0.0016785380690772435 0 -0.01034118659107454 0.0018746944486363669 0 -0.010183523978275495 0.001594060294255941 0 -0.010596481222894359 0.0016785380690772435 0 -0.01034118659107454 0.0018746944486363669 0 -0.010548563876119259 0.0019704123688829493 0 -0.0048337343738286921 0.0036165771516321246 0 -0.005643131524384842 0.0043109648870022178 0 -0.0060182636472957823 0.0028348233128635907 0 -0.0065777527831534077 0.004730974738270677 0 -0.005643131524384842 0.0043109648870022178 0 -0.0060182636472957823 0.0028348233128635907 0 -0.0083804198625705723 0.0041583969612984713 0 -0.0085256045212296454 0.0025653517377196154 0 -0.0065777527831534077 0.004730974738270677 0 -0.0075251015794975196 0.0045009503132187201 0 -0.0060182636472957823 0.0028348233128635907 0 -0.0076063507199999733 0.0026711791731466291 0 -0.0085326938972600155 0.0021210896109849797 0 -0.0052995888408472521 0.0015948891413948261 0 -0.0076205019947093782 0.0041972861539359627 0 -0.0076063507199999733 0.0026711791731466291 0 -0.0052995888408472521 0.0015948891413948261 0 -0.0095683260233919015 0.0025861603374669317 0 -0.0085256045212296454 0.0025653517377196154 0 -0.010726196907738324 0.0016737813861564552 0 -0.010661435155337923 0.0017904752506199887 0 -0.010710489061681901 0.0017371779379532666 0 -0.010596481222894359 0.0016785380690772435 0 -0.010726196907738324 0.0016737813861564552 0 -0.010661435155337923 0.0017904752506199887 0 -0.0067392638344316884 0.002072955274426966 0 -0.0085256045212296454 0.0025653517377196154 0 -0.0095936157821965885 0.0027423428407294193 0 -0.0085256045212296454 0.0025653517377196154 0 -0.0108695306151488 0.001396291099712389 0 -0.010782205185298776 0.0014249060434588668 0 -0.01257207203103199 0.0029820116397686444 0 -0.0108695306151488 0.001396291099712389 0 -0.010726196907738324 0.0016737813861564552 0 -0.010763999721543471 0.0015884998879923447 0 -0.010726196907738324 0.0016737813861564552 0 -0.010763999721543471 0.0015884998879923447 0 -0.010710489061681901 0.0017371779379532666 0 -0.010780883747586484 0.0016151490084942257 0 -0.010763999721543471 0.0015884998879923447 0 -0.01073968278382258 0.0016892112609603318 0 -0.010809133144405491 0.0015304682944196864 0 -0.010780883747586484 0.0016151490084942257 0 -0.010763999721543471 0.0015884998879923447 0 -0.010809133144405491 0.0015304682944196864 0 -0.0108695306151488 0.001396291099712389 0 -0.010763999721543471 0.0015884998879923447 0 -0.010763999721543471 0.0015884998879923447 0 -0.01073968278382258 0.0016892112609603318 0 -0.010710489061681901 0.0017371779379532666 0 -0.010661435155337923 0.0017904752506199887 0 -0.010710489061681901 0.0017371779379532666 0 -0.01066759442758339 0.0019333028131576367 0 -0.010649213472215004 0.0020103651433688871 0 -0.01066759442758339 0.0019333028131576367 0 -0.010666130593016443 0.0019213526904095582 0 -0.01066759442758339 0.0019333028131576367 0 -0.010666130593016443 0.0019213526904095582 0 -0.010700358365274002 0.0018198330431975569 0 -0.010686399519452371 0.0018805394291540676 0 -0.010666130593016443 0.0019213526904095582 0 -0.010700358365274002 0.0018198330431975569 0 -0.010710489061681901 0.0017371779379532666 0 -0.01066759442758339 0.0019333028131576367 0 -0.010700358365274002 0.0018198330431975569 0 -0.01073968278382258 0.0016892112609603318 0 -0.010700358365274002 0.0018198330431975569 0 -0.010752697657225609 0.0017299019394449516 0 -0.01073968278382258 0.0016892112609603318 0 -0.010710489061681901 0.0017371779379532666 0 -0.010700358365274002 0.0018198330431975569 0 -0.010700358365274002 0.0018198330431975569 0 -0.010734126550461525 0.0018178423556575152 0 -0.010752697657225609 0.0017299019394449516 0 -0.010686399519452371 0.0018805394291540676 0 -0.010700358365274002 0.0018198330431975569 0 -0.010734126550461525 0.0018178423556575152 0 -0.010791332840262787 0.0017536751692561275 0 -0.010791145276800522 0.0018150053147939144 0 -0.010734126550461525 0.0018178423556575152 0 -0.010791332840262787 0.0017536751692561275 0 -0.010734126550461525 0.0018178423556575152 0 -0.010752697657225609 0.0017299019394449516 0 -0.010791332840262787 0.0017536751692561275 0 -0.01079933217745371 0.0016731352576577401 0 -0.010752697657225609 0.0017299019394449516 0 -0.01079933217745371 0.0016731352576577401 0 -0.010780883747586484 0.0016151490084942257 0 -0.010752697657225609 0.0017299019394449516 0 -0.010780883747586484 0.0016151490084942257 0 -0.01073968278382258 0.0016892112609603318 0 -0.010752697657225609 0.0017299019394449516 0 -0.010548563876119259 0.0019704123688829493 0 -0.010398581002540512 0.0022252506636676922 0 -0.010307801449140038 0.00214694598978379 0 -0.01034118659107454 0.0018746944486363669 0 -0.010548563876119259 0.0019704123688829493 0 -0.010307801449140038 0.00214694598978379 0 -0.010661435155337923 0.0017904752506199887 0 -0.01066759442758339 0.0019333028131576367 0 -0.010548563876119259 0.0019704123688829493 0 -0.01066759442758339 0.0019333028131576367 0 -0.010548563876119259 0.0019704123688829493 0 -0.010657674762416467 0.0021351052855362478 0 -0.010649213472215004 0.0020103651433688871 0 -0.01066759442758339 0.0019333028131576367 0 -0.010657674762416467 0.0021351052855362478 0 -0.010548563876119259 0.0019704123688829493 0 -0.010657674762416467 0.0021351052855362478 0 -0.010398581002540512 0.0022252506636676922 0 -0.010746095548223785 0.0023022420043034304 0 -0.010657674762416467 0.0021351052855362478 0 -0.010398581002540512 0.0022252506636676922 0 -0.0098607762184655598 0.0032137680539052181 0 -0.0099331612380303032 0.0028844564142807014 0 -0.0099786055105617489 0.0024172419935063164 0 -0.010398581002540512 0.0022252506636676922 0 -0.010112623427535562 0.0023527700460671663 0 -0.010398581002540512 0.0022252506636676922 0 -0.010307801449140038 0.00214694598978379 0 -0.010112623427535562 0.0023527700460671663 0 -0.010307801449140038 0.00214694598978379 0 -0.010112623427535562 0.0023527700460671663 0 -0.010040010127454264 0.0022034361849298596 0 -0.010112623427535562 0.0023527700460671663 0 -0.010040010127454264 0.0022034361849298596 0 -0.0096323264057252642 0.0024702517646025368 0 -0.01034118659107454 0.0018746944486363669 0 -0.010307801449140038 0.00214694598978379 0 -0.010040010127454264 0.0022034361849298596 0 -0.010040010127454264 0.0022034361849298596 0 -0.0096323264057252642 0.0024702517646025368 0 -0.0095512845257296145 0.0021005075941711152 0 -0.010112623427535562 0.0023527700460671663 0 -0.0096323264057252642 0.0024702517646025368 0 -0.0096299176200601733 0.0028530337979928181 0 -0.0096323264057252642 0.0024702517646025368 0 -0.0096299176200601733 0.0028530337979928181 0 -0.0091927287265511585 0.0026783214433843995 0 -0.0099654343724745065 0.0035177633498941884 0 -0.010112623427535562 0.0023527700460671663 0 -0.0096299176200601733 0.0028530337979928181 0 -0.0099654343724745065 0.0035177633498941884 0 -0.0096299176200601733 0.0028530337979928181 0 -0.0091768483465222012 0.0031846612909155986 0 -0.0091768483465222012 0.0031846612909155986 0 -0.0085626573337534932 0.0031583231158955043 0 -0.0091927287265511585 0.0026783214433843995 0 -0.0096299176200601733 0.0028530337979928181 0 -0.0091768483465222012 0.0031846612909155986 0 -0.0091927287265511585 0.0026783214433843995 0 -0.0082515997770707412 0.0029521607399746069 0 -0.0085626573337534932 0.0031583231158955043 0 -0.0086725289975581963 0.0027098877709171684 0 -0.0085626573337534932 0.0031583231158955043 0 -0.0086725289975581963 0.0027098877709171684 0 -0.0091927287265511585 0.0026783214433843995 0 -0.0086725289975581963 0.0027098877709171684 0 -0.0091927287265511585 0.0026783214433843995 0 -0.0091846479464729684 0.0023331000370390158 0 -0.0096323264057252642 0.0024702517646025368 0 -0.0091927287265511585 0.0026783214433843995 0 -0.0091846479464729684 0.0023331000370390158 0 -0.0091846479464729684 0.0023331000370390158 0 -0.0087223412654094806 0.0023026859528020864 0 -0.0092431054985807268 0.0018718888412903375 0 -0.0083291387126181345 0.0026580704948386256 0 -0.0086725289975581963 0.0027098877709171684 0 -0.0087223412654094806 0.0023026859528020864 0 -0.0086725289975581963 0.0027098877709171684 0 -0.0091846479464729684 0.0023331000370390158 0 -0.0087223412654094806 0.0023026859528020864 0 -0.012790394009411574 0.007956775904207531 0 -0.012722992869216632 0.0044695958963390384 0 -0.008575244259931827 0.0019450900782970553 0 -0.0087223412654094806 0.0023026859528020864 0 -0.0092431054985807268 0.0018718888412903375 0 -0.01310649836704003 0.0045642163442331154 0 -0.015512484730264871 0.003191803734754424 0 -0.011969706813825819 0.0026424479235933498 0 -0.0096344753607414575 0.0015015959037055163 0 -0.010183523978275495 0.001594060294255941 0 -0.0098417443126465245 0.0018139440428311445 0 -0.012722992869216632 0.0044695958963390384 0 -0.011007869105183763 0.0031484630734341132 0 -0.012722992869216632 0.0044695958963390384 0 -0.011109004872810498 0.0026719888477137296 0 -0.01034118659107454 0.0018746944486363669 0 -0.010183523978275495 0.001594060294255941 0 -0.010100184227840451 0.0018650615099708211 0 -0.010183523978275495 0.001594060294255941 0 -0.010100184227840451 0.0018650615099708211 0 -0.0098417443126465245 0.0018139440428311445 0 -0.010040010127454264 0.0022034361849298596 0 -0.010100184227840451 0.0018650615099708211 0 -0.0098417443126465245 0.0018139440428311445 0 -0.01034118659107454 0.0018746944486363669 0 -0.010040010127454264 0.0022034361849298596 0 -0.010100184227840451 0.0018650615099708211 0 -0.0096323264057252642 0.0024702517646025368 0 -0.0091846479464729684 0.0023331000370390158 0 -0.0095512845257296145 0.0021005075941711152 0 -0.010793375448111252 0.0023694108063783957 0 -0.011109004872810498 0.0026719888477137296 0 -0.0091846479464729684 0.0023331000370390158 0 -0.0092431054985807268 0.0018718888412903375 0 -0.0095512845257296145 0.0021005075941711152 0 2.5940645458663343e-05 0.084964438784265128 0 2.4143467470820773e-05 0.084369495230810165 0 -7.868451035637254e-05 0.0847155662850195 0 -2.8707202639624225e-05 0.084340496075740345 0 -1.5356420823538573e-05 0.084334306862103692 0 2.4143467470820773e-05 0.084369495230810165 0 2.1840368705245291e-05 0.084695959974655718 0 3.3415232477705162e-05 0.084622456093453868 0 -2.8707202639624225e-05 0.084340496075740345 0 -1.5356420823538573e-05 0.084334306862103692 0 7.0495390527552362e-05 0.084387444334452694 0 2.5940645458663343e-05 0.084964438784265128 0 -3.371143729674473e-05 0.084960546680505206 0 -7.868451035637254e-05 0.0847155662850195 0 -1.1866985766506944e-07 0.08499962128623513 0 -3.371143729674473e-05 0.084960546680505206 0 -4.6014598483141748e-09 0.085000057280229011 0 -1.1866985766506944e-07 0.08499962128623513 0 -3.371143729674473e-05 0.084960546680505206 0 -7.868451035637254e-05 0.0847155662850195 0 2.5940645458663343e-05 0.084964438784265128 0 -3.371143729674473e-05 0.084960546680505206 0 -7.8688248553665205e-06 0.084983895978302332 0 2.1840368705245291e-05 0.084695959974655718 0 1.3845359801171899e-05 0.084819840679092054 0 -3.371143729674473e-05 0.084960546680505206 0 -7.8688248553665205e-06 0.084983895978302332 0 -4.6014598483141748e-09 0.085000057280229011 0 2.5940645458663343e-05 0.084964438784265128 0 -7.8688248553665205e-06 0.084983895978302332 0 -4.1386858874744596e-06 0.085003142431308437 0 -7.8688248553665205e-06 0.084983895978302332 0 -4.6014598483141748e-09 0.085000057280229011 0 -4.1386858874744596e-06 0.085003142431308437 0 -2.8707202639624225e-05 0.084340496075740345 0 6.8246438784588572e-06 0.084545015433345097 0 3.0839818189963047e-05 0.084458689285968044 0 -2.8707202639624225e-05 0.084340496075740345 0 6.8246438784588572e-06 0.084545015433345097 0 -7.9737512360907904e-05 0.084639149480947806 0 3.0839818189963047e-05 0.084458689285968044 0 8.8728820893235489e-05 0.084542564983076135 0 7.0495390527552362e-05 0.084387444334452694 0 -2.8707202639624225e-05 0.084340496075740345 0 3.0839818189963047e-05 0.084458689285968044 0 7.0495390527552362e-05 0.084387444334452694 0 6.8246438784588572e-06 0.084545015433345097 0 3.0839818189963047e-05 0.084458689285968044 0 8.8728820893235489e-05 0.084542564983076135 0 8.8728820893235489e-05 0.084542564983076135 0 0.00017758710501471442 0.084396277881717913 0 0.00023709260898965962 0.08455232361943997 0 8.8728820893235489e-05 0.084542564983076135 0 0.00017758710501471442 0.084396277881717913 0 7.0495390527552362e-05 0.084387444334452694 0 0.00034945112318893461 0.084382792726803046 0 0.00048641877772186685 0.084602208243418575 0 0.00023709260898965962 0.08455232361943997 0 0.00017758710501471442 0.084396277881717913 0 0.00034945112318893461 0.084382792726803046 0 0.00023709260898965962 0.08455232361943997 0 0.00017758710501471442 0.084396277881717913 0 0.00034945112318893461 0.084382792726803046 0 0.00023148473629670292 0.084217740428705237 0 0.00023148473629670292 0.084217740428705237 0 0.00033109110134006643 0.084025706872215708 0 0.00045713185924397111 0.084141476395850567 0 0.00034945112318893461 0.084382792726803046 0 0.00023148473629670292 0.084217740428705237 0 0.00045713185924397111 0.084141476395850567 0 0.00023148473629670292 0.084217740428705237 0 0.00011008194074565422 0.084271741572687645 0 0.00016481002255045257 0.083874345200056766 0 -1.5356420823538573e-05 0.084334306862103692 0 0.00011008194074565422 0.084271741572687645 0 0.00016481002255045257 0.083874345200056766 0 0.00017758710501471442 0.084396277881717913 0 7.0495390527552362e-05 0.084387444334452694 0 0.00011008194074565422 0.084271741572687645 0 -1.5356420823538573e-05 0.084334306862103692 0 7.0495390527552362e-05 0.084387444334452694 0 0.00011008194074565422 0.084271741572687645 0 0.00017758710501471442 0.084396277881717913 0 0.00023148473629670292 0.084217740428705237 0 0.00011008194074565422 0.084271741572687645 0 -1.5356420823538573e-05 0.084334306862103692 0 0.00022466989322260863 0.084256952892945311 0 2.4143467470820773e-05 0.084369495230810165 0 -0.00048177803304208917 0.083219784119826418 0 -0.00048580627809033313 0.082830985086355405 0 0.00022466989322260863 0.084256952892945311 0 3.3660793492751458e-05 0.083966937478956116 0 2.4143467470820773e-05 0.084369495230810165 0 0.00016481002255045257 0.083874345200056766 0 0.00043656261497201422 0.083477408879125886 0 0.00045835174323847908 0.083855590084053411 0 0.00023148473629670292 0.084217740428705237 0 0.00016481002255045257 0.083874345200056766 0 0.00033109110134006643 0.084025706872215708 0 0.00033109110134006643 0.084025706872215708 0 0.00045835174323847908 0.083855590084053411 0 0.00045713185924397111 0.084141476395850567 0 0.00016481002255045257 0.083874345200056766 0 0.00033109110134006643 0.084025706872215708 0 0.00045835174323847908 0.083855590084053411 0 0.00022466989322260863 0.084256952892945311 0 0.00029871163046029053 0.083400218922786054 0 0.00092103488590284234 0.082976191005322608 0 -0.00048580627809033313 0.082830985086355405 0 -0.00052160070499060473 0.081538506077775769 0 0.00029871163046029053 0.083400218922786054 0 0.00054284474705932381 0.082506693924626603 0 0.00092103488590284234 0.082976191005322608 0 0.00029871163046029053 0.083400218922786054 0 3.3660793492751458e-05 0.083966937478956116 0 1.1033000007361837e-05 0.083287968772314244 0 3.3660793492751458e-05 0.083966937478956116 0 -0.00014953700576665404 0.084319225249933155 0 1.1033000007361837e-05 0.083287968772314244 0 0.00022466989322260863 0.084256952892945311 0 0.00029871163046029053 0.083400218922786054 0 3.3660793492751458e-05 0.083966937478956116 0 3.3660793492751458e-05 0.083966937478956116 0 -0.00014953700576665404 0.084319225249933155 0 2.4143467470820773e-05 0.084369495230810165 0 -0.00014953700576665404 0.084319225249933155 0 2.4143467470820773e-05 0.084369495230810165 0 -7.868451035637254e-05 0.0847155662850195 0 -1.1866985766506944e-07 0.08499962128623513 0 -7.868451035637254e-05 0.0847155662850195 0 -9.1068243253322474e-08 0.084999361791940231 0 -0.00014953700576665404 0.084319225249933155 0 -7.868451035637254e-05 0.0847155662850195 0 -9.1068243253322474e-08 0.084999361791940231 0 -0.00014953700576665404 0.084319225249933155 0 -9.1068243253322474e-08 0.084999361791940231 0 -0.00030859043940089167 0.083886095286964654 0 -9.1068243253322474e-08 0.084999361791940231 0 -0.00030859043940089167 0.083886095286964654 0 -1.3001270710933736e-06 0.084996555530917131 0 -0.00014953700576665404 0.084319225249933155 0 -0.00030859043940089167 0.083886095286964654 0 1.1033000007361837e-05 0.083287968772314244 0 -0.00030859043940089167 0.083886095286964654 0 -0.00062063712229028039 0.082194244016106047 0 -5.1116730001038693e-05 0.082581220817090004 0 -4.5391375831701684e-07 0.08499715683298549 0 0.00013522791259633671 0.083238489738779134 0 -0.00030859043940089167 0.083886095286964654 0 -1.3001270710933736e-06 0.084996555530917131 0 -0.00062063712229028039 0.082194244016106047 0 -2.396784713660828e-06 0.084992862077762313 0 -0.00039640650204129084 0.083034607969351096 0 3.5084528275442314e-06 0.075945193681017834 0 8.8483901259296705e-07 0.085000229192310497 0 -2.396784713660828e-06 0.084992862077762313 0 -0.00039640650204129084 0.083034607969351096 0 0.0003656631760117435 0.078892674073979777 0 3.5084528275442314e-06 0.075945193681017834 0 0.0017772439891305411 0.080416192818472731 0 -1.4119103293063045e-08 0.075930327514765972 0 0.00041245063202270855 0.077156995548426394 0 -0.00039640650204129084 0.083034607969351096 0 0.0003656631760117435 0.078892674073979777 0 3.5084528275442314e-06 0.075945193681017834 0 0.00013522791259633671 0.083238489738779134 0 0.00053009523719518706 0.082164004596529255 0 -0.00062063712229028039 0.082194244016106047 0 0.0003656631760117435 0.078892674073979777 0 0.00046853878958628709 0.081206665160184932 0 0.00046853878958628709 0.081206665160184932 0 0.0010607485567884231 0.080881664363551362 0 0.0017772439891305411 0.080416192818472731 0 0.0003656631760117435 0.078892674073979777 0 0.00046853878958628709 0.081206665160184932 0 0.0017772439891305411 0.080416192818472731 0 0.00046853878958628709 0.081206665160184932 0 0.00056713761240643579 0.081804743289718596 0 0.0010607485567884231 0.080881664363551362 0 0.00046853878958628709 0.081206665160184932 0 0.00056713761240643579 0.081804743289718596 0 -5.1116730001038693e-05 0.082581220817090004 0 0.00056713761240643579 0.081804743289718596 0 0.00078965546700676269 0.081491023123749784 0 0.0010607485567884231 0.080881664363551362 0 -0.00062063712229028039 0.082194244016106047 0 0.00046853878958628709 0.081206665160184932 0 -5.1116730001038693e-05 0.082581220817090004 0 0.00056713761240643579 0.081804743289718596 0 -5.1116730001038693e-05 0.082581220817090004 0 1.1033000007361837e-05 0.083287968772314244 0 -0.00030859043940089167 0.083886095286964654 0 -5.1116730001038693e-05 0.082581220817090004 0 1.1033000007361837e-05 0.083287968772314244 0 0.00029871163046029053 0.083400218922786054 0 1.1033000007361837e-05 0.083287968772314244 0 0.00054284474705932381 0.082506693924626603 0 0.00056713761240643579 0.081804743289718596 0 1.1033000007361837e-05 0.083287968772314244 0 0.00054284474705932381 0.082506693924626603 0 0.00054284474705932381 0.082506693924626603 0 0.00078965546700676269 0.081491023123749784 0 0.00092103488590284234 0.082976191005322608 0 0.00056713761240643579 0.081804743289718596 0 0.00054284474705932381 0.082506693924626603 0 0.00078965546700676269 0.081491023123749784 0 -0.00046557319336265135 0.07877140065050614 0 -0.00052160070499060473 0.081538506077775769 0 0.00078965546700676269 0.081491023123749784 0 0.0012068934645729835 0.081128828303356076 0 0.00092103488590284234 0.082976191005322608 0 0.00078965546700676269 0.081491023123749784 0 0.0012068934645729835 0.081128828303356076 0 0.0006148965961602829 0.079877849962910488 0 0.00084956140425479 0.082998193946081447 0 0.00099671073667056596 0.083338092360169869 0 0.00043656261497201422 0.083477408879125886 0 0.00084956140425479 0.082998193946081447 0 0.0011410220648112514 0.082974512188572949 0 0.00099671073667056596 0.083338092360169869 0 0.0012068934645729835 0.081128828303356076 0 0.0015167422989417428 0.07806218034740442 0 0.0040977184104444616 0.077223225119045544 0 -0.00046557319336265135 0.07877140065050614 0 0.00055904028337447418 0.072752231944786902 0 0.00084956140425479 0.082998193946081447 0 0.0011410220648112514 0.082974512188572949 0 0.0013766378227013916 0.082486118392064309 0 0.0012068934645729835 0.081128828303356076 0 0.0006148965961602829 0.079877849962910488 0 0.0015167422989417428 0.07806218034740442 0 0.0006148965961602829 0.079877849962910488 0 0.0015167422989417428 0.07806218034740442 0 0.00045206626375171794 0.076515100621719859 0 0.0015167422989417428 0.07806218034740442 0 0.00092587771303094849 0.074633316310422609 0 0.0040977184104444616 0.077223225119045544 0 0.0006148965961602829 0.079877849962910488 0 -0.001280405556491525 0.073636971747535931 0 0.00045206626375171794 0.076515100621719859 0 0.0006148965961602829 0.079877849962910488 0 0.0010607485567884231 0.080881664363551362 0 0.0017772439891305411 0.080416192818472731 0 0.00082152995453312701 0.078164545811615763 0 0.00041245063202270855 0.077156995548426394 0 0.00078965546700676269 0.081491023123749784 0 0.0006148965961602829 0.079877849962910488 0 0.0010607485567884231 0.080881664363551362 0 -0.001280405556491525 0.073636971747535931 0 0.00092587771303094849 0.074633316310422609 0 -0.00055784724813886946 0.072816404293837123 0 -0.001280405556491525 0.073636971747535931 0 0.00045206626375171794 0.076515100621719859 0 0.00092587771303094849 0.074633316310422609 0 0.0015167422989417428 0.07806218034740442 0 0.00045206626375171794 0.076515100621719859 0 0.00092587771303094849 0.074633316310422609 0 0.00092587771303094849 0.074633316310422609 0 0.00044481539575706876 0.071559951014976128 0 0.003184014974506314 0.072921067656341404 0 0.00092587771303094849 0.074633316310422609 0 0.00044481539575706876 0.071559951014976128 0 -0.00055784724813886946 0.072816404293837123 0 0.00044481539575706876 0.071559951014976128 0 -3.1068213620031923e-06 0.071640302152873661 0 8.2232191127436443e-06 0.067354153837396305 0 0.00044481539575706876 0.071559951014976128 0 -3.1068213620031923e-06 0.071640302152873661 0 -0.00055784724813886946 0.072816404293837123 0 9.0035701671533888e-08 0.075923446731527275 0 -0.001280405556491525 0.073636971747535931 0 -0.00055784724813886946 0.072816404293837123 0 9.0035701671533888e-08 0.075923446731527275 0 -3.1068213620031923e-06 0.071640302152873661 0 -0.00055784724813886946 0.072816404293837123 0 -0.00034738043925895435 0.065028015003636711 0 3.6571659415144113e-07 0.067339837986267206 0 -3.3297907472744601e-07 0.062662225009374295 0 -0.00034738043925895435 0.065028015003636711 0 -0.00015778110294596519 0.064802107209436299 0 -8.0079451695514695e-05 0.064677703332508926 0 1.5478133277105812e-06 0.067352636568650884 0 0.00042476523840605701 0.069944109912130376 0 0.00044481539575706876 0.071559951014976128 0 8.2232191127436443e-06 0.067354153837396305 0 0.003184014974506314 0.072921067656341404 0 -0.00034738043925895435 0.065028015003636711 0 3.6571659415144113e-07 0.067339837986267206 0 0.00037510515968131042 0.065059832621921013 0 0.00042476523840605701 0.069944109912130376 0 0.00055904028337447418 0.072752231944786902 0 0.00092587771303094849 0.074633316310422609 0 0.003184014974506314 0.072921067656341404 0 0.0040977184104444616 0.077223225119045544 0 0.00037510515968131042 0.065059832621921013 0 -0.00015778110294596519 0.064802107209436299 0 0.000405728897654905 0.064340316587685478 0 0.001449029698031002 0.069800327710527035 0 0.00055904028337447418 0.072752231944786902 0 -0.00034738043925895435 0.065028015003636711 0 0.00037510515968131042 0.065059832621921013 0 -0.00015778110294596519 0.064802107209436299 0 -0.00070972603424845643 0.065487758212874309 0 -0.00016098139543669883 0.06559386719384247 0 -8.0079451695514695e-05 0.064677703332508926 0 0.001449029698031002 0.069800327710527035 0 0.0016572035787777619 0.068939327758343952 0 -0.00036504451271597837 0.065857171517517493 0 -1.2373735689613418e-05 0.066120529478594342 0 -0.00016098139543669883 0.06559386719384247 0 -0.00070972603424845643 0.065487758212874309 0 -0.00036504451271597837 0.065857171517517493 0 -0.00016098139543669883 0.06559386719384247 0 -0.00036504451271597837 0.065857171517517493 0 -0.00057567934594624794 0.066221570514572461 0 -1.2373735689613418e-05 0.066120529478594342 0 -0.00070972603424845643 0.065487758212874309 0 -0.00036504451271597837 0.065857171517517493 0 -0.00057567934594624794 0.066221570514572461 0 -0.00070972603424845643 0.065487758212874309 0 -0.00057567934594624794 0.066221570514572461 0 -0.0012679848544348206 0.06603537803953563 0 -0.00057567934594624794 0.066221570514572461 0 -0.00090725572383210389 0.066550360630689434 0 -0.00057988672648136091 0.066679117483787909 0 -0.00057567934594624794 0.066221570514572461 0 -0.00057988672648136091 0.066679117483787909 0 -8.1475972103555708e-05 0.066802840086158458 0 -0.00057567934594624794 0.066221570514572461 0 -8.1475972103555708e-05 0.066802840086158458 0 -1.2373735689613418e-05 0.066120529478594342 0 0.0011410220648112514 0.082974512188572949 0 0.0013766378227013916 0.082486118392064309 0 0.0013416786386569307 0.083052019458719192 0 -0.0012679848544348206 0.06603537803953563 0 -0.00090725572383210389 0.066550360630689434 0 -0.0013069898181842603 0.066913640863909232 0 0.00055904028337447418 0.072752231944786902 0 -0.00029789795168569009 0.073697551875935921 0 -0.00057567934594624794 0.066221570514572461 0 -0.0012679848544348206 0.06603537803953563 0 -0.00090725572383210389 0.066550360630689434 0 -0.00090725572383210389 0.066550360630689434 0 -0.0013069898181842603 0.066913640863909232 0 -0.0007728358344678629 0.066959002517458885 0 -0.0013069898181842603 0.066913640863909232 0 -0.0007728358344678629 0.066959002517458885 0 -0.001031275780757521 0.067351211081029858 0 0.0011410220648112514 0.082974512188572949 0 0.0013416786386569307 0.083052019458719192 0 0.00099671073667056596 0.083338092360169869 0 -0.00057988672648136091 0.066679117483787909 0 -0.00047546447392728597 0.06696324098936314 0 -8.1475972103555708e-05 0.066802840086158458 0 -0.00090725572383210389 0.066550360630689434 0 -0.00057988672648136091 0.066679117483787909 0 -0.0007728358344678629 0.066959002517458885 0 -0.00057988672648136091 0.066679117483787909 0 -0.0007728358344678629 0.066959002517458885 0 -0.00047546447392728597 0.06696324098936314 0 -0.0007728358344678629 0.066959002517458885 0 -0.00061092324755552087 0.067211058390968567 0 -0.00067130152074832544 0.067587916092411396 0 0.001294715512288831 0.066827351419560366 0 0.0014866776206643167 0.066760919654822559 0 -0.0007728358344678629 0.066959002517458885 0 -0.00061092324755552087 0.067211058390968567 0 -0.00047546447392728597 0.06696324098936314 0 -0.00047546447392728597 0.06696324098936314 0 -0.00027848002694530027 0.06720240244927167 0 -8.1475972103555708e-05 0.066802840086158458 0 -0.00061092324755552087 0.067211058390968567 0 -0.00047546447392728597 0.06696324098936314 0 -0.00027848002694530027 0.06720240244927167 0 0.0013528935602765246 0.062037414507095719 0 0.0011876830671034623 0.061542768492206724 0 -0.00061092324755552087 0.067211058390968567 0 -0.00026348589230605146 0.067510822427415337 0 -0.00067130152074832544 0.067587916092411396 0 -0.00061092324755552087 0.067211058390968567 0 -0.00027848002694530027 0.06720240244927167 0 -0.00023005896813755875 0.067544077024564581 0 -0.00027848002694530027 0.06720240244927167 0 -0.00023005896813755875 0.067544077024564581 0 -1.4237610018034607e-05 0.067506045825862865 0 0.0011876830671034623 0.061542768492206724 0 0.0014866776206643167 0.066760919654822559 0 -0.0007728358344678629 0.066959002517458885 0 -0.00067407776252158995 0.067706877111049155 0 -0.001031275780757521 0.067351211081029858 0 0.00099636828462689115 0.083692591405473069 0 0.00098225984058792118 0.083786156980876131 0 0.0009639212804191733 0.083751900992706754 0 0.0014866776206643167 0.066760919654822559 0 0.00098612960306133858 0.067816026013579028 0 -0.00017392486524396314 0.062166145967653047 0 -6.7318195707918629e-05 0.062281156572081123 0 -0.00014746147571533905 0.062432080691068426 0 -8.1574365179844336e-07 0.062131201002844062 0 -0.00017392486524396314 0.062166145967653047 0 -6.7318195707918629e-05 0.062281156572081123 0 -8.1574365179844336e-07 0.062131201002844062 0 -6.7318195707918629e-05 0.062281156572081123 0 9.5494870787940023e-05 0.062215018504791643 0 0.00095112468313144878 0.058147433153251209 0 0.00058714158166156495 0.058783488622585367 0 -6.7318195707918629e-05 0.062281156572081123 0 -5.6908021811691523e-05 0.062533137709682857 0 9.5494870787940023e-05 0.062215018504791643 0 -6.7318195707918629e-05 0.062281156572081123 0 -0.00014746147571533905 0.062432080691068426 0 -5.6908021811691523e-05 0.062533137709682857 0 0.00098225984058792118 0.083786156980876131 0 0.00095098777285596025 0.083834542546578905 0 0.0009639212804191733 0.083751900992706754 0 -0.00014746147571533905 0.062432080691068426 0 -0.00010478173734058946 0.062543582604596443 0 -0.00013241108721652025 0.062697116495738767 0 0.00098225984058792118 0.083786156980876131 0 0.00095098777285596025 0.083834542546578905 0 0.00091331323039473466 0.08381078395072443 0 0.00098612960306133858 0.067816026013579028 0 0.00016662162498245648 0.064379966512639872 0 -0.0017475605050695079 0.047649158142845961 0 -0.0017040715998564923 0.047490667202114867 0 -0.0018983174355487124 0.047681492137581813 0 0.00093345317219611923 0.058162255098671838 0 0.00095112468313144878 0.058147433153251209 0 -0.00014746147571533905 0.062432080691068426 0 -0.00010478173734058946 0.062543582604596443 0 -5.6908021811691523e-05 0.062533137709682857 0 0.00095098777285596025 0.083834542546578905 0 0.00094682084749122316 0.083782576856504531 0 0.00095199612069843918 0.083921892405523599 0 0.0009639212804191733 0.083751900992706754 0 0.00094682084749122316 0.083782576856504531 0 0.00092839446919172283 0.083714402748223254 0 0.00095098777285596025 0.083834542546578905 0 0.0009639212804191733 0.083751900992706754 0 0.00094682084749122316 0.083782576856504531 0 -0.0011412338892268299 0.074984068371554358 0 -0.0011640455083129525 0.072889865248604024 0 -0.00029789795168569009 0.073697551875935921 0 -0.0011640455083129525 0.072889865248604024 0 -0.0013069898181842603 0.066913640863909232 0 -0.0013672387137498058 0.067828137337393263 0 -0.001031275780757521 0.067351211081029858 0 0.0013416786386569307 0.083052019458719192 0 0.0012913078009148332 0.083568792287610605 0 0.00099671073667056596 0.083338092360169869 0 0.00099636828462689115 0.083692591405473069 0 0.0009639212804191733 0.083751900992706754 0 0.00092839446919172283 0.083714402748223254 0 0.0014866776206643167 0.066760919654822559 0 -0.0011640455083129525 0.072889865248604024 0 -0.00067407776252158995 0.067706877111049155 0 -0.0013672387137498058 0.067828137337393263 0 -0.001031275780757521 0.067351211081029858 0 0.00099671073667056596 0.083338092360169869 0 0.00080138935651485551 0.083656374909757136 0 0.00043656261497201422 0.083477408879125886 0 0.0012913078009148332 0.083568792287610605 0 0.00099671073667056596 0.083338092360169869 0 0.00080138935651485551 0.083656374909757136 0 0.00094682084749122316 0.083782576856504531 0 0.00095988522270376629 0.083641353749668551 0 0.00080138935651485551 0.083656374909757136 0 -0.0011640455083129525 0.072889865248604024 0 -0.00085847619700319918 0.074183621044764461 0 0.00080138935651485551 0.083656374909757136 0 0.00043656261497201422 0.083477408879125886 0 0.00045835174323847908 0.083855590084053411 0 0.00080138935651485551 0.083656374909757136 0 0.00045835174323847908 0.083855590084053411 0 0.00070308809845302876 0.083929566115782298 0 0.00045835174323847908 0.083855590084053411 0 0.00070308809845302876 0.083929566115782298 0 0.00045713185924397111 0.084141476395850567 0 0.00080138935651485551 0.083656374909757136 0 0.00070308809845302876 0.083929566115782298 0 0.00086032044747893263 0.083822808346810884 0 0.00094682084749122316 0.083782576856504531 0 0.00080138935651485551 0.083656374909757136 0 0.00086032044747893263 0.083822808346810884 0 0.00094682084749122316 0.083782576856504531 0 0.00086032044747893263 0.083822808346810884 0 0.00095199612069843918 0.083921892405523599 0 0.00070308809845302876 0.083929566115782298 0 0.00086032044747893263 0.083822808346810884 0 0.00095199612069843918 0.083921892405523599 0 0.00070308809845302876 0.083929566115782298 0 0.00095199612069843918 0.083921892405523599 0 0.0006924014182530015 0.084166311209250722 0 0.00070308809845302876 0.083929566115782298 0 0.0006924014182530015 0.084166311209250722 0 0.00045713185924397111 0.084141476395850567 0 0.0006924014182530015 0.084166311209250722 0 0.00045713185924397111 0.084141476395850567 0 0.00053170555751276701 0.084361138292417703 0 0.00053170555751276701 0.084361138292417703 0 0.00082967154876168142 0.08446904280724285 0 0.00048641877772186685 0.084602208243418575 0 0.00034945112318893461 0.084382792726803046 0 0.00053170555751276701 0.084361138292417703 0 0.00048641877772186685 0.084602208243418575 0 0.00034945112318893461 0.084382792726803046 0 0.00045713185924397111 0.084141476395850567 0 0.00053170555751276701 0.084361138292417703 0 0.00095199612069843918 0.083921892405523599 0 0.0006924014182530015 0.084166311209250722 0 0.00082967154876168142 0.08446904280724285 0 0.0006924014182530015 0.084166311209250722 0 0.00053170555751276701 0.084361138292417703 0 0.00082967154876168142 0.08446904280724285 0 0.00017755810900905227 0.083638290422012526 0 -2.4679184228288089e-06 0.083355064831920012 0 0.001068043659555535 0.083663241739223709 0 0.00085596171565162165 0.083686490207010522 0 0.00092358784832328512 0.083801756331564045 0 0.00095199612069843918 0.083921892405523599 0 0.001068043659555535 0.083663241739223709 0 0.00092358784832328512 0.083801756331564045 0 -0.00029478254879128937 0.061963255084484928 0 0.00016662162498245648 0.064379966512639872 0 -0.0009815892318647693 0.072778289938993435 0 0.00016662162498245648 0.064379966512639872 0 0.0012619530741317993 0.067728289691481355 0 0.00017398996119320081 0.068056622142729534 0 0.0010299836980244598 0.065759482089996407 0 0.00085596171565162165 0.083686490207010522 0 0.00091331323039473466 0.08381078395072443 0 0.00092358784832328512 0.083801756331564045 0 -0.0018077443929030207 0.047218876520234626 0 -0.0017040715998564923 0.047490667202114867 0 -0.0019216679696396702 0.047342710210506851 0 -0.00010478173734058946 0.062543582604596443 0 -6.2667779492752939e-05 0.062532648166377103 0 -0.00013241108721652025 0.062697116495738767 0 0.00095112468313144878 0.058147433153251209 0 0.00016662162498245648 0.064379966512639872 0 0.00095098777285596025 0.083834542546578905 0 0.00095199612069843918 0.083921892405523599 0 0.00092358784832328512 0.083801756331564045 0 0.00095098777285596025 0.083834542546578905 0 0.00091331323039473466 0.08381078395072443 0 0.00092358784832328512 0.083801756331564045 0 -0.00078489832420211786 0.045391374625197323 0 -0.0013191439044333345 0.044844796227119899 0 -0.0013593035215093531 0.045668632728534719 0 -0.00078489832420211786 0.045391374625197323 0 -0.0013191439044333345 0.044844796227119899 0 -0.00024588377983353826 0.044751583050405851 0 -0.0013191439044333345 0.044844796227119899 0 -0.00024588377983353826 0.044751583050405851 0 -0.0013895935888463939 0.04380845489587077 0 -0.0013191439044333345 0.044844796227119899 0 -0.0018466094325181332 0.044554582704895956 0 -0.0013994648068784447 0.043808463716388281 0 -0.00093464935074799463 0.049111917546504666 0 3.8363773502241782e-05 0.054473524897736172 0 -0.0018466094325181332 0.044554582704895956 0 -0.0022330028955334746 0.045565000864655772 0 -0.0023921501149361331 0.044014789760169419 0 -0.0017040715998564923 0.047490667202114867 0 -0.0019216679696396702 0.047342710210506851 0 -0.0018983174355487124 0.047681492137581813 0 -0.0013191439044333345 0.044844796227119899 0 -0.0022330028955334746 0.045565000864655772 0 -0.0013593035215093531 0.045668632728534719 0 -0.0013191439044333345 0.044844796227119899 0 -0.0018466094325181332 0.044554582704895956 0 -0.0022330028955334746 0.045565000864655772 0 -0.0022330028955334746 0.045565000864655772 0 -0.0016005357233153203 0.046412933603224904 0 -0.0013593035215093531 0.045668632728534719 0 -0.0022330028955334746 0.045565000864655772 0 -0.0016005357233153203 0.046412933603224904 0 -0.0018271450205418519 0.047126545773342396 0 -0.00093464935074799463 0.049111917546504666 0 -0.0011520361551002468 0.048093495778520505 0 -0.0018077443929030207 0.047218876520234626 0 -0.0019216679696396702 0.047342710210506851 0 -0.0018271450205418519 0.047126545773342396 0 -0.0016005357233153203 0.046412933603224904 0 -0.00090537622459285988 0.046216437462175235 0 -0.001559912287729203 0.047213134184391235 0 -0.00090537622459285988 0.046216437462175235 0 0.00015279109508513171 0.04680985193552293 0 -0.001559912287729203 0.047213134184391235 0 -0.0016005357233153203 0.046412933603224904 0 -0.0013593035215093531 0.045668632728534719 0 -0.00090537622459285988 0.046216437462175235 0 -0.00078489832420211786 0.045391374625197323 0 -0.0013593035215093531 0.045668632728534719 0 -0.00090537622459285988 0.046216437462175235 0 -0.00078489832420211786 0.045391374625197323 0 -0.00090537622459285988 0.046216437462175235 0 -0.00014179815251769387 0.045703475654875737 0 -0.00090537622459285988 0.046216437462175235 0 0.00015279109508513171 0.04680985193552293 0 -0.00014179815251769387 0.045703475654875737 0 0.00015279109508513171 0.04680985193552293 0 -0.00014179815251769387 0.045703475654875737 0 0.0011766444059524766 0.04557504947886544 0 0.0010328995252848121 0.053232040066349996 0 0.0019787757263150527 0.051867381301262262 0 0.0026511415222674473 0.046321799097049102 0 0.0036451226583866549 0.046085658868025327 0 0.0011740183477319446 0.049334264894459204 0 0.00015279109508513171 0.04680985193552293 0 0.0026511415222674473 0.046321799097049102 0 0.0011766444059524766 0.04557504947886544 0 0.0026511415222674473 0.046321799097049102 0 0.0026719688457681797 0.044536528783762123 0 0.0036451226583866549 0.046085658868025327 0 0.0026511415222674473 0.046321799097049102 0 0.0011766444059524766 0.04557504947886544 0 0.0026719688457681797 0.044536528783762123 0 0.0011766444059524766 0.04557504947886544 0 0.0026719688457681797 0.044536528783762123 0 0.0010140047766849303 0.043666677524178875 0 0.0026719688457681797 0.044536528783762123 0 0.0010140047766849303 0.043666677524178875 0 0.0019593524016925821 0.042547178442711428 0 0.0010140047766849303 0.043666677524178875 0 0.0019593524016925821 0.042547178442711428 0 0.00011841113663227086 0.042498378338764756 0 -0.00014179815251769387 0.045703475654875737 0 0.0011766444059524766 0.04557504947886544 0 -0.00024588377983353826 0.044751583050405851 0 -0.00078489832420211786 0.045391374625197323 0 -0.00014179815251769387 0.045703475654875737 0 -0.00024588377983353826 0.044751583050405851 0 0.0011766444059524766 0.04557504947886544 0 0.0010140047766849303 0.043666677524178875 0 -0.00077394559781641188 0.043484225338370736 0 -0.0014107660506470956 0.047840946332037143 0 -0.0017090901727463375 0.048346991526331679 0 0.0010140047766849303 0.043666677524178875 0 -0.00077394559781641188 0.043484225338370736 0 0.00011841113663227086 0.042498378338764756 0 0.00011841113663227086 0.042498378338764756 0 0.00074615005877279067 0.041167765506384804 0 -0.0025945093548803378 0.041810012262252755 0 0.0007881086173279478 0.047601437126976502 0 -0.00073972083596832747 0.051785825108448133 0 0.0019593524016925821 0.042547178442711428 0 0.00011841113663227086 0.042498378338764756 0 0.00074615005877279067 0.041167765506384804 0 0.0019593524016925821 0.042547178442711428 0 0.00074615005877279067 0.041167765506384804 0 0.003161425786551075 0.04085960610594682 0 0.0007881086173279478 0.047601437126976502 0 0.0013990065186959234 0.04568965342676562 0 0.00042127046289921539 0.04747787124338014 0 9.9431664695604192e-06 0.048011459549020342 0 -0.00030600511571572247 0.047621610955627204 0 0.00042127046289921539 0.04747787124338014 0 0.00090696829557427553 0.047624466840188208 0 0.00063377574697555427 0.048000859936302404 0 0.00042127046289921539 0.04747787124338014 0 0.00063377574697555427 0.048000859936302404 0 9.9431664695604192e-06 0.048011459549020342 0 0.00090696829557427553 0.047624466840188208 0 0.0012099580329943203 0.047908787136576293 0 0.00063377574697555427 0.048000859936302404 0 0.00090696829557427553 0.047624466840188208 0 0.0011192759326353039 0.047353822906741616 0 0.0012099580329943203 0.047908787136576293 0 -0.00073972083596832747 0.051785825108448133 0 0.00063059946005543713 0.05608544538817474 0 0.00063059946005543713 0.05608544538817474 0 0.0012135612488266341 0.054539230003876588 0 -0.00077394559781641188 0.043484225338370736 0 0.00011841113663227086 0.042498378338764756 0 -0.0025945093548803378 0.041810012262252755 0 0.00042127046289921539 0.04747787124338014 0 0.00090696829557427553 0.047624466840188208 0 0.0011192759326353039 0.047353822906741616 0 -0.00087619040849231419 0.049929085123753013 0 -0.00073972083596832747 0.051785825108448133 0 -0.0017090901727463375 0.048346991526331679 0 -0.00073972083596832747 0.051785825108448133 0 0.00027979302038459231 0.054419247983558211 0 -0.0001572311890791521 0.054519172370724518 0 -0.0002155673935634476 0.053983696216526197 0 3.8363773502241782e-05 0.054473524897736172 0 0.00058714158166156495 0.058783488622585367 0 0.0017492074704656192 0.057685904064873957 0 0.0021737923867834888 0.057592024540862589 0 0.0020990681133425176 0.056908699602341788 0 0.00095112468313144878 0.058147433153251209 0 3.8363773502241782e-05 0.054473524897736172 0 -0.0018466094325181332 0.044554582704895956 0 -0.0013994648068784447 0.043808463716388281 0 -0.0023921501149361331 0.044014789760169419 0 -0.00073972083596832747 0.051785825108448133 0 3.8363773502241782e-05 0.054473524897736172 0 -0.00073972083596832747 0.051785825108448133 0 0.00058714158166156495 0.058783488622585367 0 -0.00048218895145673532 0.056358578076101382 0 -0.00021312382645260374 0.056856503768128792 0 -0.00036564231598978843 0.057033875326701892 0 -1.1143297994205795e-05 0.056788517520700854 0 -0.00021312382645260374 0.056856503768128792 0 -8.1880086321815901e-07 0.056881887900180124 0 0.0011876830671034623 0.061542768492206724 0 0.00058714158166156495 0.058783488622585367 0 -0.0013237557002025255 0.060310303416141645 0 0.0014365954576630634 0.0627795449700356 0 0.0012715317690848329 0.061296011771478968 0 0.00058714158166156495 0.058783488622585367 0 0.00059115028865241786 0.059430460707214194 0 -0.00048218895145673532 0.056358578076101382 0 -1.1143297994205795e-05 0.056788517520700854 0 -0.00021312382645260374 0.056856503768128792 0 0.00063059946005543713 0.05608544538817474 0 0.00059532965598752452 0.060052583389873855 0 -0.00021312382645260374 0.056856503768128792 0 -0.00036564231598978843 0.057033875326701892 0 9.2588407227999221e-06 0.056970712854454583 0 0.0011876830671034623 0.061542768492206724 0 0.00059532965598752452 0.060052583389873855 0 -0.0013237557002025255 0.060310303416141645 0 0.0011146214240169813 0.059887404070427155 0 0.0012715317690848329 0.061296011771478968 0 0.00059532965598752452 0.060052583389873855 0 0.00059115028865241786 0.059430460707214194 0 -0.00021312382645260374 0.056856503768128792 0 9.2588407227999221e-06 0.056970712854454583 0 -8.1880086321815901e-07 0.056881887900180124 0 -0.00027848002694530027 0.06720240244927167 0 -1.4237610018034607e-05 0.067506045825862865 0 -8.1475972103555708e-05 0.066802840086158458 0 0.00059532965598752452 0.060052583389873855 0 0.00070158034694621876 0.062188239839111085 0 -1.9482006462619581e-05 0.067441696378801153 0 -8.1475972103555708e-05 0.066802840086158458 0 0.00040723754741469784 0.066546762441741222 0 0.00063059946005543713 0.05608544538817474 0 0.00089495552902401851 0.056892053233676326 0 0.0019292334116681532 0.05797226918865192 0 0.0016555317219053109 0.058021555459159831 0 0.0018728385022291458 0.0575184885697076 0 0.00059532965598752452 0.060052583389873855 0 0.00089495552902401851 0.056892053233676326 0 0.001326077864913892 0.047904832320413392 0 0.0011079136696945764 0.048233880361745363 0 0.001407439088457349 0.048505818816151208 0 0.0011079136696945764 0.048233880361745363 0 0.0009426005813729676 0.048546108791781062 0 0.00063377574697555427 0.048000859936302404 0 0.001326077864913892 0.047904832320413392 0 0.0011079136696945764 0.048233880361745363 0 0.00063377574697555427 0.048000859936302404 0 0.0011079136696945764 0.048233880361745363 0 0.0009426005813729676 0.048546108791781062 0 0.001407439088457349 0.048505818816151208 0 0.0009426005813729676 0.048546108791781062 0 0.0012611435920640774 0.048910048968225615 0 0.001407439088457349 0.048505818816151208 0 0.0009426005813729676 0.048546108791781062 0 0.0012611435920640774 0.048910048968225615 0 0.00088713224950947374 0.048965499614450861 0 0.00089495552902401851 0.056892053233676326 0 0.00061980008365433042 0.057843992991618548 0 0.0012611435920640774 0.048910048968225615 0 0.0013788864908530082 0.048577537060102045 0 0.0014722069114241488 0.049134367826015206 0 0.00040723754741469784 0.066546762441741222 0 -1.2373735689613418e-05 0.066120529478594342 0 0.00041703930412317826 0.065630420725327362 0 -8.1475972103555708e-05 0.066802840086158458 0 0.00040723754741469784 0.066546762441741222 0 -1.2373735689613418e-05 0.066120529478594342 0 0.001391550480596274 0.055051907683416196 0 0.00089495552902401851 0.056892053233676326 0 -1.2373735689613418e-05 0.066120529478594342 0 -0.00016098139543669883 0.06559386719384247 0 0.00041703930412317826 0.065630420725327362 0 0.0014722069114241488 0.049134367826015206 0 0.0010682174721508367 0.049315242062567474 0 0.001556112678361686 0.049763896155347175 0 -0.00016098139543669883 0.06559386719384247 0 0.00041703930412317826 0.065630420725327362 0 -8.0079451695514695e-05 0.064677703332508926 0 0.0012611435920640774 0.048910048968225615 0 0.0014722069114241488 0.049134367826015206 0 0.0010682174721508367 0.049315242062567474 0 0.0012611435920640774 0.048910048968225615 0 0.00088713224950947374 0.048965499614450861 0 0.0010682174721508367 0.049315242062567474 0 0.00088713224950947374 0.048965499614450861 0 0.0010682174721508367 0.049315242062567474 0 0.00062069745879115873 0.049323925081891026 0 0.0010682174721508367 0.049315242062567474 0 0.00094164269467399023 0.049820781548967602 0 0.00062069745879115873 0.049323925081891026 0 4.6199991397173168e-06 0.059195753179323143 0 -1.8603332281967575e-07 0.059182684227803789 0 -1.2156154400178989e-05 0.062304209812459474 0 0.0010682174721508367 0.049315242062567474 0 0.00094164269467399023 0.049820781548967602 0 0.001556112678361686 0.049763896155347175 0 -0.0012160586970416485 0.056850888314877182 0 0.00032677840995015093 0.059714724208026045 0 -1.8603332281967575e-07 0.059182684227803789 0 1.9278921133608808e-07 0.062651212123660496 0 -1.2156154400178989e-05 0.062304209812459474 0 0.00041703930412317826 0.065630420725327362 0 0.00030722414201391851 0.063800588409943307 0 -8.0079451695514695e-05 0.064677703332508926 0 0.00061980008365433042 0.057843992991618548 0 0.00032677840995015093 0.059714724208026045 0 -0.00034738043925895435 0.065028015003636711 0 -3.3297907472744601e-07 0.062662225009374295 0 0.00030722414201391851 0.063800588409943307 0 4.8130486683017752e-06 0.06263976126371068 0 0.00032677840995015093 0.059714724208026045 0 -0.00034738043925895435 0.065028015003636711 0 0.00030722414201391851 0.063800588409943307 0 -8.0079451695514695e-05 0.064677703332508926 0 -0.0042538253583048746 0.054926013553961386 0 -0.0026428016557627733 0.051495526539434212 0 0.00031901541487952285 0.049885544978843004 0 0.00062069745879115873 0.049323925081891026 0 -6.2911250956678218e-06 0.049235923414960941 0 4.5492606463681658e-06 0.054552623057176161 0 0.00066401089174289213 0.049424363396019348 0 -0.00017952311970055715 0.050866467548370077 0 4.5492606463681658e-06 0.054552623057176161 0 0.0013879668045369349 0.054405728611058177 0 0.00066401089174289213 0.049424363396019348 0 -2.6935053988264268e-06 0.054560532598648584 0 -0.0042538253583048746 0.054926013553961386 0 -0.0012160586970416485 0.056850888314877182 0 -0.0042538253583048746 0.054926013553961386 0 0.00094164269467399023 0.049820781548967602 0 0.00031901541487952285 0.049885544978843004 0 0.00062069745879115873 0.049323925081891026 0 4.6199991397173168e-06 0.059195753179323143 0 -1.8603332281967575e-07 0.059182684227803789 0 1.649051741785852e-07 0.055644428695018629 0 0.00088713224950947374 0.048965499614450861 0 0.00062069745879115873 0.049323925081891026 0 0.0005376736764295993 0.048729236691762337 0 0.00062069745879115873 0.049323925081891026 0 -6.2911250956678218e-06 0.049235923414960941 0 0.0005376736764295993 0.048729236691762337 0 -6.2911250956678218e-06 0.049235923414960941 0 0.00012908893552955117 0.048518686390866012 0 -0.0003020397507287566 0.048558729688017763 0 -6.2911250956678218e-06 0.049235923414960941 0 0.00012908893552955117 0.048518686390866012 0 0.0005376736764295993 0.048729236691762337 0 0.0009426005813729676 0.048546108791781062 0 0.00088713224950947374 0.048965499614450861 0 0.0005376736764295993 0.048729236691762337 0 0.0009426005813729676 0.048546108791781062 0 0.0005376736764295993 0.048729236691762337 0 0.00063377574697555427 0.048000859936302404 0 0.00012908893552955117 0.048518686390866012 0 0.0005376736764295993 0.048729236691762337 0 0.00063377574697555427 0.048000859936302404 0 0.00012908893552955117 0.048518686390866012 0 0.00063377574697555427 0.048000859936302404 0 9.9431664695604192e-06 0.048011459549020342 0 0.00012908893552955117 0.048518686390866012 0 9.9431664695604192e-06 0.048011459549020342 0 -0.0003020397507287566 0.048558729688017763 0 -0.0017692331703813571 0.04923371241478873 0 -0.0019383024405760731 0.049786482535735199 0 9.9431664695604192e-06 0.048011459549020342 0 -0.00050741525318961217 0.047846876996908948 0 -0.0003020397507287566 0.048558729688017763 0 -0.00050741525318961217 0.047846876996908948 0 -0.00065754416878518302 0.047855653648050181 0 -0.00066928426402322974 0.047817559246753454 0 -0.00050741525318961217 0.047846876996908948 0 -0.00071022141419855873 0.047913071675766097 0 -0.00065754416878518302 0.047855653648050181 0 -0.00050741525318961217 0.047846876996908948 0 -0.00071022141419855873 0.047913071675766097 0 -0.00013491972687834709 0.048052269214986933 0 -0.00071022141419855873 0.047913071675766097 0 -0.00013491972687834709 0.048052269214986933 0 -0.00045368921870486033 0.048946726329319942 0 -0.0026428016557627733 0.051495526539434212 0 -0.0019383024405760731 0.049786482535735199 0 0.00066401089174289213 0.049424363396019348 0 -0.00045368921870486033 0.048946726329319942 0 -0.00017952311970055715 0.050866467548370077 0 0.00066401089174289213 0.049424363396019348 0 -0.00013491972687834709 0.048052269214986933 0 -0.00045368921870486033 0.048946726329319942 0 -0.00071022141419855873 0.047913071675766097 0 -0.00045368921870486033 0.048946726329319942 0 -0.0007241649993514639 0.047761578027897052 0 -2.2855888436765913e-06 0.050321121196987471 0 -2.4108662490909035e-06 0.046081322529342009 0 -0.0007241649993514639 0.047761578027897052 0 -0.00045368921870486033 0.048946726329319942 0 -2.2855888436765913e-06 0.050321121196987471 0 -0.0007241649993514639 0.047761578027897052 0 -0.00045368921870486033 0.048946726329319942 0 -2.2855888436765913e-06 0.050321121196987471 0 -0.00017952311970055715 0.050866467548370077 0 4.5492606463681658e-06 0.054552623057176161 0 -2.2855888436765913e-06 0.050321121196987471 0 -0.00017952311970055715 0.050866467548370077 0 0.00085890424048936211 0.045852195809880841 0 4.7590074530060143e-06 0.041850522867562294 0 -0.00035822189030754214 0.045857398648464415 0 4.7590074530060143e-06 0.041850522867562294 0 -0.00035822189030754214 0.045857398648464415 0 -2.4108662490909035e-06 0.046081322529342009 0 -0.00035822189030754214 0.045857398648464415 0 -2.4108662490909035e-06 0.046081322529342009 0 -0.0007241649993514639 0.047761578027897052 0 -0.00035822189030754214 0.045857398648464415 0 -0.0007241649993514639 0.047761578027897052 0 -0.00054032823902648943 0.047463620049199892 0 -0.00071022141419855873 0.047913071675766097 0 -0.0007241649993514639 0.047761578027897052 0 -0.00054032823902648943 0.047463620049199892 0 0.00085890424048936211 0.045852195809880841 0 -0.00035822189030754214 0.045857398648464415 0 -0.00054032823902648943 0.047463620049199892 0 -0.00015402995235590345 0.047649144185106712 0 -0.00054032823902648943 0.047463620049199892 0 -0.00059137647773861485 0.047816972196233293 0 -0.00071022141419855873 0.047913071675766097 0 -0.00054032823902648943 0.047463620049199892 0 -0.00059137647773861485 0.047816972196233293 0 -0.00071022141419855873 0.047913071675766097 0 -0.00065754416878518302 0.047855653648050181 0 -0.00059137647773861485 0.047816972196233293 0 -0.00065754416878518302 0.047855653648050181 0 -0.00059137647773861485 0.047816972196233293 0 -0.00066928426402322974 0.047817559246753454 0 -0.00060111368878305123 0.045541467250413456 0 -0.00080952505263669813 0.046227659215898609 0 -0.00059137647773861485 0.047816972196233293 0 -0.00050274619422899594 0.047870542780304073 0 -0.00066928426402322974 0.047817559246753454 0 -0.00030725484976830284 0.047565918169269861 0 -0.00059137647773861485 0.047816972196233293 0 -0.00050274619422899594 0.047870542780304073 0 0.0033524688759859547 0.041247863546169265 0 0.0033756343053179191 0.040559023145273522 0 0.0037892098502164957 0.040867838671933429 0 0.0033756343053179191 0.040559023145273522 0 0.0037892098502164957 0.040867838671933429 0 0.0038816087778071654 0.040259042916407299 0 0.0037892098502164957 0.040867838671933429 0 0.0040901909361840422 0.041076286511760887 0 0.0038816087778071654 0.040259042916407299 0 0.0037892098502164957 0.040867838671933429 0 0.0040484609557685357 0.040981367314219669 0 0.0040901909361840422 0.041076286511760887 0 0.0013007026182651265 0.044161722469199298 0 0.0015364754496266331 0.044772473369531933 0 0.0033524688759859547 0.041247863546169265 0 0.0037892098502164957 0.040867838671933429 0 0.0040484609557685357 0.040981367314219669 0 -0.00050741525318961217 0.047846876996908948 0 -0.00066928426402322974 0.047817559246753454 0 -0.00030600511571572247 0.047621610955627204 0 0.0040484609557685357 0.040981367314219669 0 0.003161425786551075 0.04085960610594682 0 0.0040901909361840422 0.041076286511760887 0 0.0015364754496266331 0.044772473369531933 0 0.0013990065186959234 0.04568965342676562 0 9.9431664695604192e-06 0.048011459549020342 0 -0.00050741525318961217 0.047846876996908948 0 -0.00030600511571572247 0.047621610955627204 0 0.0019593524016925821 0.042547178442711428 0 0.003161425786551075 0.04085960610594682 0 0.0036051973985540319 0.042302338060204454 0 0.0032170597912043585 0.040803658852891132 0 0.003009869648615254 0.040804541550658949 0 0.003161425786551075 0.04085960610594682 0 0.0040901909361840422 0.041076286511760887 0 0.0036051973985540319 0.042302338060204454 0 0.0040901909361840422 0.041076286511760887 0 0.0046428160045934898 0.040435271060347368 0 0.0038816087778071654 0.040259042916407299 0 0.00094339855710368569 0.035721237857286876 0 0.00097775438350008147 0.035938573228556273 0 0.0012103952868666198 0.035764114607263815 0 0.003009869648615254 0.040804541550658949 0 0.0025572691938251279 0.038853578703483015 0 0.0026719688457681797 0.044536528783762123 0 0.0019593524016925821 0.042547178442711428 0 0.0059619159471935258 0.043282380295544223 0 0.003009869648615254 0.040804541550658949 0 0.0020724915476928157 0.041497236677564601 0 0.0029909166324738386 0.041212101768243151 0 0.003009869648615254 0.040804541550658949 0 0.0026719688457681797 0.044536528783762123 0 0.0059619159471935258 0.043282380295544223 0 0.0036451226583866549 0.046085658868025327 0 0.0007495253031952376 0.035943909709061014 0 0.00097775438350008147 0.035938573228556273 0 0.00076847020546472005 0.036155437333544746 0 0.00094339855710368569 0.035721237857286876 0 0.0007495253031952376 0.035943909709061014 0 0.00097775438350008147 0.035938573228556273 0 0.00097775438350008147 0.035938573228556273 0 0.0011508022013526768 0.035939037268404528 0 0.0012103952868666198 0.035764114607263815 0 0.00097775438350008147 0.035938573228556273 0 0.0011508022013526768 0.035939037268404528 0 0.0011273251791360027 0.036113270256369276 0 0.0011508022013526768 0.035939037268404528 0 0.0012877666799333697 0.035941041073515666 0 0.0011273251791360027 0.036113270256369276 0 0.0012877666799333697 0.035941041073515666 0 0.0014885715756677114 0.036059070947144022 0 0.0011273251791360027 0.036113270256369276 0 0.0011508022013526768 0.035939037268404528 0 0.0012877666799333697 0.035941041073515666 0 0.0012103952868666198 0.035764114607263815 0 0.0012877666799333697 0.035941041073515666 0 0.0014830393910986595 0.035809265539858304 0 0.0014885715756677114 0.036059070947144022 0 0.0023644980144751477 0.037271165703549304 0 0.0025572691938251279 0.038853578703483015 0 0.0033756343053179191 0.040559023145273522 0 0.0033167752515022727 0.040006864339728089 0 0.0038816087778071654 0.040259042916407299 0 0.0012877666799333697 0.035941041073515666 0 0.0014830393910986595 0.035809265539858304 0 0.0012103952868666198 0.035764114607263815 0 0.0012653408545619709 0.036178346147663694 0 0.0012060766748813753 0.036420922792571524 0 0.0010834871019133232 0.036340033405069673 0 0.0012653408545619709 0.036178346147663694 0 0.0012060766748813753 0.036420922792571524 0 0.0014336993713249162 0.036361565453191171 0 0.0014336993713249162 0.036361565453191171 0 0.0016596859354017055 0.036198079656732503 0 0.0015922509342171298 0.036460601787616266 0 0.0019256073879041315 0.036512177552450439 0 0.0016596859354017055 0.036198079656732503 0 0.0015922509342171298 0.036460601787616266 0 0.0012653408545619709 0.036178346147663694 0 0.0014336993713249162 0.036361565453191171 0 0.0016596859354017055 0.036198079656732503 0 0.0014611385078532261 0.035960121120064949 0 0.0016283397966052808 0.035816028028729359 0 0.0012653408545619709 0.036178346147663694 0 0.0016596859354017055 0.036198079656732503 0 0.0016974166508506134 0.035756519259554823 0 0.0016283397966052808 0.035816028028729359 0 0.0012025967143662623 0.035974062220449618 0 0.0012653408545619709 0.036178346147663694 0 0.0015481407973427133 0.035964771985263599 0 0.0011851216094341123 0.036024751299565033 0 0.0012025967143662623 0.035974062220449618 0 0.0010009893172985848 0.036032965258255709 0 0.00097775438350008147 0.035938573228556273 0 0.0011273251791360027 0.036113270256369276 0 0.00076847020546472005 0.036155437333544746 0 0.0012653408545619709 0.036178346147663694 0 0.0011851216094341123 0.036024751299565033 0 0.0010243786717089916 0.036212042793462275 0 0.0011851216094341123 0.036024751299565033 0 0.00076847020546472005 0.036155437333544746 0 0.0010243786717089916 0.036212042793462275 0 0.00076847020546472005 0.036155437333544746 0 0.00086160347860930514 0.036276215867661554 0 0.0010243786717089916 0.036212042793462275 0 0.00076847020546472005 0.036155437333544746 0 0.00086160347860930514 0.036276215867661554 0 0.00068286474535357317 0.036274478533630868 0 0.00086160347860930514 0.036276215867661554 0 0.00072888619659993727 0.036382204797712973 0 0.00068286474535357317 0.036274478533630868 0 0.00086160347860930514 0.036276215867661554 0 0.00084084377404387346 0.036407692176990344 0 0.0009668195678550663 0.036317654500695191 0 0.00084084377404387346 0.036407692176990344 0 0.00097626326989447862 0.036419670832418129 0 0.000923129079776036 0.03653366999675605 0 0.00084084377404387346 0.036407692176990344 0 0.0009668195678550663 0.036317654500695191 0 0.00097626326989447862 0.036419670832418129 0 0.00084084377404387346 0.036407692176990344 0 0.00077135470931965512 0.036454371616824126 0 0.0008121822421422502 0.036531419963756674 0 0.00086160347860930514 0.036276215867661554 0 0.00084084377404387346 0.036407692176990344 0 0.00072888619659993727 0.036382204797712973 0 0.00084084377404387346 0.036407692176990344 0 0.00077135470931965512 0.036454371616824126 0 0.00072888619659993727 0.036382204797712973 0 0.00077135470931965512 0.036454371616824126 0 0.00072888619659993727 0.036382204797712973 0 0.00070430783649557337 0.03649696168299589 0 0.0012653408545619709 0.036178346147663694 0 0.0010243786717089916 0.036212042793462275 0 0.0010834871019133232 0.036340033405069673 0 0.00086160347860930514 0.036276215867661554 0 0.0010243786717089916 0.036212042793462275 0 0.0009668195678550663 0.036317654500695191 0 0.0010243786717089916 0.036212042793462275 0 0.0009668195678550663 0.036317654500695191 0 0.0010834871019133232 0.036340033405069673 0 0.0009668195678550663 0.036317654500695191 0 0.00097626326989447862 0.036419670832418129 0 0.0010834871019133232 0.036340033405069673 0 0.00097626326989447862 0.036419670832418129 0 0.0010834871019133232 0.036340033405069673 0 0.0010668692781175923 0.036498081183402392 0 0.0012060766748813753 0.036420922792571524 0 0.0010834871019133232 0.036340033405069673 0 0.0010668692781175923 0.036498081183402392 0 0.0012060766748813753 0.036420922792571524 0 0.0010668692781175923 0.036498081183402392 0 0.0012219058258530321 0.036627106448838799 0 0.0010668692781175923 0.036498081183402392 0 0.00099393854671381223 0.036643030427088948 0 0.000923129079776036 0.03653366999675605 0 0.00097626326989447862 0.036419670832418129 0 0.0010668692781175923 0.036498081183402392 0 0.000923129079776036 0.03653366999675605 0 0.00099393854671381223 0.036643030427088948 0 0.0011089512363881484 0.036773789633317566 0 0.0012219058258530321 0.036627106448838799 0 0.0010668692781175923 0.036498081183402392 0 0.00099393854671381223 0.036643030427088948 0 0.0012219058258530321 0.036627106448838799 0 0.00075147574752158634 0.036578817229262324 0 0.00070430783649557337 0.03649696168299589 0 0.00065707329247848445 0.036621442377118854 0 0.00075147574752158634 0.036578817229262324 0 0.00070430783649557337 0.03649696168299589 0 0.0008121822421422502 0.036531419963756674 0 0.00077135470931965512 0.036454371616824126 0 0.00070430783649557337 0.03649696168299589 0 0.0008121822421422502 0.036531419963756674 0 0.00075147574752158634 0.036578817229262324 0 0.0008121822421422502 0.036531419963756674 0 0.00079858782048304144 0.036626506063054842 0 0.0008121822421422502 0.036531419963756674 0 0.000923129079776036 0.03653366999675605 0 0.00079858782048304144 0.036626506063054842 0 0.00084084377404387346 0.036407692176990344 0 0.0008121822421422502 0.036531419963756674 0 0.000923129079776036 0.03653366999675605 0 0.00099393854671381223 0.036643030427088948 0 0.00079858782048304144 0.036626506063054842 0 0.00083055540238051678 0.036806143533977993 0 0.00099393854671381223 0.036643030427088948 0 0.000923129079776036 0.03653366999675605 0 0.00079858782048304144 0.036626506063054842 0 0.00075147574752158634 0.036578817229262324 0 0.00079858782048304144 0.036626506063054842 0 0.00065707329247848445 0.036621442377118854 0 0.00079858782048304144 0.036626506063054842 0 0.00083055540238051678 0.036806143533977993 0 0.00062559708344549377 0.036663081881703745 0 -0.00076452075703004475 0.056292441807302196 0 -0.0010614719197594752 0.05649294507362089 0 -0.0010831644233584286 0.056062421768024825 0 -0.00076452075703004475 0.056292441807302196 0 -0.00042700296938256999 0.056513692336873055 0 -0.00082979224438201645 0.056750232326159424 0 -0.00076452075703004475 0.056292441807302196 0 -0.00082979224438201645 0.056750232326159424 0 -0.0010614719197594752 0.05649294507362089 0 -0.00073761889851169311 0.047155685496799986 0 0.00022362866002757255 0.04908495092919607 0 0.00099393854671381223 0.036643030427088948 0 0.00083055540238051678 0.036806143533977993 0 0.0011089512363881484 0.036773789633317566 0 0.00083055540238051678 0.036806143533977993 0 0.0011089512363881484 0.036773789633317566 0 0.0010468230426995721 0.036958726216480678 0 -0.00073761889851169311 0.047155685496799986 0 -0.0021020580200640016 0.045228832075979483 0 -0.0021020580200640016 0.045228832075979483 0 -0.0012323775523399932 0.03750907540110502 0 0.0011089512363881484 0.036773789633317566 0 0.0010468230426995721 0.036958726216480678 0 0.0012788792347587499 0.036823382027416821 0 -0.002200378477543681 0.040813407186999495 0 -0.0027580477834761663 0.041103228846605507 0 -0.002594930736209599 0.04047441720708389 0 0.0012788792347587499 0.036823382027416821 0 0.0012219058258530321 0.036627106448838799 0 0.0015199947523519084 0.036682726354229145 0 -0.0016391951810886952 0.040518150425630256 0 -0.002200378477543681 0.040813407186999495 0 -0.002143845355957684 0.040169952106480299 0 -0.0012323775523399932 0.03750907540110502 0 -0.00056893887661354126 0.029519950412615511 0 0.0011089512363881484 0.036773789633317566 0 0.0012788792347587499 0.036823382027416821 0 0.0012219058258530321 0.036627106448838799 0 0.0012219058258530321 0.036627106448838799 0 0.0014089070755932255 0.036517311869483635 0 0.0015199947523519084 0.036682726354229145 0 0.0012060766748813753 0.036420922792571524 0 0.0014336993713249162 0.036361565453191171 0 0.0014089070755932255 0.036517311869483635 0 0.0012060766748813753 0.036420922792571524 0 0.0012219058258530321 0.036627106448838799 0 0.0014089070755932255 0.036517311869483635 0 0.0019256073879041315 0.036512177552450439 0 0.0015922509342171298 0.036460601787616266 0 0.0015456629266156856 0.036711642923397764 0 -0.0013000756716387621 0.024085766551995014 0 -0.00056893887661354126 0.029519950412615511 0 0.0014336993713249162 0.036361565453191171 0 0.0014089070755932255 0.036517311869483635 0 0.0015922509342171298 0.036460601787616266 0 0.0014089070755932255 0.036517311869483635 0 0.0015922509342171298 0.036460601787616266 0 0.0015456629266156856 0.036711642923397764 0 0.00014770012086771253 0.030808906922105108 0 -0.00056893887661354126 0.029519950412615511 0 -0.0044495205258185946 0.030267126007799516 0 -0.00056893887661354126 0.029519950412615511 0 -0.0032202944861814964 0.040453198320216675 0 -0.0027580477834761663 0.041103228846605507 0 -0.002594930736209599 0.04047441720708389 0 -0.0034929233782010198 0.0081257892156318869 0 -0.0023348538557919269 0.0051313470151573047 0 0.00038493472269193751 0.0090646263899176113 0 -0.0032202944861814964 0.040453198320216675 0 -0.002594930736209599 0.04047441720708389 0 -0.002650636044648796 0.039825160884830735 0 -0.00046921877201049322 0.056748431757432653 0 -0.00033872622713103769 0.056821454814063761 0 -0.00058454907072752222 0.056863297860423136 0 -0.002594930736209599 0.04047441720708389 0 -0.002143845355957684 0.040169952106480299 0 -0.002650636044648796 0.039825160884830735 0 -0.002200378477543681 0.040813407186999495 0 -0.002594930736209599 0.04047441720708389 0 -0.002143845355957684 0.040169952106480299 0 -0.0020312666580353739 0.047474465179395353 0 -0.0027628438173518685 0.049073750542014051 0 -0.0034198620366399477 0.073302147794444689 0 -0.0025332268036169169 0.071824092331839992 0 -0.0015704716484482802 0.072950444138922321 0 -0.0027628438173518685 0.049073750542014051 0 -0.0014530680150386225 0.050588041467287653 0 -0.00031473476703251248 0.056872909993281331 0 -0.00058454907072752222 0.056863297860423136 0 -0.00052368763018374286 0.05700831330027388 0 -0.00022893775734872027 0.056928637532673347 0 -0.00031473476703251248 0.056872909993281331 0 -0.00052368763018374286 0.05700831330027388 0 -0.0027733849432436245 0.052966548772590064 0 -0.0016892421281013677 0.060392551575392014 0 -0.0049293690272129518 0.039491958406045462 0 -0.0027628438173518685 0.049073750542014051 0 -0.0056089421099975575 0.044855708190343242 0 -0.0024542744526262353 0.044026471034086884 0 -0.0010857188816871931 0.044964222221993158 0 -0.0027733849432436245 0.052966548772590064 0 -0.0027628438173518685 0.049073750542014051 0 -0.0034198620366399477 0.073302147794444689 0 -0.0036451147405646878 0.072100924243468881 0 -0.0025332268036169169 0.071824092331839992 0 -0.0036451147405646878 0.072100924243468881 0 -0.0025332268036169169 0.071824092331839992 0 -0.003568234941394216 0.071029535646247283 0 -0.0025332268036169169 0.071824092331839992 0 -0.0010101743988760981 0.071416153981835012 0 -0.0015704716484482802 0.072950444138922321 0 0.00032421654912162583 0.069087943533334667 0 -0.00093360506996370129 0.069393542807558106 0 -0.0025332268036169169 0.071824092331839992 0 -0.0010101743988760981 0.071416153981835012 0 -0.0022454553809099116 0.070197075965131861 0 -0.0025332268036169169 0.071824092331839992 0 -0.003568234941394216 0.071029535646247283 0 -0.0022454553809099116 0.070197075965131861 0 0.00015792988887421971 0.0720907999606442 0 0.0023132085117310436 0.071647954716740112 0 0.00097571045289595378 0.070019747286746925 0 -0.0010101743988760981 0.071416153981835012 0 0.00022979633842729259 0.072618989421264865 0 -0.0015704716484482802 0.072950444138922321 0 0.00032421654912162583 0.069087943533334667 0 -0.00048467634652216645 0.06476646039750765 0 0.00015792988887421971 0.0720907999606442 0 0.0015849188943181283 0.073436680399811383 0 0.0023132085117310436 0.071647954716740112 0 -0.00090170335378243456 0.057151115994962455 0 -0.00058454907072752222 0.056863297860423136 0 -0.00082979224438201645 0.056750232326159424 0 -0.00090170335378243456 0.057151115994962455 0 -0.00058454907072752222 0.056863297860423136 0 -0.00052368763018374286 0.05700831330027388 0 -0.00048467634652216645 0.06476646039750765 0 -0.0016892421281013677 0.060392551575392014 0 -0.00061962687783920884 0.056629725260937895 0 -0.00058454907072752222 0.056863297860423136 0 -0.00082979224438201645 0.056750232326159424 0 -0.00061962687783920884 0.056629725260937895 0 -0.00046921877201049322 0.056748431757432653 0 -0.00058454907072752222 0.056863297860423136 0 -0.0021020580200640016 0.045228832075979483 0 -0.0020312666580353739 0.047474465179395353 0 -0.0021020580200640016 0.045228832075979483 0 -0.0029610756163190649 0.047210109513102283 0 -0.00082979224438201645 0.056750232326159424 0 -0.0012826033479911112 0.056917459112472708 0 -0.0010614719197594752 0.05649294507362089 0 -0.0012826033479911112 0.056917459112472708 0 -0.001433663297657343 0.056485798061571613 0 -0.0010614719197594752 0.05649294507362089 0 -0.0025949496465355365 0.062286173872706192 0 -0.0028270498722539165 0.058983646052949389 0 7.8125630424576381e-05 0.058888129671962886 0 -0.00039319218204081428 0.062056188668620428 0 -0.00066379587278328966 0.056555608607587862 0 -0.0012826033479911112 0.056917459112472708 0 -0.0019917631459431756 0.057086982287036889 0 -0.001433663297657343 0.056485798061571613 0 -0.0012826033479911112 0.056917459112472708 0 -0.0014805682526525343 0.057871402661645241 0 -0.0019917631459431756 0.057086982287036889 0 -0.0014805682526525343 0.057871402661645241 0 -0.0019917631459431756 0.057086982287036889 0 -0.0020948387950145194 0.05767046184904219 0 -0.00090170335378243456 0.057151115994962455 0 -0.00082979224438201645 0.056750232326159424 0 -0.0012826033479911112 0.056917459112472708 0 -0.00048467634652216645 0.06476646039750765 0 -0.0023099796149179705 0.061307409836852123 0 -0.00047200702865296318 0.057716950599754943 0 -0.0012826033479911112 0.056917459112472708 0 -0.0014805682526525343 0.057871402661645241 0 0.0015849188943181283 0.073436680399811383 0 0.0034537267858398379 0.073099836999568277 0 0.0023132085117310436 0.071647954716740112 0 -0.00048467634652216645 0.06476646039750765 0 0.00081606307463731164 0.067309077844006915 0 0.0034537267858398379 0.073099836999568277 0 0.0023132085117310436 0.071647954716740112 0 0.0043135553819814952 0.071349447438624924 0 0.0082281087511498329 0.076596642762834261 0 0.0096892252211774853 0.075808751886649817 0 0.0090876665678343484 0.077179652882592445 0 0.0082281087511498329 0.076596642762834261 0 0.0096892252211774853 0.075808751886649817 0 0.0082959521157882042 0.075133909868380117 0 0.0033848398646550682 0.072762349027002182 0 0.00093729385894563376 0.071001772951949607 0 0.0082281087511498329 0.076596642762834261 0 0.0060983805728328129 0.075747455870534955 0 0.0082959521157882042 0.075133909868380117 0 0.0082281087511498329 0.076596642762834261 0 0.0060983805728328129 0.075747455870534955 0 0.007693046329667684 0.07788632824455903 0 0.00081606307463731164 0.067309077844006915 0 0.00093729385894563376 0.071001772951949607 0 -0.0014805682526525343 0.057871402661645241 0 -0.002437065667219308 0.058059466870290309 0 -0.0020948387950145194 0.05767046184904219 0 0.0034537267858398379 0.073099836999568277 0 0.0043135553819814952 0.071349447438624924 0 0.0052915938300587611 0.072778017804840722 0 -0.002437065667219308 0.058059466870290309 0 -0.0025828841330044756 0.057857353212752108 0 -0.0020948387950145194 0.05767046184904219 0 0.00093729385894563376 0.071001772951949607 0 -1.9726002437563e-05 0.06963814063411794 0 0.00011906083591982414 0.070516259136430545 0 0.00048064154079877628 0.070061779228422272 0 0.00068973912162467678 0.071338047258290141 0 0.00035687044429823689 0.072486154039491532 0 7.6934637074861404e-05 0.072007338612535665 0 0.0011514600985935064 0.084077965448021624 0 0.0011646903415678755 0.083980191921707789 0 0.0011083967629146019 0.084035232902442303 0 -0.0018281509931555519 0.071632422639926918 0 -1.52530145307121e-06 0.074276833605940215 0 0.0027189057522190628 0.070862965610885509 0 -1.9726002437563e-05 0.06963814063411794 0 0.00035687044429823689 0.072486154039491532 0 0.0082281087511498329 0.076596642762834261 0 0.007693046329667684 0.07788632824455903 0 0.0086961671764185216 0.077688837319954698 0 0.0082281087511498329 0.076596642762834261 0 0.0086961671764185216 0.077688837319954698 0 0.0090876665678343484 0.077179652882592445 0 0.00093729385894563376 0.071001772951949607 0 0.00035687044429823689 0.072486154039491532 0 0.00035687044429823689 0.072486154039491532 0 0.00048842093882133972 0.072501219388147631 0 0.0011514600985935064 0.084077965448021624 0 0.0011083967629146019 0.084035232902442303 0 0.0010818731485241074 0.084056722799755262 0 0.0011646903415678755 0.083980191921707789 0 0.001110997357064521 0.084007537108475056 0 0.0011083967629146019 0.084035232902442303 0 -1.9726002437563e-05 0.06963814063411794 0 7.6934637074861404e-05 0.072007338612535665 0 0.0011825749697483745 0.083938107604309697 0 0.0011646903415678755 0.083980191921707789 0 0.001110997357064521 0.084007537108475056 0 0.00046342725998533467 0.072789518552883486 0 7.6934637074861404e-05 0.072007338612535665 0 -1.9726002437563e-05 0.06963814063411794 0 -0.00039319218204081428 0.062056188668620428 0 -0.0025828841330044756 0.057857353212752108 0 -0.0019917631459431756 0.057086982287036889 0 -0.0020948387950145194 0.05767046184904219 0 -0.0067945998786856114 0.063492654412039662 0 -0.0025949496465355365 0.062286173872706192 0 -0.0052405824822214404 0.060957527417071306 0 -0.0052788822732285651 0.065687586539822623 0 -0.0067945998786856114 0.063492654412039662 0 -0.0025949496465355365 0.062286173872706192 0 -0.0025949496465355365 0.062286173872706192 0 -0.0052405824822214404 0.060957527417071306 0 -0.0028270498722539165 0.058983646052949389 0 7.6934637074861404e-05 0.072007338612535665 0 -0.0010404712900367642 0.070584235182528016 0 -0.0067945998786856114 0.063492654412039662 0 -0.0052405824822214404 0.060957527417071306 0 -0.0073656224077623894 0.058900184215571569 0 0.0011825749697483745 0.083938107604309697 0 0.0012417307028158658 0.084074565492372938 0 0.0013302277802658266 0.083498611609776369 0 -0.0052405824822214404 0.060957527417071306 0 -0.0073656224077623894 0.058900184215571569 0 -0.0047561504857959718 0.056907556062166409 0 -0.0073656224077623894 0.058900184215571569 0 -0.0047561504857959718 0.056907556062166409 0 -0.0079193646464249343 0.054317159063940447 0 -0.0010404712900367642 0.070584235182528016 0 -0.00118235416771727 0.068102799833898428 0 -0.0053198507136126049 0.054178006023501854 0 -0.0047561504857959718 0.056907556062166409 0 -0.0079193646464249343 0.054317159063940447 0 -0.0053198507136126049 0.054178006023501854 0 -0.0061286779993127887 0.052277772173423442 0 -0.0079193646464249343 0.054317159063940447 0 -0.003475255923604596 0.054402905739420623 0 -0.0047561504857959718 0.056907556062166409 0 -0.001623919241246164 0.055884110604896939 0 -0.003475255923604596 0.054402905739420623 0 -0.001623919241246164 0.055884110604896939 0 -0.0020589256609736734 0.053584370744093973 0 -0.003475255923604596 0.054402905739420623 0 -0.0042563963415863573 0.052933723226250548 0 -0.0030428754780299759 0.053017781247895177 0 -0.003475255923604596 0.054402905739420623 0 -0.0020589256609736734 0.053584370744093973 0 -0.0030428754780299759 0.053017781247895177 0 -0.0053198507136126049 0.054178006023501854 0 -0.003475255923604596 0.054402905739420623 0 -0.0042563963415863573 0.052933723226250548 0 -0.0053198507136126049 0.054178006023501854 0 -0.003475255923604596 0.054402905739420623 0 -0.0047561504857959718 0.056907556062166409 0 -0.0028270498722539165 0.058983646052949389 0 -0.0047561504857959718 0.056907556062166409 0 -0.001623919241246164 0.055884110604896939 0 -0.0052405824822214404 0.060957527417071306 0 -0.0028270498722539165 0.058983646052949389 0 -0.0047561504857959718 0.056907556062166409 0 7.8125630424576381e-05 0.058888129671962886 0 0.0027593718635952383 0.055497337337867353 0 -0.001623919241246164 0.055884110604896939 0 -0.0028270498722539165 0.058983646052949389 0 7.8125630424576381e-05 0.058888129671962886 0 -0.001623919241246164 0.055884110604896939 0 -0.00066379587278328966 0.056555608607587862 0 0.00022362866002757255 0.04908495092919607 0 -0.001433663297657343 0.056485798061571613 0 -0.0010614719197594752 0.05649294507362089 0 -0.0010831644233584286 0.056062421768024825 0 0.00065707329247848445 0.036621442377118854 0 0.00062879438986749594 0.036661432792304063 0 0.00057883993838295797 0.036424776241020154 0 0.00062879438986749594 0.036661432792304063 0 0.00030992173785832159 0.036448259681485552 0 0.00057883993838295797 0.036424776241020154 0 0.00079858782048304144 0.036626506063054842 0 0.00065707329247848445 0.036621442377118854 0 0.00062559708344549377 0.036663081881703745 0 0.00030560568921656351 0.048930337740105252 0 0.00022362866002757255 0.04908495092919607 0 0.00070430783649557337 0.03649696168299589 0 0.00065707329247848445 0.036621442377118854 0 0.00057883993838295797 0.036424776241020154 0 0.00022362866002757255 0.04908495092919607 0 -0.0013645147017844737 0.045046442684994019 0 0.0027593718635952383 0.055497337337867353 0 -0.001623919241246164 0.055884110604896939 0 -0.0013354525805076378 0.052700373507454927 0 -0.001623919241246164 0.055884110604896939 0 -0.0020589256609736734 0.053584370744093973 0 -0.0013354525805076378 0.052700373507454927 0 0.00030992173785832159 0.036448259681485552 0 0.00057883993838295797 0.036424776241020154 0 0.00053437095859379109 0.03617444515998712 0 -0.0020589256609736734 0.053584370744093973 0 -0.0021189725888970199 0.052167284612103237 0 -0.0013427404863891952 0.052687679556475416 0 -0.0013972129958492834 0.052651777708735081 0 -0.0013627314950828643 0.050617751810058065 0 0.0011740183477319446 0.049334264894459204 0 -0.0013645147017844737 0.045046442684994019 0 0.00059545723842972049 0.042994469156590727 0 -0.001552713517207987 0.04539034768799164 0 -0.0013645147017844737 0.045046442684994019 0 -0.0012836616144747584 0.045174977360821052 0 -0.0013645147017844737 0.045046442684994019 0 -0.0021189725888970199 0.052167284612103237 0 -0.0013627314950828643 0.050617751810058065 0 -0.0028602429882549434 0.050886672546056708 0 -0.0021189725888970199 0.052167284612103237 0 -0.0013972129958492834 0.052651777708735081 0 -0.0013627314950828643 0.050617751810058065 0 0.00057883993838295797 0.036424776241020154 0 0.00068286474535357317 0.036274478533630868 0 0.00053437095859379109 0.03617444515998712 0 0.00072888619659993727 0.036382204797712973 0 0.00070430783649557337 0.03649696168299589 0 0.00057883993838295797 0.036424776241020154 0 0.00072888619659993727 0.036382204797712973 0 0.00057883993838295797 0.036424776241020154 0 0.00068286474535357317 0.036274478533630868 0 0.0007495253031952376 0.035943909709061014 0 0.00076847020546472005 0.036155437333544746 0 0.00053437095859379109 0.03617444515998712 0 0.00076847020546472005 0.036155437333544746 0 0.00068286474535357317 0.036274478533630868 0 0.00053437095859379109 0.03617444515998712 0 -0.00092225258814004213 0.0475072229820429 0 0.0026511415222674473 0.046321799097049102 0 0.0011740183477319446 0.049334264894459204 0 0.0020724915476928157 0.041497236677564601 0 0.00059545723842972049 0.042994469156590727 0 -0.0013627314950828643 0.050617751810058065 0 -0.00065239609917702506 0.049197837228256137 0 -0.0023505180119092915 0.04946945530695486 0 -0.0013627314950828643 0.050617751810058065 0 -0.0023505180119092915 0.04946945530695486 0 -0.0028602429882549434 0.050886672546056708 0 -0.0013627314950828643 0.050617751810058065 0 0.0011740183477319446 0.049334264894459204 0 -0.00065239609917702506 0.049197837228256137 0 -0.00092225258814004213 0.0475072229820429 0 0.0011740183477319446 0.049334264894459204 0 -0.00065239609917702506 0.049197837228256137 0 -0.00092225258814004213 0.0475072229820429 0 -0.00065239609917702506 0.049197837228256137 0 -0.0023505180119092915 0.04946945530695486 0 -0.00092225258814004213 0.0475072229820429 0 -0.0023505180119092915 0.04946945530695486 0 -0.0046496637269799754 0.048645618578266395 0 0.0010328995252848121 0.053232040066349996 0 -0.00016451270320879066 0.0572905351922482 0 -0.0023505180119092915 0.04946945530695486 0 -0.0038627547446930259 0.050005589068405715 0 -0.0028602429882549434 0.050886672546056708 0 -0.0023505180119092915 0.04946945530695486 0 -0.0038627547446930259 0.050005589068405715 0 -0.0046496637269799754 0.048645618578266395 0 -0.0048423101494753191 0.049967352730091605 0 -0.0038627547446930259 0.050005589068405715 0 -0.0044502636658371921 0.051153570030539698 0 -0.0048423101494753191 0.049967352730091605 0 -0.0038627547446930259 0.050005589068405715 0 -0.0046496637269799754 0.048645618578266395 0 -0.00016451270320879066 0.0572905351922482 0 -0.00021533220610781448 0.065137156272001659 0 -0.001559912287729203 0.047213134184391235 0 -0.0018271450205418519 0.047126545773342396 0 -0.0019950490249126158 0.047260954931327252 0 -0.0046496637269799754 0.048645618578266395 0 -0.0061402612658203954 0.050202551155092145 0 -0.0084530155688057607 0.049796115346513646 0 -0.0018077443929030207 0.047218876520234626 0 -0.0018271450205418519 0.047126545773342396 0 -0.0019950490249126158 0.047260954931327252 0 -0.0016005357233153203 0.046412933603224904 0 -0.001559912287729203 0.047213134184391235 0 -0.0018271450205418519 0.047126545773342396 0 -0.0048423101494753191 0.049967352730091605 0 -0.0061402612658203954 0.050202551155092145 0 -0.0044502636658371921 0.051153570030539698 0 -0.0048423101494753191 0.049967352730091605 0 -0.0046496637269799754 0.048645618578266395 0 -0.0061402612658203954 0.050202551155092145 0 -0.0061402612658203954 0.050202551155092145 0 -0.0061286779993127887 0.052277772173423442 0 -0.0044502636658371921 0.051153570030539698 0 -0.0061286779993127887 0.052277772173423442 0 -0.0084530155688057607 0.049796115346513646 0 -0.0079193646464249343 0.054317159063940447 0 -0.0061402612658203954 0.050202551155092145 0 -0.0061286779993127887 0.052277772173423442 0 -0.0084530155688057607 0.049796115346513646 0 -0.0053198507136126049 0.054178006023501854 0 -0.0061286779993127887 0.052277772173423442 0 -0.0042563963415863573 0.052933723226250548 0 -0.0061286779993127887 0.052277772173423442 0 -0.0042563963415863573 0.052933723226250548 0 -0.0044502636658371921 0.051153570030539698 0 -0.0042563963415863573 0.052933723226250548 0 -0.0032965894147560576 0.052005896459748749 0 -0.0044502636658371921 0.051153570030539698 0 -0.0042563963415863573 0.052933723226250548 0 -0.0030428754780299759 0.053017781247895177 0 -0.0032965894147560576 0.052005896459748749 0 -0.0020589256609736734 0.053584370744093973 0 -0.0021189725888970199 0.052167284612103237 0 -0.0030428754780299759 0.053017781247895177 0 -0.0021189725888970199 0.052167284612103237 0 -0.0030428754780299759 0.053017781247895177 0 -0.0032965894147560576 0.052005896459748749 0 -0.0032965894147560576 0.052005896459748749 0 -0.0028602429882549434 0.050886672546056708 0 -0.0044502636658371921 0.051153570030539698 0 -0.0021189725888970199 0.052167284612103237 0 -0.0032965894147560576 0.052005896459748749 0 -0.0028602429882549434 0.050886672546056708 0 -0.0038627547446930259 0.050005589068405715 0 -0.0028602429882549434 0.050886672546056708 0 -0.0044502636658371921 0.051153570030539698 0 -0.0013532594682531204 0.075983453205670612 0 -0.0013681669277414935 0.081186459464651237 0 0.00054249964096566368 0.082015414450181082 0 0.0012237908305925953 0.08178404499000734 0 0.0013151418858690963 0.082666971631607092 0 -0.00021533220610781448 0.065137156272001659 0 -0.00118235416771727 0.068102799833898428 0 0.0012619530741317993 0.067728289691481355 0 0.00017398996119320081 0.068056622142729534 0 0.0015004297614994997 0.069693172721169067 0 0.00017398996119320081 0.068056622142729534 0 -0.00067248332706809231 0.070351001548987727 0 0.0015004297614994997 0.069693172721169067 0 -0.0013532594682531204 0.075983453205670612 0 -0.00021533220610781448 0.065137156272001659 0 -0.00029478254879128937 0.061963255084484928 0 -0.00021533220610781448 0.065137156272001659 0 0.001068043659555535 0.083663241739223709 0 0.00085596171565162165 0.083686490207010522 0 0.00091661395320733505 0.083440130585240829 0 -0.0009815892318647693 0.072778289938993435 0 -0.0013532594682531204 0.075983453205670612 0 0.00082967154876168142 0.08446904280724285 0 0.00048641877772186685 0.084602208243418575 0 0.00070060486456876984 0.08482017720240119 0 0.001068043659555535 0.083663241739223709 0 0.00091661395320733505 0.083440130585240829 0 0.0011259314556661352 0.083372608708401463 0 -2.4679184228288089e-06 0.083355064831920012 0 -0.00047557570054285447 0.081487561582195903 0 0.00048641877772186685 0.084602208243418575 0 0.00070060486456876984 0.08482017720240119 0 0.00024449825198390044 0.084868976852708125 0 -0.00047557570054285447 0.081487561582195903 0 -0.00036268946128980661 0.082436494603753685 0 0.00017190180175063652 0.084141516352151252 0 -2.6866773124413264e-05 0.084219699920409716 0 8.8762621853457279e-05 0.084379397450579735 0 -0.0013532594682531204 0.075983453205670612 0 -0.00047557570054285447 0.081487561582195903 0 -2.6866773124413264e-05 0.084219699920409716 0 -4.0528300802319057e-05 0.084447601969245528 0 8.8762621853457279e-05 0.084379397450579735 0 -0.00047557570054285447 0.081487561582195903 0 -0.00050790117207801324 0.083580498716168003 0 -4.0528300802319057e-05 0.084447601969245528 0 -1.3389179127833602e-06 0.084528466097871263 0 8.8762621853457279e-05 0.084379397450579735 0 -3.0575257286913601e-05 0.084954614477000895 0 6.5265011107010978e-06 0.084769129914197883 0 0.00024449825198390044 0.084868976852708125 0 6.5265011107010978e-06 0.084769129914197883 0 0.00015182343013327206 0.084717648634436968 0 0.00024449825198390044 0.084868976852708125 0 6.5265011107010978e-06 0.084769129914197883 0 5.1975050210126756e-05 0.084516429096640824 0 0.00015182343013327206 0.084717648634436968 0 -0.00050790117207801324 0.083580498716168003 0 -0.00047238934640426896 0.083991118719828561 0 5.1975050210126756e-05 0.084516429096640824 0 0.00015861806531539349 0.084569831344579072 0 0.00015182343013327206 0.084717648634436968 0 0.00011799928613425493 0.08346277291371311 0 0.00050466892958436771 0.083268931250117764 0 0.00030683522984302188 0.082743999767894996 0 -4.0528300802319057e-05 0.084447601969245528 0 -1.3389179127833602e-06 0.084528466097871263 0 5.1975050210126756e-05 0.084516429096640824 0 -0.0010887607205616551 0.082895739876420446 0 -0.0013681669277414935 0.081186459464651237 0 0.00011799928613425493 0.08346277291371311 0 0.00050466892958436771 0.083268931250117764 0 0.00049141103084543111 0.083725650647171843 0 0.0007951303990859956 0.08344935821038893 0 0.00050466892958436771 0.083268931250117764 0 0.00049141103084543111 0.083725650647171843 0 0.0007951303990859956 0.08344935821038893 0 0.00050466892958436771 0.083268931250117764 0 0.00079988719971197742 0.082940748510531834 0 0.00054249964096566368 0.082015414450181082 0 0.00079988719971197742 0.082940748510531834 0 0.00030683522984302188 0.082743999767894996 0 0.00050466892958436771 0.083268931250117764 0 0.00079988719971197742 0.082940748510531834 0 0.00030683522984302188 0.082743999767894996 0 0.00054249964096566368 0.082015414450181082 0 0.00079988719971197742 0.082940748510531834 0 0.0013151418858690963 0.082666971631607092 0 0.0013302277802658266 0.083498611609776369 0 0.00079988719971197742 0.082940748510531834 0 0.0013151418858690963 0.082666971631607092 0 0.0013302277802658266 0.083498611609776369 0 0.0007951303990859956 0.08344935821038893 0 0.00079988719971197742 0.082940748510531834 0 0.0011825749697483745 0.083938107604309697 0 0.0013302277802658266 0.083498611609776369 0 0.001053816440339028 0.083736007329958173 0 0.0013302277802658266 0.083498611609776369 0 0.0007951303990859956 0.08344935821038893 0 0.001053816440339028 0.083736007329958173 0 0.0007951303990859956 0.08344935821038893 0 0.001053816440339028 0.083736007329958173 0 0.00077521245160919996 0.083746870928232131 0 0.001053816440339028 0.083736007329958173 0 0.0009500150432999112 0.083953092322197151 0 0.00077521245160919996 0.083746870928232131 0 0.0011825749697483745 0.083938107604309697 0 0.001053816440339028 0.083736007329958173 0 0.0009500150432999112 0.083953092322197151 0 0.0007951303990859956 0.08344935821038893 0 0.00049141103084543111 0.083725650647171843 0 0.00077521245160919996 0.083746870928232131 0 0.00049141103084543111 0.083725650647171843 0 0.00077521245160919996 0.083746870928232131 0 0.00053019058722020144 0.08407713683583648 0 0.0009500150432999112 0.083953092322197151 0 0.00077521245160919996 0.083746870928232131 0 0.00053019058722020144 0.08407713683583648 0 0.00049141103084543111 0.083725650647171843 0 0.00053019058722020144 0.08407713683583648 0 0.00030234234228944889 0.084086387869828624 0 0.00053019058722020144 0.08407713683583648 0 0.00039378531253600474 0.084257084108492156 0 0.00054471486579263861 0.084339095735781286 0 0.00053019058722020144 0.08407713683583648 0 0.00039378531253600474 0.084257084108492156 0 0.00030234234228944889 0.084086387869828624 0 0.00053019058722020144 0.08407713683583648 0 0.00067755233713877002 0.084197823142713374 0 0.00054471486579263861 0.084339095735781286 0 0.0009500150432999112 0.083953092322197151 0 0.00053019058722020144 0.08407713683583648 0 0.00067755233713877002 0.084197823142713374 0 0.00067755233713877002 0.084197823142713374 0 0.00071810556399778578 0.084400715416896782 0 0.00054471486579263861 0.084339095735781286 0 0.00039378531253600474 0.084257084108492156 0 0.00054471486579263861 0.084339095735781286 0 0.00036437635717868037 0.084427170435756885 0 0.0009500150432999112 0.083953092322197151 0 0.00067755233713877002 0.084197823142713374 0 0.00071810556399778578 0.084400715416896782 0 0.0009500150432999112 0.083953092322197151 0 0.0010180131000558786 0.084035234011915469 0 0.0010405871186630171 0.084008589975025166 0 0.0030623504506499416 0.082614787946502538 0 0.0034950875978075439 0.081768597693236397 0 0.0011825749697483745 0.083938107604309697 0 0.0009500150432999112 0.083953092322197151 0 0.0010405871186630171 0.084008589975025166 0 0.0011825749697483745 0.083938107604309697 0 0.0010405871186630171 0.084008589975025166 0 0.001110997357064521 0.084007537108475056 0 0.0010180131000558786 0.084035234011915469 0 0.0010540168252162708 0.084036806680431064 0 0.0010405871186630171 0.084008589975025166 0 0.0010540168252162708 0.084036806680431064 0 0.0010405871186630171 0.084008589975025166 0 0.001110997357064521 0.084007537108475056 0 0.0010540168252162708 0.084036806680431064 0 0.001110997357064521 0.084007537108475056 0 0.0011083967629146019 0.084035232902442303 0 0.00035687044429823689 0.072486154039491532 0 0.0051372562479445882 0.078180939624989579 0 0.0011514600985935064 0.084077965448021624 0 0.0010818731485241074 0.084056722799755262 0 0.0010570613815537059 0.084073920656390938 0 0.0011514600985935064 0.084077965448021624 0 0.0010570613815537059 0.084073920656390938 0 0.0010046445146482262 0.084098524307117048 0 0.0087293032550995464 0.077640697515785284 0 0.0090876665678343484 0.077179652882592445 0 0.011833101885365798 0.076974130113737174 0 0.0010540168252162708 0.084036806680431064 0 0.0011083967629146019 0.084035232902442303 0 0.0010818731485241074 0.084056722799755262 0 0.0010570613815537059 0.084073920656390938 0 0.0010392610424734285 0.084056667764835863 0 0.0010046445146482262 0.084098524307117048 0 0.0010180131000558786 0.084035234011915469 0 0.0010540168252162708 0.084036806680431064 0 0.0010392610424734285 0.084056667764835863 0 0.0010818731485241074 0.084056722799755262 0 0.0010570613815537059 0.084073920656390938 0 0.0010392610424734285 0.084056667764835863 0 0.0010540168252162708 0.084036806680431064 0 0.0010818731485241074 0.084056722799755262 0 0.0010392610424734285 0.084056667764835863 0 0.0010180131000558786 0.084035234011915469 0 0.0010392610424734285 0.084056667764835863 0 0.0010046445146482262 0.084098524307117048 0 0.00071810556399778578 0.084400715416896782 0 0.00063901650587962157 0.084454833607923246 0 0.000628695441981526 0.08455016529629579 0 0.00071810556399778578 0.084400715416896782 0 0.00054471486579263861 0.084339095735781286 0 0.00063901650587962157 0.084454833607923246 0 0.0034950875978075439 0.081768597693236397 0 0.0051372562479445882 0.078180939624989579 0 0.00054471486579263861 0.084339095735781286 0 0.00063901650587962157 0.084454833607923246 0 0.00047558749099276676 0.08445803659778589 0 0.00054471486579263861 0.084339095735781286 0 0.00047558749099276676 0.08445803659778589 0 0.00036437635717868037 0.084427170435756885 0 0.00047558749099276676 0.08445803659778589 0 0.00035535718166008004 0.084590113246844484 0 0.00036437635717868037 0.084427170435756885 0 0.00063901650587962157 0.084454833607923246 0 0.00047558749099276676 0.08445803659778589 0 0.00035535718166008004 0.084590113246844484 0 0.00063901650587962157 0.084454833607923246 0 0.000628695441981526 0.08455016529629579 0 0.00053816597940577226 0.084556383286106956 0 0.0032412884896200929 0.081297799050721584 0 0.0048814054928259867 0.079564233617480246 0 0.011833101885365798 0.076974130113737174 0 0.01090293493876371 0.075062434691917271 0 0.012343528955905547 0.074622735984660321 0 0.012786439269483935 0.071975891401816747 0 0.012608602520367638 0.072163481403295551 0 0.01274353479653116 0.072272535267035545 0 0.0051372562479445882 0.078180939624989579 0 0.0086788303903645152 0.074110902611933413 0 0.0051372562479445882 0.078180939624989579 0 0.0048814054928259867 0.079564233617480246 0 0.012786439269483935 0.071975891401816747 0 0.012608602520367638 0.072163481403295551 0 0.012634552042948045 0.071999607149654976 0 0.0096892252211774853 0.075808751886649817 0 0.011833101885365798 0.076974130113737174 0 0.01090293493876371 0.075062434691917271 0 0.0096892252211774853 0.075808751886649817 0 0.0090876665678343484 0.077179652882592445 0 0.011833101885365798 0.076974130113737174 0 0.0029197717810538482 0.080947296145480616 0 0.0021671220643579864 0.081689991378821783 0 0.0001672933059914248 0.084511618387263163 0 0.00013236283439735583 0.084443881883905572 0 0.00013717855106004553 0.084448862649064926 0 0.0041675574828349436 0.080680878156527983 0 0.0037455887514580566 0.08075236560289531 0 0.0041013377157483157 0.081104905912783076 0 0.0021671220643579864 0.081689991378821783 0 0.0052422188964034392 0.079893638461933772 0 0.0029197717810538482 0.080947296145480616 0 0.0048814054928259867 0.079564233617480246 0 0.0041675574828349436 0.080680878156527983 0 0.0045888338205031876 0.080609621401256493 0 0.0041013377157483157 0.081104905912783076 0 0.0048814054928259867 0.079564233617480246 0 0.0052422188964034392 0.079893638461933772 0 0.012608602520367638 0.072163481403295551 0 0.012634552042948045 0.071999607149654976 0 0.012299917342092964 0.072268050287995933 0 0.0001672933059914248 0.084511618387263163 0 0.00035535718166008004 0.084590113246844484 0 0.00020186658029067923 0.084458147720964979 0 0.00035535718166008004 0.084590113246844484 0 0.00036437635717868037 0.084427170435756885 0 0.00020186658029067923 0.084458147720964979 0 0.00036437635717868037 0.084427170435756885 0 0.00020186658029067923 0.084458147720964979 0 0.00020689871540440248 0.084345316253254143 0 0.00020186658029067923 0.084458147720964979 0 0.00013236283439735583 0.084443881883905572 0 0.00012305011574378531 0.08438738744885553 0 0.0001672933059914248 0.084511618387263163 0 0.00020186658029067923 0.084458147720964979 0 0.00013236283439735583 0.084443881883905572 0 0.00013236283439735583 0.084443881883905572 0 0.00012305011574378531 0.08438738744885553 0 0.00013399446678715677 0.08441903279127605 0 0.00012305011574378531 0.08438738744885553 0 0.0001136135006304097 0.084409297832112637 0 0.00013399446678715677 0.08441903279127605 0 0.00012305011574378531 0.08438738744885553 0 0.0001136135006304097 0.084409297832112637 0 5.2070684634879735e-05 0.084288865766802695 0 0.00039378531253600474 0.084257084108492156 0 0.00036437635717868037 0.084427170435756885 0 0.00020689871540440248 0.084345316253254143 0 0.00020186658029067923 0.084458147720964979 0 0.00012305011574378531 0.08438738744885553 0 0.00020689871540440248 0.084345316253254143 0 0.00012305011574378531 0.08438738744885553 0 0.00020689871540440248 0.084345316253254143 0 5.2070684634879735e-05 0.084288865766802695 0 0.00020689871540440248 0.084345316253254143 0 5.2070684634879735e-05 0.084288865766802695 0 0.00030234234228944889 0.084086387869828624 0 0.00039378531253600474 0.084257084108492156 0 0.00020689871540440248 0.084345316253254143 0 0.00030234234228944889 0.084086387869828624 0 0.00011799928613425493 0.08346277291371311 0 5.2070684634879735e-05 0.084288865766802695 0 0.00030234234228944889 0.084086387869828624 0 -1.3389179127833602e-06 0.084528466097871263 0 5.2070684634879735e-05 0.084288865766802695 0 5.1975050210126756e-05 0.084516429096640824 0 -0.0010887607205616551 0.082895739876420446 0 -0.00097852245938568109 0.083338411163170256 0 0.00011799928613425493 0.08346277291371311 0 0.00049141103084543111 0.083725650647171843 0 0.00030234234228944889 0.084086387869828624 0 0.0001136135006304097 0.084409297832112637 0 5.1975050210126756e-05 0.084516429096640824 0 0.00015861806531539349 0.084569831344579072 0 0.0001136135006304097 0.084409297832112637 0 5.2070684634879735e-05 0.084288865766802695 0 5.1975050210126756e-05 0.084516429096640824 0 0.0001136135006304097 0.084409297832112637 0 0.00015861806531539349 0.084569831344579072 0 0.0001862381325292255 0.084467843993449823 0 0.00010753023085479526 0.084711226448462212 0 0.0001336505746418883 0.084736028480116229 0 0.00015861806531539349 0.084569831344579072 0 0.00022462729940209839 0.084503880163313158 0 0.0001862381325292255 0.084467843993449823 0 0.00015861806531539349 0.084569831344579072 0 0.00016484067631735051 0.084842836669579771 0 0.00019105097969220722 0.084812021149670888 0 0.00022462729940209839 0.084503880163313158 0 0.0001862381325292255 0.084467843993449823 0 0.00024042998360082097 0.084458392290735734 0 0.0001862381325292255 0.084467843993449823 0 0.00017513176190068314 0.08442091600601144 0 0.00024042998360082097 0.084458392290735734 0 0.0001862381325292255 0.084467843993449823 0 0.00013399446678715677 0.08441903279127605 0 0.00017513176190068314 0.08442091600601144 0 0.0001136135006304097 0.084409297832112637 0 0.0001862381325292255 0.084467843993449823 0 0.00013399446678715677 0.08441903279127605 0 0.00013236283439735583 0.084443881883905572 0 0.00013399446678715677 0.08441903279127605 0 0.00017513176190068314 0.08442091600601144 0 0.00013236283439735583 0.084443881883905572 0 0.00017513176190068314 0.08442091600601144 0 0.00013717855106004553 0.084448862649064926 0 0.00126510544018776 0.083309805138874399 0 0.0021671220643579864 0.081689991378821783 0 0.00126510544018776 0.083309805138874399 0 0.00063460530082897002 0.084177289177981146 0 -4.2236909880479283e-06 0.084984479263143439 0 -2.4300227084884054e-06 0.084975386751919887 0 -5.0281111426078937e-06 0.084970771229149436 0 -4.2236909880479283e-06 0.084984479263143439 0 -2.4300227084884054e-06 0.084975386751919887 0 -9.6634219884516687e-07 0.084991243976562977 0 0.00092868847274219055 0.08238423128186402 0 0.0021671220643579864 0.081689991378821783 0 -2.4300227084884054e-06 0.084975386751919887 0 2.0158666239576507e-05 0.084948978241944209 0 1.203922386614843e-05 0.084965874315455867 0 3.3867766887081579e-08 0.085000031581510996 0 -9.6634219884516687e-07 0.084991243976562977 0 -5.7939964691694893e-06 0.084988679089586155 0 3.3867766887081579e-08 0.085000031581510996 0 -9.6634219884516687e-07 0.084991243976562977 0 -8.858721534111652e-09 0.084999977223332718 0 -2.4300227084884054e-06 0.084975386751919887 0 -9.6634219884516687e-07 0.084991243976562977 0 -5.7939964691694893e-06 0.084988679089586155 0 -4.2236909880479283e-06 0.084984479263143439 0 -9.6634219884516687e-07 0.084991243976562977 0 -1.8244327569588545e-06 0.084995282825873986 0 -9.6634219884516687e-07 0.084991243976562977 0 -8.858721534111652e-09 0.084999977223332718 0 -6.2985363071363609e-08 0.0849979588789678 0 -8.858721534111652e-09 0.084999977223332718 0 -6.2985363071363609e-08 0.0849979588789678 0 5.4651157216652542e-09 0.085000007411219269 0 -9.6634219884516687e-07 0.084991243976562977 0 -6.2985363071363609e-08 0.0849979588789678 0 -1.8244327569588545e-06 0.084995282825873986 0 -6.2985363071363609e-08 0.0849979588789678 0 -1.8244327569588545e-06 0.084995282825873986 0 -1.7101134750123623e-07 0.084999521499510455 0 0.00063460530082897002 0.084177289177981146 0 0.00017675486925877975 0.084793595442471822 0 0.0001336505746418883 0.084736028480116229 0 0.00017675486925877975 0.084793595442471822 0 0.00016484067631735051 0.084842836669579771 0 5.9803081910516066e-05 0.084975360121733692 0 6.6992480518846635e-05 0.084944403752225742 0 0.00022462729940209839 0.084503880163313158 0 0.00024042998360082097 0.084458392290735734 0 0.00028114142727969459 0.084498918033358378 0 3.5048713312339405e-07 0.084999105454579685 0 0.00017675486925877975 0.084793595442471822 0 -6.2985363071363609e-08 0.0849979588789678 0 5.4651157216652542e-09 0.085000007411219269 0 -1.7101134750123623e-07 0.084999521499510455 0 5.9803081910516066e-05 0.084975360121733692 0 5.136531283565667e-08 0.0849998664430347 0 6.6992480518846635e-05 0.084944403752225742 0 3.7061545482769738e-10 0.084999999472178359 0 3.4012226991135841e-07 0.084999661058348011 0 -9.7942458771132234e-11 0.08499999989033466 0 0.00017675486925877975 0.084793595442471822 0 5.6557577197893591e-07 0.084999377406580909 0 6.6992480518846635e-05 0.084944403752225742 0 8.2836036410653762e-08 0.085000012222928842 0 0.00010153389035922402 0.0849040702015261 0 5.136531283565667e-08 0.0849998664430347 0 6.6992480518846635e-05 0.084944403752225742 0 8.2836036410653762e-08 0.085000012222928842 0 8.2836036410653762e-08 0.085000012222928842 0 5.4863938607137556e-05 0.08490814495665 0 0.00010153389035922402 0.0849040702015261 0 8.2836036410653762e-08 0.085000012222928842 0 5.4863938607137556e-05 0.08490814495665 0 -2.2387285477999988e-07 0.084999528016518125 0 5.4863938607137556e-05 0.08490814495665 0 0.00010153389035922402 0.0849040702015261 0 0.00014395433544856298 0.084867510007792385 0 5.4863938607137556e-05 0.08490814495665 0 0.00014395433544856298 0.084867510007792385 0 0.00012784944862872914 0.084810503054152844 0 0.00016484067631735051 0.084842836669579771 0 6.6992480518846635e-05 0.084944403752225742 0 0.00010153389035922402 0.0849040702015261 0 0.00016484067631735051 0.084842836669579771 0 0.00010153389035922402 0.0849040702015261 0 0.00019105097969220722 0.084812021149670888 0 0.00015861806531539349 0.084569831344579072 0 0.00019105097969220722 0.084812021149670888 0 0.00015182343013327206 0.084717648634436968 0 0.00019105097969220722 0.084812021149670888 0 0.00015182343013327206 0.084717648634436968 0 0.00024449825198390044 0.084868976852708125 0 0.00019105097969220722 0.084812021149670888 0 0.00024449825198390044 0.084868976852708125 0 0.00014395433544856298 0.084867510007792385 0 0.00010153389035922402 0.0849040702015261 0 0.00019105097969220722 0.084812021149670888 0 0.00014395433544856298 0.084867510007792385 0 0.00012784944862872914 0.084810503054152844 0 0.00025604986543716096 0.084709732671059523 0 0.00015417642736547613 0.084668610380423281 0 0.00024449825198390044 0.084868976852708125 0 0.00012784944862872914 0.084810503054152844 0 0.00025604986543716096 0.084709732671059523 0 0.00024449825198390044 0.084868976852708125 0 0.00014395433544856298 0.084867510007792385 0 0.00012784944862872914 0.084810503054152844 0 0.00048641877772186685 0.084602208243418575 0 0.00024449825198390044 0.084868976852708125 0 0.00025604986543716096 0.084709732671059523 0 0.00048641877772186685 0.084602208243418575 0 0.00025604986543716096 0.084709732671059523 0 0.00023709260898965962 0.08455232361943997 0 8.8728820893235489e-05 0.084542564983076135 0 0.00023709260898965962 0.08455232361943997 0 0.00015417642736547613 0.084668610380423281 0 0.00025604986543716096 0.084709732671059523 0 0.00023709260898965962 0.08455232361943997 0 0.00015417642736547613 0.084668610380423281 0 5.5037793318983417e-05 0.084703123366326322 0 -7.9737512360907904e-05 0.084639149480947806 0 2.886244901559074e-05 0.084841662678419583 0 8.8728820893235489e-05 0.084542564983076135 0 0.00015417642736547613 0.084668610380423281 0 5.5037793318983417e-05 0.084703123366326322 0 6.8246438784588572e-06 0.084545015433345097 0 8.8728820893235489e-05 0.084542564983076135 0 5.5037793318983417e-05 0.084703123366326322 0 0.00012784944862872914 0.084810503054152844 0 0.00015417642736547613 0.084668610380423281 0 5.5037793318983417e-05 0.084703123366326322 0 6.8246438784588572e-06 0.084545015433345097 0 5.5037793318983417e-05 0.084703123366326322 0 -7.9737512360907904e-05 0.084639149480947806 0 -7.9737512360907904e-05 0.084639149480947806 0 -2.2387285477999988e-07 0.084999528016518125 0 2.886244901559074e-05 0.084841662678419583 0 -4.6014598483141748e-09 0.085000057280229011 0 -4.1386858874744596e-06 0.085003142431308437 0 3.612766526268209e-10 0.084999970659486335 0 1.3845359801171899e-05 0.084819840679092054 0 -3.2587147137506835e-08 0.084999737090990249 0 5.4863938607137556e-05 0.08490814495665 0 -2.2387285477999988e-07 0.084999528016518125 0 2.886244901559074e-05 0.084841662678419583 0 5.4863938607137556e-05 0.08490814495665 0 0.00012784944862872914 0.084810503054152844 0 2.886244901559074e-05 0.084841662678419583 0 0.00012784944862872914 0.084810503054152844 0 5.5037793318983417e-05 0.084703123366326322 0 2.886244901559074e-05 0.084841662678419583 0 1.0862494855224894e-05 0.084981762327110702 0 1.5540728591140911e-05 0.084975251879491662 0 1.6235320875553578e-05 0.084971246627986247 0 1.0862494855224894e-05 0.084981762327110702 0 1.5540728591140911e-05 0.084975251879491662 0 8.9069982681824209e-06 0.084986938441406229 0 1.5540728591140911e-05 0.084975251879491662 0 1.6235320875553578e-05 0.084971246627986247 0 2.2565695124953859e-05 0.084963423763838766 0 1.5540728591140911e-05 0.084975251879491662 0 2.2565695124953859e-05 0.084963423763838766 0 1.7375611641482242e-05 0.08497553487073807 0 1.5540728591140911e-05 0.084975251879491662 0 8.9069982681824209e-06 0.084986938441406229 0 1.7375611641482242e-05 0.08497553487073807 0 1.0862494855224894e-05 0.084981762327110702 0 8.9069982681824209e-06 0.084986938441406229 0 9.6482420758335735e-09 0.08499997247954888 0 8.9069982681824209e-06 0.084986938441406229 0 9.6482420758335735e-09 0.08499997247954888 0 1.0059948926176621e-08 0.084999971197231156 0 1.0862494855224894e-05 0.084981762327110702 0 9.6482420758335735e-09 0.08499997247954888 0 1.26131605126741e-05 0.08497556540857297 0 9.6482420758335735e-09 0.08499997247954888 0 1.26131605126741e-05 0.08497556540857297 0 6.6715716679072176e-06 0.084984200668108925 0 1.0862494855224894e-05 0.084981762327110702 0 1.26131605126741e-05 0.08497556540857297 0 1.6235320875553578e-05 0.084971246627986247 0 1.26131605126741e-05 0.08497556540857297 0 1.6235320875553578e-05 0.084971246627986247 0 1.8726583740127572e-05 0.084961290355249658 0 1.26131605126741e-05 0.08497556540857297 0 1.8726583740127572e-05 0.084961290355249658 0 1.595326301273732e-05 0.084962869613084302 0 1.8726583740127572e-05 0.084961290355249658 0 2.0727976899831258e-05 0.084950506204386947 0 1.7814250644402557e-05 0.084945090297423226 0 1.8726583740127572e-05 0.084961290355249658 0 2.0727976899831258e-05 0.084950506204386947 0 2.2565695124953859e-05 0.084963423763838766 0 1.6235320875553578e-05 0.084971246627986247 0 1.8726583740127572e-05 0.084961290355249658 0 2.2565695124953859e-05 0.084963423763838766 0 2.0727976899831258e-05 0.084950506204386947 0 1.3887401253977221e-05 0.084940244278517693 0 1.3032767751988135e-05 0.084928367190543502 0 2.0727976899831258e-05 0.084950506204386947 0 1.3032767751988135e-05 0.084928367190543502 0 1.7814250644402557e-05 0.084945090297423226 0 0.0052033017694810505 0.079475130024682442 0 0.0062797742981969698 0.076266900564272336 0 2.0727976899831258e-05 0.084950506204386947 0 2.6703651499305799e-05 0.08495625934923641 0 1.3887401253977221e-05 0.084940244278517693 0 0.0091813295206377293 0.074964514854432368 0 0.0087240874666378327 0.074738906432671642 0 0.0088347687944035948 0.074208856081586685 0 0.0096024611985144719 0.074624333885218455 0 0.0091813295206377293 0.074964514854432368 0 0.0088347687944035948 0.074208856081586685 0 0.0052033017694810505 0.079475130024682442 0 0.0085029571815421878 0.077230659352579542 0 0.0045705210205241606 0.080026462707436158 0 0.0052033017694810505 0.079475130024682442 0 2.0727976899831258e-05 0.084950506204386947 0 2.2565695124953859e-05 0.084963423763838766 0 2.6703651499305799e-05 0.08495625934923641 0 2.2565695124953859e-05 0.084963423763838766 0 2.745642117854037e-05 0.084959955998489864 0 1.7375611641482242e-05 0.08497553487073807 0 0.0096931578853668206 0.090202761436802947 0 0.0071625634796620924 0.087342592387936319 0 0.004516608279865191 0.087513523011131425 0 0.0052033017694810505 0.079475130024682442 0 0.0034758369303027007 0.082591343317494528 0 0.0087891126437829679 0.086716538209488686 0 0.011985549101551035 0.085035081473128799 0 0.0056512242643104501 0.084940636720987173 0 0.011985549101551035 0.085035081473128799 0 0.0088260239474352315 0.080780257622270424 0 0.0063312902310649864 0.085019422732485861 0 0.007027349006664187 0.084766836549691221 0 0.004974751422926145 0.08470517584699859 0 0.0071625634796620924 0.087342592387936319 0 0.0087891126437829679 0.086716538209488686 0 0.0056512242643104501 0.084940636720987173 0 0.0096931578853668206 0.090202761436802947 0 0.0071625634796620924 0.087342592387936319 0 0.0087891126437829679 0.086716538209488686 0 0.0096931578853668206 0.090202761436802947 0 0.0087891126437829679 0.086716538209488686 0 0.013775571122098658 0.086932060815942139 0 0.013775571122098658 0.086932060815942139 0 0.011985549101551035 0.085035081473128799 0 0.017935627364115501 0.083568985031402046 0 0.0087891126437829679 0.086716538209488686 0 0.013775571122098658 0.086932060815942139 0 0.011985549101551035 0.085035081473128799 0 0.0085029571815421878 0.077230659352579542 0 0.01121462297525983 0.074242983884896488 0 0.011985549101551035 0.085035081473128799 0 0.011420624164946531 0.075549318472227275 0 0.017935627364115501 0.083568985031402046 0 0.012273539316813175 0.075802900200676204 0 0.01121462297525983 0.074242983884896488 0 0.011420624164946531 0.075549318472227275 0 0.01206786557104199 0.074646085741472995 0 0.012188598015569145 0.074684973393474019 0 0.011985549101551035 0.085035081473128799 0 0.0088260239474352315 0.080780257622270424 0 0.011420624164946531 0.075549318472227275 0 0.0088260239474352315 0.080780257622270424 0 0.0061640844151587002 0.081211192752647821 0 0.0063312902310649864 0.085019422732485861 0 0.0088260239474352315 0.080780257622270424 0 0.0080149259513579915 0.077287323097473673 0 0.011420624164946531 0.075549318472227275 0 0.0088260239474352315 0.080780257622270424 0 0.0061640844151587002 0.081211192752647821 0 0.0080149259513579915 0.077287323097473673 0 0.0061640844151587002 0.081211192752647821 0 0.0041028111748413181 0.077276503937849558 0 0.0080149259513579915 0.077287323097473673 0 0.003415199878818523 0.082716983154062895 0 0.0061640844151587002 0.081211192752647821 0 0.0041028111748413181 0.077276503937849558 0 0.003415199878818523 0.082716983154062895 0 0.0061640844151587002 0.081211192752647821 0 0.0063312902310649864 0.085019422732485861 0 0.004974751422926145 0.08470517584699859 0 0.0015572221324767841 0.084533474056856503 0 0.0056512242643104501 0.084940636720987173 0 0.004516608279865191 0.087513523011131425 0 -0.00062647106299652843 0.084850366152223813 0 0.003415199878818523 0.082716983154062895 0 0.0063312902310649864 0.085019422732485861 0 0.0013487171193078127 0.085502694847272506 0 8.9069982681824209e-06 0.084986938441406229 0 1.7375611641482242e-05 0.08497553487073807 0 7.4576176626311313e-06 0.084989618898430375 0 0.0034758369303027007 0.082591343317494528 0 0.0015572221324767841 0.084533474056856503 0 0.0071625634796620924 0.087342592387936319 0 0.0056512242643104501 0.084940636720987173 0 0.004516608279865191 0.087513523011131425 0 8.9069982681824209e-06 0.084986938441406229 0 7.4576176626311313e-06 0.084989618898430375 0 1.0059948926176621e-08 0.084999971197231156 0 0.0015572221324767841 0.084533474056856503 0 3.8899154733794127e-06 0.084997169069874173 0 5.2436829820915877e-06 0.084998765120079325 0 3.7940003095989058e-09 0.08500000226708819 0 -2.0773813267490462e-09 0.084999996544163584 0 0.0015572221324767841 0.084533474056856503 0 3.195378524718059e-06 0.084997941961655388 0 0.0013487171193078127 0.085502694847272506 0 0.00011930032375461205 0.084608203265741991 0 -1.0805201260913464e-06 0.084996434116079475 0 0.00011930032375461205 0.084608203265741991 0 -1.0805201260913464e-06 0.084996434116079475 0 4.7207194293660676e-07 0.085000645319594795 0 0.003415199878818523 0.082716983154062895 0 0.00011930032375461205 0.084608203265741991 0 0.0041028111748413181 0.077276503937849558 0 0.0018182890449388743 0.082207319228071979 0 0.002730901278391343 0.081241338974934962 0 0.003415199878818523 0.082716983154062895 0 0.0013487171193078127 0.085502694847272506 0 0.00011930032375461205 0.084608203265741991 0 0.00011930032375461205 0.084608203265741991 0 4.7207194293660676e-07 0.085000645319594795 0 -7.6391558825065142e-05 0.084916491177051454 0 4.7207194293660676e-07 0.085000645319594795 0 -7.6391558825065142e-05 0.084916491177051454 0 -2.6115091129820226e-05 0.08498475733864734 0 0.002730901278391343 0.081241338974934962 0 0.0042494560652494399 0.079911696497446838 0 -7.6391558825065142e-05 0.084916491177051454 0 -2.6115091129820226e-05 0.08498475733864734 0 -2.6232376483423141e-05 0.084974130273918147 0 4.7207194293660676e-07 0.085000645319594795 0 -2.6115091129820226e-05 0.08498475733864734 0 -1.4269681042685047e-07 0.084999812621654056 0 -1.4269681042685047e-07 0.084999812621654056 0 -1.3529036625071034e-05 0.084986198955925754 0 -5.7939964691694893e-06 0.084988679089586155 0 -2.6115091129820226e-05 0.08498475733864734 0 -1.4269681042685047e-07 0.084999812621654056 0 -1.3529036625071034e-05 0.084986198955925754 0 -2.6115091129820226e-05 0.08498475733864734 0 -1.3529036625071034e-05 0.084986198955925754 0 -1.2199707513403456e-05 0.084979279981025321 0 -2.4300227084884054e-06 0.084975386751919887 0 -5.7939964691694893e-06 0.084988679089586155 0 -3.8655794800170389e-06 0.084975488745360081 0 -1.3529036625071034e-05 0.084986198955925754 0 -5.7939964691694893e-06 0.084988679089586155 0 -3.8655794800170389e-06 0.084975488745360081 0 3.3867766887081579e-08 0.085000031581510996 0 -1.4269681042685047e-07 0.084999812621654056 0 -5.7939964691694893e-06 0.084988679089586155 0 1.203922386614843e-05 0.084965874315455867 0 1.4874899233424402e-05 0.084976479200485747 0 4.4412495492625961e-05 0.084958327377092621 0 1.203922386614843e-05 0.084965874315455867 0 -3.8655794800170389e-06 0.084975488745360081 0 1.4874899233424402e-05 0.084976479200485747 0 2.0158666239576507e-05 0.084948978241944209 0 1.203922386614843e-05 0.084965874315455867 0 4.4412495492625961e-05 0.084958327377092621 0 -2.4300227084884054e-06 0.084975386751919887 0 1.203922386614843e-05 0.084965874315455867 0 -3.8655794800170389e-06 0.084975488745360081 0 -1.3529036625071034e-05 0.084986198955925754 0 -3.8655794800170389e-06 0.084975488745360081 0 -1.2199707513403456e-05 0.084979279981025321 0 -3.8655794800170389e-06 0.084975488745360081 0 -1.2199707513403456e-05 0.084979279981025321 0 1.4874899233424402e-05 0.084976479200485747 0 -1.2199707513403456e-05 0.084979279981025321 0 1.4874899233424402e-05 0.084976479200485747 0 -2.6232376483423141e-05 0.084974130273918147 0 0.011677361235056671 0.072245421183785297 0 0.011585577058019858 0.073463418669528852 0 0.012067853659620254 0.072933149536952679 0 0.011677361235056671 0.072245421183785297 0 0.011585577058019858 0.073463418669528852 0 0.0093543316346828137 0.073012272203536691 0 0.0052592554950856157 0.079328247835724536 0 0.0042494560652494399 0.079911696497446838 0 -2.6115091129820226e-05 0.08498475733864734 0 -1.2199707513403456e-05 0.084979279981025321 0 -2.6232376483423141e-05 0.084974130273918147 0 0.0041028111748413181 0.077276503937849558 0 0.0093543316346828137 0.073012272203536691 0 0.0080149259513579915 0.077287323097473673 0 0.0093543316346828137 0.073012272203536691 0 0.0080149259513579915 0.077287323097473673 0 0.011420624164946531 0.075549318472227275 0 0.011585577058019858 0.073463418669528852 0 0.011420624164946531 0.075549318472227275 0 0.01206786557104199 0.074646085741472995 0 0.011585577058019858 0.073463418669528852 0 0.0093543316346828137 0.073012272203536691 0 0.011420624164946531 0.075549318472227275 0 0.012402457031078668 0.073793887941870112 0 0.012372196618159477 0.073215921228936207 0 0.01206786557104199 0.074646085741472995 0 0.011585577058019858 0.073463418669528852 0 0.012372196618159477 0.073215921228936207 0 0.01206786557104199 0.074646085741472995 0 0.012402457031078668 0.073793887941870112 0 0.012651807733242803 0.073017372748155243 0 0.012372196618159477 0.073215921228936207 0 0.012651807733242803 0.073017372748155243 0 0.012797713175451648 0.071919835424294476 0 0.012595745457284448 0.074169221265592888 0 0.012908602899660258 0.072681140709288522 0 0.01282561101159614 0.0728316798538656 0 0.012402457031078668 0.073793887941870112 0 0.012651807733242803 0.073017372748155243 0 0.012595745457284448 0.074169221265592888 0 0.012651807733242803 0.073017372748155243 0 0.012707628854462544 0.072769261398548085 0 0.012372196618159477 0.073215921228936207 0 0.012651807733242803 0.073017372748155243 0 0.012707628854462544 0.072769261398548085 0 0.012797713175451648 0.071919835424294476 0 0.012707628854462544 0.072769261398548085 0 0.012455733918672579 0.072708232644174864 0 0.012636592565450319 0.072825431228986076 0 0.012707628854462544 0.072769261398548085 0 0.012636592565450319 0.072825431228986076 0 0.012797713175451648 0.071919835424294476 0 0.011585577058019858 0.073463418669528852 0 0.012372196618159477 0.073215921228936207 0 0.012067853659620254 0.072933149536952679 0 0.012707628854462544 0.072769261398548085 0 0.012372196618159477 0.073215921228936207 0 0.012455733918672579 0.072708232644174864 0 0.012372196618159477 0.073215921228936207 0 0.012067853659620254 0.072933149536952679 0 0.012455733918672579 0.072708232644174864 0 0.0052592554950856157 0.079328247835724536 0 0.0052422188964034392 0.079893638461933772 0 0.011677361235056671 0.072245421183785297 0 0.01228172674348328 0.072385870362957017 0 0.01230364220113896 0.072212216615329033 0 0.011677361235056671 0.072245421183785297 0 0.012067853659620254 0.072933149536952679 0 0.012455733918672579 0.072708232644174864 0 0.011677361235056671 0.072245421183785297 0 0.01228172674348328 0.072385870362957017 0 0.012455733918672579 0.072708232644174864 0 0.01228172674348328 0.072385870362957017 0 0.012455733918672579 0.072708232644174864 0 0.012487932442252169 0.0725375652864442 0 0.01228172674348328 0.072385870362957017 0 0.012487932442252169 0.0725375652864442 0 0.012356275612705235 0.072307711746702405 0 0.012455733918672579 0.072708232644174864 0 0.012636592565450319 0.072825431228986076 0 0.012487932442252169 0.0725375652864442 0 0.012636592565450319 0.072825431228986076 0 0.012487932442252169 0.0725375652864442 0 0.012543437917758242 0.072318337516786527 0 0.012608602520367638 0.072163481403295551 0 0.012543437917758242 0.072318337516786527 0 0.012299917342092964 0.072268050287995933 0 0.012543437917758242 0.072318337516786527 0 0.012299917342092964 0.072268050287995933 0 0.012356275612705235 0.072307711746702405 0 0.012636592565450319 0.072825431228986076 0 0.012543437917758242 0.072318337516786527 0 0.01274353479653116 0.072272535267035545 0 0.012487932442252169 0.0725375652864442 0 0.012543437917758242 0.072318337516786527 0 0.012356275612705235 0.072307711746702405 0 0.012608602520367638 0.072163481403295551 0 0.012543437917758242 0.072318337516786527 0 0.01274353479653116 0.072272535267035545 0 0.01228172674348328 0.072385870362957017 0 0.01230364220113896 0.072212216615329033 0 0.012356275612705235 0.072307711746702405 0 0.0052422188964034392 0.079893638461933772 0 0.0053129974346047687 0.079795562277892432 0 0.0096892252211774853 0.075808751886649817 0 0.01090293493876371 0.075062434691917271 0 0.0096878796985279559 0.073975931637431575 0 0.011181514890101007 0.073926737830493722 0 0.01090293493876371 0.075062434691917271 0 0.0096878796985279559 0.073975931637431575 0 0.011181514890101007 0.073926737830493722 0 0.01090293493876371 0.075062434691917271 0 0.012343528955905547 0.074622735984660321 0 0.0096141339666111821 0.073216533666256994 0 0.0086788303903645152 0.074110902611933413 0 0.012636592565450319 0.072825431228986076 0 0.011181514890101007 0.073926737830493722 0 0.010645728067824867 0.072649717665874622 0 0.012636592565450319 0.072825431228986076 0 0.011181514890101007 0.073926737830493722 0 0.012343528955905547 0.074622735984660321 0 0.011181514890101007 0.073926737830493722 0 0.010645728067824867 0.072649717665874622 0 0.0096878796985279559 0.073975931637431575 0 0.010645728067824867 0.072649717665874622 0 0.011247326564189034 0.07203961938522796 0 0.0089623558374225983 0.071522228882581654 0 0.012636592565450319 0.072825431228986076 0 0.010645728067824867 0.072649717665874622 0 0.011247326564189034 0.07203961938522796 0 0.012636592565450319 0.072825431228986076 0 0.011247326564189034 0.07203961938522796 0 0.012797713175451648 0.071919835424294476 0 0.011247326564189034 0.07203961938522796 0 0.012797713175451648 0.071919835424294476 0 0.010693496065078507 0.07018526142683193 0 0.011247326564189034 0.07203961938522796 0 0.010693496065078507 0.07018526142683193 0 0.0089623558374225983 0.071522228882581654 0 0.010693496065078507 0.07018526142683193 0 0.010846630560637336 0.066541029192957152 0 0.012397342303192118 0.068737489837915611 0 0.010693496065078507 0.07018526142683193 0 0.010846630560637336 0.066541029192957152 0 0.0091156948767174752 0.068122369258165796 0 0.010846630560637336 0.066541029192957152 0 0.013298594603955501 0.066774568776081497 0 0.012036897645959744 0.064070965276259592 0 0.010846630560637336 0.066541029192957152 0 0.013298594603955501 0.066774568776081497 0 0.012397342303192118 0.068737489837915611 0 0.012797713175451648 0.071919835424294476 0 0.012397342303192118 0.068737489837915611 0 0.013913255421169963 0.068984006287085023 0 0.012797713175451648 0.071919835424294476 0 0.010693496065078507 0.07018526142683193 0 0.012397342303192118 0.068737489837915611 0 0.013298594603955501 0.066774568776081497 0 0.012397342303192118 0.068737489837915611 0 0.013913255421169963 0.068984006287085023 0 0.012797713175451648 0.071919835424294476 0 0.015527065781243212 0.069693284666482905 0 0.013913255421169963 0.068984006287085023 0 0.015527065781243212 0.069693284666482905 0 0.015468557001271458 0.068169476157642517 0 0.013913255421169963 0.068984006287085023 0 0.012402457031078668 0.073793887941870112 0 0.012595745457284448 0.074169221265592888 0 0.01206786557104199 0.074646085741472995 0 0.012595745457284448 0.074169221265592888 0 0.01206786557104199 0.074646085741472995 0 0.012188598015569145 0.074684973393474019 0 0.01282561101159614 0.0728316798538656 0 0.01121462297525983 0.074242983884896488 0 0.015527065781243212 0.069693284666482905 0 0.015468557001271458 0.068169476157642517 0 0.017723626169869267 0.0677850156034564 0 0.0091813295206377293 0.074964514854432368 0 0.0087590028669443671 0.07530813724820401 0 0.0087240874666378327 0.074738906432671642 0 0.0087590028669443671 0.07530813724820401 0 0.0081188653216788774 0.074472962150544428 0 0.0087240874666378327 0.074738906432671642 0 0.01121462297525983 0.074242983884896488 0 0.011208177674463502 0.068872830181370054 0 0.015468557001271458 0.068169476157642517 0 0.017723626169869267 0.0677850156034564 0 0.015103899036936663 0.064425031633724733 0 0.012094803513341836 0.067815356701674503 0 0.011208177674463502 0.068872830181370054 0 0.013298594603955501 0.066774568776081497 0 0.015468557001271458 0.068169476157642517 0 0.014977248058470826 0.064368359267326078 0 0.013298594603955501 0.066774568776081497 0 0.015468557001271458 0.068169476157642517 0 0.013913255421169963 0.068984006287085023 0 0.0081188653216788774 0.074472962150544428 0 0.0087240874666378327 0.074738906432671642 0 0.0088347687944035948 0.074208856081586685 0 0.0062797742981969698 0.076266900564272336 0 0.0086008825524426635 0.071466275257781181 0 0.0081188653216788774 0.074472962150544428 0 0.0088347687944035948 0.074208856081586685 0 0.0080535860489762325 0.073792513561725517 0 1.3887401253977221e-05 0.084940244278517693 0 -2.0648994389502448e-05 0.084909467379897019 0 1.3032767751988135e-05 0.084928367190543502 0 0.014783962664764222 0.06445815102584751 0 0.014552126583553556 0.06187140614078751 0 0.012709899577225315 0.061735951308954186 0 0.011208177674463502 0.068872830181370054 0 0.010859033462089352 0.066420918409503441 0 0.011208177674463502 0.068872830181370054 0 0.0086008825524426635 0.071466275257781181 0 0.014977248058470826 0.064368359267326078 0 0.012709899577225315 0.061735951308954186 0 0.012036897645959744 0.064070965276259592 0 0.012709899577225315 0.061735951308954186 0 0.010837719821394656 0.061947703318340111 0 0.012036897645959744 0.064070965276259592 0 0.0096427822581835881 0.063350266497504679 0 0.010837719821394656 0.061947703318340111 0 0.0088637052177712432 0.060890599926019959 0 0.0096427822581835881 0.063350266497504679 0 0.010837719821394656 0.061947703318340111 0 0.012036897645959744 0.064070965276259592 0 0.010846630560637336 0.066541029192957152 0 0.0096427822581835881 0.063350266497504679 0 0.0081329494691233118 0.065461183196646025 0 0.010846630560637336 0.066541029192957152 0 0.0096427822581835881 0.063350266497504679 0 0.012036897645959744 0.064070965276259592 0 0.013298594603955501 0.066774568776081497 0 0.014977248058470826 0.064368359267326078 0 0.012036897645959744 0.064070965276259592 0 0.0073824450848966293 0.062780361891107528 0 0.0051909234196486319 0.062267861388238872 0 0.0050724637393790989 0.064227247339229979 0 0.0073824450848966293 0.062780361891107528 0 0.0050724637393790989 0.064227247339229979 0 0.0081329494691233118 0.065461183196646025 0 0.0096427822581835881 0.063350266497504679 0 0.0073824450848966293 0.062780361891107528 0 0.0081329494691233118 0.065461183196646025 0 0.0096427822581835881 0.063350266497504679 0 0.0073824450848966293 0.062780361891107528 0 0.0088637052177712432 0.060890599926019959 0 0.0073824450848966293 0.062780361891107528 0 0.0051909234196486319 0.062267861388238872 0 0.0065684490226991191 0.060587464297893856 0 0.0051909234196486319 0.062267861388238872 0 0.0034522473243181755 0.06143374108726915 0 0.0048348135235210601 0.06060361450205165 0 0.0051909234196486319 0.062267861388238872 0 0.0034522473243181755 0.06143374108726915 0 0.0028745151313196386 0.063478757988940163 0 0.0034522473243181755 0.06143374108726915 0 0.0028745151313196386 0.063478757988940163 0 0.0020231156711468488 0.061876214750458645 0 0.0051909234196486319 0.062267861388238872 0 0.0028745151313196386 0.063478757988940163 0 0.0050724637393790989 0.064227247339229979 0 0.0050724637393790989 0.064227247339229979 0 0.0037523949189009818 0.065193528119826386 0 0.0067146113010686757 0.065803603001086813 0 0.0028745151313196386 0.063478757988940163 0 0.0037523949189009818 0.065193528119826386 0 0.0014205633059153242 0.064388135534949736 0 0.0028745151313196386 0.063478757988940163 0 0.0050724637393790989 0.064227247339229979 0 0.0037523949189009818 0.065193528119826386 0 0.0037523949189009818 0.065193528119826386 0 0.0044247368068293077 0.067475879585806142 0 0.0015160015792657583 0.067317694873164455 0 0.0037523949189009818 0.065193528119826386 0 0.0067146113010686757 0.065803603001086813 0 0.0044247368068293077 0.067475879585806142 0 0.0050724637393790989 0.064227247339229979 0 0.0066814197907500887 0.068272706159314397 0 0.0081329494691233118 0.065461183196646025 0 0.0062795599908560687 0.06609308711403826 0 0.0071055284412030384 0.067425108705369718 0 0.0066814197907500887 0.068272706159314397 0 0.0081329494691233118 0.065461183196646025 0 0.0091156948767174752 0.068122369258165796 0 0.010846630560637336 0.066541029192957152 0 0.0081329494691233118 0.065461183196646025 0 0.0091156948767174752 0.068122369258165796 0 0.010693496065078507 0.07018526142683193 0 0.0091156948767174752 0.068122369258165796 0 0.0089623558374225983 0.071522228882581654 0 0.0066814197907500887 0.068272706159314397 0 0.0091156948767174752 0.068122369258165796 0 0.0089623558374225983 0.071522228882581654 0 0.0071055284412030384 0.067425108705369718 0 0.0085449453830002391 0.069675098905542743 0 0.0067146113010686757 0.065803603001086813 0 0.0064895900689582956 0.068835245037078385 0 0.0044247368068293077 0.067475879585806142 0 0.0067146113010686757 0.065803603001086813 0 0.0088611674770126582 0.068759573322125317 0 0.0064895900689582956 0.068835245037078385 0 0.0088611674770126582 0.068759573322125317 0 0.0064895900689582956 0.068835245037078385 0 0.0074126027192970272 0.072248475933881146 0 0.0064895900689582956 0.068835245037078385 0 0.0074126027192970272 0.072248475933881146 0 0.0050785256479022141 0.070329538377429945 0 0.0093572385741953288 0.070941574034349544 0 0.0085449453830002391 0.069675098905542743 0 0.010645728067824867 0.072649717665874622 0 0.0088611674770126582 0.068759573322125317 0 0.0074126027192970272 0.072248475933881146 0 0.010645728067824867 0.072649717665874622 0 0.0074126027192970272 0.072248475933881146 0 0.0096878796985279559 0.073975931637431575 0 0.0060983805728328129 0.075747455870534955 0 0.0074126027192970272 0.072248475933881146 0 0.0082959521157882042 0.075133909868380117 0 0.0074126027192970272 0.072248475933881146 0 0.0082959521157882042 0.075133909868380117 0 0.0096878796985279559 0.073975931637431575 0 0.0096892252211774853 0.075808751886649817 0 0.0082959521157882042 0.075133909868380117 0 0.0096878796985279559 0.073975931637431575 0 0.0023132085117310436 0.071647954716740112 0 0.003324176995064574 0.069896777881907679 0 0.00097571045289595378 0.070019747286746925 0 0.0060983805728328129 0.075747455870534955 0 0.0074126027192970272 0.072248475933881146 0 0.0043675754763711537 0.073314680198897891 0 0.0033848398646550682 0.072762349027002182 0 0.0032597156936515657 0.071642132221177199 0 0.0023132085117310436 0.071647954716740112 0 0.0043135553819814952 0.071349447438624924 0 0.003324176995064574 0.069896777881907679 0 0.0043675754763711537 0.073314680198897891 0 0.0027520852264956994 0.070443761217765924 0 0.0050785256479022141 0.070329538377429945 0 0.0074126027192970272 0.072248475933881146 0 0.0043675754763711537 0.073314680198897891 0 0.0050785256479022141 0.070329538377429945 0 0.003324176995064574 0.069896777881907679 0 0.0023224050000451545 0.068446554989982172 0 0.00097571045289595378 0.070019747286746925 0 0.0032597156936515657 0.071642132221177199 0 0.002519781966745386 0.070055649583424917 0 0.0027520852264956994 0.070443761217765924 0 0.0050785256479022141 0.070329538377429945 0 0.0044247368068293077 0.067475879585806142 0 0.0064895900689582956 0.068835245037078385 0 0.0050785256479022141 0.070329538377429945 0 0.0044247368068293077 0.067475879585806142 0 0.0027520852264956994 0.070443761217765924 0 0.0044247368068293077 0.067475879585806142 0 0.0015160015792657583 0.067317694873164455 0 0.0015160015792657583 0.067317694873164455 0 -0.0010651172654104826 0.067182281111640083 0 -0.00019437363008048157 0.065788574658146096 0 0.0015160015792657583 0.067317694873164455 0 0.00058706870447769075 0.068412296198080438 0 -0.0010651172654104826 0.067182281111640083 0 0.0023224050000451545 0.068446554989982172 0 0.0015160015792657583 0.067317694873164455 0 0.00058706870447769075 0.068412296198080438 0 0.002519781966745386 0.070055649583424917 0 0.0020493601886620995 0.069176938847685929 0 0.0023224050000451545 0.068446554989982172 0 0.00058706870447769075 0.068412296198080438 0 0.00097571045289595378 0.070019747286746925 0 0.00058706870447769075 0.068412296198080438 0 0.00097571045289595378 0.070019747286746925 0 -0.0012065601071927011 0.068855404262255157 0 0.00015792988887421971 0.0720907999606442 0 0.00097571045289595378 0.070019747286746925 0 -0.0013903753169332976 0.070706639337506719 0 0.00097571045289595378 0.070019747286746925 0 -0.0013903753169332976 0.070706639337506719 0 -0.0012065601071927011 0.068855404262255157 0 -0.003568234941394216 0.071029535646247283 0 -0.0035493867344353869 0.069995514452277668 0 -0.0022454553809099116 0.070197075965131861 0 -0.0035493867344353869 0.069995514452277668 0 -0.0022454553809099116 0.070197075965131861 0 -0.0032848706760066591 0.068988355856096278 0 -0.00093360506996370129 0.069393542807558106 0 -0.0017363435770428141 0.069034676530521311 0 -0.0013903753169332976 0.070706639337506719 0 -0.0012065601071927011 0.068855404262255157 0 -0.0032848706760066591 0.068988355856096278 0 -0.0012065601071927011 0.068855404262255157 0 -0.0032848706760066591 0.068988355856096278 0 -0.0036170855215965345 0.067699141899019322 0 -0.0010651172654104826 0.067182281111640083 0 -0.0025860204342132592 0.06584719200237811 0 -0.0032840200650473246 0.067324031337599136 0 -0.0024859033685532606 0.067280020527268919 0 -0.0036209155261659521 0.067565708459551427 0 -0.0012065601071927011 0.068855404262255157 0 -0.0010651172654104826 0.067182281111640083 0 -0.0036170855215965345 0.067699141899019322 0 0.00058706870447769075 0.068412296198080438 0 -0.0012065601071927011 0.068855404262255157 0 -0.0010651172654104826 0.067182281111640083 0 -0.0010651172654104826 0.067182281111640083 0 -0.0025860204342132592 0.06584719200237811 0 -0.00019437363008048157 0.065788574658146096 0 -0.0025860204342132592 0.06584719200237811 0 -0.0020042866763022925 0.06354054113749788 0 -0.0046222940161417085 0.064794951119144434 0 -0.0025860204342132592 0.06584719200237811 0 -0.0020042866763022925 0.06354054113749788 0 -0.00019437363008048157 0.065788574658146096 0 -0.0020042866763022925 0.06354054113749788 0 0.0014205633059153242 0.064388135534949736 0 0.00028862372341522519 0.06085953924890853 0 -0.0020042866763022925 0.06354054113749788 0 -0.00019437363008048157 0.065788574658146096 0 0.0014205633059153242 0.064388135534949736 0 0.0015160015792657583 0.067317694873164455 0 -0.00019437363008048157 0.065788574658146096 0 0.0014205633059153242 0.064388135534949736 0 0.0037523949189009818 0.065193528119826386 0 0.0015160015792657583 0.067317694873164455 0 0.0014205633059153242 0.064388135534949736 0 0.00059481257092089542 0.062920069911354834 0 -0.00011574788965098794 0.061692230670411047 0 0.0028745151313196386 0.063478757988940163 0 0.0014205633059153242 0.064388135534949736 0 0.00032260622646611839 0.062671051378064335 0 0.0028745151313196386 0.063478757988940163 0 0.00032260622646611839 0.062671051378064335 0 0.0020231156711468488 0.061876214750458645 0 0.0034522473243181755 0.06143374108726915 0 0.0020231156711468488 0.061876214750458645 0 0.0023526330305311031 0.060566815207704544 0 0.00032260622646611839 0.062671051378064335 0 0.0020231156711468488 0.061876214750458645 0 0.0010687541346163312 0.06083529952861598 0 0.00032260622646611839 0.062671051378064335 0 9.2776047411801204e-05 0.060775465854746615 0 0.0010687541346163312 0.06083529952861598 0 0.00032260622646611839 0.062671051378064335 0 -0.0009830769512836283 0.060414529198833562 0 9.2776047411801204e-05 0.060775465854746615 0 -0.00011574788965098794 0.061692230670411047 0 -0.0012981914839480186 0.06009315505759491 0 -0.0022758429030703907 0.059130917982979626 0 -0.0015282774076071626 0.060760898471605582 0 -0.0010630003341582581 0.057733987318793305 0 0.00028862372341522519 0.06085953924890853 0 -0.0015282774076071626 0.060760898471605582 0 -0.0010630003341582581 0.057733987318793305 0 -0.0022758429030703907 0.059130917982979626 0 -0.0033005979451008159 0.061146226878017719 0 -0.0015282774076071626 0.060760898471605582 0 -0.0022758429030703907 0.059130917982979626 0 -0.0033005979451008159 0.061146226878017719 0 -0.0039414946030155093 0.058423607608274794 0 -0.0020042866763022925 0.06354054113749788 0 -0.0033005979451008159 0.061146226878017719 0 -0.0015282774076071626 0.060760898471605582 0 -0.0020042866763022925 0.06354054113749788 0 0.00028862372341522519 0.06085953924890853 0 -0.0015282774076071626 0.060760898471605582 0 -0.0048365306757880743 0.051953702655886183 0 -0.0049683363831217846 0.051822543686434845 0 -0.0048535817962802649 0.051366981767911706 0 -0.0050789203985953449 0.051641118348899978 0 -0.0050035189617484085 0.052013107937959401 0 -0.0054925659797591866 0.051366653094294591 0 -0.0050569813842560058 0.052227768879315614 0 -0.0050035189617484085 0.052013107937959401 0 -0.0054925659797591866 0.051366653094294591 0 -0.0050789203985953449 0.051641118348899978 0 -0.0048535817962802649 0.051366981767911706 0 -0.0054925659797591866 0.051366653094294591 0 -0.0049683363831217846 0.051822543686434845 0 -0.0050789203985953449 0.051641118348899978 0 -0.0050035189617484085 0.052013107937959401 0 -0.0008227528198257862 0.062385038043302116 0 -0.00088896806821643724 0.062291786807726186 0 -0.0048365306757880743 0.051953702655886183 0 -0.0049683363831217846 0.051822543686434845 0 -0.0050035189617484085 0.052013107937959401 0 -0.0049683363831217846 0.051822543686434845 0 -0.0050789203985953449 0.051641118348899978 0 -0.0048535817962802649 0.051366981767911706 0 -0.0012981914839480186 0.06009315505759491 0 -0.0039195812843389691 0.054101111024742521 0 -0.0031743279859814465 0.056504733860760603 0 -0.00064367802642076213 0.057188862520068925 0 -0.0024504223981062184 0.054105513257939088 0 -0.0031743279859814465 0.056504733860760603 0 -0.0025504948778487797 0.057828599877051731 0 -0.00064367802642076213 0.057188862520068925 0 -0.0022758429030703907 0.059130917982979626 0 -0.0025504948778487797 0.057828599877051731 0 -0.0039414946030155093 0.058423607608274794 0 -0.0031743279859814465 0.056504733860760603 0 -0.0025504948778487797 0.057828599877051731 0 -0.0039414946030155093 0.058423607608274794 0 -0.0022758429030703907 0.059130917982979626 0 -0.0025504948778487797 0.057828599877051731 0 -0.00064367802642076213 0.057188862520068925 0 -0.0012216735466773457 0.059769238821970098 0 -0.0012981914839480186 0.06009315505759491 0 -0.0004374566987155659 0.05977493548828592 0 -0.0009830769512836283 0.060414529198833562 0 9.2776047411801204e-05 0.060775465854746615 0 -0.0048229239961180186 0.051965928601447643 0 -0.0050569813842560058 0.052227768879315614 0 -0.0050035189617484085 0.052013107937959401 0 -0.0008227528198257862 0.062385038043302116 0 -0.0012981914839480186 0.06009315505759491 0 -0.0004374566987155659 0.05977493548828592 0 0.0010687541346163312 0.06083529952861598 0 0.001856445972394184 0.058993640518770069 0 -0.0004374566987155659 0.05977493548828592 0 9.2776047411801204e-05 0.060775465854746615 0 0.0010687541346163312 0.06083529952861598 0 0.0010687541346163312 0.06083529952861598 0 0.0023526330305311031 0.060566815207704544 0 0.001856445972394184 0.058993640518770069 0 0.0020231156711468488 0.061876214750458645 0 0.0010687541346163312 0.06083529952861598 0 0.0023526330305311031 0.060566815207704544 0 0.0023526330305311031 0.060566815207704544 0 0.001856445972394184 0.058993640518770069 0 0.0034334599269956094 0.059671015020452328 0 -0.0048365306757880743 0.051953702655886183 0 -0.0042842055313943974 0.05123859529098241 0 -0.0048535817962802649 0.051366981767911706 0 0.0024599607379642034 0.07413970496515547 0 -0.00020645510889134695 0.07501613392240529 0 0.00071358562247092428 0.076212037154054724 0 -0.0008227528198257862 0.062385038043302116 0 0.00041090600310132909 0.065536018031486981 0 -0.0008227528198257862 0.062385038043302116 0 -0.0014103883576243555 0.064451122530046645 0 -0.0042842055313943974 0.05123859529098241 0 -0.0046085197202894827 0.050926003236573002 0 -0.0048535817962802649 0.051366981767911706 0 -0.0042842055313943974 0.05123859529098241 0 -0.0041595016379669695 0.050711535010248499 0 -0.0043328034349487772 0.050877611945314878 0 -0.0042842055313943974 0.05123859529098241 0 -0.0046085197202894827 0.050926003236573002 0 -0.0043328034349487772 0.050877611945314878 0 0.00071358562247092428 0.076212037154054724 0 -0.0010224837652218445 0.076313202160051552 0 -0.00080721145526570616 0.076918399140494531 0 -0.0014103883576243555 0.064451122530046645 0 -0.0023394016028434098 0.067632108673444366 0 -0.00020645510889134695 0.07501613392240529 0 0.00071358562247092428 0.076212037154054724 0 -0.0010224837652218445 0.076313202160051552 0 0.00071358562247092428 0.076212037154054724 0 -0.00080721145526570616 0.076918399140494531 0 -0.0010104651614092667 0.078009997871367087 0 0.00071358562247092428 0.076212037154054724 0 -0.0010018974251474605 0.078158151846760129 0 -0.0010104651614092667 0.078009997871367087 0 -0.0042842055313943974 0.05123859529098241 0 -0.0041595016379669695 0.050711535010248499 0 -0.0037627574724478198 0.05058630955353343 0 -0.0041595016379669695 0.050711535010248499 0 -0.0042255347662979474 0.050435773996358506 0 -0.0040274916427835133 0.050436874617884986 0 -0.0041595016379669695 0.050711535010248499 0 -0.0040274916427835133 0.050436874617884986 0 -0.0037627574724478198 0.05058630955353343 0 -0.0023394016028434098 0.067632108673444366 0 -0.0023362392316664811 0.067671314912221003 0 -0.0046085197202894827 0.050926003236573002 0 -0.0043865581799314183 0.050637212778305046 0 -0.0047497103914829805 0.050518089407819849 0 -0.0046085197202894827 0.050926003236573002 0 -0.0043328034349487772 0.050877611945314878 0 -0.0043865581799314183 0.050637212778305046 0 -0.0041595016379669695 0.050711535010248499 0 -0.0043328034349487772 0.050877611945314878 0 -0.0043865581799314183 0.050637212778305046 0 -0.0042255347662979474 0.050435773996358506 0 -0.0043865581799314183 0.050637212778305046 0 -0.0044487075752174393 0.050281701594626874 0 -0.0041595016379669695 0.050711535010248499 0 -0.0042255347662979474 0.050435773996358506 0 -0.0043865581799314183 0.050637212778305046 0 -0.0043865581799314183 0.050637212778305046 0 -0.0047497103914829805 0.050518089407819849 0 -0.0044487075752174393 0.050281701594626874 0 -0.0046085197202894827 0.050926003236573002 0 -0.0051278861368801443 0.050827821096209293 0 -0.0047497103914829805 0.050518089407819849 0 -0.0051278861368801443 0.050827821096209293 0 -0.0047497103914829805 0.050518089407819849 0 -0.0052060934599393524 0.050247323121587383 0 -0.0046085197202894827 0.050926003236573002 0 -0.0051278861368801443 0.050827821096209293 0 -0.0048535817962802649 0.051366981767911706 0 -0.0051278861368801443 0.050827821096209293 0 -0.0048535817962802649 0.051366981767911706 0 -0.0054925659797591866 0.051366653094294591 0 -0.0039195812843389691 0.054101111024742521 0 -0.0050044257525274317 0.051721964190993397 0 -0.0051278861368801443 0.050827821096209293 0 -0.0054925659797591866 0.051366653094294591 0 -0.0058763357413143943 0.050505937567760631 0 -0.0051278861368801443 0.050827821096209293 0 -0.0052060934599393524 0.050247323121587383 0 -0.0058763357413143943 0.050505937567760631 0 -0.0056075308281421463 0.049803094524365467 0 -0.0052060934599393524 0.050247323121587383 0 -0.0058763357413143943 0.050505937567760631 0 -0.0056075308281421463 0.049803094524365467 0 -0.0052060934599393524 0.050247323121587383 0 -0.0050642427251378639 0.04966180689949292 0 -0.004799196582574849 0.050117341146193879 0 -0.0052060934599393524 0.050247323121587383 0 -0.0050642427251378639 0.04966180689949292 0 -0.004799196582574849 0.050117341146193879 0 -0.0050642427251378639 0.04966180689949292 0 -0.0044766580280812193 0.049787217757163958 0 -0.0047497103914829805 0.050518089407819849 0 -0.004799196582574849 0.050117341146193879 0 -0.0052060934599393524 0.050247323121587383 0 -0.0050642427251378639 0.04966180689949292 0 -0.0055165027080476556 0.049193750414468301 0 -0.0050782855416493244 0.049165874990398817 0 -0.0050642427251378639 0.04966180689949292 0 -0.0050782855416493244 0.049165874990398817 0 -0.0047310843022686771 0.049360145723195283 0 -0.0056075308281421463 0.049803094524365467 0 -0.0050642427251378639 0.04966180689949292 0 -0.0055165027080476556 0.049193750414468301 0 -0.0056075308281421463 0.049803094524365467 0 -0.0055165027080476556 0.049193750414468301 0 -0.0059993481534444393 0.049268047143379852 0 -0.0055165027080476556 0.049193750414468301 0 -0.0053085206567617402 0.048644340131786833 0 -0.0062865750837933099 0.048787249999894963 0 -0.0067812869005206789 0.061716860777475749 0 -0.0062631734722523999 0.059539552041564511 0 -0.0055165027080476556 0.049193750414468301 0 -0.0050782855416493244 0.049165874990398817 0 -0.005344769169129183 0.048853481180439313 0 -0.005882836174821369 0.058679206509778543 0 -0.0067812869005206789 0.061716860777475749 0 -0.0050782855416493244 0.049165874990398817 0 -0.004646159306409956 0.048809413504646237 0 -0.0047310843022686771 0.049360145723195283 0 -0.0050782855416493244 0.049165874990398817 0 -0.005344769169129183 0.048853481180439313 0 -0.004646159306409956 0.048809413504646237 0 -0.018416599799878728 0.082424290910918546 0 -0.019561792263991441 0.083541570447263652 0 -0.017677521163871807 0.083370560807888225 0 -0.0067812869005206789 0.061716860777475749 0 -0.0097323671180481013 0.067454292656710213 0 -0.0095072952989540965 0.052214091525024348 0 -0.0097085246510352202 0.048744488241445616 0 -0.012669443598544465 0.055432307736458956 0 -0.018416599799878728 0.082424290910918546 0 -0.019561792263991441 0.083541570447263652 0 -0.018901588201202371 0.081414847731077419 0 -0.0067812869005206789 0.061716860777475749 0 -0.012630231970839338 0.06820712046153081 0 -0.0076590684217202679 0.050149074785550057 0 -0.0097085246510352202 0.048744488241445616 0 -0.0062865750837933099 0.048787249999894963 0 -0.0095072952989540965 0.052214091525024348 0 -0.0076590684217202679 0.050149074785550057 0 -0.0084113721445183229 0.052907465937700453 0 -0.0095072952989540965 0.052214091525024348 0 -0.0076590684217202679 0.050149074785550057 0 -0.0097085246510352202 0.048744488241445616 0 -0.015589473178283202 0.083120985158468427 0 -0.017677521163871807 0.083370560807888225 0 -0.016629900443430351 0.081936114822337661 0 -0.0098670948741919253 0.073507924293894078 0 -0.0097323671180481013 0.067454292656710213 0 -0.017677521163871807 0.083370560807888225 0 -0.017640369908834184 0.082083963347350589 0 -0.016629900443430351 0.081936114822337661 0 -0.018416599799878728 0.082424290910918546 0 -0.017677521163871807 0.083370560807888225 0 -0.017640369908834184 0.082083963347350589 0 -0.0039624829404576282 0.048770689813945618 0 -0.004646159306409956 0.048809413504646237 0 -0.0043353646811617325 0.049270429019271124 0 -0.004646159306409956 0.048809413504646237 0 -0.0047310843022686771 0.049360145723195283 0 -0.0043353646811617325 0.049270429019271124 0 -0.0039624829404576282 0.048770689813945618 0 -0.0043353646811617325 0.049270429019271124 0 -0.0038670722449526472 0.049645051310575533 0 -0.0098670948741919253 0.073507924293894078 0 -0.0054176622977859584 0.066768181174014937 0 -0.0043353646811617325 0.049270429019271124 0 -0.0038670722449526472 0.049645051310575533 0 -0.0044766580280812193 0.049787217757163958 0 -0.0038670722449526472 0.049645051310575533 0 -0.0044766580280812193 0.049787217757163958 0 -0.004107872616483519 0.050119532242041034 0 -0.0047310843022686771 0.049360145723195283 0 -0.0043353646811617325 0.049270429019271124 0 -0.0044766580280812193 0.049787217757163958 0 -0.0050642427251378639 0.04966180689949292 0 -0.0047310843022686771 0.049360145723195283 0 -0.0044766580280812193 0.049787217757163958 0 -0.004799196582574849 0.050117341146193879 0 -0.0044766580280812193 0.049787217757163958 0 -0.0044487075752174393 0.050281701594626874 0 -0.0044766580280812193 0.049787217757163958 0 -0.0044487075752174393 0.050281701594626874 0 -0.004107872616483519 0.050119532242041034 0 -0.0042255347662979474 0.050435773996358506 0 -0.0044487075752174393 0.050281701594626874 0 -0.004107872616483519 0.050119532242041034 0 -0.0047497103914829805 0.050518089407819849 0 -0.004799196582574849 0.050117341146193879 0 -0.0044487075752174393 0.050281701594626874 0 -0.0023394016028434098 0.067632108673444366 0 -0.0054176622977859584 0.066768181174014937 0 -0.0037627574724478198 0.05058630955353343 0 -0.0038670722449526472 0.049645051310575533 0 -0.004107872616483519 0.050119532242041034 0 -0.0042255347662979474 0.050435773996358506 0 -0.0040274916427835133 0.050436874617884986 0 -0.004107872616483519 0.050119532242041034 0 -0.0040274916427835133 0.050436874617884986 0 -0.0037627574724478198 0.05058630955353343 0 -0.004107872616483519 0.050119532242041034 0 -0.002523964952151968 0.079386512519599384 0 -0.0024707300989585583 0.080726314503189595 0 -0.003091947968149193 0.080067667486797209 0 -0.0023394016028434098 0.067632108673444366 0 -0.0046139724756646709 0.073855813153189162 0 -0.0034822776503213196 0.079020561394053543 0 -0.0041464193721575818 0.078936707139559942 0 -0.0040278942804480517 0.078184543470654955 0 -0.0022110355946961982 0.07949262289794716 0 -0.0034822776503213196 0.079020561394053543 0 -0.0023609279606113887 0.078169562867238376 0 -0.0022110355946961982 0.07949262289794716 0 -0.0034822776503213196 0.079020561394053543 0 -0.0036367752237912994 0.079877570173861559 0 -0.0022110355946961982 0.07949262289794716 0 -0.0036367752237912994 0.079877570173861559 0 -0.0035336830199436766 0.080728319127894174 0 -0.0034822776503213196 0.079020561394053543 0 -0.0036367752237912994 0.079877570173861559 0 -0.0042359368662075103 0.079593634185228815 0 -0.0036367752237912994 0.079877570173861559 0 -0.0035336830199436766 0.080728319127894174 0 -0.0043405195229233732 0.080258310528357898 0 -0.003091947968149193 0.080067667486797209 0 -0.0035336830199436766 0.080728319127894174 0 -0.0030798929748258935 0.080716805824265173 0 -0.0046139724756646709 0.073855813153189162 0 -0.0051669401049902648 0.075578017099248426 0 -0.0035336830199436766 0.080728319127894174 0 -0.0030798929748258935 0.080716805824265173 0 -0.0036883753118504056 0.081446744301493831 0 -0.0035336830199436766 0.080728319127894174 0 -0.0036883753118504056 0.081446744301493831 0 -0.0040934751558179263 0.080973340350351461 0 -0.0024707300989585583 0.080726314503189595 0 -0.003091947968149193 0.080067667486797209 0 -0.0030798929748258935 0.080716805824265173 0 -0.0024707300989585583 0.080726314503189595 0 -0.0030798929748258935 0.080716805824265173 0 -0.0030984168198278567 0.081419964186664487 0 -0.0024321924961604531 0.082103828890621983 0 -0.0024707300989585583 0.080726314503189595 0 -0.0030984168198278567 0.081419964186664487 0 -0.0030984168198278567 0.081419964186664487 0 -0.0036883753118504056 0.081446744301493831 0 -0.0038637819893664227 0.082212147119356635 0 -0.0030798929748258935 0.080716805824265173 0 -0.0030984168198278567 0.081419964186664487 0 -0.0036883753118504056 0.081446744301493831 0 -0.0038637819893664227 0.082212147119356635 0 -0.0039118537633507601 0.082172368675160701 0 -0.0039258531901598679 0.081993910716092633 0 -0.0036883753118504056 0.081446744301493831 0 -0.0038637819893664227 0.082212147119356635 0 -0.0039118537633507601 0.082172368675160701 0 -0.0049041402625116604 0.082349679382640512 0 -0.0038637819893664227 0.082212147119356635 0 -0.0044282509012066188 0.08179230304016101 0 -0.0098670948741919253 0.073507924293894078 0 -0.0063395373456867831 0.075400256362831319 0 -0.0024321924961604531 0.082103828890621983 0 -0.0030984168198278567 0.081419964186664487 0 -0.0038637819893664227 0.082212147119356635 0 -0.0030239019772557727 0.082851467392583394 0 -0.0025541458537885766 0.083018925632055554 0 -0.0030451419194627754 0.082430003124301918 0 -0.0030239019772557727 0.082851467392583394 0 -0.0034826092645946637 0.083532090093757297 0 -0.0025541458537885766 0.083018925632055554 0 -0.002112900122324918 0.083142019691816074 0 -0.0023410453089004767 0.082936572706072159 0 -0.0039118537633507601 0.082172368675160701 0 -0.004330183367519269 0.081789868876650892 0 -0.0035718407256047691 0.082373631718687307 0 -0.0035097715238530708 0.082060024556209907 0 -0.0035435429826405343 0.082156310380730624 0 -0.0030239019772557727 0.082851467392583394 0 -0.0034826092645946637 0.083532090093757297 0 -0.0035718407256047691 0.082373631718687307 0 -0.0036883753118504056 0.081446744301493831 0 -0.004330183367519269 0.081789868876650892 0 -0.0040934751558179263 0.080973340350351461 0 -0.0036883753118504056 0.081446744301493831 0 -0.0039118537633507601 0.082172368675160701 0 -0.004330183367519269 0.081789868876650892 0 -0.0034826092645946637 0.083532090093757297 0 -0.002735898834000708 0.084134532793997366 0 -0.0025541458537885766 0.083018925632055554 0 -0.0034826092645946637 0.083532090093757297 0 -0.002735898834000708 0.084134532793997366 0 -0.0035020556140384499 0.084504622070857238 0 -0.0048081045473627381 0.078004306831502168 0 -0.0048888646180781222 0.078207126247805778 0 -0.0046497868728186797 0.078316502377232047 0 -0.0030606889669752878 0.081852303122643549 0 -0.003283558797005569 0.081047345799246648 0 -0.0048081045473627381 0.078004306831502168 0 -0.0050490677548994008 0.078204132798182419 0 -0.0048888646180781222 0.078207126247805778 0 -0.0035097715238530708 0.082060024556209907 0 -0.003283558797005569 0.081047345799246648 0 -0.004330183367519269 0.081789868876650892 0 -0.0040934751558179263 0.080973340350351461 0 -0.004622020025149302 0.08047490783355897 0 -0.003283558797005569 0.081047345799246648 0 -0.003325803916901206 0.081049005630653051 0 -0.0035336830199436766 0.080728319127894174 0 -0.0040934751558179263 0.080973340350351461 0 -0.0043405195229233732 0.080258310528357898 0 -0.0040934751558179263 0.080973340350351461 0 -0.004622020025149302 0.08047490783355897 0 -0.0043405195229233732 0.080258310528357898 0 -0.0048472938816339229 0.080501587565412119 0 -0.0042359368662075103 0.079593634185228815 0 -0.0048595484016071694 0.078944810246150729 0 -0.0050490677548994008 0.078204132798182419 0 -0.0048862961570700922 0.078286251887595387 0 -0.0049902684591267244 0.078274742372782868 0 -0.003283558797005569 0.081047345799246648 0 -0.0036548631885127926 0.079458572130252342 0 -0.0048472938816339229 0.080501587565412119 0 -0.0043405195229233732 0.080258310528357898 0 -0.0042359368662075103 0.079593634185228815 0 -0.0036367752237912994 0.079877570173861559 0 -0.0043405195229233732 0.080258310528357898 0 -0.0042359368662075103 0.079593634185228815 0 -0.0048862961570700922 0.078286251887595387 0 -0.0049902684591267244 0.078274742372782868 0 -0.005041643164294978 0.078316403368336812 0 -0.0034822776503213196 0.079020561394053543 0 -0.0042359368662075103 0.079593634185228815 0 -0.0041464193721575818 0.078936707139559942 0 -0.0042359368662075103 0.079593634185228815 0 -0.0048595484016071694 0.078944810246150729 0 -0.0041464193721575818 0.078936707139559942 0 -0.0048888646180781222 0.078207126247805778 0 -0.0049385628277767825 0.078289670805534867 0 -0.0048323133691584386 0.078354695673353167 0 -0.0048888646180781222 0.078207126247805778 0 -0.0048323133691584386 0.078354695673353167 0 -0.0046497868728186797 0.078316502377232047 0 -0.0050490677548994008 0.078204132798182419 0 -0.0048888646180781222 0.078207126247805778 0 -0.0049902684591267244 0.078274742372782868 0 -0.0048888646180781222 0.078207126247805778 0 -0.0049902684591267244 0.078274742372782868 0 -0.0049385628277767825 0.078289670805534867 0 -0.0049385628277767825 0.078289670805534867 0 -0.005041643164294978 0.078316403368336812 0 -0.0048323133691584386 0.078354695673353167 0 -0.0049902684591267244 0.078274742372782868 0 -0.0049385628277767825 0.078289670805534867 0 -0.005041643164294978 0.078316403368336812 0 -0.005041643164294978 0.078316403368336812 0 -0.0048323133691584386 0.078354695673353167 0 -0.0046226118496216287 0.078707914594192879 0 -0.005041643164294978 0.078316403368336812 0 -0.0051822384564479467 0.077681628698200722 0 -0.006374926086692022 0.077411192387265418 0 -0.0051822384564479467 0.077681628698200722 0 -0.0049535268279444957 0.076852306717032151 0 -0.006374926086692022 0.077411192387265418 0 -0.0026322681923084501 0.076385995741389129 0 -0.00013734128595731159 0.076847507465948484 0 0.0072616351462691563 0.056978519040010708 0 0.0096277380612645753 0.057538106716432044 0 0.01028167565990005 0.056070231628574212 0 0.0016303666402155352 0.070642752704073011 0 -0.00013734128595731159 0.076847507465948484 0 0.0082279051324308378 0.057989853327918853 0 0.0072616351462691563 0.056978519040010708 0 0.0096277380612645753 0.057538106716432044 0 -0.0049535268279444957 0.076852306717032151 0 -0.0047466224312917669 0.07738562231469831 0 -0.0035636867571931367 0.077026684805475198 0 0.0072616351462691563 0.056978519040010708 0 0.0043757008508775262 0.05801381893090661 0 0.0066082498922415116 0.058202955781663047 0 0.0082279051324308378 0.057989853327918853 0 0.0072616351462691563 0.056978519040010708 0 0.0066082498922415116 0.058202955781663047 0 -0.0048862961570700922 0.078286251887595387 0 -0.0051822384564479467 0.077681628698200722 0 -0.0047466224312917669 0.07738562231469831 0 -0.0047466224312917669 0.07738562231469831 0 -0.0040278942804480517 0.078184543470654955 0 -0.0035636867571931367 0.077026684805475198 0 -0.0048595484016071694 0.078944810246150729 0 -0.0047466224312917669 0.07738562231469831 0 -0.0040278942804480517 0.078184543470654955 0 -0.0036548631885127926 0.079458572130252342 0 -0.0037632292870958543 0.078881840544510334 0 -0.0051822384564479467 0.077681628698200722 0 -0.0049535268279444957 0.076852306717032151 0 -0.0047466224312917669 0.07738562231469831 0 -0.0048862961570700922 0.078286251887595387 0 -0.005041643164294978 0.078316403368336812 0 -0.0051822384564479467 0.077681628698200722 0 -0.0048595484016071694 0.078944810246150729 0 -0.0041464193721575818 0.078936707139559942 0 -0.0040278942804480517 0.078184543470654955 0 -0.0023609279606113887 0.078169562867238376 0 -0.0018878505041402536 0.077138523450450178 0 -0.0035636867571931367 0.077026684805475198 0 -0.0040278942804480517 0.078184543470654955 0 -0.0023609279606113887 0.078169562867238376 0 -0.0035636867571931367 0.077026684805475198 0 -0.0034822776503213196 0.079020561394053543 0 -0.0040278942804480517 0.078184543470654955 0 -0.0023609279606113887 0.078169562867238376 0 -0.0010032680730308976 0.078151163415387373 0 -0.0010104651614092667 0.078009997871367087 0 -0.0023609279606113887 0.078169562867238376 0 -0.0010032680730308976 0.078151163415387373 0 -0.0022110355946961982 0.07949262289794716 0 -0.0023609279606113887 0.078169562867238376 0 -0.00080721145526570616 0.076918399140494531 0 -0.0010104651614092667 0.078009997871367087 0 -0.0018878505041402536 0.077138523450450178 0 -0.0010104651614092667 0.078009997871367087 0 -0.0023609279606113887 0.078169562867238376 0 -0.0018878505041402536 0.077138523450450178 0 -0.0010224837652218445 0.076313202160051552 0 -0.0018878505041402536 0.077138523450450178 0 -0.0027375514037956219 0.075928907739742854 0 -0.00020645510889134695 0.07501613392240529 0 -0.0010224837652218445 0.076313202160051552 0 -0.0027375514037956219 0.075928907739742854 0 -0.0010224837652218445 0.076313202160051552 0 -0.00080721145526570616 0.076918399140494531 0 -0.0018878505041402536 0.077138523450450178 0 0.0016303666402155352 0.070642752704073011 0 0.0011128841237643303 0.067765308659565787 0 -0.0018878505041402536 0.077138523450450178 0 -0.0027375514037956219 0.075928907739742854 0 -0.0035636867571931367 0.077026684805475198 0 -0.0049535268279444957 0.076852306717032151 0 -0.0027375514037956219 0.075928907739742854 0 -0.0035636867571931367 0.077026684805475198 0 0.0043757008508775262 0.05801381893090661 0 0.0055678106763860707 0.059265189588020808 0 0.0066082498922415116 0.058202955781663047 0 0.0043757008508775262 0.05801381893090661 0 0.0055678106763860707 0.059265189588020808 0 0.0034334599269956094 0.059671015020452328 0 0.00041090600310132909 0.065536018031486981 0 0.0011128841237643303 0.067765308659565787 0 0.001856445972394184 0.058993640518770069 0 0.0043757008508775262 0.05801381893090661 0 0.0034334599269956094 0.059671015020452328 0 0.0034522473243181755 0.06143374108726915 0 0.0023526330305311031 0.060566815207704544 0 0.0034334599269956094 0.059671015020452328 0 0.0034522473243181755 0.06143374108726915 0 0.0034334599269956094 0.059671015020452328 0 0.0048348135235210601 0.06060361450205165 0 0.0051909234196486319 0.062267861388238872 0 0.0048348135235210601 0.06060361450205165 0 0.0065684490226991191 0.060587464297893856 0 0.0055678106763860707 0.059265189588020808 0 0.0034334599269956094 0.059671015020452328 0 0.0048348135235210601 0.06060361450205165 0 0.0055678106763860707 0.059265189588020808 0 0.0048348135235210601 0.06060361450205165 0 0.0065684490226991191 0.060587464297893856 0 0.0065684490226991191 0.060587464297893856 0 0.0088637052177712432 0.060890599926019959 0 0.007595391876018126 0.059043083502201194 0 0.0073824450848966293 0.062780361891107528 0 0.0065684490226991191 0.060587464297893856 0 0.0088637052177712432 0.060890599926019959 0 0.0088637052177712432 0.060890599926019959 0 0.007595391876018126 0.059043083502201194 0 0.0093244341393376173 0.058721437052924208 0 0.0082279051324308378 0.057989853327918853 0 0.0093244341393376173 0.058721437052924208 0 0.0096277380612645753 0.057538106716432044 0 0.0082279051324308378 0.057989853327918853 0 0.007595391876018126 0.059043083502201194 0 0.0093244341393376173 0.058721437052924208 0 0.0055678106763860707 0.059265189588020808 0 0.007595391876018126 0.059043083502201194 0 0.0066082498922415116 0.058202955781663047 0 0.0082279051324308378 0.057989853327918853 0 0.007595391876018126 0.059043083502201194 0 0.0066082498922415116 0.058202955781663047 0 0.0055678106763860707 0.059265189588020808 0 0.0065684490226991191 0.060587464297893856 0 0.007595391876018126 0.059043083502201194 0 0.011931546758366258 0.058846146390024827 0 0.010873347713433715 0.060186873405595649 0 0.012620827873967228 0.060088487109061083 0 0.011931546758366258 0.058846146390024827 0 0.010759547166638026 0.058187972755325626 0 0.010873347713433715 0.060186873405595649 0 0.011931546758366258 0.058846146390024827 0 0.012620827873967228 0.060088487109061083 0 0.013416053348861014 0.058504415993401934 0 0.011931546758366258 0.058846146390024827 0 0.013416053348861014 0.058504415993401934 0 0.011881725104213944 0.057294196820564344 0 0.011931546758366258 0.058846146390024827 0 0.010759547166638026 0.058187972755325626 0 0.011881725104213944 0.057294196820564344 0 0.0093244341393376173 0.058721437052924208 0 0.010759547166638026 0.058187972755325626 0 0.010873347713433715 0.060186873405595649 0 0.0093244341393376173 0.058721437052924208 0 0.010759547166638026 0.058187972755325626 0 0.0096277380612645753 0.057538106716432044 0 0.0088637052177712432 0.060890599926019959 0 0.0093244341393376173 0.058721437052924208 0 0.010873347713433715 0.060186873405595649 0 0.010837719821394656 0.061947703318340111 0 0.0088637052177712432 0.060890599926019959 0 0.010873347713433715 0.060186873405595649 0 0.012709899577225315 0.061735951308954186 0 0.010837719821394656 0.061947703318340111 0 0.010873347713433715 0.060186873405595649 0 0.0086008825524426635 0.071466275257781181 0 0.0088403830018568361 0.067949934198740389 0 0.014552126583553556 0.06187140614078751 0 0.012709899577225315 0.061735951308954186 0 0.010873347713433715 0.060186873405595649 0 0.01368953587106061 0.061718122536423836 0 0.010873347713433715 0.060186873405595649 0 0.012620827873967228 0.060088487109061083 0 0.01368953587106061 0.061718122536423836 0 0.012620827873967228 0.060088487109061083 0 0.013416053348861014 0.058504415993401934 0 -2.0648994389502448e-05 0.084909467379897019 0 9.0945760964278091e-07 0.08490003520102285 0 -3.6030171741796293e-05 0.08483499162546991 0 0.0086008825524426635 0.071466275257781181 0 0.0024795024533431332 0.076906068996502652 0 -2.0648994389502448e-05 0.084909467379897019 0 9.0945760964278091e-07 0.08490003520102285 0 1.3032767751988135e-05 0.084928367190543502 0 9.0945760964278091e-07 0.08490003520102285 0 -1.5255798195187132e-05 0.084881496185658434 0 -1.2805193367780829e-06 0.084895703649440643 0 9.0945760964278091e-07 0.08490003520102285 0 -1.2805193367780829e-06 0.084895703649440643 0 5.8469349119572395e-06 0.084908895515885763 0 0.002824179341341132 0.079198867594591355 0 0.0024795024533431332 0.076906068996502652 0 9.0945760964278091e-07 0.08490003520102285 0 -1.5255798195187132e-05 0.084881496185658434 0 -2.9316224149522042e-05 0.084874987665768162 0 -1.5255798195187132e-05 0.084881496185658434 0 -2.9316224149522042e-05 0.084874987665768162 0 -3.0541454342556427e-05 0.084863322601498536 0 0.0024795024533431332 0.076906068996502652 0 0.0024689453957392011 0.077517034348981426 0 -1.5255798195187132e-05 0.084881496185658434 0 -3.0541454342556427e-05 0.084863322601498536 0 -1.6240432115949068e-05 0.08486631854735785 0 -3.0541454342556427e-05 0.084863322601498536 0 -3.0182772111125114e-05 0.084869265544009698 0 -1.6240432115949068e-05 0.08486631854735785 0 -2.448286823935589e-05 0.084920336087392564 0 -2.3448481278796462e-05 0.084915040061876765 0 -3.0182772111125114e-05 0.084869265544009698 0 -1.6240432115949068e-05 0.08486631854735785 0 -3.5307779006633891e-05 0.084881987576836265 0 -2.8900651216041993e-05 0.084849219944717794 0 -3.0541454342556427e-05 0.084863322601498536 0 -2.2023194805571562e-05 0.084857951765766562 0 -1.5255798195187132e-05 0.084881496185658434 0 -1.2805193367780829e-06 0.084895703649440643 0 -1.6240432115949068e-05 0.08486631854735785 0 -6.9451203919172112e-05 0.084944405424072736 0 -5.2554018858601968e-05 0.084947277127773058 0 -6.5017755006596201e-05 0.084936242016726352 0 -6.9451203919172112e-05 0.084944405424072736 0 -5.2554018858601968e-05 0.084947277127773058 0 -4.2408070608230794e-05 0.084960815004419599 0 -5.2554018858601968e-05 0.084947277127773058 0 -6.5017755006596201e-05 0.084936242016726352 0 -5.8487168540426221e-05 0.08494106973644093 0 -6.9451203919172112e-05 0.084944405424072736 0 -6.5017755006596201e-05 0.084936242016726352 0 -6.4957753966751061e-05 0.084929325636427924 0 -6.9451203919172112e-05 0.084944405424072736 0 -6.4957753966751061e-05 0.084929325636427924 0 -5.5337203407870241e-05 0.084914342921605671 0 -6.5017755006596201e-05 0.084936242016726352 0 -6.665985954214689e-05 0.084930417486149948 0 -7.2164504473823306e-05 0.084933608470469102 0 -6.5017755006596201e-05 0.084936242016726352 0 -6.4957753966751061e-05 0.084929325636427924 0 -6.665985954214689e-05 0.084930417486149948 0 -6.4957753966751061e-05 0.084929325636427924 0 -6.665985954214689e-05 0.084930417486149948 0 -6.1689086602522556e-05 0.084924333944888367 0 -6.718089589583811e-05 0.084930889041991142 0 -6.7631186664287817e-05 0.084937753160932397 0 -6.1689086602522556e-05 0.084924333944888367 0 -6.665985954214689e-05 0.084930417486149948 0 -6.718089589583811e-05 0.084930889041991142 0 -7.2164504473823306e-05 0.084933608470469102 0 -6.665985954214689e-05 0.084930417486149948 0 -6.718089589583811e-05 0.084930889041991142 0 -6.1689086602522556e-05 0.084924333944888367 0 -6.718089589583811e-05 0.084930889041991142 0 -6.7631186664287817e-05 0.084937753160932397 0 -7.2164504473823306e-05 0.084933608470469102 0 -0.0011274386276826373 0.080782344119296787 0 -0.0010701178430942257 0.080869306759391496 0 -7.2164504473823306e-05 0.084933608470469102 0 -7.1033376204956573e-05 0.084938199703431264 0 -8.5030588975531829e-05 0.084941791920204651 0 -6.9194483971622925e-05 0.084938354180643855 0 -7.2164504473823306e-05 0.084933608470469102 0 -8.5030588975531829e-05 0.084941791920204651 0 -0.0011274386276826373 0.080782344119296787 0 -0.0011228345468741595 0.080828878274614241 0 -6.5017755006596201e-05 0.084936242016726352 0 -7.2164504473823306e-05 0.084933608470469102 0 -7.1033376204956573e-05 0.084938199703431264 0 -6.5017755006596201e-05 0.084936242016726352 0 -7.1033376204956573e-05 0.084938199703431264 0 -5.8487168540426221e-05 0.08494106973644093 0 -7.1033376204956573e-05 0.084938199703431264 0 -6.480605912797002e-05 0.084935553229912142 0 -8.5030588975531829e-05 0.084941791920204651 0 -7.1033376204956573e-05 0.084938199703431264 0 -6.480605912797002e-05 0.084935553229912142 0 -5.8487168540426221e-05 0.08494106973644093 0 -6.7631186664287817e-05 0.084937753160932397 0 -6.1689086602522556e-05 0.084924333944888367 0 -3.765770222756775e-05 0.084895393164888838 0 -5.5337203407870241e-05 0.084914342921605671 0 -6.1689086602522556e-05 0.084924333944888367 0 -3.765770222756775e-05 0.084895393164888838 0 -0.0038907794458613895 0.078501733077609409 0 -0.0042599008422428896 0.078606325871587668 0 -0.0041854837747145176 0.078410015465379498 0 -0.0011274386276826373 0.080782344119296787 0 -0.0016064468330948334 0.079514165175862309 0 -6.9451203919172112e-05 0.084944405424072736 0 -5.5337203407870241e-05 0.084914342921605671 0 -3.5307779006633891e-05 0.084881987576836265 0 -5.5337203407870241e-05 0.084914342921605671 0 -3.765770222756775e-05 0.084895393164888838 0 -3.5307779006633891e-05 0.084881987576836265 0 -6.4957753966751061e-05 0.084929325636427924 0 -5.5337203407870241e-05 0.084914342921605671 0 -6.1689086602522556e-05 0.084924333944888367 0 -0.0042599008422428896 0.078606325871587668 0 -0.004481040111393734 0.078501212989894903 0 -0.0046226118496216287 0.078707914594192879 0 -3.765770222756775e-05 0.084895393164888838 0 -3.5307779006633891e-05 0.084881987576836265 0 9.2895422636671349e-07 0.084860242924557974 0 -0.0016064468330948334 0.079514165175862309 0 -0.00013734128595731159 0.076847507465948484 0 -0.0042599008422428896 0.078606325871587668 0 -0.004481040111393734 0.078501212989894903 0 -0.0043943214748028711 0.078373228280373186 0 -3.5307779006633891e-05 0.084881987576836265 0 -2.2023194805571562e-05 0.084857951765766562 0 9.2895422636671349e-07 0.084860242924557974 0 -3.0182772111125114e-05 0.084869265544009698 0 -3.5307779006633891e-05 0.084881987576836265 0 -2.2023194805571562e-05 0.084857951765766562 0 0.0024795024533431332 0.076906068996502652 0 0.001773110729333604 0.07624320475617094 0 -3.0541454342556427e-05 0.084863322601498536 0 -3.0182772111125114e-05 0.084869265544009698 0 -2.2023194805571562e-05 0.084857951765766562 0 0.011881725104213944 0.057294196820564344 0 0.0096277380612645753 0.057538106716432044 0 0.01028167565990005 0.056070231628574212 0 0.010759547166638026 0.058187972755325626 0 0.011881725104213944 0.057294196820564344 0 0.0096277380612645753 0.057538106716432044 0 0.001773110729333604 0.07624320475617094 0 -0.00013734128595731159 0.076847507465948484 0 -0.004481040111393734 0.078501212989894903 0 -0.0046226118496216287 0.078707914594192879 0 -0.0046497868728186797 0.078316502377232047 0 -0.0048323133691584386 0.078354695673353167 0 -0.0046226118496216287 0.078707914594192879 0 -0.0046497868728186797 0.078316502377232047 0 -0.004481040111393734 0.078501212989894903 0 -0.0046497868728186797 0.078316502377232047 0 -0.0043943214748028711 0.078373228280373186 0 -0.0046497868728186797 0.078316502377232047 0 -0.0043943214748028711 0.078373228280373186 0 -0.0044963598544579906 0.078126618524598609 0 -0.0043943214748028711 0.078373228280373186 0 -0.0044963598544579906 0.078126618524598609 0 -0.0041968733563836668 0.078160667215375165 0 -0.0042599008422428896 0.078606325871587668 0 -0.0043943214748028711 0.078373228280373186 0 -0.0041854837747145176 0.078410015465379498 0 -0.0043943214748028711 0.078373228280373186 0 -0.0041968733563836668 0.078160667215375165 0 -0.0041854837747145176 0.078410015465379498 0 -0.0022713713812558692 0.082770800101144501 0 -0.0019563207381288203 0.081553172905499391 0 -0.0044963598544579906 0.078126618524598609 0 -0.0044916361694460208 0.077841210344229264 0 -0.0041968733563836668 0.078160667215375165 0 -0.0048081045473627381 0.078004306831502168 0 -0.0046497868728186797 0.078316502377232047 0 -0.0044963598544579906 0.078126618524598609 0 -0.0048081045473627381 0.078004306831502168 0 -0.0044963598544579906 0.078126618524598609 0 -0.0044916361694460208 0.077841210344229264 0 -0.0030606889669752878 0.081852303122643549 0 -0.0022713713812558692 0.082770800101144501 0 -0.002735898834000708 0.084134532793997366 0 -0.0019373994541513281 0.083739208316136848 0 -0.0025541458537885766 0.083018925632055554 0 -0.0022713713812558692 0.082770800101144501 0 -0.002112900122324918 0.083142019691816074 0 -0.0022713713812558692 0.082770800101144501 0 -0.0010425056281403004 0.083302992183419661 0 -0.00040370906940244812 0.084707518767697679 0 -0.00023987610945319391 0.084629262839076208 0 -0.00025617866727330955 0.084864145401133767 0 -0.000183090841305511 0.084196401869522319 0 0.00013609468288270483 0.084377737849658629 0 8.6862882257605415e-05 0.084103905093284442 0 -0.00036027095512613247 0.084959164572885354 0 -0.000183090841305511 0.084196401869522319 0 0.00013609468288270483 0.084377737849658629 0 -0.00036027095512613247 0.084959164572885354 0 -0.000183090841305511 0.084196401869522319 0 -0.001359883692923784 0.08433626551486427 0 -0.000183090841305511 0.084196401869522319 0 -0.001359883692923784 0.08433626551486427 0 -0.0014641645428363861 0.083084509820118599 0 -0.00071250086730489676 0.08346548929680464 0 -0.0010425056281403004 0.083302992183419661 0 -2.5230327175314723e-06 0.084497864250578814 0 -0.00023987610945319391 0.084629262839076208 0 -0.00013011097643408388 0.084738897839806551 0 -2.5230327175314723e-06 0.084497864250578814 0 0.00013609468288270483 0.084377737849658629 0 8.6862882257605415e-05 0.084103905093284442 0 -0.00023987610945319391 0.084629262839076208 0 -0.00013011097643408388 0.084738897839806551 0 -0.00025617866727330955 0.084864145401133767 0 -2.5230327175314723e-06 0.084497864250578814 0 -0.00013011097643408388 0.084738897839806551 0 -2.3129011118021985e-05 0.084766157711544277 0 -0.00013011097643408388 0.084738897839806551 0 -0.00010162874321402756 0.084841193439596882 0 -2.3129011118021985e-05 0.084766157711544277 0 -0.00010162874321402756 0.084841193439596882 0 -5.578566222575446e-05 0.084886486922253576 0 -3.0608924818740146e-05 0.084847169682231049 0 -0.00013011097643408388 0.084738897839806551 0 -0.00010162874321402756 0.084841193439596882 0 -0.00025617866727330955 0.084864145401133767 0 -0.00010162874321402756 0.084841193439596882 0 -0.00025617866727330955 0.084864145401133767 0 -0.0001361873976363326 0.084898728076820376 0 -0.0038907794458613895 0.078501733077609409 0 -0.0041968733563836668 0.078160667215375165 0 -0.0041854837747145176 0.078410015465379498 0 -0.00012101614515100009 0.084957333577241806 0 -0.00025617866727330955 0.084864145401133767 0 -0.0001361873976363326 0.084898728076820376 0 -0.0011274386276826373 0.080782344119296787 0 -0.0019563207381288203 0.081553172905499391 0 -8.5235382040590725e-05 0.084908668134212217 0 -4.8982413345338358e-05 0.084920931489110354 0 -5.578566222575446e-05 0.084886486922253576 0 -0.00010162874321402756 0.084841193439596882 0 -8.5235382040590725e-05 0.084908668134212217 0 -5.578566222575446e-05 0.084886486922253576 0 -0.00010162874321402756 0.084841193439596882 0 -8.5235382040590725e-05 0.084908668134212217 0 -0.0001361873976363326 0.084898728076820376 0 -8.5235382040590725e-05 0.084908668134212217 0 -0.0001361873976363326 0.084898728076820376 0 -8.5030588975531829e-05 0.084941791920204651 0 -0.00012101614515100009 0.084957333577241806 0 -0.0001361873976363326 0.084898728076820376 0 -8.5030588975531829e-05 0.084941791920204651 0 -6.480605912797002e-05 0.084935553229912142 0 -8.5235382040590725e-05 0.084908668134212217 0 -8.5030588975531829e-05 0.084941791920204651 0 -6.480605912797002e-05 0.084935553229912142 0 -8.5235382040590725e-05 0.084908668134212217 0 -4.8982413345338358e-05 0.084920931489110354 0 -6.480605912797002e-05 0.084935553229912142 0 -4.8982413345338358e-05 0.084920931489110354 0 -4.6461845313707081e-05 0.084938098383846888 0 -4.8982413345338358e-05 0.084920931489110354 0 -2.6138086501547305e-05 0.084935015164804423 0 -4.6461845313707081e-05 0.084938098383846888 0 -4.8982413345338358e-05 0.084920931489110354 0 -2.6138086501547305e-05 0.084935015164804423 0 -2.5055743612388137e-05 0.084900891661669448 0 -4.8982413345338358e-05 0.084920931489110354 0 -2.5055743612388137e-05 0.084900891661669448 0 -5.578566222575446e-05 0.084886486922253576 0 -2.6138086501547305e-05 0.084935015164804423 0 2.1206678099567731e-06 0.084918499180982723 0 -1.9275943919962636e-07 0.084950094491572856 0 -2.6138086501547305e-05 0.084935015164804423 0 -2.5055743612388137e-05 0.084900891661669448 0 2.1206678099567731e-06 0.084918499180982723 0 2.1206678099567731e-06 0.084918499180982723 0 6.989992011007187e-06 0.084862037535772747 0 1.4870400661453845e-05 0.084940656066361697 0 -2.5055743612388137e-05 0.084900891661669448 0 2.1206678099567731e-06 0.084918499180982723 0 6.989992011007187e-06 0.084862037535772747 0 6.989992011007187e-06 0.084862037535772747 0 -3.0608924818740146e-05 0.084847169682231049 0 -2.3129011118021985e-05 0.084766157711544277 0 -2.5055743612388137e-05 0.084900891661669448 0 -5.578566222575446e-05 0.084886486922253576 0 -3.0608924818740146e-05 0.084847169682231049 0 -2.5055743612388137e-05 0.084900891661669448 0 6.989992011007187e-06 0.084862037535772747 0 -3.0608924818740146e-05 0.084847169682231049 0 -0.00010162874321402756 0.084841193439596882 0 -3.0608924818740146e-05 0.084847169682231049 0 -2.3129011118021985e-05 0.084766157711544277 0 6.989992011007187e-06 0.084862037535772747 0 -2.3129011118021985e-05 0.084766157711544277 0 1.2811766639693741e-05 0.084765022170639942 0 -2.5230327175314723e-06 0.084497864250578814 0 -2.3129011118021985e-05 0.084766157711544277 0 1.2811766639693741e-05 0.084765022170639942 0 6.989992011007187e-06 0.084862037535772747 0 1.2811766639693741e-05 0.084765022170639942 0 1.3853817976679806e-05 0.084892564798581718 0 1.2811766639693741e-05 0.084765022170639942 0 1.1519940165798096e-05 0.084790759839029339 0 -5.9047495984034716e-06 0.084644071364059076 0 1.2811766639693741e-05 0.084765022170639942 0 1.1519940165798096e-05 0.084790759839029339 0 1.3853817976679806e-05 0.084892564798581718 0 -2.5230327175314723e-06 0.084497864250578814 0 1.2811766639693741e-05 0.084765022170639942 0 -5.9047495984034716e-06 0.084644071364059076 0 1.1519940165798096e-05 0.084790759839029339 0 1.3853817976679806e-05 0.084892564798581718 0 -1.0020681699730022e-06 0.084858920433370677 0 1.3853817976679806e-05 0.084892564798581718 0 4.3859725405201886e-08 0.084999866149588113 0 -1.0020681699730022e-06 0.084858920433370677 0 4.3859725405201886e-08 0.084999866149588113 0 -1.0020681699730022e-06 0.084858920433370677 0 -8.5063041463552408e-09 0.084999783066616541 0 1.3853817976679806e-05 0.084892564798581718 0 4.3859725405201886e-08 0.084999866149588113 0 1.4870400661453845e-05 0.084940656066361697 0 4.3859725405201886e-08 0.084999866149588113 0 1.4870400661453845e-05 0.084940656066361697 0 8.185941172782569e-09 0.084999938939436484 0 6.989992011007187e-06 0.084862037535772747 0 1.3853817976679806e-05 0.084892564798581718 0 1.4870400661453845e-05 0.084940656066361697 0 1.4870400661453845e-05 0.084940656066361697 0 8.1374861335475899e-06 0.084975825533603583 0 -1.9275943919962636e-07 0.084950094491572856 0 2.1206678099567731e-06 0.084918499180982723 0 1.4870400661453845e-05 0.084940656066361697 0 -1.9275943919962636e-07 0.084950094491572856 0 1.4870400661453845e-05 0.084940656066361697 0 8.185941172782569e-09 0.084999938939436484 0 8.1374861335475899e-06 0.084975825533603583 0 8.185941172782569e-09 0.084999938939436484 0 1.3537094176346455e-08 0.084999957261848363 0 8.1374861335475899e-06 0.084975825533603583 0 1.3537094176346455e-08 0.084999957261848363 0 5.7379882378136069e-06 0.084976784865259669 0 8.1374861335475899e-06 0.084975825533603583 0 2.1599138657192381e-09 0.084999995425860536 0 6.1878053160612071e-06 0.084985992860564158 0 3.7388845337486268e-06 0.084990261905912537 0 3.1922308020179668e-09 0.084999982153635023 0 2.6616500469998362e-07 0.084992527069570736 0 5.7379882378136069e-06 0.084976784865259669 0 1.0009528088585707e-06 0.084966617320874585 0 8.1374861335475899e-06 0.084975825533603583 0 1.0009528088585707e-06 0.084966617320874585 0 8.1374861335475899e-06 0.084975825533603583 0 -1.9275943919962636e-07 0.084950094491572856 0 -1.9275943919962636e-07 0.084950094491572856 0 -1.1644698002241996e-05 0.08495989633204061 0 -2.1064861914353055e-05 0.084949668682064064 0 -2.6138086501547305e-05 0.084935015164804423 0 -1.9275943919962636e-07 0.084950094491572856 0 -2.1064861914353055e-05 0.084949668682064064 0 -1.1644698002241996e-05 0.08495989633204061 0 -2.1064861914353055e-05 0.084949668682064064 0 -2.6686782836372591e-05 0.084961950409437742 0 1.0009528088585707e-06 0.084966617320874585 0 -1.9275943919962636e-07 0.084950094491572856 0 -1.1644698002241996e-05 0.08495989633204061 0 1.0009528088585707e-06 0.084966617320874585 0 -1.1644698002241996e-05 0.08495989633204061 0 -9.9279644706979371e-06 0.084969209057694783 0 -5.8487168540426221e-05 0.08494106973644093 0 -4.6461845313707081e-05 0.084938098383846888 0 -3.8358068927887914e-05 0.084949134093511042 0 -6.480605912797002e-05 0.084935553229912142 0 -5.8487168540426221e-05 0.08494106973644093 0 -4.6461845313707081e-05 0.084938098383846888 0 -2.6138086501547305e-05 0.084935015164804423 0 -4.6461845313707081e-05 0.084938098383846888 0 -3.8358068927887914e-05 0.084949134093511042 0 -2.6138086501547305e-05 0.084935015164804423 0 -2.1064861914353055e-05 0.084949668682064064 0 -3.8358068927887914e-05 0.084949134093511042 0 -2.1064861914353055e-05 0.084949668682064064 0 -3.8358068927887914e-05 0.084949134093511042 0 -2.6686782836372591e-05 0.084961950409437742 0 -3.8358068927887914e-05 0.084949134093511042 0 -3.9703271529033256e-05 0.084954709263067155 0 -2.6686782836372591e-05 0.084961950409437742 0 -5.2554018858601968e-05 0.084947277127773058 0 -5.8487168540426221e-05 0.08494106973644093 0 -3.8358068927887914e-05 0.084949134093511042 0 -5.2554018858601968e-05 0.084947277127773058 0 -3.8358068927887914e-05 0.084949134093511042 0 -3.9703271529033256e-05 0.084954709263067155 0 -1.2805193367780829e-06 0.084895703649440643 0 -1.6240432115949068e-05 0.08486631854735785 0 1.7784337392597646e-05 0.084909867688283625 0 -2.448286823935589e-05 0.084920336087392564 0 -1.5599712712764861e-05 0.084934180091984446 0 -6.9451203919172112e-05 0.084944405424072736 0 -4.2408070608230794e-05 0.084960815004419599 0 -2.1369807710438089e-05 0.084986003787001621 0 -4.2408070608230794e-05 0.084960815004419599 0 -3.9703271529033256e-05 0.084954709263067155 0 -2.6686782836372591e-05 0.084961950409437742 0 -5.2554018858601968e-05 0.084947277127773058 0 -4.2408070608230794e-05 0.084960815004419599 0 -3.9703271529033256e-05 0.084954709263067155 0 -4.2408070608230794e-05 0.084960815004419599 0 -2.6686782836372591e-05 0.084961950409437742 0 -2.717914434587562e-05 0.084970573376250427 0 -2.6686782836372591e-05 0.084961950409437742 0 -2.2429973700445957e-05 0.084969105086645805 0 -2.717914434587562e-05 0.084970573376250427 0 -4.2408070608230794e-05 0.084960815004419599 0 -2.717914434587562e-05 0.084970573376250427 0 -2.1369807710438089e-05 0.084986003787001621 0 -2.2429973700445957e-05 0.084969105086645805 0 -2.717914434587562e-05 0.084970573376250427 0 -1.653019211374215e-05 0.084976187895932837 0 -2.717914434587562e-05 0.084970573376250427 0 -1.653019211374215e-05 0.084976187895932837 0 -2.1369807710438089e-05 0.084986003787001621 0 5.7379882378136069e-06 0.084976784865259669 0 1.0009528088585707e-06 0.084966617320874585 0 -9.9279644706979371e-06 0.084969209057694783 0 2.6616500469998362e-07 0.084992527069570736 0 -5.1845238825877563e-06 0.084990370331096687 0 6.1878053160612071e-06 0.084985992860564158 0 -1.653019211374215e-05 0.084976187895932837 0 -3.2450390098337974e-06 0.084980824666589794 0 5.7379882378136069e-06 0.084976784865259669 0 -9.9279644706979371e-06 0.084969209057694783 0 -1.653019211374215e-05 0.084976187895932837 0 -2.6686782836372591e-05 0.084961950409437742 0 -2.2429973700445957e-05 0.084969105086645805 0 -9.9279644706979371e-06 0.084969209057694783 0 -1.1644698002241996e-05 0.08495989633204061 0 -2.6686782836372591e-05 0.084961950409437742 0 -9.9279644706979371e-06 0.084969209057694783 0 -1.653019211374215e-05 0.084976187895932837 0 -3.2450390098337974e-06 0.084980824666589794 0 -2.1369807710438089e-05 0.084986003787001621 0 -2.2429973700445957e-05 0.084969105086645805 0 -9.9279644706979371e-06 0.084969209057694783 0 -1.653019211374215e-05 0.084976187895932837 0 -3.2450390098337974e-06 0.084980824666589794 0 -2.1369807710438089e-05 0.084986003787001621 0 1.0773223404508292e-05 0.084977437907663961 0 -1.5599712712764861e-05 0.084934180091984446 0 -1.0198018772095396e-05 0.084941948510585411 0 1.7232274164032057e-05 0.084943646441438897 0 1.7784337392597646e-05 0.084909867688283625 0 1.0773223404508292e-05 0.084977437907663961 0 9.0945760964278091e-07 0.08490003520102285 0 1.2270397129150739e-05 0.084923898048925348 0 5.8469349119572395e-06 0.084908895515885763 0 -1.2805193367780829e-06 0.084895703649440643 0 1.7784337392597646e-05 0.084909867688283625 0 5.8469349119572395e-06 0.084908895515885763 0 1.7232274164032057e-05 0.084943646441438897 0 1.7784337392597646e-05 0.084909867688283625 0 1.2270397129150739e-05 0.084923898048925348 0 1.7784337392597646e-05 0.084909867688283625 0 1.2270397129150739e-05 0.084923898048925348 0 5.8469349119572395e-06 0.084908895515885763 0 9.0945760964278091e-07 0.08490003520102285 0 1.2270397129150739e-05 0.084923898048925348 0 1.3032767751988135e-05 0.084928367190543502 0 1.2270397129150739e-05 0.084923898048925348 0 1.3032767751988135e-05 0.084928367190543502 0 1.7814250644402557e-05 0.084945090297423226 0 1.7232274164032057e-05 0.084943646441438897 0 1.595326301273732e-05 0.084962869613084302 0 1.0773223404508292e-05 0.084977437907663961 0 1.7232274164032057e-05 0.084943646441438897 0 1.7814250644402557e-05 0.084945090297423226 0 1.595326301273732e-05 0.084962869613084302 0 1.7232274164032057e-05 0.084943646441438897 0 1.2270397129150739e-05 0.084923898048925348 0 1.7814250644402557e-05 0.084945090297423226 0 1.8726583740127572e-05 0.084961290355249658 0 1.7814250644402557e-05 0.084945090297423226 0 1.595326301273732e-05 0.084962869613084302 0 1.26131605126741e-05 0.08497556540857297 0 1.595326301273732e-05 0.084962869613084302 0 6.6715716679072176e-06 0.084984200668108925 0 1.595326301273732e-05 0.084962869613084302 0 6.6715716679072176e-06 0.084984200668108925 0 1.0773223404508292e-05 0.084977437907663961 0 9.6482420758335735e-09 0.08499997247954888 0 3.5712458370706277e-09 0.084999969215222335 0 6.6715716679072176e-06 0.084984200668108925 0 3.5712458370706277e-09 0.084999969215222335 0 6.6715716679072176e-06 0.084984200668108925 0 3.7388845337486268e-06 0.084990261905912537 0 2.1599138657192381e-09 0.084999995425860536 0 3.5712458370706277e-09 0.084999969215222335 0 3.7388845337486268e-06 0.084990261905912537 0 6.1878053160612071e-06 0.084985992860564158 0 -3.2450390098337974e-06 0.084980824666589794 0 1.0773223404508292e-05 0.084977437907663961 0 6.1878053160612071e-06 0.084985992860564158 0 3.7388845337486268e-06 0.084990261905912537 0 1.0773223404508292e-05 0.084977437907663961 0 6.6715716679072176e-06 0.084984200668108925 0 3.7388845337486268e-06 0.084990261905912537 0 1.0773223404508292e-05 0.084977437907663961 0 -0.010874367012741092 0.024051246942464653 0 -0.011379461051497352 0.021620421576803182 0 -0.012923827207541731 0.024265752255376111 0 -0.015570996660042751 0.02562011905821222 0 -0.013062486015168722 0.024122930369133801 0 -0.015106511613785588 0.028775578492096218 0 -0.012744818576790511 0.023515971982797312 0 -0.014313705519355119 0.027086781900857115 0 -0.010874367012741092 0.024051246942464653 0 -0.010340452069435712 0.022692663920436857 0 -0.011379461051497352 0.021620421576803182 0 -0.010874367012741092 0.024051246942464653 0 -0.0090656811511096759 0.024383139118237279 0 -0.010340452069435712 0.022692663920436857 0 -0.010340452069435712 0.022692663920436857 0 -0.01042137327004063 0.021452601772178614 0 -0.011379461051497352 0.021620421576803182 0 -0.010340452069435712 0.022692663920436857 0 -0.01042137327004063 0.021452601772178614 0 -0.009055494276395501 0.021473889909897313 0 -0.01042137327004063 0.021452601772178614 0 -0.011379461051497352 0.021620421576803182 0 -0.011173696384478715 0.019538379409092532 0 -0.01042137327004063 0.021452601772178614 0 -0.009055494276395501 0.021473889909897313 0 -0.0099151234506153485 0.02082203496074967 0 -0.015570996660042751 0.02562011905821222 0 -0.013191436165175058 0.022853280167588998 0 -0.018561409903210858 0.024657830023208791 0 -0.015570996660042751 0.02562011905821222 0 -0.013191436165175058 0.022853280167588998 0 -0.013062486015168722 0.024122930369133801 0 -0.013191436165175058 0.022853280167588998 0 -0.018561409903210858 0.024657830023208791 0 -0.018670643255260258 0.020141914481477331 0 -0.018561409903210858 0.024657830023208791 0 -0.022169606096400899 0.027144289125859991 0 -0.023037407975691666 0.024078395031269979 0 -0.018561409903210858 0.024657830023208791 0 -0.018670643255260258 0.020141914481477331 0 -0.023037407975691666 0.024078395031269979 0 -0.022169606096400899 0.027144289125859991 0 -0.017894380317244725 0.027662902893249876 0 -0.020382902866986824 0.029342652448769116 0 -0.018561409903210858 0.024657830023208791 0 -0.022169606096400899 0.027144289125859991 0 -0.017894380317244725 0.027662902893249876 0 -0.015570996660042751 0.02562011905821222 0 -0.018561409903210858 0.024657830023208791 0 -0.017894380317244725 0.027662902893249876 0 -0.015570996660042751 0.02562011905821222 0 -0.017894380317244725 0.027662902893249876 0 -0.015106511613785588 0.028775578492096218 0 -0.017894380317244725 0.027662902893249876 0 -0.017059548940399426 0.033271079913423471 0 -0.015106511613785588 0.028775578492096218 0 -0.017894380317244725 0.027662902893249876 0 -0.020382902866986824 0.029342652448769116 0 -0.017059548940399426 0.033271079913423471 0 -0.016149434393016911 0.031286607852500162 0 -0.014313705519355119 0.027086781900857115 0 -0.020382902866986824 0.029342652448769116 0 -0.020341544784153984 0.032213423166964628 0 -0.025380710755471839 0.029119218059343435 0 -0.020382902866986824 0.029342652448769116 0 -0.020341544784153984 0.032213423166964628 0 -0.017059548940399426 0.033271079913423471 0 -0.020341544784153984 0.032213423166964628 0 -0.020348505693354457 0.034878257523245873 0 -0.022399371482380453 0.034529329148998825 0 -0.020341544784153984 0.032213423166964628 0 -0.020348505693354457 0.034878257523245873 0 -0.017059548940399426 0.033271079913423471 0 -0.016139893313436186 0.029348190124990618 0 -0.012539623668823463 0.031343146532078682 0 -0.011450408869086708 0.027300098284128632 0 -0.012539623668823463 0.031343146532078682 0 -0.011450408869086708 0.027300098284128632 0 -0.0092534995495626021 0.030251659892958579 0 -0.010874367012741092 0.024051246942464653 0 -0.011450408869086708 0.027300098284128632 0 -0.012923827207541731 0.024265752255376111 0 -0.016139893313436186 0.029348190124990618 0 -0.011450408869086708 0.027300098284128632 0 -0.012923827207541731 0.024265752255376111 0 -0.010874367012741092 0.024051246942464653 0 -0.011450408869086708 0.027300098284128632 0 -0.0097436102528061907 0.025931034564898293 0 -0.0090656811511096759 0.024383139118237279 0 -0.0097436102528061907 0.025931034564898293 0 -0.0081167225903850237 0.025797655168032323 0 -0.010874367012741092 0.024051246942464653 0 -0.0090656811511096759 0.024383139118237279 0 -0.0097436102528061907 0.025931034564898293 0 -0.011450408869086708 0.027300098284128632 0 -0.0097436102528061907 0.025931034564898293 0 -0.0090082668841590264 0.027854745295975116 0 -0.0097436102528061907 0.025931034564898293 0 -0.0090082668841590264 0.027854745295975116 0 -0.0081167225903850237 0.025797655168032323 0 -0.011450408869086708 0.027300098284128632 0 -0.0090082668841590264 0.027854745295975116 0 -0.0092534995495626021 0.030251659892958579 0 -0.0090082668841590264 0.027854745295975116 0 -0.0092534995495626021 0.030251659892958579 0 -0.0085979917609821602 0.029114411704424869 0 -0.0090082668841590264 0.027854745295975116 0 -0.0085979917609821602 0.029114411704424869 0 -0.0078308125035160409 0.027747870364136357 0 -0.0078308125035160409 0.027747870364136357 0 -0.0079547627201195723 0.028970367004118834 0 -0.0071919585361501651 0.02817061104976553 0 -0.0085979917609821602 0.029114411704424869 0 -0.0078308125035160409 0.027747870364136357 0 -0.0079547627201195723 0.028970367004118834 0 -0.0090082668841590264 0.027854745295975116 0 -0.0078308125035160409 0.027747870364136357 0 -0.0081167225903850237 0.025797655168032323 0 -0.0078308125035160409 0.027747870364136357 0 -0.0063950310266440383 0.027080276917953658 0 -0.0067514837065459805 0.025858291176285447 0 -0.0078308125035160409 0.027747870364136357 0 -0.0063950310266440383 0.027080276917953658 0 -0.0071919585361501651 0.02817061104976553 0 -0.0063950310266440383 0.027080276917953658 0 -0.0055086635987020129 0.025551269298096459 0 -0.0046666179303670278 0.027022328905865287 0 -0.0063950310266440383 0.027080276917953658 0 -0.0046666179303670278 0.027022328905865287 0 -0.0062768013043086948 0.028176067491533372 0 -0.0063950310266440383 0.027080276917953658 0 -0.0062768013043086948 0.028176067491533372 0 -0.0071919585361501651 0.02817061104976553 0 -0.0063950310266440383 0.027080276917953658 0 -0.0055086635987020129 0.025551269298096459 0 -0.0067514837065459805 0.025858291176285447 0 -0.0055086635987020129 0.025551269298096459 0 -0.0045899500628190475 0.024367903962764403 0 -0.0063290478311123846 0.023498233586981263 0 -0.0055086635987020129 0.025551269298096459 0 -0.0067514837065459805 0.025858291176285447 0 -0.0063290478311123846 0.023498233586981263 0 -0.0090656811511096759 0.024383139118237279 0 -0.0081167225903850237 0.025797655168032323 0 -0.0063290478311123846 0.023498233586981263 0 -0.0081167225903850237 0.025797655168032323 0 -0.0067514837065459805 0.025858291176285447 0 -0.0063290478311123846 0.023498233586981263 0 -0.0078308125035160409 0.027747870364136357 0 -0.0081167225903850237 0.025797655168032323 0 -0.0067514837065459805 0.025858291176285447 0 -0.003234796284789111 0.02474246923756393 0 -0.0040907146048482553 0.025604207001126769 0 -0.0046666179303670278 0.027022328905865287 0 -0.003234796284789111 0.02474246923756393 0 -0.0036170320963900865 0.024737394810629743 0 -0.0040907146048482553 0.025604207001126769 0 -0.003328851318049616 0.023893847155887462 0 -0.0036170320963900865 0.024737394810629743 0 -0.0038594988724516498 0.024728484203491885 0 -0.003234796284789111 0.02474246923756393 0 -0.003328851318049616 0.023893847155887462 0 -0.0036170320963900865 0.024737394810629743 0 -0.0036170320963900865 0.024737394810629743 0 -0.0038594988724516498 0.024728484203491885 0 -0.0040907146048482553 0.025604207001126769 0 -0.0055086635987020129 0.025551269298096459 0 -0.0044940612233458346 0.025242211863680759 0 -0.0046666179303670278 0.027022328905865287 0 -0.0038594988724516498 0.024728484203491885 0 -0.0044940612233458346 0.025242211863680759 0 -0.0040907146048482553 0.025604207001126769 0 -0.0044940612233458346 0.025242211863680759 0 -0.0040907146048482553 0.025604207001126769 0 -0.0046666179303670278 0.027022328905865287 0 -0.0055086635987020129 0.025551269298096459 0 -0.0044940612233458346 0.025242211863680759 0 -0.0045899500628190475 0.024367903962764403 0 -0.0045899500628190475 0.024367903962764403 0 -0.0041117562062748152 0.024110664603134692 0 -0.0040612665352050123 0.024401483447135965 0 -0.0045899500628190475 0.024367903962764403 0 -0.0040585744656685685 0.023741358584182835 0 -0.0040537128303426914 0.023854454756079169 0 -0.0045899500628190475 0.024367903962764403 0 -0.0041117562062748152 0.024110664603134692 0 -0.0040537128303426914 0.023854454756079169 0 -0.0039816157178310975 0.023907520765665723 0 -0.0041117562062748152 0.024110664603134692 0 -0.0040537128303426914 0.023854454756079169 0 -0.0038594988724516498 0.024728484203491885 0 -0.0044940612233458346 0.025242211863680759 0 -0.0040612665352050123 0.024401483447135965 0 -0.0044940612233458346 0.025242211863680759 0 -0.0045899500628190475 0.024367903962764403 0 -0.0040612665352050123 0.024401483447135965 0 -0.0032454065963987257 0.023207123229161214 0 -0.003328851318049616 0.023893847155887462 0 -0.0036242125896304429 0.024001710032477218 0 -0.0043459403545992427 0.021727285914007157 0 -0.0059253205159768832 0.021524893958096803 0 -0.0032454065963987257 0.023207123229161214 0 -0.0038258166394818114 0.023887402394311811 0 -0.0040675866594898557 0.02383175799518646 0 -0.0032454065963987257 0.023207123229161214 0 -0.0038258166394818114 0.023887402394311811 0 -0.0036242125896304429 0.024001710032477218 0 -0.0038594988724516498 0.024728484203491885 0 -0.0040612665352050123 0.024401483447135965 0 -0.0036242125896304429 0.024001710032477218 0 -0.0040612665352050123 0.024401483447135965 0 -0.0038258166394818114 0.023887402394311811 0 -0.0036242125896304429 0.024001710032477218 0 -0.0041117562062748152 0.024110664603134692 0 -0.0040612665352050123 0.024401483447135965 0 -0.0038258166394818114 0.023887402394311811 0 -0.0039816157178310975 0.023907520765665723 0 -0.0038258166394818114 0.023887402394311811 0 -0.0040675866594898557 0.02383175799518646 0 -0.0039816157178310975 0.023907520765665723 0 -0.0041117562062748152 0.024110664603134692 0 -0.0038258166394818114 0.023887402394311811 0 -0.003328851318049616 0.023893847155887462 0 -0.0038594988724516498 0.024728484203491885 0 -0.0036242125896304429 0.024001710032477218 0 -0.0055900027134757587 0.020219385894557452 0 -0.0063844617610694342 0.018825504060547449 0 -0.0073282584346042222 0.01972453242000774 0 -0.0063844617610694342 0.018825504060547449 0 -0.0073282584346042222 0.01972453242000774 0 -0.0072068701749827277 0.018391361858921158 0 -0.0047386524173721901 0.024043534220590298 0 -0.0061144331832509525 0.022629161371386486 0 -0.0051924001667488047 0.02115236466132827 0 -0.0047386524173721901 0.024043534220590298 0 -0.0061144331832509525 0.022629161371386486 0 -0.0078100044638323438 0.023379095412109138 0 -0.0045899500628190475 0.024367903962764403 0 -0.0040585744656685685 0.023741358584182835 0 -0.0063290478311123846 0.023498233586981263 0 -0.0059253205159768832 0.021524893958096803 0 -0.0063218620644291635 0.018966092570204797 0 -0.0039816157178310975 0.023907520765665723 0 -0.0040675866594898557 0.02383175799518646 0 -0.0040537128303426914 0.023854454756079169 0 -0.0059253205159768832 0.021524893958096803 0 -0.0059220266272164623 0.021534893875024573 0 -0.0073282584346042222 0.01972453242000774 0 -0.0077377312612257965 0.017365108983945134 0 -0.0072068701749827277 0.018391361858921158 0 -0.0061144331832509525 0.022629161371386486 0 -0.0051924001667488047 0.02115236466132827 0 -0.0069497835030088804 0.021454543335118689 0 -0.0077377312612257965 0.017365108983945134 0 -0.0072165572221663801 0.017827610609011633 0 -0.0068989856322906476 0.017239856317149187 0 -0.0077377312612257965 0.017365108983945134 0 -0.0072068701749827277 0.018391361858921158 0 -0.0072165572221663801 0.017827610609011633 0 -0.0053758175996246769 0.017985504563008285 0 -0.0063844617610694342 0.018825504060547449 0 -0.0059966016969737156 0.016738419626031582 0 -0.0058893148664004745 0.016919541092446748 0 -0.005478161685910244 0.015267197662062604 0 -0.0063844617610694342 0.018825504060547449 0 -0.0068989856322906476 0.017239856317149187 0 -0.0055957162935406195 0.016544118983258853 0 -0.0063844617610694342 0.018825504060547449 0 -0.0072165572221663801 0.017827610609011633 0 -0.0068989856322906476 0.017239856317149187 0 -0.0063844617610694342 0.018825504060547449 0 -0.0072068701749827277 0.018391361858921158 0 -0.0072165572221663801 0.017827610609011633 0 -0.010340452069435712 0.022692663920436857 0 -0.0078100044638323438 0.023379095412109138 0 -0.009055494276395501 0.021473889909897313 0 -0.0090656811511096759 0.024383139118237279 0 -0.010340452069435712 0.022692663920436857 0 -0.0063290478311123846 0.023498233586981263 0 -0.0083988993553694938 0.022309873033388848 0 -0.0070174164967157452 0.022316121091251681 0 -0.0059253205159768832 0.021524893958096803 0 -0.0070174164967157452 0.022316121091251681 0 -0.0061144331832509525 0.022629161371386486 0 -0.0078100044638323438 0.023379095412109138 0 -0.0069497835030088804 0.021454543335118689 0 -0.0069497835030088804 0.021454543335118689 0 -0.009055494276395501 0.021473889909897313 0 -0.0079030248388249607 0.019942133968520542 0 -0.0078100044638323438 0.023379095412109138 0 -0.0069497835030088804 0.021454543335118689 0 -0.009055494276395501 0.021473889909897313 0 -0.0051924001667488047 0.02115236466132827 0 -0.0069497835030088804 0.021454543335118689 0 -0.0065651279783536807 0.01982818782254115 0 -0.0095135410504694259 0.019892884764341801 0 -0.0091463941766306098 0.018195379770748383 0 -0.011173696384478715 0.019538379409092532 0 -0.009055494276395501 0.021473889909897313 0 -0.0095135410504694259 0.019892884764341801 0 -0.0099151234506153485 0.02082203496074967 0 -0.0095135410504694259 0.019892884764341801 0 -0.0079030248388249607 0.019942133968520542 0 -0.0091463941766306098 0.018195379770748383 0 -0.009055494276395501 0.021473889909897313 0 -0.0095135410504694259 0.019892884764341801 0 -0.0079030248388249607 0.019942133968520542 0 -0.0069497835030088804 0.021454543335118689 0 -0.0079030248388249607 0.019942133968520542 0 -0.0065651279783536807 0.01982818782254115 0 -0.0079030248388249607 0.019942133968520542 0 -0.0065651279783536807 0.01982818782254115 0 -0.0073204046708086178 0.018446264910734519 0 -0.0073204046708086178 0.018446264910734519 0 -0.0054696262560063611 0.017986445601832053 0 -0.0077003633332113222 0.0164199358739784 0 -0.0065651279783536807 0.01982818782254115 0 -0.0073204046708086178 0.018446264910734519 0 -0.0054696262560063611 0.017986445601832053 0 -0.0073204046708086178 0.018446264910734519 0 -0.0091463941766306098 0.018195379770748383 0 -0.0077003633332113222 0.0164199358739784 0 -0.0091463941766306098 0.018195379770748383 0 -0.0098740978648508455 0.015517158881828688 0 -0.011692596919611236 0.016877450695876751 0 -0.0079030248388249607 0.019942133968520542 0 -0.0073204046708086178 0.018446264910734519 0 -0.0091463941766306098 0.018195379770748383 0 -0.004162625840875402 0.013889644130609644 0 -0.0065271040100840479 0.015074450475658552 0 -0.0047194419203548483 0.016140491283522899 0 -0.0068989856322906476 0.017239856317149187 0 -0.0065271040100840479 0.015074450475658552 0 -0.0047194419203548483 0.016140491283522899 0 -0.0058847227014027911 0.01561117103226364 0 -0.005478161685910244 0.015267197662062604 0 -0.0063218620644291635 0.018966092570204797 0 -0.0067189204484192563 0.015890695621190443 0 -0.0077377312612257965 0.017365108983945134 0 -0.0068989856322906476 0.017239856317149187 0 -0.0065271040100840479 0.015074450475658552 0 -0.0077377312612257965 0.017365108983945134 0 -0.0065271040100840479 0.015074450475658552 0 -0.0080455322821184356 0.013838588603884913 0 -0.0051924001667488047 0.02115236466132827 0 -0.0065651279783536807 0.01982818782254115 0 -0.0054696262560063611 0.017986445601832053 0 -0.0065271040100840479 0.015074450475658552 0 -0.0080455322821184356 0.013838588603884913 0 -0.0056808060606600977 0.013147821351944094 0 -0.004162625840875402 0.013889644130609644 0 -0.0065271040100840479 0.015074450475658552 0 -0.0056808060606600977 0.013147821351944094 0 -0.0036454760855638563 0.011742739386320906 0 -0.0056808060606600977 0.013147821351944094 0 -0.0059908535919615154 0.011262359747939047 0 -0.0044238181782864112 0.011407207514495558 0 -0.004791747582925325 0.01135378566281635 0 -0.0080455322821184356 0.013838588603884913 0 -0.0056808060606600977 0.013147821351944094 0 -0.0059908535919615154 0.011262359747939047 0 -0.0067189204484192563 0.015890695621190443 0 -0.0071130005572689753 0.01270323586174877 0 -0.0080455322821184356 0.013838588603884913 0 -0.0059908535919615154 0.011262359747939047 0 -0.0081395834527729707 0.010740189145442794 0 -0.0059908535919615154 0.011262359747939047 0 -0.006860411661732708 0.0094611209787308134 0 -0.0081395834527729707 0.010740189145442794 0 -0.0080909522049403756 0.0082547636418965533 0 -0.006860411661732708 0.0094611209787308134 0 -0.0081395834527729707 0.010740189145442794 0 -0.0059908535919615154 0.011262359747939047 0 -0.006860411661732708 0.0094611209787308134 0 -0.005285185117741337 0.0097232400399810785 0 -0.0041815679300823746 0.01159004022849232 0 -0.0059908535919615154 0.011262359747939047 0 -0.005285185117741337 0.0097232400399810785 0 -0.0091463941766306098 0.018195379770748383 0 -0.0098740978648508455 0.015517158881828688 0 -0.0077003633332113222 0.0164199358739784 0 -0.0098740978648508455 0.015517158881828688 0 -0.0077003633332113222 0.0164199358739784 0 -0.0083286393828908845 0.013601011782327439 0 -0.0077003633332113222 0.0164199358739784 0 -0.005940031987744075 0.014186924350067019 0 -0.0083286393828908845 0.013601011782327439 0 -0.0054696262560063611 0.017986445601832053 0 -0.0077003633332113222 0.0164199358739784 0 -0.005940031987744075 0.014186924350067019 0 -0.0075020743575665138 0.0098643772688839105 0 -0.0071130005572689753 0.01270323586174877 0 -0.006751893752429166 0.010125174331382719 0 -0.005940031987744075 0.014186924350067019 0 -0.0083286393828908845 0.013601011782327439 0 -0.0093760985294160902 0.011765348290269755 0 -0.0083286393828908845 0.013601011782327439 0 -0.010260373819049743 0.013427855155542668 0 -0.0098740978648508455 0.015517158881828688 0 -0.0083286393828908845 0.013601011782327439 0 -0.010260373819049743 0.013427855155542668 0 -0.0093760985294160902 0.011765348290269755 0 -0.010260373819049743 0.013427855155542668 0 -0.010996808411004108 0.012216012870780422 0 -0.0098740978648508455 0.015517158881828688 0 -0.010260373819049743 0.013427855155542668 0 -0.012401979146178055 0.013762526784811839 0 -0.010260373819049743 0.013427855155542668 0 -0.010996808411004108 0.012216012870780422 0 -0.012401979146178055 0.013762526784811839 0 -0.012291648938903388 0.011874451614711802 0 -0.012401979146178055 0.013762526784811839 0 -0.013473887518314678 0.01216999430798262 0 -0.012291648938903388 0.011874451614711802 0 -0.010996808411004108 0.012216012870780422 0 -0.012401979146178055 0.013762526784811839 0 -0.012401979146178055 0.013762526784811839 0 -0.014811258008631768 0.012985525353822943 0 -0.013906554226496401 0.015477295346183105 0 -0.014630683426993711 0.011404419765625371 0 -0.014811258008631768 0.012985525353822943 0 -0.013473887518314678 0.01216999430798262 0 -0.012401979146178055 0.013762526784811839 0 -0.014811258008631768 0.012985525353822943 0 -0.013473887518314678 0.01216999430798262 0 -0.0098740978648508455 0.015517158881828688 0 -0.012401979146178055 0.013762526784811839 0 -0.011692596919611236 0.016877450695876751 0 -0.012401979146178055 0.013762526784811839 0 -0.013906554226496401 0.015477295346183105 0 -0.011692596919611236 0.016877450695876751 0 -0.0091463941766306098 0.018195379770748383 0 -0.011692596919611236 0.016877450695876751 0 -0.011173696384478715 0.019538379409092532 0 -0.011692596919611236 0.016877450695876751 0 -0.013999459191680696 0.018944481668681137 0 -0.011173696384478715 0.019538379409092532 0 -0.013906554226496401 0.015477295346183105 0 -0.011692596919611236 0.016877450695876751 0 -0.013999459191680696 0.018944481668681137 0 -0.013906554226496401 0.015477295346183105 0 -0.013999459191680696 0.018944481668681137 0 -0.016354411079434906 0.017179772089369019 0 -0.013191436165175058 0.022853280167588998 0 -0.013999459191680696 0.018944481668681137 0 -0.011173696384478715 0.019538379409092532 0 -0.013191436165175058 0.022853280167588998 0 -0.013999459191680696 0.018944481668681137 0 -0.017579671653943807 0.020130023626527441 0 -0.012744818576790511 0.023515971982797312 0 -0.012014934731831767 0.021775255750740893 0 -0.013191436165175058 0.022853280167588998 0 -0.013062486015168722 0.024122930369133801 0 -0.011173696384478715 0.019538379409092532 0 -0.01042137327004063 0.021452601772178614 0 -0.0099151234506153485 0.02082203496074967 0 -0.011173696384478715 0.019538379409092532 0 -0.0095135410504694259 0.019892884764341801 0 -0.0099151234506153485 0.02082203496074967 0 -0.011173696384478715 0.019538379409092532 0 -0.017579671653943807 0.020130023626527441 0 -0.016354411079434906 0.017179772089369019 0 -0.022407356601465801 0.017767167520782785 0 -0.018670643255260258 0.020141914481477331 0 -0.022605727844507317 0.020683801309675467 0 -0.023037407975691666 0.024078395031269979 0 -0.015743782053051457 0.021562577584738746 0 -0.018413411013590709 0.020089598777106196 0 -0.013999459191680696 0.018944481668681137 0 -0.017579671653943807 0.020130023626527441 0 -0.016354411079434906 0.017179772089369019 0 -0.018413411013590709 0.020089598777106196 0 -0.022790405921197313 0.01770347197865323 0 -0.018670643255260258 0.020141914481477331 0 -0.022605727844507317 0.020683801309675467 0 -0.023649571430516079 0.017589431063954487 0 -0.016354411079434906 0.017179772089369019 0 -0.017563149204648978 0.014356629968748431 0 -0.022407356601465801 0.017767167520782785 0 -0.014811258008631768 0.012985525353822943 0 -0.013906554226496401 0.015477295346183105 0 -0.017563149204648978 0.014356629968748431 0 -0.013906554226496401 0.015477295346183105 0 -0.016354411079434906 0.017179772089369019 0 -0.017563149204648978 0.014356629968748431 0 -0.016695333366958168 0.011172746406076402 0 -0.014811258008631768 0.012985525353822943 0 -0.017563149204648978 0.014356629968748431 0 -0.016695333366958168 0.011172746406076402 0 -0.017563149204648978 0.014356629968748431 0 -0.018991640557211323 0.012097705857001925 0 -0.017563149204648978 0.014356629968748431 0 -0.018991640557211323 0.012097705857001925 0 -0.020872817250251065 0.013374299761998266 0 -0.020394488116088214 0.017962696687642929 0 -0.021826930018196609 0.019292262706835615 0 -0.020991520960126984 0.01151966088250626 0 -0.018991640557211323 0.012097705857001925 0 -0.020872817250251065 0.013374299761998266 0 -0.017563149204648978 0.014356629968748431 0 -0.023292900315419116 0.012898491589666107 0 -0.022407356601465801 0.017767167520782785 0 -0.023292900315419116 0.012898491589666107 0 -0.028158448880153161 0.014873968869213522 0 -0.022407356601465801 0.017767167520782785 0 -0.025505712063886625 0.016207066633286957 0 -0.022790405921197313 0.01770347197865323 0 -0.022239653849408108 0.011610715395127163 0 -0.020872817250251065 0.013374299761998266 0 -0.023812602150209115 0.012645433857972699 0 -0.023292900315419116 0.012898491589666107 0 -0.029426021453805757 0.011658740512934538 0 -0.028158448880153161 0.014873968869213522 0 -0.022239653849408108 0.011610715395127163 0 -0.020991520960126984 0.01151966088250626 0 -0.020872817250251065 0.013374299761998266 0 -0.021826930018196609 0.019292262706835615 0 -0.016852876953899414 0.026638759821295439 0 -0.015836844939362032 0.0401242775857883 0 -0.014379402142682419 0.039247608311595877 0 -0.015418031246440122 0.038205373962745239 0 -0.015836844939362032 0.0401242775857883 0 -0.013771529179182647 0.040603866987442165 0 -0.014379402142682419 0.039247608311595877 0 -0.016852876953899414 0.026638759821295439 0 -0.011851349879700534 0.0363106634264952 0 -0.014379402142682419 0.039247608311595877 0 -0.013917640010678292 0.037869386327560206 0 -0.015418031246440122 0.038205373962745239 0 -0.029426021453805757 0.011658740512934538 0 -0.030254713456523374 0.01593740547596734 0 -0.028158448880153161 0.014873968869213522 0 -0.030254713456523374 0.01593740547596734 0 -0.028158448880153161 0.014873968869213522 0 -0.027760343666780228 0.018447083554333717 0 -0.016852876953899414 0.026638759821295439 0 -0.017789167607931606 0.030657015174736731 0 -0.030254713456523374 0.01593740547596734 0 -0.031133080566300993 0.019765509939802965 0 -0.027760343666780228 0.018447083554333717 0 -0.031133080566300993 0.019765509939802965 0 -0.027760343666780228 0.018447083554333717 0 -0.028244702644587779 0.024298939126000802 0 -0.017789167607931606 0.030657015174736731 0 -0.017569223909551838 0.039819391864583366 0 -0.013917640010678292 0.037869386327560206 0 -0.015418031246440122 0.038205373962745239 0 -0.01501970830455482 0.036305456788546769 0 -0.011776127460036045 0.047952605397376585 0 -0.017569223909551838 0.039819391864583366 0 -0.0098368807347452188 0.067886169246404587 0 -0.011412957748431072 0.065820325240627586 0 -0.009163545492167028 0.066235093888014948 0 -0.017569223909551838 0.039819391864583366 0 -0.015436833063659852 0.048789658290617814 0 -0.011412957748431072 0.065820325240627586 0 -0.0091594863080269422 0.064250545788898328 0 -0.010818415929793162 0.062579724099055115 0 -0.011412957748431072 0.065820325240627586 0 -0.009163545492167028 0.066235093888014948 0 -0.0091594863080269422 0.064250545788898328 0 -0.017569223909551838 0.039819391864583366 0 -0.024371221610680439 0.030670093453476044 0 -0.025021147417205413 0.020986801725536637 0 -0.027760343666780228 0.018447083554333717 0 -0.028244702644587779 0.024298939126000802 0 -0.022605727844507317 0.020683801309675467 0 -0.025021147417205413 0.020986801725536637 0 -0.023037407975691666 0.024078395031269979 0 -0.022605727844507317 0.020683801309675467 0 -0.025021147417205413 0.020986801725536637 0 -0.023649571430516079 0.017589431063954487 0 -0.028158448880153161 0.014873968869213522 0 -0.023649571430516079 0.017589431063954487 0 -0.027760343666780228 0.018447083554333717 0 -0.025021147417205413 0.020986801725536637 0 -0.023649571430516079 0.017589431063954487 0 -0.027760343666780228 0.018447083554333717 0 -0.004524914681715014 0.069339682296181551 0 -0.0057338671549202564 0.068172422629112508 0 -0.0036170855215965345 0.067699141899019322 0 -0.0032848706760066591 0.068988355856096278 0 -0.004524914681715014 0.069339682296181551 0 -0.0036170855215965345 0.067699141899019322 0 -0.0035493867344353869 0.069995514452277668 0 -0.0032848706760066591 0.068988355856096278 0 -0.004524914681715014 0.069339682296181551 0 -0.0035493867344353869 0.069995514452277668 0 -0.004524914681715014 0.069339682296181551 0 -0.0043197370370576943 0.070367983086465594 0 -0.003568234941394216 0.071029535646247283 0 -0.0035493867344353869 0.069995514452277668 0 -0.0043197370370576943 0.070367983086465594 0 -0.0049420935700160455 0.070661367855454432 0 -0.0043197370370576943 0.070367983086465594 0 -0.004999301282635267 0.070173574029720756 0 -0.004524914681715014 0.069339682296181551 0 -0.0043197370370576943 0.070367983086465594 0 -0.004999301282635267 0.070173574029720756 0 -0.004524914681715014 0.069339682296181551 0 -0.004999301282635267 0.070173574029720756 0 -0.0057220513435837939 0.069828424638998743 0 -0.004999301282635267 0.070173574029720756 0 -0.005479256429975014 0.07059205680439963 0 -0.0057220513435837939 0.069828424638998743 0 -0.0049420935700160455 0.070661367855454432 0 -0.004999301282635267 0.070173574029720756 0 -0.005479256429975014 0.07059205680439963 0 -0.005479256429975014 0.07059205680439963 0 -0.0060323618912953448 0.07055427841751738 0 -0.0057220513435837939 0.069828424638998743 0 -0.0060323618912953448 0.07055427841751738 0 -0.0057220513435837939 0.069828424638998743 0 -0.0068050380102501681 0.070115262870132547 0 -0.0057220513435837939 0.069828424638998743 0 -0.0057338671549202564 0.068172422629112508 0 -0.0067512641361418772 0.069257509475490225 0 -0.004524914681715014 0.069339682296181551 0 -0.0057220513435837939 0.069828424638998743 0 -0.0057338671549202564 0.068172422629112508 0 -0.0055938754977658284 0.067875167162157815 0 -0.0082229427347157488 0.068685678574976386 0 -0.0075433565870506756 0.06682465594406635 0 -0.0057338671549202564 0.068172422629112508 0 -0.0067512641361418772 0.069257509475490225 0 -0.0082229427347157488 0.068685678574976386 0 -0.0055319006298468754 0.068066616661179358 0 -0.0067253725588772833 0.068394051945774637 0 -0.0067512641361418772 0.069257509475490225 0 -0.0075446445708512453 0.069387266193841862 0 -0.0082229427347157488 0.068685678574976386 0 -0.0083234626749354636 0.046113639900476969 0 -0.0090925265548233714 0.049700799470580974 0 -0.0057220513435837939 0.069828424638998743 0 -0.0067512641361418772 0.069257509475490225 0 -0.0068050380102501681 0.070115262870132547 0 -0.0069757592987145312 0.071009251308122495 0 -0.0068050380102501681 0.070115262870132547 0 -0.0082691440578384571 0.069645849726391498 0 -0.0063620167806122153 0.071064990781000106 0 -0.0060323618912953448 0.07055427841751738 0 -0.0068050380102501681 0.070115262870132547 0 -0.0068050380102501681 0.070115262870132547 0 -0.0075446445708512453 0.069387266193841862 0 -0.0082691440578384571 0.069645849726391498 0 -0.0067512641361418772 0.069257509475490225 0 -0.0068050380102501681 0.070115262870132547 0 -0.0075446445708512453 0.069387266193841862 0 -0.011661449196297953 0.041078316486329043 0 -0.013771529179182647 0.040603866987442165 0 -0.012792151837240225 0.039453944828268077 0 -0.013771529179182647 0.040603866987442165 0 -0.014379402142682419 0.039247608311595877 0 -0.012792151837240225 0.039453944828268077 0 -0.011776127460036045 0.047952605397376585 0 -0.0090925265548233714 0.049700799470580974 0 -0.0098368807347452188 0.067886169246404587 0 -0.0082691440578384571 0.069645849726391498 0 -0.0082229427347157488 0.068685678574976386 0 -0.014379402142682419 0.039247608311595877 0 -0.013917640010678292 0.037869386327560206 0 -0.012792151837240225 0.039453944828268077 0 -0.0075446445708512453 0.069387266193841862 0 -0.0082691440578384571 0.069645849726391498 0 -0.0082229427347157488 0.068685678574976386 0 -0.0098368807347452188 0.067886169246404587 0 -0.0082229427347157488 0.068685678574976386 0 -0.0086846257575677877 0.067416802708311463 0 -0.0082229427347157488 0.068685678574976386 0 -0.0086846257575677877 0.067416802708311463 0 -0.0075433565870506756 0.06682465594406635 0 -0.0098368807347452188 0.067886169246404587 0 -0.0086846257575677877 0.067416802708311463 0 -0.009163545492167028 0.066235093888014948 0 -0.0086846257575677877 0.067416802708311463 0 -0.009163545492167028 0.066235093888014948 0 -0.0075433565870506756 0.06682465594406635 0 -0.009163545492167028 0.066235093888014948 0 -0.0077803332734203597 0.065407976860870687 0 -0.0075433565870506756 0.06682465594406635 0 -0.009163545492167028 0.066235093888014948 0 -0.0091594863080269422 0.064250545788898328 0 -0.0077803332734203597 0.065407976860870687 0 -0.0091594863080269422 0.064250545788898328 0 -0.0077803332734203597 0.065407976860870687 0 -0.0072260969276337749 0.063864624717003091 0 -0.0077803332734203597 0.065407976860870687 0 -0.0061797626006868927 0.065555169743632027 0 -0.0075433565870506756 0.06682465594406635 0 -0.0077803332734203597 0.065407976860870687 0 -0.0061797626006868927 0.065555169743632027 0 -0.0072260969276337749 0.063864624717003091 0 -0.0061797626006868927 0.065555169743632027 0 -0.0062099536834048352 0.063939145779907655 0 -0.0072260969276337749 0.063864624717003091 0 -0.0055938754977658284 0.067875167162157815 0 -0.0061797626006868927 0.065555169743632027 0 -0.0075433565870506756 0.06682465594406635 0 -0.0055938754977658284 0.067875167162157815 0 -0.0061797626006868927 0.065555169743632027 0 -0.0045431422401674111 0.066345669837044707 0 -0.0061797626006868927 0.065555169743632027 0 -0.0046222940161417085 0.064794951119144434 0 -0.0062099536834048352 0.063939145779907655 0 -0.0061797626006868927 0.065555169743632027 0 -0.0045431422401674111 0.066345669837044707 0 -0.0046222940161417085 0.064794951119144434 0 -0.0025860204342132592 0.06584719200237811 0 -0.0045431422401674111 0.066345669837044707 0 -0.0046222940161417085 0.064794951119144434 0 -0.0025860204342132592 0.06584719200237811 0 -0.0045431422401674111 0.066345669837044707 0 -0.0032840200650473246 0.067324031337599136 0 -0.0055319006298468754 0.068066616661179358 0 -0.0036209155261659521 0.067565708459551427 0 -0.0055938754977658284 0.067875167162157815 0 -0.0045431422401674111 0.066345669837044707 0 -0.0032840200650473246 0.067324031337599136 0 -0.0020042866763022925 0.06354054113749788 0 -0.0046222940161417085 0.064794951119144434 0 -0.0050786804895759001 0.062795023274937037 0 -0.0020042866763022925 0.06354054113749788 0 -0.0033005979451008159 0.061146226878017719 0 -0.0050786804895759001 0.062795023274937037 0 -0.0049685610450925979 0.063102209117952196 0 -0.0051145113353717195 0.061817897188378039 0 -0.0046222940161417085 0.064794951119144434 0 -0.0062099536834048352 0.063939145779907655 0 -0.0048900484915369328 0.0616614936130261 0 -0.0048900484915369328 0.0616614936130261 0 -0.0068088555642783263 0.062317628167124231 0 -0.0070968864804918782 0.059968821359165453 0 -0.0062099536834048352 0.063939145779907655 0 -0.0048900484915369328 0.0616614936130261 0 -0.0068088555642783263 0.062317628167124231 0 -0.0068088555642783263 0.062317628167124231 0 -0.0085937302891075859 0.061315367580561955 0 -0.0070968864804918782 0.059968821359165453 0 -0.0068088555642783263 0.062317628167124231 0 -0.0072260969276337749 0.063864624717003091 0 -0.0085937302891075859 0.061315367580561955 0 -0.0062099536834048352 0.063939145779907655 0 -0.0068088555642783263 0.062317628167124231 0 -0.0072260969276337749 0.063864624717003091 0 -0.0072260969276337749 0.063864624717003091 0 -0.0093765588676211417 0.060302534684733226 0 -0.0081260490236299381 0.055368265810505343 0 -0.0091594863080269422 0.064250545788898328 0 -0.0072260969276337749 0.063864624717003091 0 -0.0093765588676211417 0.060302534684733226 0 -0.0091594863080269422 0.064250545788898328 0 -0.0093765588676211417 0.060302534684733226 0 -0.012902957923350023 0.060431508797874588 0 -0.0093765588676211417 0.060302534684733226 0 -0.0100125781013222 0.057517808874863914 0 -0.012902957923350023 0.060431508797874588 0 -0.0080291741204113788 0.060790970915229454 0 -0.008649656319057045 0.058385511694613146 0 -0.0093765588676211417 0.060302534684733226 0 -0.0100125781013222 0.057517808874863914 0 -0.0081260490236299381 0.055368265810505343 0 -0.0100125781013222 0.057517808874863914 0 -0.0081260490236299381 0.055368265810505343 0 -0.010743938996796994 0.054935764053449798 0 -0.0081260490236299381 0.055368265810505343 0 -0.0097535780260646215 0.05142199436220482 0 -0.010743938996796994 0.054935764053449798 0 -0.0085937302891075859 0.061315367580561955 0 -0.0097172945925848835 0.058022127461929508 0 -0.0070968864804918782 0.059968821359165453 0 -0.008649656319057045 0.058385511694613146 0 -0.0096211974432920434 0.055123437747184395 0 -0.0097172945925848835 0.058022127461929508 0 -0.0070968864804918782 0.059968821359165453 0 -0.007143345491375813 0.057597684213493233 0 -0.0048900484915369328 0.0616614936130261 0 -0.0070968864804918782 0.059968821359165453 0 -0.0053046595187564351 0.05880864295804885 0 -0.0051145113353717195 0.061817897188378039 0 -0.0053805248370753737 0.059550842723721568 0 -0.0070968864804918782 0.059968821359165453 0 -0.0053046595187564351 0.05880864295804885 0 -0.007143345491375813 0.057597684213493233 0 -0.0033005979451008159 0.061146226878017719 0 -0.0057119705382269719 0.059819285168869162 0 -0.0039414946030155093 0.058423607608274794 0 -0.0033005979451008159 0.061146226878017719 0 -0.0050786804895759001 0.062795023274937037 0 -0.0057119705382269719 0.059819285168869162 0 -0.023680033606683221 0.033401881575101197 0 -0.023696266155367969 0.033275098283362302 0 -0.023539392328549614 0.033256456679432833 0 -0.023037407975691666 0.024078395031269979 0 -0.028244702644587779 0.024298939126000802 0 -0.025380710755471839 0.029119218059343435 0 -0.024371221610680439 0.030670093453476044 0 -0.02406107640078399 0.031503630435065384 0 -0.022169606096400899 0.027144289125859991 0 -0.020382902866986824 0.029342652448769116 0 -0.025380710755471839 0.029119218059343435 0 -0.022169606096400899 0.027144289125859991 0 -0.023037407975691666 0.024078395031269979 0 -0.025380710755471839 0.029119218059343435 0 -0.025021147417205413 0.020986801725536637 0 -0.023037407975691666 0.024078395031269979 0 -0.028244702644587779 0.024298939126000802 0 -0.023447031427568706 0.033761770029364924 0 -0.023680033606683221 0.033401881575101197 0 -0.02341702081827195 0.033414430745905326 0 -0.011633939880376807 0.053871739480285327 0 -0.015436833063659852 0.048789658290617814 0 -0.0100125781013222 0.057517808874863914 0 -0.012902957923350023 0.060431508797874588 0 -0.010743938996796994 0.054935764053449798 0 -0.015436833063659852 0.048789658290617814 0 -0.015246910583391853 0.05178109998642634 0 -0.01104949271587656 0.056183789265107836 0 -0.010743938996796994 0.054935764053449798 0 -0.012450725316442424 0.054384277293706394 0 -0.023680033606683221 0.033401881575101197 0 -0.02341702081827195 0.033414430745905326 0 -0.023696266155367969 0.033275098283362302 0 -0.015436833063659852 0.048789658290617814 0 -0.017882109285986259 0.045021561373598494 0 -0.012450725316442424 0.054384277293706394 0 -0.011504527872255713 0.052961822532935035 0 -0.012386990708697077 0.052394462939522525 0 -0.010743938996796994 0.054935764053449798 0 -0.012450725316442424 0.054384277293706394 0 -0.011504527872255713 0.052961822532935035 0 -0.0097535780260646215 0.05142199436220482 0 -0.010743938996796994 0.054935764053449798 0 -0.011504527872255713 0.052961822532935035 0 -0.0097535780260646215 0.05142199436220482 0 -0.011504527872255713 0.052961822532935035 0 -0.011591112613054032 0.051156015046665837 0 -0.011504527872255713 0.052961822532935035 0 -0.012386990708697077 0.052394462939522525 0 -0.011591112613054032 0.051156015046665837 0 -0.012386990708697077 0.052394462939522525 0 -0.012513029046100082 0.050998514831533011 0 -0.011591112613054032 0.051156015046665837 0 -0.012386990708697077 0.052394462939522525 0 -0.013694827203004339 0.052213719124181719 0 -0.012513029046100082 0.050998514831533011 0 -0.017882109285986259 0.045021561373598494 0 -0.018401766304566143 0.043858749226706122 0 -0.023696266155367969 0.033275098283362302 0 -0.023543996447857811 0.033897676224290553 0 -0.023539392328549614 0.033256456679432833 0 -0.012450725316442424 0.054384277293706394 0 -0.012386990708697077 0.052394462939522525 0 -0.013694827203004339 0.052213719124181719 0 -0.023178536433788696 0.032932867880695965 0 -0.02406107640078399 0.031503630435065384 0 -0.020341544784153984 0.032213423166964628 0 -0.022399371482380453 0.034529329148998825 0 -0.025380710755471839 0.029119218059343435 0 -0.018401766304566143 0.043858749226706122 0 -0.018007464454092813 0.043922460503835824 0 -0.022399371482380453 0.034529329148998825 0 -0.023543996447857811 0.033897676224290553 0 -0.022496521372875226 0.03635240248766889 0 -0.022399371482380453 0.034529329148998825 0 -0.023543996447857811 0.033897676224290553 0 -0.023539392328549614 0.033256456679432833 0 -0.013694827203004339 0.052213719124181719 0 -0.014332592834195934 0.049633170996312738 0 -0.013110451401655971 0.049768023204360308 0 -0.013694827203004339 0.052213719124181719 0 -0.014332592834195934 0.049633170996312738 0 -0.015717306255886548 0.049755501357659236 0 -0.014332592834195934 0.049633170996312738 0 -0.014269139062741349 0.048363522281102633 0 -0.013110451401655971 0.049768023204360308 0 -0.014332592834195934 0.049633170996312738 0 -0.014269139062741349 0.048363522281102633 0 -0.015296056051787016 0.04791888965369144 0 -0.014269139062741349 0.048363522281102633 0 -0.012457405569579852 0.04846706631025554 0 -0.016238178543652532 0.046001411143125885 0 -0.014269139062741349 0.048363522281102633 0 -0.013110451401655971 0.049768023204360308 0 -0.012457405569579852 0.04846706631025554 0 -0.012015721849341294 0.049803510226371354 0 -0.011703752849738373 0.04942431706663325 0 -0.012457405569579852 0.04846706631025554 0 -0.013110451401655971 0.049768023204360308 0 -0.012015721849341294 0.049803510226371354 0 -0.012457405569579852 0.04846706631025554 0 -0.013694827203004339 0.052213719124181719 0 -0.013110451401655971 0.049768023204360308 0 -0.012513029046100082 0.050998514831533011 0 -0.013110451401655971 0.049768023204360308 0 -0.012513029046100082 0.050998514831533011 0 -0.012015721849341294 0.049803510226371354 0 -0.011591112613054032 0.051156015046665837 0 -0.010937957059830019 0.049572115299544223 0 -0.012015721849341294 0.049803510226371354 0 -0.012513029046100082 0.050998514831533011 0 -0.011591112613054032 0.051156015046665837 0 -0.012015721849341294 0.049803510226371354 0 -0.0097535780260646215 0.05142199436220482 0 -0.011591112613054032 0.051156015046665837 0 -0.010937957059830019 0.049572115299544223 0 -0.010937957059830019 0.049572115299544223 0 -0.012015721849341294 0.049803510226371354 0 -0.011703752849738373 0.04942431706663325 0 -0.011703752849738373 0.04942431706663325 0 -0.011152068757423333 0.050465387495887408 0 -0.011742580559697766 0.049691657286374084 0 -0.010937957059830019 0.049572115299544223 0 -0.011703752849738373 0.04942431706663325 0 -0.011152068757423333 0.050465387495887408 0 -0.010411442152416864 0.052623569118606654 0 -0.010734100363681677 0.051538722848733703 0 -0.011152068757423333 0.050465387495887408 0 -0.011742580559697766 0.049691657286374084 0 -0.011521527895936936 0.049766321482806165 0 -0.011742580559697766 0.049691657286374084 0 -0.011830278795060161 0.049655033598573893 0 -0.011521527895936936 0.049766321482806165 0 -0.011742580559697766 0.049691657286374084 0 -0.011830278795060161 0.049655033598573893 0 -0.011913286626022165 0.049496971697294896 0 -0.011742580559697766 0.049691657286374084 0 -0.011913286626022165 0.049496971697294896 0 -0.012025852772596499 0.049245393191912144 0 -0.011913286626022165 0.049496971697294896 0 -0.011786839186702092 0.049691523133449642 0 -0.011916883442300923 0.049201323988163341 0 -0.011830278795060161 0.049655033598573893 0 -0.011913286626022165 0.049496971697294896 0 -0.011786839186702092 0.049691523133449642 0 -0.011830278795060161 0.049655033598573893 0 -0.011786839186702092 0.049691523133449642 0 -0.011797306430630988 0.049629383494897199 0 -0.0043513462283816225 0.051538396520349618 0 -0.005848841197374624 0.051284957231643634 0 -0.011472857993056975 0.04972512459941094 0 -0.011285465591837166 0.0487906957978698 0 -0.011062739560599369 0.049362949811763229 0 -0.011472857993056975 0.04972512459941094 0 -0.011245371435371999 0.049885305318715108 0 -0.011062739560599369 0.049362949811763229 0 -0.011285465591837166 0.0487906957978698 0 -0.012457405569579852 0.04846706631025554 0 -0.010697735520162713 0.048437007314999739 0 -0.011786839186702092 0.049691523133449642 0 -0.011916883442300923 0.049201323988163341 0 -0.011285465591837166 0.0487906957978698 0 -0.012832127832751568 0.042444646125391595 0 -0.01180853514903595 0.04094056039636277 0 -0.011916883442300923 0.049201323988163341 0 -0.011285465591837166 0.0487906957978698 0 -0.012457405569579852 0.04846706631025554 0 -0.011703752849738373 0.04942431706663325 0 -0.012457405569579852 0.04846706631025554 0 -0.012025852772596499 0.049245393191912144 0 -0.011703752849738373 0.04942431706663325 0 -0.011742580559697766 0.049691657286374084 0 -0.012025852772596499 0.049245393191912144 0 -0.011913286626022165 0.049496971697294896 0 -0.011916883442300923 0.049201323988163341 0 -0.012025852772596499 0.049245393191912144 0 -0.011916883442300923 0.049201323988163341 0 -0.012457405569579852 0.04846706631025554 0 -0.012025852772596499 0.049245393191912144 0 -0.0031743279859814465 0.056504733860760603 0 -0.005884555810948643 0.056096778707554654 0 -0.0052319019179344192 0.053909205818256895 0 -0.0031743279859814465 0.056504733860760603 0 -0.0024504223981062184 0.054105513257939088 0 -0.0052319019179344192 0.053909205818256895 0 -0.0057119705382269719 0.059819285168869162 0 -0.0039414946030155093 0.058423607608274794 0 -0.005884555810948643 0.056096778707554654 0 -0.0031743279859814465 0.056504733860760603 0 -0.0039414946030155093 0.058423607608274794 0 -0.005884555810948643 0.056096778707554654 0 -0.0053805248370753737 0.059550842723721568 0 -0.0055335754751997795 0.058136485899428859 0 -0.0053046595187564351 0.05880864295804885 0 -0.005884555810948643 0.056096778707554654 0 -0.007143345491375813 0.057597684213493233 0 -0.005884555810948643 0.056096778707554654 0 -0.0079031160275370368 0.055164049852158219 0 -0.0052319019179344192 0.053909205818256895 0 -0.005884555810948643 0.056096778707554654 0 -0.0079031160275370368 0.055164049852158219 0 -0.007143345491375813 0.057597684213493233 0 -0.0097172945925848835 0.058022127461929508 0 -0.0079031160275370368 0.055164049852158219 0 -0.007143345491375813 0.057597684213493233 0 -0.0096211974432920434 0.055123437747184395 0 -0.010411442152416864 0.052623569118606654 0 -0.0097172945925848835 0.058022127461929508 0 -0.0106210916373508 0.054564848157135276 0 -0.0079031160275370368 0.055164049852158219 0 -0.0106210916373508 0.054564848157135276 0 -0.011152068757423333 0.050465387495887408 0 -0.0078152747766946553 0.052225887882155549 0 -0.011152068757423333 0.050465387495887408 0 -0.0078152747766946553 0.052225887882155549 0 -0.0095650778224379649 0.050019117408951715 0 -0.0106210916373508 0.054564848157135276 0 -0.0079031160275370368 0.055164049852158219 0 -0.0078152747766946553 0.052225887882155549 0 -0.0078152747766946553 0.052225887882155549 0 -0.0072814305205702494 0.050276048476800624 0 -0.0095650778224379649 0.050019117408951715 0 -0.0079031160275370368 0.055164049852158219 0 -0.0078152747766946553 0.052225887882155549 0 -0.0052319019179344192 0.053909205818256895 0 -0.0078152747766946553 0.052225887882155549 0 -0.0043408479796454274 0.05148812427708107 0 -0.0052319019179344192 0.053909205818256895 0 -0.0078152747766946553 0.052225887882155549 0 -0.0043408479796454274 0.05148812427708107 0 -0.0072814305205702494 0.050276048476800624 0 -0.0024504223981062184 0.054105513257939088 0 -0.0043408479796454274 0.05148812427708107 0 -0.0052319019179344192 0.053909205818256895 0 -0.0059993481534444393 0.049268047143379852 0 -0.0061089134806220002 0.049640057707532367 0 -0.0064561996627051036 0.048839607668870751 0 -0.0056075308281421463 0.049803094524365467 0 -0.0059993481534444393 0.049268047143379852 0 -0.0061089134806220002 0.049640057707532367 0 -0.0056075308281421463 0.049803094524365467 0 -0.0058763357413143943 0.050505937567760631 0 -0.0061089134806220002 0.049640057707532367 0 -0.0050044257525274317 0.051721964190993397 0 -0.0054636256048820357 0.050820533718058301 0 -0.0043408479796454274 0.05148812427708107 0 -0.0061089134806220002 0.049640057707532367 0 -0.0072814305205702494 0.050276048476800624 0 -0.0061089134806220002 0.049640057707532367 0 -0.0074305522013319034 0.04911652733915569 0 -0.0064561996627051036 0.048839607668870751 0 -0.0061089134806220002 0.049640057707532367 0 -0.0074305522013319034 0.04911652733915569 0 -0.0072814305205702494 0.050276048476800624 0 -0.0074305522013319034 0.04911652733915569 0 -0.0072814305205702494 0.050276048476800624 0 -0.0085773525190252446 0.049403537377643407 0 -0.0074305522013319034 0.04911652733915569 0 -0.0085773525190252446 0.049403537377643407 0 -0.008699831151408802 0.048730187602575976 0 -0.0072814305205702494 0.050276048476800624 0 -0.0095650778224379649 0.050019117408951715 0 -0.0085773525190252446 0.049403537377643407 0 -0.0095650778224379649 0.050019117408951715 0 -0.0097187165738870981 0.049095202642895304 0 -0.0085773525190252446 0.049403537377643407 0 -0.0097187165738870981 0.049095202642895304 0 -0.008699831151408802 0.048730187602575976 0 -0.010081219082977481 0.048179013003960436 0 -0.0097187165738870981 0.049095202642895304 0 -0.0085773525190252446 0.049403537377643407 0 -0.008699831151408802 0.048730187602575976 0 -0.0023801921801734809 0.050057832544646338 0 -0.00018040428742383438 0.05024595841766244 0 -0.008699831151408802 0.048730187602575976 0 -0.0077302618496185235 0.048037918288982878 0 -0.010081219082977481 0.048179013003960436 0 0.0055730216756911281 0.049924628743419623 0 0.0031735021078842201 0.04932419214586381 0 0.0074377135745357561 0.047890546318943572 0 0.0055730216756911281 0.049924628743419623 0 0.0051872298056194633 0.052151655938584736 0 0.0083359424439490189 0.04910233553775134 0 0.0055730216756911281 0.049924628743419623 0 0.0051872298056194633 0.052151655938584736 0 0.0036792008956877203 0.051209448688212401 0 0.0051872298056194633 0.052151655938584736 0 0.0036792008956877203 0.051209448688212401 0 0.0034505637592205044 0.053144085634274522 0 0.0055730216756911281 0.049924628743419623 0 0.0036792008956877203 0.051209448688212401 0 0.0031735021078842201 0.04932419214586381 0 0.0016778896277500591 0.051525687306109187 0 0.0031735021078842201 0.04932419214586381 0 -0.0018825259407084188 0.050788178764909694 0 0.0036792008956877203 0.051209448688212401 0 0.0016778896277500591 0.051525687306109187 0 0.0031735021078842201 0.04932419214586381 0 0.0036792008956877203 0.051209448688212401 0 0.0016778896277500591 0.051525687306109187 0 0.0034505637592205044 0.053144085634274522 0 -0.0074305522013319034 0.04911652733915569 0 -0.0077302618496185235 0.048037918288982878 0 -0.0064561996627051036 0.048839607668870751 0 -0.0074305522013319034 0.04911652733915569 0 -0.008699831151408802 0.048730187602575976 0 -0.0077302618496185235 0.048037918288982878 0 -0.0077302618496185235 0.048037918288982878 0 -0.0064561996627051036 0.048839607668870751 0 -0.00589137911279856 0.04904066639149237 0 -0.0023801921801734809 0.050057832544646338 0 -0.004705185859162902 0.050758121346712558 0 0.0016778896277500591 0.051525687306109187 0 -0.0018825259407084188 0.050788178764909694 0 -0.00011546460549188751 0.053233422453868522 0 -0.0018825259407084188 0.050788178764909694 0 -0.0055040154284048326 0.052773892056918771 0 -0.0084113721445183229 0.052907465937700453 0 -0.004705185859162902 0.050758121346712558 0 -0.0066360450670109317 0.051581488807589115 0 -0.0076590684217202679 0.050149074785550057 0 -0.00589137911279856 0.04904066639149237 0 -0.0062865750837933099 0.048787249999894963 0 -0.0076590684217202679 0.050149074785550057 0 -0.00589137911279856 0.04904066639149237 0 -0.0084113721445183229 0.052907465937700453 0 -0.0064561996627051036 0.048839607668870751 0 -0.00589137911279856 0.04904066639149237 0 -0.0062865750837933099 0.048787249999894963 0 -0.0055165027080476556 0.049193750414468301 0 -0.0059993481534444393 0.049268047143379852 0 -0.0062865750837933099 0.048787249999894963 0 -0.0059993481534444393 0.049268047143379852 0 -0.0064561996627051036 0.048839607668870751 0 -0.0062865750837933099 0.048787249999894963 0 0.017175551440289052 0.059839011335498044 0 0.017150852353431729 0.061124163483964336 0 0.018034292450342861 0.061903871198189117 0 0.017175551440289052 0.059839011335498044 0 0.017150852353431729 0.061124163483964336 0 0.016433923824980049 0.061398360695690525 0 0.016915307608500674 0.060431140214655059 0 0.016496706669816202 0.060952630284554304 0 0.016347294368245342 0.061811856030367103 0 -0.0016150945459775452 0.037863135652434945 0 -0.001311543358935383 0.037969043060664627 0 -0.0012360116503891544 0.038738744231869723 0 0.0025686481684658959 0.049968828118697961 0 0.0058838218986139272 0.05496676807179799 0 0.0025686481684658959 0.049968828118697961 0 0.0040613173539808586 0.045170818336268986 0 0.0025686481684658959 0.049968828118697961 0 0.0039389607622035685 0.051393518386857087 0 -0.012038352989416481 0.049232763624263591 0 -0.011620207399391623 0.049351738664828351 0 -0.011699866192553783 0.048832409262156359 0 0.016915307608500674 0.060431140214655059 0 0.016496706669816202 0.060952630284554304 0 0.016190565894955447 0.061080572460531474 0 0.016496706669816202 0.060952630284554304 0 0.016200737086327795 0.061084545584933973 0 0.016347294368245342 0.061811856030367103 0 0.00418630336937241 0.051400022062396682 0 0.0039389607622035685 0.051393518386857087 0 -0.00097994827783612457 0.038110530658173727 0 -0.001311543358935383 0.037969043060664627 0 -0.0012360116503891544 0.038738744231869723 0 -0.00097994827783612457 0.038110530658173727 0 -0.00087917189141978292 0.038447503046699562 0 -0.00071562816263115924 0.038208738030597482 0 -0.00097994827783612457 0.038110530658173727 0 -0.001049441428145048 0.037731537817348178 0 -0.00057286395930711232 0.037746980922867129 0 -0.00097994827783612457 0.038110530658173727 0 -0.001311543358935383 0.037969043060664627 0 -0.001049441428145048 0.037731537817348178 0 -0.0016150945459775452 0.037863135652434945 0 -0.001311543358935383 0.037969043060664627 0 -0.001049441428145048 0.037731537817348178 0 -0.011472857993056975 0.04972512459941094 0 -0.011668588588767674 0.050303352826387412 0 -0.011245371435371999 0.049885305318715108 0 0.0025686481684658959 0.049968828118697961 0 -0.0027682327182308964 0.045749616116198162 0 -0.0016150945459775452 0.037863135652434945 0 -0.001049441428145048 0.037731537817348178 0 -0.00091693292906114005 0.037185587115183334 0 -0.001049441428145048 0.037731537817348178 0 -0.00091693292906114005 0.037185587115183334 0 -0.00057286395930711232 0.037746980922867129 0 -0.011786839186702092 0.049691523133449642 0 -0.011790448614691848 0.049613932365959471 0 -0.011797306430630988 0.049629383494897199 0 -0.0043513462283816225 0.051538396520349618 0 0.0025686481684658959 0.049968828118697961 0 0.0025686481684658959 0.049968828118697961 0 0.0016098103503853246 0.049259563123736166 0 -0.012038352989416481 0.049232763624263591 0 -0.011797306430630988 0.049629383494897199 0 -0.011620207399391623 0.049351738664828351 0 -0.011830278795060161 0.049655033598573893 0 -0.011797306430630988 0.049629383494897199 0 -0.011521527895936936 0.049766321482806165 0 -0.011521527895936936 0.049766321482806165 0 -0.010634860783944218 0.049567695399713119 0 -0.01120015621637949 0.049296070420860004 0 -0.011797306430630988 0.049629383494897199 0 -0.011521527895936936 0.049766321482806165 0 -0.011620207399391623 0.049351738664828351 0 -0.011521527895936936 0.049766321482806165 0 -0.011620207399391623 0.049351738664828351 0 -0.01120015621637949 0.049296070420860004 0 -0.011152068757423333 0.050465387495887408 0 -0.0095650778224379649 0.050019117408951715 0 -0.010634860783944218 0.049567695399713119 0 -0.011152068757423333 0.050465387495887408 0 -0.011521527895936936 0.049766321482806165 0 -0.010634860783944218 0.049567695399713119 0 -0.0095650778224379649 0.050019117408951715 0 -0.0097187165738870981 0.049095202642895304 0 -0.010634860783944218 0.049567695399713119 0 -0.0097187165738870981 0.049095202642895304 0 -0.010634860783944218 0.049567695399713119 0 -0.010698600210533361 0.048999989033104256 0 -0.010634860783944218 0.049567695399713119 0 -0.010698600210533361 0.048999989033104256 0 -0.01120015621637949 0.049296070420860004 0 -0.0097187165738870981 0.049095202642895304 0 -0.010698600210533361 0.048999989033104256 0 -0.010081219082977481 0.048179013003960436 0 -0.010698600210533361 0.048999989033104256 0 -0.011699866192553783 0.048832409262156359 0 -0.010081219082977481 0.048179013003960436 0 0.0039389607622035685 0.051393518386857087 0 -0.00018040428742383438 0.05024595841766244 0 -0.010698600210533361 0.048999989033104256 0 -0.01120015621637949 0.049296070420860004 0 -0.011699866192553783 0.048832409262156359 0 -0.011620207399391623 0.049351738664828351 0 -0.01120015621637949 0.049296070420860004 0 -0.011699866192553783 0.048832409262156359 0 0.01472037340330372 0.062557236806285665 0 0.015781844942709941 0.063179409154774102 0 0.016347294368245342 0.061811856030367103 0 0.0068523249180134525 0.056583906035823139 0 0.0058838218986139272 0.05496676807179799 0 0.0039389607622035685 0.051393518386857087 0 0.0081393494004392292 0.053785292507530988 0 0.016200737086327795 0.061084545584933973 0 0.01472037340330372 0.062557236806285665 0 0.016347294368245342 0.061811856030367103 0 0.0055730216756911281 0.049924628743419623 0 0.0083359424439490189 0.04910233553775134 0 0.0074377135745357561 0.047890546318943572 0 0.011223934023682193 0.046477806282156767 0 0.0083359424439490189 0.04910233553775134 0 0.0074377135745357561 0.047890546318943572 0 0.01472037340330372 0.062557236806285665 0 0.015781844942709941 0.063179409154774102 0 0.014666089345701728 0.064267539479897759 0 0.013184131389530221 0.064186098676590447 0 0.01472037340330372 0.062557236806285665 0 0.014666089345701728 0.064267539479897759 0 0.0078836893978300217 0.057062583834299928 0 0.0081393494004392292 0.053785292507530988 0 0.015781844942709941 0.063179409154774102 0 0.016463812004508596 0.064304874737686174 0 0.014666089345701728 0.064267539479897759 0 0.017032746852493716 0.062651909661772323 0 0.018421327901126279 0.062581201488840346 0 0.016463812004508596 0.064304874737686174 0 -0.0011985216404118686 0.029558946384857523 0 -0.0019860245835694392 0.030166782615497285 0 -0.001443494099284174 0.030542027585520302 0 0.015781844942709941 0.063179409154774102 0 0.017032746852493716 0.062651909661772323 0 0.016463812004508596 0.064304874737686174 0 0.0023505781272346923 0.042775516943979262 0 0.0050584270917976848 0.045373901298742837 0 0.017032746852493716 0.062651909661772323 0 0.017117384535628319 0.061855844521143809 0 0.016433923824980049 0.061398360695690525 0 0.015781844942709941 0.063179409154774102 0 0.017032746852493716 0.062651909661772323 0 0.016433923824980049 0.061398360695690525 0 0.017032746852493716 0.062651909661772323 0 0.017117384535628319 0.061855844521143809 0 0.018194569470843358 0.062031625834537002 0 0.017032746852493716 0.062651909661772323 0 0.018194569470843358 0.062031625834537002 0 0.018421327901126279 0.062581201488840346 0 0.0077926155991027441 0.048730254368994599 0 0.0040613173539808586 0.045170818336268986 0 0.017117384535628319 0.061855844521143809 0 0.017150852353431729 0.061124163483964336 0 0.018194569470843358 0.062031625834537002 0 0.017117384535628319 0.061855844521143809 0 0.017150852353431729 0.061124163483964336 0 0.016433923824980049 0.061398360695690525 0 -0.00087917189141978292 0.038447503046699562 0 -0.0010597734787374464 0.038893320874881385 0 -0.00040581803412309233 0.038289623330887881 0 -0.00097994827783612457 0.038110530658173727 0 -0.00087917189141978292 0.038447503046699562 0 -0.0012360116503891544 0.038738744231869723 0 0.0017073007947382441 0.041179444070027223 0 0.0026239056135985276 0.043284959753680852 0 0.003391290317351056 0.042637148418341105 0 0.0040613173539808586 0.045170818336268986 0 0.0023505781272346923 0.042775516943979262 0 0.0040613173539808586 0.045170818336268986 0 0.0024373589277056026 0.042245891572897813 0 0.0023505781272346923 0.042775516943979262 0 0.0024373589277056026 0.042245891572897813 0 -0.00087917189141978292 0.038447503046699562 0 -0.0012360116503891544 0.038738744231869723 0 -0.0010597734787374464 0.038893320874881385 0 0.00066865694151051246 0.036829405423582699 0 0.00038628533368691772 0.037067879471918933 0 -0.001587569079978369 0.035353039213625002 0 0.00066865694151051246 0.036829405423582699 0 -0.001587569079978369 0.035353039213625002 0 -0.00079180935834731198 0.033498775074219944 0 0.0024373589277056026 0.042245891572897813 0 -0.00095529076781059508 0.030879571616973047 0 0.0023505781272346923 0.042775516943979262 0 -0.00091509733543000216 0.032328242900936936 0 0.00014584178019194481 0.015107146404471835 0 0.0010108026697303592 0.015165046449861309 0 0.00080421188662849489 0.013725412711103847 0 -0.00093615578492815929 0.038751166420293699 0 -0.00050913941629682257 0.039116819240828993 0 -0.00052764942086794958 0.038688971935890867 0 0.0010108026697303592 0.015165046449861309 0 0.0015152183298389992 0.014395337986458373 0 0.0026638529355159746 0.015801280747678139 0 0.00014584178019194481 0.015107146404471835 0 0.0010108026697303592 0.015165046449861309 0 0.0012095426744895884 0.016074354259586882 0 0.0010108026697303592 0.015165046449861309 0 0.0015152183298389992 0.014395337986458373 0 0.00080421188662849489 0.013725412711103847 0 0.0015152183298389992 0.014395337986458373 0 0.0015936061343129369 0.013738879347690131 0 0.00080421188662849489 0.013725412711103847 0 -0.00050913941629682257 0.039116819240828993 0 -0.00018245438873650606 0.038434977654667413 0 -0.00052764942086794958 0.038688971935890867 0 -0.00093615578492815929 0.038751166420293699 0 -0.00052764942086794958 0.038688971935890867 0 -0.00040581803412309233 0.038289623330887881 0 -0.00018245438873650606 0.038434977654667413 0 -0.00052764942086794958 0.038688971935890867 0 -0.00040581803412309233 0.038289623330887881 0 -0.00095529076781059508 0.030879571616973047 0 0.00044420550163575245 0.027099307825977831 0 0.0024373589277056026 0.042245891572897813 0 0.0019143606183121358 0.041538476561283476 0 0.0028357508216560333 0.014578410842016326 0 0.0023298279084877642 0.014483316060245747 0 0.0028587961735329925 0.014161165811675014 0 0.0028357508216560333 0.014578410842016326 0 0.0023298279084877642 0.014483316060245747 0 0.0023825166367859936 0.014796151284033079 0 0.0015152183298389992 0.014395337986458373 0 0.0023298279084877642 0.014483316060245747 0 0.0023965221302518908 0.015262418028561951 0 0.00068161617338313631 0.016792603078324968 0 0.0011224821403167671 0.018392946799527028 0 0.0011829157662461569 0.017188189831705877 0 0.0011224821403167671 0.018392946799527028 0 0.0015936061343129369 0.013738879347690131 0 0.0023298279084877642 0.014483316060245747 0 0.0022419741524377095 0.013501366129995328 0 0.0015152183298389992 0.014395337986458373 0 0.0015936061343129369 0.013738879347690131 0 0.0023298279084877642 0.014483316060245747 0 0.0028587961735329925 0.014161165811675014 0 0.0028925448326096157 0.013566389456149205 0 0.0032298659687939558 0.013919274688389721 0 0.0028587961735329925 0.014161165811675014 0 0.0028925448326096157 0.013566389456149205 0 0.0022419741524377095 0.013501366129995328 0 0.0023298279084877642 0.014483316060245747 0 0.0028587961735329925 0.014161165811675014 0 0.0022419741524377095 0.013501366129995328 0 0.003291393199776367 0.012693125787771278 0 0.0022419741524377095 0.013501366129995328 0 0.0023421891544204054 0.012061586663712121 0 0.003291393199776367 0.012693125787771278 0 0.0028925448326096157 0.013566389456149205 0 0.0032298659687939558 0.013919274688389721 0 0.003291393199776367 0.012693125787771278 0 0.0028925448326096157 0.013566389456149205 0 0.0022419741524377095 0.013501366129995328 0 0.0015936061343129369 0.013738879347690131 0 0.0022419741524377095 0.013501366129995328 0 0.0013159972658374531 0.012463891562897133 0 0.0022419741524377095 0.013501366129995328 0 0.0023421891544204054 0.012061586663712121 0 0.0013159972658374531 0.012463891562897133 0 0.0023421891544204054 0.012061586663712121 0 0.0013159972658374531 0.012463891562897133 0 0.0019030676553044243 0.010986059038181251 0 0.003291393199776367 0.012693125787771278 0 0.0023421891544204054 0.012061586663712121 0 0.0034445676167959489 0.011564611016227706 0 -0.00040581803412309233 0.038289623330887881 0 0.00019159993848010931 0.037615072464913892 0 -0.00057286395930711232 0.037746980922867129 0 -0.00097994827783612457 0.038110530658173727 0 -0.00071562816263115924 0.038208738030597482 0 -0.00057286395930711232 0.037746980922867129 0 -0.00087917189141978292 0.038447503046699562 0 -0.00071562816263115924 0.038208738030597482 0 -0.00040581803412309233 0.038289623330887881 0 -0.00071562816263115924 0.038208738030597482 0 -0.00040581803412309233 0.038289623330887881 0 -0.00057286395930711232 0.037746980922867129 0 0.0015936061343129369 0.013738879347690131 0 0.00080421188662849489 0.013725412711103847 0 0.0013159972658374531 0.012463891562897133 0 0.00044420550163575245 0.027099307825977831 0 0.0011186466206433974 0.025691203204404232 0 -0.00018245438873650606 0.038434977654667413 0 -0.00040581803412309233 0.038289623330887881 0 0.00019159993848010931 0.037615072464913892 0 0.0011186466206433974 0.025691203204404232 0 0.0015367878689729916 0.0256519513673918 0 0.00019159993848010931 0.037615072464913892 0 -0.00021035260426790323 0.037169000553419519 0 0.00055908058019855228 0.036767932157101363 0 -0.00091693292906114005 0.037185587115183334 0 -0.00021035260426790323 0.037169000553419519 0 -0.00057286395930711232 0.037746980922867129 0 0.00019159993848010931 0.037615072464913892 0 -0.00021035260426790323 0.037169000553419519 0 -0.00057286395930711232 0.037746980922867129 0 -0.00091693292906114005 0.037185587115183334 0 -0.00021035260426790323 0.037169000553419519 0 -0.00024554723558939829 0.036561673048491804 0 -0.0027682327182308964 0.045749616116198162 0 -0.0048774393082635223 0.041864214275216728 0 -0.011245371435371999 0.049885305318715108 0 -0.011062739560599369 0.049362949811763229 0 -0.010399157501868128 0.049280197314312338 0 -0.011285465591837166 0.0487906957978698 0 -0.011062739560599369 0.049362949811763229 0 -0.010857977045607353 0.049011794903128396 0 -0.010857977045607353 0.049011794903128396 0 -0.010399157501868128 0.049280197314312338 0 -0.010697735520162713 0.048437007314999739 0 -0.011062739560599369 0.049362949811763229 0 -0.010857977045607353 0.049011794903128396 0 -0.010399157501868128 0.049280197314312338 0 -0.011285465591837166 0.0487906957978698 0 -0.010857977045607353 0.049011794903128396 0 -0.010697735520162713 0.048437007314999739 0 -0.00024554723558939829 0.036561673048491804 0 0.00055908058019855228 0.036767932157101363 0 0.00043151768823105772 0.035942346186570995 0 -0.010399157501868128 0.049280197314312338 0 -0.0093865882303122879 0.048375508573038788 0 -0.010697735520162713 0.048437007314999739 0 -0.0048774393082635223 0.041864214275216728 0 -0.0051389576742010461 0.035981130250450785 0 -0.00021035260426790323 0.037169000553419519 0 -0.00024554723558939829 0.036561673048491804 0 0.00055908058019855228 0.036767932157101363 0 0.0023421891544204054 0.012061586663712121 0 0.0019030676553044243 0.010986059038181251 0 0.0034445676167959489 0.011564611016227706 0 0.0019030676553044243 0.010986059038181251 0 0.0034445676167959489 0.011564611016227706 0 0.0031834725399943315 0.010491413365758245 0 0.0034445676167959489 0.011564611016227706 0 0.0031834725399943315 0.010491413365758245 0 0.0043467742241868864 0.010912030399628622 0 0.0031834725399943315 0.010491413365758245 0 0.0025557589783826197 0.0095192971998679689 0 0.0036707167101854227 0.0094891789506574408 0 0.0019030676553044243 0.010986059038181251 0 0.0031834725399943315 0.010491413365758245 0 0.0025557589783826197 0.0095192971998679689 0 0.00055908058019855228 0.036767932157101363 0 0.00043151768823105772 0.035942346186570995 0 0.00092244777230519252 0.03592597636170157 0 0.0015367878689729916 0.0256519513673918 0 0.00074378116741383854 0.029687331879303235 0 -0.0017971738073650624 0.030351882235710604 0 -0.00036668965736763348 0.029361559143863309 0 -8.6788249402672501e-05 0.028816251892965751 0 -0.0017971738073650624 0.030351882235710604 0 -0.00078859983711347789 0.030327932666147129 0 -0.00036668965736763348 0.029361559143863309 0 -0.0051389576742010461 0.035981130250450785 0 0.00074378116741383854 0.029687331879303235 0 -0.01531521033067876 0.044196491039004936 0 -0.0063351764427652972 0.036341648592652882 0 -0.013941062466191858 0.037959573473956253 0 -0.0051389576742010461 0.035981130250450785 0 -0.002475244677287154 0.031228221156298343 0 0.00074378116741383854 0.029687331879303235 0 -0.00046701109649967737 0.024039877473266087 0 -0.00077224814838619581 0.030304055321592853 0 0.00052292901143447825 0.030274289741382708 0 -0.00036668965736763348 0.029361559143863309 0 -0.0083748967021719713 0.030936913965317833 0 -0.0089199958702903658 0.029463970019415777 0 -0.0081100308280234561 0.029891657272772213 0 0.00052292901143447825 0.030274289741382708 0 -0.00036668965736763348 0.029361559143863309 0 -8.6788249402672501e-05 0.028816251892965751 0 -0.00046701109649967737 0.024039877473266087 0 -0.002475244677287154 0.031228221156298343 0 0.00074378116741383854 0.029687331879303235 0 0.00062182494381805115 0.029765414579021984 0 -0.0083418839286226766 0.029525686262921895 0 -0.008759973707422597 0.029393022371884056 0 -0.0089199958702903658 0.029463970019415777 0 -0.0083418839286226766 0.029525686262921895 0 -0.0089199958702903658 0.029463970019415777 0 -0.0081100308280234561 0.029891657272772213 0 -0.0083418839286226766 0.029525686262921895 0 -0.008759973707422597 0.029393022371884056 0 -0.0084314638678078119 0.029227781306716945 0 -0.0025266084468163674 0.031247496360871554 0 -0.002475244677287154 0.031228221156298343 0 -0.0031201803715261199 0.030743610242274708 0 -0.002475244677287154 0.031228221156298343 0 -0.0092534995495626021 0.030251659892958579 0 -0.0063351764427652972 0.036341648592652882 0 -0.01072289889447448 0.033864692770191503 0 -0.0092534995495626021 0.030251659892958579 0 -0.008759973707422597 0.029393022371884056 0 -0.008667552958570135 0.029315151468471651 0 -0.0092534995495626021 0.030251659892958579 0 -0.0085979917609821602 0.029114411704424869 0 -0.008759973707422597 0.029393022371884056 0 -0.0085979917609821602 0.029114411704424869 0 -0.008759973707422597 0.029393022371884056 0 -0.0084314638678078119 0.029227781306716945 0 -0.016139893313436186 0.029348190124990618 0 -0.012539623668823463 0.031343146532078682 0 -0.013941062466191858 0.037959573473956253 0 -0.0063351764427652972 0.036341648592652882 0 -0.013941062466191858 0.037959573473956253 0 -0.01072289889447448 0.033864692770191503 0 -0.012539623668823463 0.031343146532078682 0 -0.013941062466191858 0.037959573473956253 0 -0.01072289889447448 0.033864692770191503 0 -0.012539623668823463 0.031343146532078682 0 -0.0092534995495626021 0.030251659892958579 0 -0.01072289889447448 0.033864692770191503 0 -0.020348505693354457 0.034878257523245873 0 -0.017059548940399426 0.033271079913423471 0 -0.018851557948346188 0.038626052231723766 0 -0.016139893313436186 0.029348190124990618 0 -0.013941062466191858 0.037959573473956253 0 -0.018851557948346188 0.038626052231723766 0 -0.016149434393016911 0.031286607852500162 0 -0.017266130764497067 0.03401440514958963 0 -0.013941062466191858 0.037959573473956253 0 -0.018851557948346188 0.038626052231723766 0 -0.016081759165393728 0.040670453764411842 0 -0.020348505693354457 0.034878257523245873 0 -0.018851557948346188 0.038626052231723766 0 -0.022496521372875226 0.03635240248766889 0 -0.020348505693354457 0.034878257523245873 0 -0.022399371482380453 0.034529329148998825 0 -0.022496521372875226 0.03635240248766889 0 -0.014332592834195934 0.049633170996312738 0 -0.015717306255886548 0.049755501357659236 0 -0.015296056051787016 0.04791888965369144 0 -0.015884675649416861 0.046890781382189543 0 -0.016238178543652532 0.046001411143125885 0 -0.016256524144927901 0.044204436541787531 0 -0.018851557948346188 0.038626052231723766 0 -0.022496521372875226 0.03635240248766889 0 -0.016256524144927901 0.044204436541787531 0 -0.015717306255886548 0.049755501357659236 0 -0.015884675649416861 0.046890781382189543 0 -0.016256524144927901 0.044204436541787531 0 -0.018007464454092813 0.043922460503835824 0 -0.01713496648805355 0.044555161773151504 0 -0.015717306255886548 0.049755501357659236 0 -0.015884675649416861 0.046890781382189543 0 -0.015296056051787016 0.04791888965369144 0 -0.014269139062741349 0.048363522281102633 0 -0.015296056051787016 0.04791888965369144 0 -0.016238178543652532 0.046001411143125885 0 -0.015884675649416861 0.046890781382189543 0 -0.015296056051787016 0.04791888965369144 0 -0.016238178543652532 0.046001411143125885 0 -0.01531521033067876 0.044196491039004936 0 -0.013941062466191858 0.037959573473956253 0 -0.016081759165393728 0.040670453764411842 0 -0.0051389576742010461 0.035981130250450785 0 -0.01180853514903595 0.04094056039636277 0 -0.01531521033067876 0.044196491039004936 0 -0.016238178543652532 0.046001411143125885 0 -0.016256524144927901 0.044204436541787531 0 -0.01531521033067876 0.044196491039004936 0 -0.016256524144927901 0.044204436541787531 0 -0.016081759165393728 0.040670453764411842 0 -0.018851557948346188 0.038626052231723766 0 -0.016256524144927901 0.044204436541787531 0 -0.016081759165393728 0.040670453764411842 0 0.0071714816096340927 0.014592751659515537 0 0.006768841683155901 0.01423761397555365 0 0.0073203686512791502 0.015667288386853748 0 0.0071714816096340927 0.014592751659515537 0 0.0073203686512791502 0.015667288386853748 0 0.007360019268264963 0.014464656842748077 0 -0.0029749820827451256 0.028865502682502403 0 -0.0056263343922257217 0.028836446599857585 0 -0.0053629038480362606 0.030485347830763471 0 0.00048532582534919984 0.022307706603023721 0 0.00040779113476744337 0.021960582181358511 0 0.0071714816096340927 0.014592751659515537 0 0.007360019268264963 0.014464656842748077 0 0.0070924791622118443 0.014171648689829614 0 0.0071714816096340927 0.014592751659515537 0 0.006768841683155901 0.01423761397555365 0 0.0070924791622118443 0.014171648689829614 0 0.0059904129837341918 0.014615882281046433 0 0.006768841683155901 0.01423761397555365 0 0.0063843540858453604 0.013846493736435891 0 0.0059904129837341918 0.014615882281046433 0 0.006768841683155901 0.01423761397555365 0 0.0073203686512791502 0.015667288386853748 0 -0.00089184857263489284 0.023257910850366832 0 -0.0031257824190283993 0.024118326018797244 0 -0.00028889385593761893 0.026999675231845474 0 -0.0029749820827451256 0.028865502682502403 0 -0.0046666179303670278 0.027022328905865287 0 -0.00089184857263489284 0.023257910850366832 0 0.00048532582534919984 0.022307706603023721 0 0.0053916920371207345 0.018506678959481753 0 0.0059904129837341918 0.014615882281046433 0 0.0073203686512791502 0.015667288386853748 0 -0.0029749820827451256 0.028865502682502403 0 -0.0046666179303670278 0.027022328905865287 0 -0.0056263343922257217 0.028836446599857585 0 -0.0046666179303670278 0.027022328905865287 0 -0.0062768013043086948 0.028176067491533372 0 -0.0056263343922257217 0.028836446599857585 0 -0.0062768013043086948 0.028176067491533372 0 -0.0071919585361501651 0.02817061104976553 0 -0.0070429472947827832 0.029032588815312631 0 -0.0056263343922257217 0.028836446599857585 0 -0.0070429472947827832 0.029032588815312631 0 -0.0063284269308211674 0.029869527523652989 0 -0.0062768013043086948 0.028176067491533372 0 -0.0056263343922257217 0.028836446599857585 0 -0.0070429472947827832 0.029032588815312631 0 -0.0085979917609821602 0.029114411704424869 0 -0.0084314638678078119 0.029227781306716945 0 -0.0079547627201195723 0.028970367004118834 0 -0.0079547627201195723 0.028970367004118834 0 -0.0071919585361501651 0.02817061104976553 0 -0.0070429472947827832 0.029032588815312631 0 -0.0070429472947827832 0.029032588815312631 0 -0.0076902364898108685 0.029438360911162528 0 -0.0072598037111387828 0.030066817885808377 0 -0.0079547627201195723 0.028970367004118834 0 -0.0070429472947827832 0.029032588815312631 0 -0.0076902364898108685 0.029438360911162528 0 -0.0083418839286226766 0.029525686262921895 0 -0.0079547627201195723 0.028970367004118834 0 -0.0076902364898108685 0.029438360911162528 0 -0.0083418839286226766 0.029525686262921895 0 -0.0076902364898108685 0.029438360911162528 0 -0.0081100308280234561 0.029891657272772213 0 -0.0083418839286226766 0.029525686262921895 0 -0.0084314638678078119 0.029227781306716945 0 -0.0079547627201195723 0.028970367004118834 0 -0.0083748967021719713 0.030936913965317833 0 -0.0072598037111387828 0.030066817885808377 0 -0.0063759133242827469 0.031045330776870324 0 -0.00046701109649967737 0.024039877473266087 0 0.00022860243355557553 0.021755896935242162 0 -0.0076902364898108685 0.029438360911162528 0 -0.0081100308280234561 0.029891657272772213 0 -0.0072598037111387828 0.030066817885808377 0 -0.0083748967021719713 0.030936913965317833 0 -0.0081100308280234561 0.029891657272772213 0 -0.0072598037111387828 0.030066817885808377 0 -0.0056263343922257217 0.028836446599857585 0 -0.0063284269308211674 0.029869527523652989 0 -0.0053629038480362606 0.030485347830763471 0 -0.0072598037111387828 0.030066817885808377 0 -0.0063284269308211674 0.029869527523652989 0 -0.0063759133242827469 0.031045330776870324 0 -0.0070429472947827832 0.029032588815312631 0 -0.0072598037111387828 0.030066817885808377 0 -0.0063284269308211674 0.029869527523652989 0 0.0072993344303970559 0.014243717814778786 0 0.007360019268264963 0.014464656842748077 0 0.00721189846848157 0.014110348617850725 0 -0.0063284269308211674 0.029869527523652989 0 -0.0063759133242827469 0.031045330776870324 0 -0.0053629038480362606 0.030485347830763471 0 0.00022860243355557553 0.021755896935242162 0 0.00040779113476744337 0.021960582181358511 0 0.007360019268264963 0.014464656842748077 0 0.00721189846848157 0.014110348617850725 0 0.0070924791622118443 0.014171648689829614 0 0.00721189846848157 0.014110348617850725 0 0.0070581199412226249 0.013916464337022944 0 0.0070924791622118443 0.014171648689829614 0 0.00721189846848157 0.014110348617850725 0 0.0072076108343553146 0.013920488797047126 0 0.0073307652696707366 0.014136007242607449 0 0.0072993344303970559 0.014243717814778786 0 0.00721189846848157 0.014110348617850725 0 0.0073307652696707366 0.014136007242607449 0 0.00022860243355557553 0.021755896935242162 0 0.001382222399699901 0.020851368709082808 0 0.00721189846848157 0.014110348617850725 0 0.0072076108343553146 0.013920488797047126 0 0.0070581199412226249 0.013916464337022944 0 0.0076165894267451522 0.014269433869582872 0 0.0073307652696707366 0.014136007242607449 0 0.0073644517837775873 0.013752148340626076 0 0.0076165894267451522 0.014269433869582872 0 0.0071340744412067159 0.014278463252869782 0 0.0073307652696707366 0.014136007242607449 0 -0.00046701109649967737 0.024039877473266087 0 0.0017210576132928993 0.016209514230965998 0 0.0031834725399943315 0.010491413365758245 0 0.0036707167101854227 0.0094891789506574408 0 0.0043467742241868864 0.010912030399628622 0 0.0072076108343553146 0.013920488797047126 0 0.0073307652696707366 0.014136007242607449 0 0.0073644517837775873 0.013752148340626076 0 0.0072076108343553146 0.013920488797047126 0 0.0073644517837775873 0.013752148340626076 0 0.0069465908606636444 0.013589252554365409 0 0.0073644517837775873 0.013752148340626076 0 0.0069465908606636444 0.013589252554365409 0 0.0068372795710263451 0.013322371104825998 0 0.0072076108343553146 0.013920488797047126 0 0.0070581199412226249 0.013916464337022944 0 0.0069465908606636444 0.013589252554365409 0 0.0070581199412226249 0.013916464337022944 0 0.0069465908606636444 0.013589252554365409 0 0.0068170890879670704 0.013624323289974526 0 0.0068170890879670704 0.013624323289974526 0 0.0066851066126398153 0.013678952573083209 0 0.0066001972711314623 0.013367972577902688 0 0.0069465908606636444 0.013589252554365409 0 0.0068170890879670704 0.013624323289974526 0 0.0066001972711314623 0.013367972577902688 0 0.0070581199412226249 0.013916464337022944 0 0.0068170890879670704 0.013624323289974526 0 0.0066851066126398153 0.013678952573083209 0 0.0070581199412226249 0.013916464337022944 0 0.0070924791622118443 0.014171648689829614 0 0.0066851066126398153 0.013678952573083209 0 0.006768841683155901 0.01423761397555365 0 0.0070924791622118443 0.014171648689829614 0 0.0066851066126398153 0.013678952573083209 0 0.006768841683155901 0.01423761397555365 0 0.0063843540858453604 0.013846493736435891 0 0.0066851066126398153 0.013678952573083209 0 0.0066851066126398153 0.013678952573083209 0 0.006486199358716623 0.013417662267916693 0 0.0066001972711314623 0.013367972577902688 0 0.0063843540858453604 0.013846493736435891 0 0.0066851066126398153 0.013678952573083209 0 0.006486199358716623 0.013417662267916693 0 0.0064859192684487985 0.013221243343263101 0 0.006486199358716623 0.013417662267916693 0 0.0066001972711314623 0.013367972577902688 0 0.0066001972711314623 0.013367972577902688 0 0.0064793269740260747 0.013299191664167145 0 0.0068372795710263451 0.013322371104825998 0 0.0066001972711314623 0.013367972577902688 0 0.0064434373926912526 0.013289687736680555 0 0.0064793269740260747 0.013299191664167145 0 0.0064434373926912526 0.013289687736680555 0 0.0064793269740260747 0.013299191664167145 0 0.0061136243482017277 0.013384114644645355 0 0.0064859192684487985 0.013221243343263101 0 0.0066001972711314623 0.013367972577902688 0 0.0064434373926912526 0.013289687736680555 0 0.0064859192684487985 0.013221243343263101 0 0.0065049920368330707 0.013235292764953653 0 0.0064434373926912526 0.013289687736680555 0 0.0034445676167959489 0.011564611016227706 0 0.0043467742241868864 0.010912030399628622 0 0.0051942190110174109 0.012318288283266402 0 0.003291393199776367 0.012693125787771278 0 0.0034445676167959489 0.011564611016227706 0 0.0051942190110174109 0.012318288283266402 0 0.0017210576132928993 0.016209514230965998 0 0.0034277939726621246 0.014510143680942661 0 0.0069465908606636444 0.013589252554365409 0 0.0066001972711314623 0.013367972577902688 0 0.0068372795710263451 0.013322371104825998 0 0.0034277939726621246 0.014510143680942661 0 0.0040242239113835688 0.014325495187042781 0 0.0064793269740260747 0.013299191664167145 0 0.0068372795710263451 0.013322371104825998 0 0.0061136243482017277 0.013384114644645355 0 0.0051942190110174109 0.012318288283266402 0 0.0047890223021777624 0.01350158592267427 0 0.0061136243482017277 0.013384114644645355 0 0.0034656403661756847 0.01306893602020307 0 0.0037443026121424146 0.013439580136541698 0 0.003291393199776367 0.012693125787771278 0 0.0051942190110174109 0.012318288283266402 0 0.0047890223021777624 0.01350158592267427 0 0.0032298659687939558 0.013919274688389721 0 0.0028607774257369072 0.014359563093518353 0 0.0029366953386246657 0.014374226966265386 0 0.0028587961735329925 0.014161165811675014 0 0.0032298659687939558 0.013919274688389721 0 0.0029366953386246657 0.014374226966265386 0 0.0037443026121424146 0.013439580136541698 0 0.0041629828987593135 0.014026695884522532 0 0.0061136243482017277 0.013384114644645355 0 0.0059455653726337987 0.013831730412258719 0 0.0062965731580052944 0.013469836726291843 0 0.0047890223021777624 0.01350158592267427 0 0.0061136243482017277 0.013384114644645355 0 0.0059455653726337987 0.013831730412258719 0 0.0041629828987593135 0.014026695884522532 0 0.0045771523774733652 0.014718756958431809 0 0.0028607774257369072 0.014359563093518353 0 0.0028248942155924511 0.014482033887939909 0 0.0026859985148506467 0.014651069260070124 0 0.0028607774257369072 0.014359563093518353 0 0.0028248942155924511 0.014482033887939909 0 0.0029366953386246657 0.014374226966265386 0 0.0028357508216560333 0.014578410842016326 0 0.0028587961735329925 0.014161165811675014 0 0.0029366953386246657 0.014374226966265386 0 0.0028248942155924511 0.014482033887939909 0 0.0029366953386246657 0.014374226966265386 0 0.0028274000755368024 0.014546408505032221 0 0.0028357508216560333 0.014578410842016326 0 0.0029366953386246657 0.014374226966265386 0 0.0028274000755368024 0.014546408505032221 0 0.0065049920368330707 0.013235292764953653 0 0.0064434373926912526 0.013289687736680555 0 0.0063993693548269146 0.013473280038598108 0 0.0064434373926912526 0.013289687736680555 0 0.0061136243482017277 0.013384114644645355 0 0.0062965731580052944 0.013469836726291843 0 0.0064434373926912526 0.013289687736680555 0 0.0063993693548269146 0.013473280038598108 0 0.0062965731580052944 0.013469836726291843 0 0.0059455653726337987 0.013831730412258719 0 0.0062965731580052944 0.013469836726291843 0 0.0062352110686719631 0.013679946978121825 0 0.0063993693548269146 0.013473280038598108 0 0.0062965731580052944 0.013469836726291843 0 0.0062352110686719631 0.013679946978121825 0 0.0059455653726337987 0.013831730412258719 0 0.0062352110686719631 0.013679946978121825 0 0.0062217220204310621 0.013790479628703594 0 0.0064862234602535958 0.013491608140932351 0 0.0063993693548269146 0.013473280038598108 0 0.0063618756042425999 0.01368996645015349 0 0.0064862234602535958 0.013491608140932351 0 0.0063618756042425999 0.01368996645015349 0 0.0065213393342060284 0.013725210350066802 0 0.0063993693548269146 0.013473280038598108 0 0.0062352110686719631 0.013679946978121825 0 0.0063618756042425999 0.01368996645015349 0 0.0063618756042425999 0.01368996645015349 0 0.0062217220204310621 0.013790479628703594 0 0.0063622443390760966 0.013949280807818097 0 0.0063618756042425999 0.01368996645015349 0 0.0063622443390760966 0.013949280807818097 0 0.0065213393342060284 0.013725210350066802 0 0.0062352110686719631 0.013679946978121825 0 0.0063618756042425999 0.01368996645015349 0 0.0062217220204310621 0.013790479628703594 0 0.0031954669529651145 0.014812398874388072 0 0.0030492611387688941 0.016250729664276101 0 0.0025062851227843374 0.0155121170180497 0 0.0030492611387688941 0.016250729664276101 0 0.0044873588855156568 0.016348526622034811 0 0.0035820942837943739 0.017479960865922468 0 0.0031954669529651145 0.014812398874388072 0 0.0030492611387688941 0.016250729664276101 0 0.0044873588855156568 0.016348526622034811 0 0.0045771523774733652 0.014718756958431809 0 0.0050887260758635125 0.015788436335353515 0 0.0050887260758635125 0.015788436335353515 0 0.0059280297552310006 0.014467439718262452 0 0.0021421986216760011 0.018799669008873397 0 0.0027599935462009647 0.017562977721678467 0 0.0028357508216560333 0.014578410842016326 0 0.0028795428624875949 0.014467243965560123 0 0.0028274000755368024 0.014546408505032221 0 0.0028795428624875949 0.014467243965560123 0 0.0028274000755368024 0.014546408505032221 0 0.0026859985148506467 0.014651069260070124 0 -1.9680085735948056e-05 0.015388323967025724 0 0.0026859985148506467 0.014651069260070124 0 0.0015811386943722105 0.015618694710050571 0 0.0028607774257369072 0.014359563093518353 0 0.0031954669529651145 0.014812398874388072 0 0.0026859985148506467 0.014651069260070124 0 0.0028248942155924511 0.014482033887939909 0 0.0028274000755368024 0.014546408505032221 0 0.0026859985148506467 0.014651069260070124 0 0.0026859985148506467 0.014651069260070124 0 0.0025062851227843374 0.0155121170180497 0 0.0015811386943722105 0.015618694710050571 0 0.0031954669529651145 0.014812398874388072 0 0.0026859985148506467 0.014651069260070124 0 0.0025062851227843374 0.0155121170180497 0 0.0030492611387688941 0.016250729664276101 0 0.0025062851227843374 0.0155121170180497 0 0.0019769040786751912 0.016406510239046098 0 0.0030492611387688941 0.016250729664276101 0 0.0019769040786751912 0.016406510239046098 0 0.0021744915167205372 0.017485765218373025 0 0.0025062851227843374 0.0155121170180497 0 0.0019769040786751912 0.016406510239046098 0 0.0015811386943722105 0.015618694710050571 0 0.0019769040786751912 0.016406510239046098 0 0.0015811386943722105 0.015618694710050571 0 0.00068698875298214856 0.016072018072360465 0 -1.9680085735948056e-05 0.015388323967025724 0 0.0015811386943722105 0.015618694710050571 0 0.00068698875298214856 0.016072018072360465 0 -1.9680085735948056e-05 0.015388323967025724 0 0.00068698875298214856 0.016072018072360465 0 0.00022129128114905104 0.016845781122931426 0 0.0021421986216760011 0.018799669008873397 0 0.0014055635483766575 0.020259156098432193 0 0.00068698875298214856 0.016072018072360465 0 0.00022129128114905104 0.016845781122931426 0 0.001254103653652754 0.017022350725390083 0 0.0019769040786751912 0.016406510239046098 0 0.00068698875298214856 0.016072018072360465 0 0.001254103653652754 0.017022350725390083 0 0.00022129128114905104 0.016845781122931426 0 0.001254103653652754 0.017022350725390083 0 0.0012040273536873007 0.018254639695410173 0 0.0014055635483766575 0.020259156098432193 0 0.00091522639275270145 0.023244772740514293 0 0.00056397079159034623 0.023115777327242033 0 0.00042115083026079649 0.022051878240925235 0 0.0011411895065929225 0.023288300301259907 0 6.4564064016012015e-05 0.019259253512552674 0 0.0011067069896322545 0.02052173718695495 0 0.00023071559626299481 0.020581670243226772 0 0.0014055635483766575 0.020259156098432193 0 0.0014346877046201767 0.020156084837790068 0 0.0021744915167205372 0.017485765218373025 0 0.0012040273536873007 0.018254639695410173 0 0.0024431219368212546 0.018653719303094191 0 0.001254103653652754 0.017022350725390083 0 0.0021744915167205372 0.017485765218373025 0 0.0012040273536873007 0.018254639695410173 0 0.0019769040786751912 0.016406510239046098 0 0.001254103653652754 0.017022350725390083 0 0.0021744915167205372 0.017485765218373025 0 0.0015043333787403191 0.021697683126708098 0 0.0011067069896322545 0.02052173718695495 0 0.0022231348458665208 0.021812956691581242 0 0.0014346877046201767 0.020156084837790068 0 0.0022077771979648214 0.021107616692187841 0 0.0012040273536873007 0.018254639695410173 0 0.0024431219368212546 0.018653719303094191 0 0.0019949074464603268 0.020107290591519066 0 0.00066719248361595169 0.020901385031705723 0 -0.0017073089616253445 0.01885291511295312 0 -0.0012826683571979982 0.022319323126693005 0 0.00091522639275270145 0.023244772740514293 0 0.00029088505419803224 0.024831195866893137 0 0.00084834397789634137 0.022399990705359009 0 0.00091522639275270145 0.023244772740514293 0 0.0015043333787403191 0.021697683126708098 0 0.0011067069896322545 0.02052173718695495 0 0.00023071559626299481 0.020581670243226772 0 -0.00018424903498633814 0.029224245803927299 0 -0.00035819249790231813 0.028336959846221244 0 0.0001263416308749536 0.02877044922336482 0 0.0045880654743158285 0.017332876430577397 0 0.0034750582608326437 0.017134041931469859 0 0.0037248676410088894 0.018662352473919848 0 0.0045880654743158285 0.017332876430577397 0 0.0053300868784593334 0.017867957249620779 0 0.0055851410848921168 0.017215854283892818 0 0.0050887260758635125 0.015788436335353515 0 0.0052576462429670965 0.016104012505564154 0 0.0045140971061879091 0.01589328217440656 0 0.0045880654743158285 0.017332876430577397 0 0.0055851410848921168 0.017215854283892818 0 0.0045140971061879091 0.01589328217440656 0 0.0045880654743158285 0.017332876430577397 0 0.0034750582608326437 0.017134041931469859 0 0.0050887260758635125 0.015788436335353515 0 0.0041832955537162994 0.016814081484341378 0 0.0030492611387688941 0.016250729664276101 0 0.0021744915167205372 0.017485765218373025 0 0.0035820942837943739 0.017479960865922468 0 0.0041832955537162994 0.016814081484341378 0 0.0037896399000398101 0.017272208786582352 0 0.0021744915167205372 0.017485765218373025 0 0.0035820942837943739 0.017479960865922468 0 0.0024431219368212546 0.018653719303094191 0 0.0034750582608326437 0.017134041931469859 0 0.0037248676410088894 0.018662352473919848 0 0.0024431219368212546 0.018653719303094191 0 0.0024431219368212546 0.018653719303094191 0 0.0030806532768353221 0.019940865085668346 0 0.0019949074464603268 0.020107290591519066 0 0.0037248676410088894 0.018662352473919848 0 0.0030806532768353221 0.019940865085668346 0 0.0040688422354727997 0.020350073536279913 0 0.0037248676410088894 0.018662352473919848 0 0.0024431219368212546 0.018653719303094191 0 0.0030806532768353221 0.019940865085668346 0 0.0048817934067036852 0.018999082450896914 0 0.0055955461172533241 0.02203124937219552 0 0.0062017061079532405 0.017977156514259643 0 0.0037248676410088894 0.018662352473919848 0 0.0048817934067036852 0.018999082450896914 0 0.0040688422354727997 0.020350073536279913 0 0.0045880654743158285 0.017332876430577397 0 0.0037248676410088894 0.018662352473919848 0 0.0048817934067036852 0.018999082450896914 0 0.0053300868784593334 0.017867957249620779 0 0.0048817934067036852 0.018999082450896914 0 0.0062017061079532405 0.017977156514259643 0 0.0045880654743158285 0.017332876430577397 0 0.0053300868784593334 0.017867957249620779 0 0.0048817934067036852 0.018999082450896914 0 0.0055955461172533241 0.02203124937219552 0 0.0040688422354727997 0.020350073536279913 0 0.0035742805597186659 0.023058063142698034 0 0.0048817934067036852 0.018999082450896914 0 0.0055955461172533241 0.02203124937219552 0 0.0040688422354727997 0.020350073536279913 0 0.0050372851885236818 0.020657425160549334 0 0.0038995778429407706 0.022289731931864482 0 0.0057277972617906505 0.019063616485549432 0 0.0052185276360475052 0.020220978464804668 0 0.0061853732573533878 0.020089770915206383 0 0.0055955461172533241 0.02203124937219552 0 0.0035742805597186659 0.023058063142698034 0 0.0038886617464447635 0.026221083574374734 0 0.0024091577422744913 0.024380734330105163 0 0.0035742805597186659 0.023058063142698034 0 0.0038886617464447635 0.026221083574374734 0 0.0024091577422744913 0.024380734330105163 0 0.0035742805597186659 0.023058063142698034 0 0.0029719272859243975 0.022801145875954994 0 0.0024091577422744913 0.024380734330105163 0 0.0029719272859243975 0.022801145875954994 0 0.0018127780445488591 0.023696893632058097 0 0.0035742805597186659 0.023058063142698034 0 0.0029719272859243975 0.022801145875954994 0 0.0022231348458665208 0.021812956691581242 0 0.0030806532768353221 0.019940865085668346 0 0.0040688422354727997 0.020350073536279913 0 0.0035742805597186659 0.023058063142698034 0 0.0027625466289345332 0.021811783291530107 0 0.0022077771979648214 0.021107616692187841 0 0.0030806532768353221 0.019940865085668346 0 0.0035742805597186659 0.023058063142698034 0 0.0019949074464603268 0.020107290591519066 0 0.00084834397789634137 0.022399990705359009 0 0.0013707604318387925 0.022614071589301267 0 0.00066719248361595169 0.020901385031705723 0 0.0029719272859243975 0.022801145875954994 0 0.0010150958924927951 0.022879989027296793 0 0.0015043333787403191 0.021697683126708098 0 0.0029719272859243975 0.022801145875954994 0 0.0022231348458665208 0.021812956691581242 0 0.00066719248361595169 0.020901385031705723 0 0.0010150958924927951 0.022879989027296793 0 -0.0012826683571979982 0.022319323126693005 0 -0.0012826683571979982 0.022319323126693005 0 0.00082920403153411695 0.024693166757095472 0 -0.00054418119292693281 0.026435295880914679 0 0.00029088505419803224 0.024831195866893137 0 0.00014936718916641037 0.025485177819721365 0 -0.00035819249790231813 0.028336959846221244 0 -0.00054418119292693281 0.026435295880914679 0 0.00040553054424197752 0.027441607228418187 0 0.0010150958924927951 0.022879989027296793 0 -0.0012826683571979982 0.022319323126693005 0 0.00082920403153411695 0.024693166757095472 0 0.0010150958924927951 0.022879989027296793 0 0.0018127780445488591 0.023696893632058097 0 0.00082920403153411695 0.024693166757095472 0 0.0029719272859243975 0.022801145875954994 0 0.0010150958924927951 0.022879989027296793 0 0.0018127780445488591 0.023696893632058097 0 0.0024091577422744913 0.024380734330105163 0 0.00082920403153411695 0.024693166757095472 0 0.0017350473405498017 0.025911500739748013 0 0.0024091577422744913 0.024380734330105163 0 0.0018127780445488591 0.023696893632058097 0 0.00082920403153411695 0.024693166757095472 0 0.0017350473405498017 0.025911500739748013 0 0.00056425953150968425 0.026169963717887261 0 0.00092358463763224212 0.02689538814929502 0 0.00082920403153411695 0.024693166757095472 0 0.0017350473405498017 0.025911500739748013 0 0.00056425953150968425 0.026169963717887261 0 0.00082920403153411695 0.024693166757095472 0 0.00056425953150968425 0.026169963717887261 0 -0.00054418119292693281 0.026435295880914679 0 0.00056425953150968425 0.026169963717887261 0 3.0405502790438347e-05 0.026674842027786905 0 -0.00054418119292693281 0.026435295880914679 0 3.0405502790438347e-05 0.026674842027786905 0 0.00017961633597408797 0.027108637454433444 0 0.00092358463763224212 0.02689538814929502 0 0.00056425953150968425 0.026169963717887261 0 3.0405502790438347e-05 0.026674842027786905 0 0.00092358463763224212 0.02689538814929502 0 0.0017350473405498017 0.025911500739748013 0 0.00092358463763224212 0.02689538814929502 0 0.0021370466343339314 0.027083549605368792 0 0.00092358463763224212 0.02689538814929502 0 0.0012099489324721583 0.027734377600309848 0 0.0021370466343339314 0.027083549605368792 0 -0.00032199467997361743 0.026668089954598857 0 -0.00028344995145166123 0.026551594698684663 0 0.00040553054424197752 0.027441607228418187 0 -0.00032199467997361743 0.026668089954598857 0 -0.00054418119292693281 0.026435295880914679 0 0.00040553054424197752 0.027441607228418187 0 -0.00032199467997361743 0.026668089954598857 0 -0.00054418119292693281 0.026435295880914679 0 -0.00033268575286663171 0.026662051524005494 0 3.0405502790438347e-05 0.026674842027786905 0 -0.00054418119292693281 0.026435295880914679 0 -0.00033268575286663171 0.026662051524005494 0 3.0405502790438347e-05 0.026674842027786905 0 -0.00010251703118109907 0.026922029277258452 0 -0.00033268575286663171 0.026662051524005494 0 3.0405502790438347e-05 0.026674842027786905 0 0.00017961633597408797 0.027108637454433444 0 -0.00010251703118109907 0.026922029277258452 0 -0.00010251703118109907 0.026922029277258452 0 -0.00033268575286663171 0.026662051524005494 0 -0.00040332914335333426 0.026646391637216507 0 -0.00032199467997361743 0.026668089954598857 0 -0.00033268575286663171 0.026662051524005494 0 -0.00040332914335333426 0.026646391637216507 0 -0.00032199467997361743 0.026668089954598857 0 -0.00040332914335333426 0.026646391637216507 0 -0.00028344995145166123 0.026551594698684663 0 0.00123771266487262 0.026381168894131224 0 0.0013525617761194378 0.025135191914911918 0 -0.00040332914335333426 0.026646391637216507 0 -0.00028344995145166123 0.026551594698684663 0 -0.0004620834504435321 0.026290319553312437 0 0.00080322388871177988 0.027719324566859483 0 0.00077618454324382673 0.027825716182674202 0 0.00089957239341597857 0.027865465723419552 0 -0.00040332914335333426 0.026646391637216507 0 -0.00060089162647561248 0.026510383438637486 0 -0.0004620834504435321 0.026290319553312437 0 0.0020926271285636152 0.024371089128298537 0 0.002286463362425131 0.024249744732671406 0 -0.00010251703118109907 0.026922029277258452 0 -0.00040332914335333426 0.026646391637216507 0 0.00020341672190296923 0.02776551979505985 0 0.002286463362425131 0.024249744732671406 0 0.0013525617761194378 0.025135191914911918 0 0.0016449906829455558 0.021551753758129719 0 0.0024887785366643103 0.02211342563601737 0 0.0018625699403795647 0.022295446471032373 0 0.0012099489324721583 0.027734377600309848 0 0.00020879965230723228 0.027900675103847791 0 0.0022599394143129835 0.029382394345599448 0 0.0012099489324721583 0.027734377600309848 0 0.0021370466343339314 0.027083549605368792 0 0.0022599394143129835 0.029382394345599448 0 0.002286463362425131 0.024249744732671406 0 0.0030468013264817054 0.021693944155101955 0 0.00017961633597408797 0.027108637454433444 0 0.00092358463763224212 0.02689538814929502 0 0.00039317605866694507 0.027579067930450687 0 0.0012099489324721583 0.027734377600309848 0 0.00039317605866694507 0.027579067930450687 0 0.00020879965230723228 0.027900675103847791 0 0.00092358463763224212 0.02689538814929502 0 0.0012099489324721583 0.027734377600309848 0 0.00039317605866694507 0.027579067930450687 0 0.00017961633597408797 0.027108637454433444 0 -0.00010251703118109907 0.026922029277258452 0 0.00020341672190296923 0.02776551979505985 0 0.00017961633597408797 0.027108637454433444 0 0.00039317605866694507 0.027579067930450687 0 0.00020341672190296923 0.02776551979505985 0 0.0022631329671509975 0.024287090126072945 0 0.002286463362425131 0.024249744732671406 0 0.0016449906829455558 0.021551753758129719 0 0.0018625699403795647 0.022295446471032373 0 0.0012690955618500626 0.022129349733430677 0 0.0056404745420569145 0.020980546972170427 0 0.0052185276360475052 0.020220978464804668 0 0.0047303314549317389 0.021309567241490794 0 0.0038995778429407706 0.022289731931864482 0 0.0030468013264817054 0.021693944155101955 0 0.0038886617464447635 0.026221083574374734 0 0.0021370466343339314 0.027083549605368792 0 0.0022599394143129835 0.029382394345599448 0 0.0056404745420569145 0.020980546972170427 0 0.0052185276360475052 0.020220978464804668 0 0.0061853732573533878 0.020089770915206383 0 0.0024091577422744913 0.024380734330105163 0 0.0017350473405498017 0.025911500739748013 0 0.0038886617464447635 0.026221083574374734 0 0.0017350473405498017 0.025911500739748013 0 0.0038886617464447635 0.026221083574374734 0 0.0021370466343339314 0.027083549605368792 0 0.00094953481828510247 0.027887515793541637 0 0.00087181142519700608 0.027948126900140743 0 0.00091797171838760099 0.027811548579266435 0 0.00041138204776733611 0.030346233234499087 0 0.001168625288322482 0.030856673794016087 0 0.0018295698829633115 0.029247841460881496 0 0.0010918081316942474 0.028300943171179191 0 0.0018295698829633115 0.029247841460881496 0 0.0013458531070938483 0.027649863220007224 0 0.00041138204776733611 0.030346233234499087 0 0.0010918081316942474 0.028300943171179191 0 0.0018295698829633115 0.029247841460881496 0 0.00095721544424303654 0.029166605098915072 0 0.0010643009518612107 0.028809587688858902 0 0.00094953481828510247 0.027887515793541637 0 0.0010918081316942474 0.028300943171179191 0 0.00087181142519700608 0.027948126900140743 0 0.00087181142519700608 0.027948126900140743 0 0.00075631903587497907 0.027775639110859642 0 0.0006966166055978767 0.027853023771017872 0 0.00070765775124816675 0.027765349821587043 0 0.00075631903587497907 0.027775639110859642 0 0.0006966166055978767 0.027853023771017872 0 0.00077618454324382673 0.027825716182674202 0 0.00070765775124816675 0.027765349821587043 0 0.0006966166055978767 0.027853023771017872 0 0.00080322388871177988 0.027719324566859483 0 0.00077618454324382673 0.027825716182674202 0 0.00070765775124816675 0.027765349821587043 0 0.00123771266487262 0.026381168894131224 0 0.0012030119701278016 0.026749902080453521 0 0.00060762901425531713 0.027640085306922621 0 0.00075631903587497907 0.027775639110859642 0 0.00074083470866143824 0.027726997516040641 0 0.00080322388871177988 0.027719324566859483 0 0.00060762901425531713 0.027640085306922621 0 0.00040553054424197752 0.027441607228418187 0 0.00080322388871177988 0.027719324566859483 0 0.00070765775124816675 0.027765349821587043 0 0.00060762901425531713 0.027640085306922621 0 0.00070765775124816675 0.027765349821587043 0 0.00060762901425531713 0.027640085306922621 0 0.00075631903587497907 0.027775639110859642 0 0.00087181142519700608 0.027948126900140743 0 0.00091797171838760099 0.027811548579266435 0 0.00075631903587497907 0.027775639110859642 0 0.00091797171838760099 0.027811548579266435 0 0.00075631903587497907 0.027775639110859642 0 0.00074083470866143824 0.027726997516040641 0 0.00091797171838760099 0.027811548579266435 0 0.00074083470866143824 0.027726997516040641 0 0.0012187729122834009 0.02801944767837165 0 0.00074083470866143824 0.027726997516040641 0 0.00051149650629940091 0.028362440899229558 0 0.0012187729122834009 0.02801944767837165 0 0.00074083470866143824 0.027726997516040641 0 0.00040553054424197752 0.027441607228418187 0 0.00051149650629940091 0.028362440899229558 0 0.00060762901425531713 0.027640085306922621 0 0.00074083470866143824 0.027726997516040641 0 0.00040553054424197752 0.027441607228418187 0 -0.00035819249790231813 0.028336959846221244 0 0.00040553054424197752 0.027441607228418187 0 0.00051149650629940091 0.028362440899229558 0 -0.00035819249790231813 0.028336959846221244 0 0.00051149650629940091 0.028362440899229558 0 0.0001263416308749536 0.02877044922336482 0 0.00051149650629940091 0.028362440899229558 0 0.0012187729122834009 0.02801944767837165 0 0.001200597742081556 0.029211995991817813 0 0.00079014025025385295 0.031741620623530045 0 0.00077686131214614097 0.031762915497817602 0 0.00069428086468719037 0.031782032291174905 0 0.00083575000409058476 0.029778792675965202 0 0.00071043526429272988 0.030380982030703597 0 0.00079014025025385295 0.031741620623530045 0 0.0005033789794765492 0.031565540511783147 0 0.0010194130134261027 0.031604865300965075 0 0.00079014025025385295 0.031741620623530045 0 0.0005033789794765492 0.031565540511783147 0 0.00069428086468719037 0.031782032291174905 0 0.00079014025025385295 0.031741620623530045 0 0.00089061335709749736 0.031800657158373491 0 0.00077686131214614097 0.031762915497817602 0 0.00041138204776733611 0.030346233234499087 0 0.0005033789794765492 0.031565540511783147 0 0.0010194130134261027 0.031604865300965075 0 0.00095721544424303654 0.029166605098915072 0 0.00083575000409058476 0.029778792675965202 0 0.00094953481828510247 0.027887515793541637 0 0.00091797171838760099 0.027811548579266435 0 0.0012187729122834009 0.02801944767837165 0 0.00041138204776733611 0.030346233234499087 0 0.001168625288322482 0.030856673794016087 0 0.0010194130134261027 0.031604865300965075 0 0.001168625288322482 0.030856673794016087 0 0.0010194130134261027 0.031604865300965075 0 0.0016534328304063065 0.031903461751332483 0 0.0010194130134261027 0.031604865300965075 0 0.0012319439135082075 0.031755914607616328 0 0.0016534328304063065 0.031903461751332483 0 0.0010194130134261027 0.031604865300965075 0 0.0012319439135082075 0.031755914607616328 0 0.0010110327924470757 0.031775742281426697 0 0.00079014025025385295 0.031741620623530045 0 0.0010194130134261027 0.031604865300965075 0 0.0010110327924470757 0.031775742281426697 0 0.0010110327924470757 0.031775742281426697 0 0.00089061335709749736 0.031800657158373491 0 0.0010198690055996237 0.031897761740972197 0 0.00079014025025385295 0.031741620623530045 0 0.0010110327924470757 0.031775742281426697 0 0.00089061335709749736 0.031800657158373491 0 0.0012319439135082075 0.031755914607616328 0 0.0010110327924470757 0.031775742281426697 0 0.0010198690055996237 0.031897761740972197 0 -0.00035697798901095399 0.032194394282031448 0 0.00028076614274856671 0.031653387298404168 0 -7.2168974204302506e-05 0.031651908852833283 0 -9.5012082922353233e-05 0.031925136793648279 0 8.4801379676907891e-05 0.031997122252607174 0 0.00057021967396926501 0.031568973825009679 0 -0.00035697798901095399 0.032194394282031448 0 -0.00042196985070501832 0.031797381561108923 0 -7.2168974204302506e-05 0.031651908852833283 0 -0.0004070040764789719 0.032114442132541797 0 8.1471990007596267e-05 0.031908797176173412 0 -0.00035697798901095399 0.032194394282031448 0 0.00057021967396926501 0.031568973825009679 0 0.00028076614274856671 0.031653387298404168 0 0.0010198690055996237 0.031897761740972197 0 0.00077686131214614097 0.031762915497817602 0 0.00061725978651489704 0.031581743072106268 0 0.00089061335709749736 0.031800657158373491 0 0.0010198690055996237 0.031897761740972197 0 0.00077686131214614097 0.031762915497817602 0 8.4801379676907891e-05 0.031997122252607174 0 0.00057021967396926501 0.031568973825009679 0 0.00061725978651489704 0.031581743072106268 0 0.00040973855686454583 0.031928480256433661 0 0.00058716312342700118 0.031810995662317418 0 0.00077686131214614097 0.031762915497817602 0 0.00069428086468719037 0.031782032291174905 0 0.00061725978651489704 0.031581743072106268 0 0.00028076614274856671 0.031653387298404168 0 0.00028052985897945387 0.031189653476099383 0 -7.2168974204302506e-05 0.031651908852833283 0 0.00028076614274856671 0.031653387298404168 0 0.0004543111424936866 0.03139970789897064 0 0.00028052985897945387 0.031189653476099383 0 0.00057021967396926501 0.031568973825009679 0 0.00028076614274856671 0.031653387298404168 0 0.00046457946095712914 0.031517534031879221 0 0.00054410519758938194 0.031460962065663976 0 0.0004543111424936866 0.03139970789897064 0 0.00061351209846038576 0.031362161117011615 0 0.00057021967396926501 0.031568973825009679 0 0.00054410519758938194 0.031460962065663976 0 0.00060868631854341364 0.03141516254139002 0 0.00057021967396926501 0.031568973825009679 0 0.00054410519758938194 0.031460962065663976 0 0.00046457946095712914 0.031517534031879221 0 0.00028076614274856671 0.031653387298404168 0 0.00046457946095712914 0.031517534031879221 0 0.0004543111424936866 0.03139970789897064 0 0.00054410519758938194 0.031460962065663976 0 0.00046457946095712914 0.031517534031879221 0 0.0004543111424936866 0.03139970789897064 0 0.0004543111424936866 0.03139970789897064 0 0.00061351209846038576 0.031362161117011615 0 0.00057633210374843946 0.031329738878232823 0 0.0004543111424936866 0.03139970789897064 0 0.00028052985897945387 0.031189653476099383 0 0.00057633210374843946 0.031329738878232823 0 0.00028052985897945387 0.031189653476099383 0 -7.2168974204302506e-05 0.031651908852833283 0 -0.00063712049240986768 0.031450851615671696 0 -0.00015955887986190097 0.031263850563419432 0 -0.00063198957225349243 0.031105955564630115 0 -0.00094082679075705865 0.031588376769248562 0 -0.00073211029525977443 0.028210665292682284 0 -0.0012660144004572901 0.029698512629213036 0 -0.00042196985070501832 0.031797381561108923 0 -7.2168974204302506e-05 0.031651908852833283 0 -0.00063712049240986768 0.031450851615671696 0 0.00051149650629940091 0.028362440899229558 0 0.00052458872589662296 0.029127698872322451 0 0.0001263416308749536 0.02877044922336482 0 0.00083146940680252867 0.028486267173101605 0 0.00087885229475431618 0.028172566393560777 0 -0.00018424903498633814 0.029224245803927299 0 0.00052458872589662296 0.029127698872322451 0 0.0001263416308749536 0.02877044922336482 0 0.00069428086468719037 0.031782032291174905 0 0.00061725978651489704 0.031581743072106268 0 0.00061983148467760387 0.031036858689028252 0 0.00036544864824627717 0.030036738655368388 0 0.001200597742081556 0.029211995991817813 0 0.00061983148467760387 0.031036858689028252 0 0.00071043526429272988 0.030380982030703597 0 0.00061848460383907855 0.030688220061369072 0 0.00051149650629940091 0.028362440899229558 0 0.00036544864824627717 0.030036738655368388 0 0.001200597742081556 0.029211995991817813 0 0.00036544864824627717 0.030036738655368388 0 0.00061983148467760387 0.031036858689028252 0 0.00056546605763972723 0.031622437792555871 0 0.00060868631854341364 0.03141516254139002 0 0.00061351209846038576 0.031362161117011615 0 0.00061983148467760387 0.031036858689028252 0 0.00061725978651489704 0.031581743072106268 0 0.00060868631854341364 0.03141516254139002 0 0.00061983148467760387 0.031036858689028252 0 0.00057021967396926501 0.031568973825009679 0 0.00061725978651489704 0.031581743072106268 0 0.00060868631854341364 0.03141516254139002 0 0.00054410519758938194 0.031460962065663976 0 0.00060868631854341364 0.03141516254139002 0 0.00061351209846038576 0.031362161117011615 0 0.00061351209846038576 0.031362161117011615 0 0.00057633210374843946 0.031329738878232823 0 0.00066914788762407714 0.031276840250927959 0 0.00057633210374843946 0.031329738878232823 0 0.00066914788762407714 0.031276840250927959 0 0.00065811199308622801 0.031397551456061122 0 0.00061351209846038576 0.031362161117011615 0 0.00066914788762407714 0.031276840250927959 0 0.00061983148467760387 0.031036858689028252 0 0.00066914788762407714 0.031276840250927959 0 0.00061983148467760387 0.031036858689028252 0 0.00056546605763972723 0.031622437792555871 0 0.00066914788762407714 0.031276840250927959 0 0.00056546605763972723 0.031622437792555871 0 0.00065811199308622801 0.031397551456061122 0 0.00042115083026079649 0.022051878240925235 0 0.0011411895065929225 0.023288300301259907 0 0.0017339261580929439 0.023181386927723844 0 -0.00018424903498633814 0.029224245803927299 0 0.00052458872589662296 0.029127698872322451 0 0.00057940701583179528 0.029853545322966541 0 0.00087885229475431618 0.028172566393560777 0 0.0009280729232664603 0.025195124570052484 0 0.00091522639275270145 0.023244772740514293 0 0.0009280729232664603 0.025195124570052484 0 0.0011014183228152126 0.020817683527299735 0 0.00096175747142052072 0.019762531623667236 0 0.0016563811613028736 0.020603182356484832 0 0.0021421986216760011 0.018799669008873397 0 0.0017100144037769285 0.020337514259201401 0 0.0014055635483766575 0.020259156098432193 0 0.0017100144037769285 0.020337514259201401 0 0.00056397079159034623 0.023115777327242033 0 0.0012013913726576719 0.023885593353645457 0 0.0011411895065929225 0.023288300301259907 0 0.0011411895065929225 0.023288300301259907 0 0.0017701006603800713 0.023667143203152691 0 0.0017339261580929439 0.023181386927723844 0 0.0012013913726576719 0.023885593353645457 0 0.0011411895065929225 0.023288300301259907 0 0.0017701006603800713 0.023667143203152691 0 0.0017100144037769285 0.020337514259201401 0 0.0011346202064614083 0.02281526086953535 0 0.00029716856886260985 0.025029715406427365 0 -0.00077223021287461653 0.026616249658894326 0 0.0027444230524516027 0.016924081062198688 0 0.0023364335499445111 0.017083265181236498 0 0.0023078973816195386 0.016388688378477147 0 0.0011346202064614083 0.02281526086953535 0 0.00029716856886260985 0.025029715406427365 0 -0.0012135097349610293 0.027396946484857746 0 -0.0015332623686998773 0.022972893625043657 0 0.0020950517858152593 0.026115428611126021 0 0.0011346202064614083 0.02281526086953535 0 0.0009280729232664603 0.025195124570052484 0 0.00056546605763972723 0.031622437792555871 0 0.00065811199308622801 0.031397551456061122 0 0.00067804617705856266 0.031359718173602578 0 0.0009280729232664603 0.025195124570052484 0 0.00029716856886260985 0.025029715406427365 0 0.00057633210374843946 0.031329738878232823 0 0.00065811199308622801 0.031397551456061122 0 0.00067804617705856266 0.031359718173602578 0 0.0023364335499445111 0.017083265181236498 0 0.0023078973816195386 0.016388688378477147 0 0.0012095426744895884 0.016074354259586882 0 0.0026638529355159746 0.015801280747678139 0 0.0023078973816195386 0.016388688378477147 0 0.0012095426744895884 0.016074354259586882 0 0.0011346202064614083 0.02281526086953535 0 0.0011224821403167671 0.018392946799527028 0 0.0027444230524516027 0.016924081062198688 0 0.0026638529355159746 0.015801280747678139 0 0.0023078973816195386 0.016388688378477147 0 0.0020914330291434231 0.017496694637902585 0 0.0021421986216760011 0.018799669008873397 0 0.0028357508216560333 0.014578410842016326 0 0.0029062810050334243 0.015055863307402408 0 0.0026902994120803652 0.014864811834776281 0 0.0014808218856677303 0.019629829336103945 0 0.0024465978926059974 0.01925660956164869 0 0.002569055888595849 0.020945256007267498 0 0.0028357508216560333 0.014578410842016326 0 0.0023825166367859936 0.014796151284033079 0 0.0026902994120803652 0.014864811834776281 0 0.0026656335147692252 0.015141437811090255 0 0.0023825166367859936 0.014796151284033079 0 0.0026902994120803652 0.014864811834776281 0 0.0017100144037769285 0.020337514259201401 0 0.0011224821403167671 0.018392946799527028 0 0.0029062810050334243 0.015055863307402408 0 0.0026656335147692252 0.015141437811090255 0 0.0026902994120803652 0.014864811834776281 0 -0.00031091986410190721 0.030808261921311478 0 -0.00066820678243635179 0.030735098539767438 0 -0.00063198957225349243 0.031105955564630115 0 -0.00066820678243635179 0.030735098539767438 0 -0.00063198957225349243 0.031105955564630115 0 -0.0011355473810631381 0.031141805288793598 0 -0.00015955887986190097 0.031263850563419432 0 -0.00031091986410190721 0.030808261921311478 0 -0.00063198957225349243 0.031105955564630115 0 0.00028052985897945387 0.031189653476099383 0 0.00057633210374843946 0.031329738878232823 0 0.00067804617705856266 0.031359718173602578 0 0.00061181600117399585 0.03094804191684496 0 4.9889595958017286e-05 0.030861351010513908 0 6.3508435877368908e-06 0.030431608195966804 0 -0.00073211029525977443 0.028210665292682284 0 0.00029716856886260985 0.025029715406427365 0 -0.00015955887986190097 0.031263850563419432 0 0.00061181600117399585 0.03094804191684496 0 4.9889595958017286e-05 0.030861351010513908 0 -0.00015955887986190097 0.031263850563419432 0 -0.00031091986410190721 0.030808261921311478 0 4.9889595958017286e-05 0.030861351010513908 0 -0.00031091986410190721 0.030808261921311478 0 4.9889595958017286e-05 0.030861351010513908 0 6.3508435877368908e-06 0.030431608195966804 0 0.0010108026697303592 0.015165046449861309 0 0.0026638529355159746 0.015801280747678139 0 0.0012095426744895884 0.016074354259586882 0 -0.00031091986410190721 0.030808261921311478 0 6.3508435877368908e-06 0.030431608195966804 0 -0.00046723633941827777 0.03045388556074996 0 -0.00095529076781059508 0.030879571616973047 0 -0.00077223021287461653 0.026616249658894326 0 -0.00060174455450131995 0.029905993165914749 0 6.3508435877368908e-06 0.030431608195966804 0 -0.00046723633941827777 0.03045388556074996 0 -0.00031091986410190721 0.030808261921311478 0 -0.00066820678243635179 0.030735098539767438 0 -0.00046723633941827777 0.03045388556074996 0 -0.00097055938632990737 0.032116060952528801 0 -0.00091509733543000216 0.032328242900936936 0 -0.00066820678243635179 0.030735098539767438 0 -0.00046723633941827777 0.03045388556074996 0 -0.00081486346083447451 0.030395804536670623 0 -0.00060174455450131995 0.029905993165914749 0 -0.00046723633941827777 0.03045388556074996 0 -0.00081486346083447451 0.030395804536670623 0 -0.00095529076781059508 0.030879571616973047 0 -0.00091509733543000216 0.032328242900936936 0 -0.0011985216404118686 0.029558946384857523 0 -0.00082387324077548769 0.030412770528768847 0 -0.001443494099284174 0.030542027585520302 0 -0.00066820678243635179 0.030735098539767438 0 -0.00081823500830790824 0.030393858894281412 0 -0.0011355473810631381 0.031141805288793598 0 -0.00091509733543000216 0.032328242900936936 0 -0.00076525911135292657 0.031695569685466503 0 -0.00082387324077548769 0.030412770528768847 0 -0.0011355473810631381 0.031141805288793598 0 -0.001443494099284174 0.030542027585520302 0 -0.0011355473810631381 0.031141805288793598 0 -0.0018779956142312251 0.031090258093419289 0 -0.0014130262096015453 0.03143849117240536 0 -0.0011355473810631381 0.031141805288793598 0 -0.0018779956142312251 0.031090258093419289 0 -0.001443494099284174 0.030542027585520302 0 -0.0018779956142312251 0.031090258093419289 0 -0.0019860245835694392 0.030166782615497285 0 -0.001443494099284174 0.030542027585520302 0 0.016463812004508596 0.064304874737686174 0 0.014666089345701728 0.064267539479897759 0 0.014804460230321571 0.065895899563554086 0 0.0050584270917976848 0.045373901298742837 0 0.0052213384159713197 0.047679053549683055 0 0.014666089345701728 0.064267539479897759 0 0.014804460230321571 0.065895899563554086 0 0.01320958666985917 0.06586619580865874 0 0.0052213384159713197 0.047679053549683055 0 0.0047311183489074839 0.04967806385890202 0 -0.0018779956142312251 0.031090258093419289 0 -0.0019860245835694392 0.030166782615497285 0 -0.0028575699709807571 0.030790113275991092 0 -0.0018779956142312251 0.031090258093419289 0 -0.0028575699709807571 0.030790113275991092 0 -0.0026708718438973622 0.031554736336272024 0 -0.0018779956142312251 0.031090258093419289 0 -0.0026708718438973622 0.031554736336272024 0 -0.0017102207004563428 0.031925313519200221 0 -0.0028575699709807571 0.030790113275991092 0 -0.0026708718438973622 0.031554736336272024 0 -0.0038395714870081178 0.031481516988865837 0 -0.0026708718438973622 0.031554736336272024 0 -0.0031485213417740796 0.032232784377349707 0 -0.0038395714870081178 0.031481516988865837 0 -0.0031485213417740796 0.032232784377349707 0 -0.0024398143456342862 0.032320907177681678 0 -0.002875535117044802 0.033204646831885121 0 -0.0026708718438973622 0.031554736336272024 0 -0.0031485213417740796 0.032232784377349707 0 -0.0024398143456342862 0.032320907177681678 0 -0.0026708718438973622 0.031554736336272024 0 -0.0024398143456342862 0.032320907177681678 0 -0.0017102207004563428 0.031925313519200221 0 -0.0017102207004563428 0.031925313519200221 0 -0.0011176360794102197 0.032197540583190846 0 -0.0016769037180756246 0.032741246238521642 0 -0.0024398143456342862 0.032320907177681678 0 -0.0017102207004563428 0.031925313519200221 0 -0.0016769037180756246 0.032741246238521642 0 -0.0017102207004563428 0.031925313519200221 0 -0.0011176360794102197 0.032197540583190846 0 -0.00076618496566781475 0.031919227060215799 0 -9.5012082922353233e-05 0.031925136793648279 0 8.4801379676907891e-05 0.031997122252607174 0 -0.00059616885668640303 0.032440283225522844 0 -0.00035697798901095399 0.032194394282031448 0 -0.0011176360794102197 0.032197540583190846 0 -0.0016769037180756246 0.032741246238521642 0 -0.0004070040764789719 0.032114442132541797 0 -0.0014030632843651475 0.032509055747951661 0 -0.00035697798901095399 0.032194394282031448 0 -0.00042196985070501832 0.031797381561108923 0 -0.00076618496566781475 0.031919227060215799 0 -0.00035697798901095399 0.032194394282031448 0 -0.0011176360794102197 0.032197540583190846 0 -0.00076618496566781475 0.031919227060215799 0 -0.0015797087155646613 0.030193848224029034 0 -0.0012660144004572901 0.029698512629213036 0 -0.0017102207004563428 0.031925313519200221 0 -0.00094082679075705865 0.031588376769248562 0 -0.0014130262096015453 0.03143849117240536 0 -0.0017102207004563428 0.031925313519200221 0 -0.00076618496566781475 0.031919227060215799 0 -0.00063712049240986768 0.031450851615671696 0 -0.00042196985070501832 0.031797381561108923 0 -0.00076618496566781475 0.031919227060215799 0 -0.00063712049240986768 0.031450851615671696 0 -0.00063198957225349243 0.031105955564630115 0 -0.0011355473810631381 0.031141805288793598 0 -0.00094082679075705865 0.031588376769248562 0 -0.0011355473810631381 0.031141805288793598 0 -0.00094082679075705865 0.031588376769248562 0 -0.0014130262096015453 0.03143849117240536 0 -0.0018779956142312251 0.031090258093419289 0 -0.0017102207004563428 0.031925313519200221 0 -0.0014130262096015453 0.03143849117240536 0 -0.00024191815880301694 0.056108941072472475 0 -0.0011918665164394927 0.058440843008189219 0 -0.0038371579332285412 0.058861397254668935 0 -0.0046878803864801692 0.056538614944594792 0 -0.0012384790769999136 0.056837054814859352 0 -0.006267157443606312 0.058405809836496542 0 -0.0012384790769999136 0.056837054814859352 0 -0.006267157443606312 0.058405809836496542 0 -0.0063641836678063309 0.060556697243989988 0 -0.00075047145852690726 0.05731204654219698 0 -0.0042953196940381097 0.060735301358528712 0 -0.0046878803864801692 0.056538614944594792 0 -0.0028070283579041009 0.054221251940297484 0 -0.0012384790769999136 0.056837054814859352 0 -0.0046878803864801692 0.056538614944594792 0 -0.0051912326745550928 0.055267843880643694 0 -0.0028070283579041009 0.054221251940297484 0 -0.0051912326745550928 0.055267843880643694 0 -0.0055040154284048326 0.052773892056918771 0 -0.0028070283579041009 0.054221251940297484 0 -0.0018825259407084188 0.050788178764909694 0 -0.0055040154284048326 0.052773892056918771 0 -0.0028070283579041009 0.054221251940297484 0 -0.0028070283579041009 0.054221251940297484 0 -0.00011546460549188751 0.053233422453868522 0 -0.0012384790769999136 0.056837054814859352 0 -0.00011546460549188751 0.053233422453868522 0 -0.0012384790769999136 0.056837054814859352 0 0.0034505637592205044 0.053144085634274522 0 -0.0018825259407084188 0.050788178764909694 0 -0.0028070283579041009 0.054221251940297484 0 -0.00011546460549188751 0.053233422453868522 0 0.011710404570864405 0.06584788446858153 0 0.011738001628951111 0.067486057200067465 0 0.010340149982714439 0.067524606800158371 0 -0.00024191815880301694 0.056108941072472475 0 0.0019749186774057855 0.055406813581079385 0 -0.0011918665164394927 0.058440843008189219 0 0.0063716263576898092 0.060065323970054346 0 0.0045216503946271316 0.062772242620140903 0 0.01320958666985917 0.06586619580865874 0 0.013196160067797285 0.067508491579846244 0 0.011738001628951111 0.067486057200067465 0 0.011710404570864405 0.06584788446858153 0 0.01320958666985917 0.06586619580865874 0 0.011738001628951111 0.067486057200067465 0 -0.00075047145852690726 0.05731204654219698 0 0.001365194595196365 0.055520742749263129 0 0.0016778896277500591 0.051525687306109187 0 -0.00011546460549188751 0.053233422453868522 0 0.0034505637592205044 0.053144085634274522 0 0.0078836893978300217 0.057062583834299928 0 0.0063716263576898092 0.060065323970054346 0 0.0051872298056194633 0.052151655938584736 0 0.0019749186774057855 0.055406813581079385 0 0.0034505637592205044 0.053144085634274522 0 -0.00024191815880301694 0.056108941072472475 0 0.0019749186774057855 0.055406813581079385 0 0.0034505637592205044 0.053144085634274522 0 0.013184131389530221 0.064186098676590447 0 0.011710404570864405 0.06584788446858153 0 0.01320958666985917 0.06586619580865874 0 0.013184131389530221 0.064186098676590447 0 0.014666089345701728 0.064267539479897759 0 0.01320958666985917 0.06586619580865874 0 0.014804460230321571 0.065895899563554086 0 0.01320958666985917 0.06586619580865874 0 0.013196160067797285 0.067508491579846244 0 -0.0031485213417740796 0.032232784377349707 0 -0.0038395714870081178 0.031481516988865837 0 -0.0039308454708718108 0.032644892958887999 0 -0.0038395714870081178 0.031481516988865837 0 -0.0048990787160181374 0.032250810384402376 0 -0.0039308454708718108 0.032644892958887999 0 0.0047311183489074839 0.04967806385890202 0 0.0042916671233830216 0.051783854158037566 0 0.013196160067797285 0.067508491579846244 0 0.011640135179445886 0.069069593073033383 0 0.011738001628951111 0.067486057200067465 0 0.011640135179445886 0.069069593073033383 0 0.011738001628951111 0.067486057200067465 0 0.010340149982714439 0.067524606800158371 0 0.011640135179445886 0.069069593073033383 0 0.010143772426897296 0.069242653961435113 0 0.010340149982714439 0.067524606800158371 0 0.011640135179445886 0.069069593073033383 0 0.010143772426897296 0.069242653961435113 0 0.010181443285480634 0.07047284606750974 0 0.010143772426897296 0.069242653961435113 0 0.010340149982714439 0.067524606800158371 0 0.0092135733039652862 0.06912459512900182 0 0.010143772426897296 0.069242653961435113 0 0.0092135733039652862 0.06912459512900182 0 0.0094730618130768069 0.069933804588533613 0 -0.0011918665164394927 0.058440843008189219 0 -0.0038371579332285412 0.058861397254668935 0 -0.0042839996512472854 0.061296666265331201 0 0.0045216503946271316 0.062772242620140903 0 0.0025895365698956185 0.06539378590466173 0 -0.0060317274178551591 0.033060895407961442 0 -0.0055370600592648716 0.034163620285323978 0 -0.0072890229465489616 0.034024766321054528 0 0.0045667276624144605 0.054543826067454122 0 0.0067550276917587608 0.058915785866569266 0 0.010143772426897296 0.069242653961435113 0 0.010181443285480634 0.07047284606750974 0 0.0094730618130768069 0.069933804588533613 0 0.010181443285480634 0.07047284606750974 0 0.0094730618130768069 0.069933804588533613 0 0.0093954571821023118 0.070619530661954935 0 0.0042916671233830216 0.051783854158037566 0 0.0045667276624144605 0.054543826067454122 0 -0.0048990787160181374 0.032250810384402376 0 -0.0060317274178551591 0.033060895407961442 0 -0.0050485326869269386 0.03331985566542079 0 -0.0060317274178551591 0.033060895407961442 0 -0.0050485326869269386 0.03331985566542079 0 -0.0055370600592648716 0.034163620285323978 0 -0.003761845483099355 0.033256457456252192 0 -0.0046262021855443796 0.034514985440486735 0 -0.0055370600592648716 0.034163620285323978 0 -0.0038511053276725784 0.033436596763419618 0 -0.0046286998802056549 0.033732092461673309 0 -0.0050485326869269386 0.03331985566542079 0 -0.0041526976233704485 0.033693051269511665 0 -0.0055370600592648716 0.034163620285323978 0 -0.0050485326869269386 0.03331985566542079 0 -0.0039308454708718108 0.032644892958887999 0 -0.0041526976233704485 0.033693051269511665 0 -0.0048990787160181374 0.032250810384402376 0 -0.0050485326869269386 0.03331985566542079 0 -0.0039308454708718108 0.032644892958887999 0 -0.0039308454708718108 0.032644892958887999 0 -0.0041526976233704485 0.033693051269511665 0 -0.002875535117044802 0.033204646831885121 0 -0.0038511053276725784 0.033436596763419618 0 -0.0025889156879738951 0.032959972883513051 0 -0.003761845483099355 0.033256457456252192 0 -0.0031366878551837402 0.034360248728627758 0 -0.002555267970483081 0.033657037441436458 0 -0.003761845483099355 0.033256457456252192 0 -0.0031366878551837402 0.034360248728627758 0 -0.003859696960736932 0.034518591157141371 0 -0.0031366878551837402 0.034360248728627758 0 -0.0035759084860666132 0.035053955825929073 0 -0.003859696960736932 0.034518591157141371 0 -0.0031366878551837402 0.034360248728627758 0 -0.0029692822467028879 0.035178968227292585 0 -0.0035759084860666132 0.035053955825929073 0 -0.0031366878551837402 0.034360248728627758 0 -0.0029692822467028879 0.035178968227292585 0 -0.0023005896523936339 0.034535011959899595 0 -0.0013054424646283518 0.045258349703807543 0 -0.00162755809349553 0.046290733953908786 0 -0.0029692822467028879 0.035178968227292585 0 -0.003336287306400254 0.035770275608207704 0 -0.0024548649874506765 0.035641051411854197 0 -0.003195227531978539 0.0358194368584972 0 -0.0037391126157643307 0.035728781056455168 0 -0.0035607910318681659 0.03667966098517926 0 -0.0029692822467028879 0.035178968227292585 0 -0.003195227531978539 0.0358194368584972 0 -0.0037391126157643307 0.035728781056455168 0 -0.0029692822467028879 0.035178968227292585 0 -0.0037391126157643307 0.035728781056455168 0 -0.0035759084860666132 0.035053955825929073 0 -0.0037391126157643307 0.035728781056455168 0 -0.0035759084860666132 0.035053955825929073 0 -0.0042730007510631838 0.035407025185901816 0 -0.0037391126157643307 0.035728781056455168 0 -0.0042730007510631838 0.035407025185901816 0 -0.0043435743618482087 0.03630462181312364 0 -0.0042730007510631838 0.035407025185901816 0 -0.0052170264511246928 0.036442191183833253 0 -0.0043435743618482087 0.03630462181312364 0 -0.0042730007510631838 0.035407025185901816 0 -0.0046262021855443796 0.034514985440486735 0 -0.0054266678538617778 0.035282794516072302 0 -0.003761845483099355 0.033256457456252192 0 -0.003859696960736932 0.034518591157141371 0 -0.0046262021855443796 0.034514985440486735 0 -0.0035759084860666132 0.035053955825929073 0 -0.0042730007510631838 0.035407025185901816 0 -0.003859696960736932 0.034518591157141371 0 -0.0042730007510631838 0.035407025185901816 0 -0.003859696960736932 0.034518591157141371 0 -0.0046262021855443796 0.034514985440486735 0 -0.0046262021855443796 0.034514985440486735 0 -0.0055370600592648716 0.034163620285323978 0 -0.0054266678538617778 0.035282794516072302 0 -0.0042730007510631838 0.035407025185901816 0 -0.0054266678538617778 0.035282794516072302 0 -0.0052170264511246928 0.036442191183833253 0 -0.0054266678538617778 0.035282794516072302 0 -0.0052170264511246928 0.036442191183833253 0 -0.0069215435119765658 0.035602195700164867 0 -0.0055370600592648716 0.034163620285323978 0 -0.0072890229465489616 0.034024766321054528 0 -0.0069215435119765658 0.035602195700164867 0 -0.0055370600592648716 0.034163620285323978 0 -0.0054266678538617778 0.035282794516072302 0 -0.0069215435119765658 0.035602195700164867 0 0.00060300953314394517 0.032461167674625799 0 0.0011908334960764242 0.031551144704909675 0 -0.00068277643139241491 0.032285045678905104 0 0.00060300953314394517 0.032461167674625799 0 -0.00068277643139241491 0.032285045678905104 0 -6.6256292046469308e-05 0.033617602667668535 0 0.00060300953314394517 0.032461167674625799 0 0.0016534328304063065 0.031903461751332483 0 0.00084945070311040613 0.033473722880842917 0 0.00060300953314394517 0.032461167674625799 0 0.0016534328304063065 0.031903461751332483 0 0.0011908334960764242 0.031551144704909675 0 0.0012319439135082075 0.031755914607616328 0 0.0010198690055996237 0.031897761740972197 0 0.0011908334960764242 0.031551144704909675 0 0.00040973855686454583 0.031928480256433661 0 -8.8641000724137527e-05 0.032194712925317184 0 -9.5012082922353233e-05 0.031925136793648279 0 -0.00059616885668640303 0.032440283225522844 0 -0.00098628844403022696 0.032269749050928172 0 0.0012319439135082075 0.031755914607616328 0 0.0016534328304063065 0.031903461751332483 0 0.0011908334960764242 0.031551144704909675 0 -8.8641000724137527e-05 0.032194712925317184 0 -0.00099599939952035779 0.032665975455838388 0 -0.00059616885668640303 0.032440283225522844 0 -0.00098628844403022696 0.032269749050928172 0 -0.0014637195289087001 0.032984325440622346 0 -0.0024398143456342862 0.032320907177681678 0 -0.0016769037180756246 0.032741246238521642 0 -0.002875535117044802 0.033204646831885121 0 -0.00098628844403022696 0.032269749050928172 0 -0.0021753038003298774 0.032663748659586725 0 -0.0014637195289087001 0.032984325440622346 0 -0.0014030632843651475 0.032509055747951661 0 -0.0025889156879738951 0.032959972883513051 0 -0.0031485213417740796 0.032232784377349707 0 -0.0039308454708718108 0.032644892958887999 0 -0.002875535117044802 0.033204646831885121 0 -0.0021753038003298774 0.032663748659586725 0 -0.002555267970483081 0.033657037441436458 0 -0.0014637195289087001 0.032984325440622346 0 -0.003761845483099355 0.033256457456252192 0 -0.0021753038003298774 0.032663748659586725 0 -0.002555267970483081 0.033657037441436458 0 -0.002555267970483081 0.033657037441436458 0 -0.00068277643139241491 0.032285045678905104 0 -0.0013279196198352548 0.034123709324128775 0 -0.0016225285562698497 0.033005130619586244 0 -0.00099599939952035779 0.032665975455838388 0 -0.00068277643139241491 0.032285045678905104 0 -0.0013279196198352548 0.034123709324128775 0 -6.6256292046469308e-05 0.033617602667668535 0 -0.0013279196198352548 0.034123709324128775 0 -0.00043992587947146622 0.034679544542607479 0 -6.6256292046469308e-05 0.033617602667668535 0 -0.0031366878551837402 0.034360248728627758 0 -0.002555267970483081 0.033657037441436458 0 -0.0023005896523936339 0.034535011959899595 0 -0.002555267970483081 0.033657037441436458 0 -0.0013279196198352548 0.034123709324128775 0 -0.0023005896523936339 0.034535011959899595 0 -0.0013279196198352548 0.034123709324128775 0 -0.0023005896523936339 0.034535011959899595 0 -0.0018722163866297515 0.035196594513629276 0 -0.0029692822467028879 0.035178968227292585 0 -0.0024076746910089708 0.03514970077450455 0 -0.0024548649874506765 0.035641051411854197 0 -0.0029692822467028879 0.035178968227292585 0 -0.0023005896523936339 0.034535011959899595 0 -0.0024076746910089708 0.03514970077450455 0 -0.0023005896523936339 0.034535011959899595 0 -0.0024076746910089708 0.03514970077450455 0 -0.0018722163866297515 0.035196594513629276 0 -0.0024076746910089708 0.03514970077450455 0 -0.0018722163866297515 0.035196594513629276 0 -0.0024548649874506765 0.035641051411854197 0 -0.0018722163866297515 0.035196594513629276 0 -0.0017906403491040257 0.035887779701925131 0 -0.0024548649874506765 0.035641051411854197 0 -0.0017906403491040257 0.035887779701925131 0 -0.0024548649874506765 0.035641051411854197 0 -0.0022391110306445726 0.036598460340917814 0 -0.003336287306400254 0.035770275608207704 0 -0.0024548649874506765 0.035641051411854197 0 -0.0022391110306445726 0.036598460340917814 0 -0.0013279196198352548 0.034123709324128775 0 -0.0018722163866297515 0.035196594513629276 0 -0.0010081333276593942 0.035468140986496838 0 -0.0013279196198352548 0.034123709324128775 0 -0.00043992587947146622 0.034679544542607479 0 -0.0010081333276593942 0.035468140986496838 0 -0.00043992587947146622 0.034679544542607479 0 -0.0010081333276593942 0.035468140986496838 0 -0.00024659617996943857 0.03568873614713481 0 -0.0018722163866297515 0.035196594513629276 0 -0.0017906403491040257 0.035887779701925131 0 -0.0010081333276593942 0.035468140986496838 0 -0.0017906403491040257 0.035887779701925131 0 -0.0010081333276593942 0.035468140986496838 0 -0.0011550437781513952 0.03635347461508031 0 -0.0010081333276593942 0.035468140986496838 0 -0.00024659617996943857 0.03568873614713481 0 -0.0011550437781513952 0.03635347461508031 0 -0.00024659617996943857 0.03568873614713481 0 0.00076694408639843711 0.035880862182900597 0 0.00049579785701018653 0.034722512033039069 0 -0.00043992587947146622 0.034679544542607479 0 -0.00024659617996943857 0.03568873614713481 0 0.00049579785701018653 0.034722512033039069 0 -0.00043992587947146622 0.034679544542607479 0 0.00049579785701018653 0.034722512033039069 0 -6.6256292046469308e-05 0.033617602667668535 0 0.00049579785701018653 0.034722512033039069 0 0.00084945070311040613 0.033473722880842917 0 -6.6256292046469308e-05 0.033617602667668535 0 0.00060300953314394517 0.032461167674625799 0 0.00084945070311040613 0.033473722880842917 0 -6.6256292046469308e-05 0.033617602667668535 0 0.0010312366424206009 0.032180147819436067 0 0.00080104368539330925 0.03259717611575183 0 0.001168625288322482 0.030856673794016087 0 0.0016534328304063065 0.031903461751332483 0 0.0018295698829633115 0.029247841460881496 0 0.0016534328304063065 0.031903461751332483 0 0.00084945070311040613 0.033473722880842917 0 0.0022087041866131868 0.034808123211237357 0 0.00049579785701018653 0.034722512033039069 0 0.00084945070311040613 0.033473722880842917 0 0.0022087041866131868 0.034808123211237357 0 0.00076694408639843711 0.035880862182900597 0 0.00049579785701018653 0.034722512033039069 0 0.0022087041866131868 0.034808123211237357 0 0.00076694408639843711 0.035880862182900597 0 0.0022087041866131868 0.034808123211237357 0 0.0012975835041953961 0.036787805624114538 0 0.0022087041866131868 0.034808123211237357 0 0.0012975835041953961 0.036787805624114538 0 0.0023725057535300981 0.03728386917345887 0 0.00080104368539330925 0.03259717611575183 0 -0.00010122350508570327 0.034740644308572058 0 0.0012975835041953961 0.036787805624114538 0 0.0010305318032181397 0.038000463327488847 0 0.0023725057535300981 0.03728386917345887 0 0.0010305318032181397 0.038000463327488847 0 0.0023725057535300981 0.03728386917345887 0 0.0025402612653511935 0.039695025000354073 0 0.0010305318032181397 0.038000463327488847 0 -0.00030199459179388829 0.038129974732611926 0 0.00049577273609129307 0.039327875514388634 0 0.0010305318032181397 0.038000463327488847 0 -0.00030199459179388829 0.038129974732611926 0 -9.4732323287188171e-05 0.037010210059472345 0 0.00076694408639843711 0.035880862182900597 0 0.0012975835041953961 0.036787805624114538 0 -9.4732323287188171e-05 0.037010210059472345 0 0.0012975835041953961 0.036787805624114538 0 0.0010305318032181397 0.038000463327488847 0 -9.4732323287188171e-05 0.037010210059472345 0 -0.00024659617996943857 0.03568873614713481 0 0.00076694408639843711 0.035880862182900597 0 -9.4732323287188171e-05 0.037010210059472345 0 -0.00024659617996943857 0.03568873614713481 0 -9.4732323287188171e-05 0.037010210059472345 0 -0.0011550437781513952 0.03635347461508031 0 -9.4732323287188171e-05 0.037010210059472345 0 -0.0011550437781513952 0.03635347461508031 0 -0.0014047838052627349 0.037348370101699474 0 -0.0011550437781513952 0.03635347461508031 0 -0.0014047838052627349 0.037348370101699474 0 -0.0022391110306445726 0.036598460340917814 0 -0.003336287306400254 0.035770275608207704 0 -0.0022391110306445726 0.036598460340917814 0 -0.002379994568286096 0.03739759692771482 0 -0.0017906403491040257 0.035887779701925131 0 -0.0011550437781513952 0.03635347461508031 0 -0.0022391110306445726 0.036598460340917814 0 -0.0014047838052627349 0.037348370101699474 0 -0.0022391110306445726 0.036598460340917814 0 -0.0024179272959433634 0.037482707850141003 0 -0.002204547073080136 0.050382197980112703 0 -0.0025102443502974998 0.052773872543283799 0 -0.0014301889286013249 0.060265487745589354 0 -0.0023225974765265578 0.058877778285827929 0 -0.0012241413631396433 0.059063518669081966 0 -0.0025102443502974998 0.052773872543283799 0 -0.0036128776844703259 0.060260511702726102 0 -0.0014047838052627349 0.037348370101699474 0 -0.0024179272959433634 0.037482707850141003 0 -0.0015203782316499494 0.038968040742018199 0 -0.0014058215008103977 0.056301444258136352 0 -0.0015104872335177588 0.056928359500856542 0 -0.0018183027731280307 0.056539849888324521 0 -0.0025102443502974998 0.052773872543283799 0 -0.0024939438314296228 0.062190568284166123 0 -0.00030199459179388829 0.038129974732611926 0 -0.0014047838052627349 0.037348370101699474 0 -0.0015203782316499494 0.038968040742018199 0 -0.00030199459179388829 0.038129974732611926 0 -9.4732323287188171e-05 0.037010210059472345 0 -0.0014047838052627349 0.037348370101699474 0 -0.00030199459179388829 0.038129974732611926 0 -0.0015203782316499494 0.038968040742018199 0 0.00049577273609129307 0.039327875514388634 0 -0.0068468015298401392 0.074140606161602049 0 -0.0077991232080091809 0.072675789943089653 0 -0.0083447935974724149 0.073926076134067709 0 -0.0036128776844703259 0.060260511702726102 0 -0.0031643633164611866 0.053490344259989622 0 -0.0036128776844703259 0.060260511702726102 0 -0.0038834395070293905 0.069336441091684242 0 -0.0048608463889206321 0.077046949038629062 0 -0.0032744643594570149 0.077310029286497675 0 -0.0044426908309104377 0.075329286636056009 0 -0.0024939438314296228 0.062190568284166123 0 -0.0031518624868137478 0.071149665412987451 0 -0.0032744643594570149 0.077310029286497675 0 -0.0044426908309104377 0.075329286636056009 0 -0.0028315951761564524 0.074817253411066792 0 -0.0036128776844703259 0.060260511702726102 0 -0.0024939438314296228 0.062190568284166123 0 -0.0044426908309104377 0.075329286636056009 0 -0.0028315951761564524 0.074817253411066792 0 -0.0045479415563476162 0.073225009503763344 0 -0.0048608463889206321 0.077046949038629062 0 -0.0044426908309104377 0.075329286636056009 0 -0.0067289072077802489 0.0742188789749397 0 -0.0044426908309104377 0.075329286636056009 0 -0.0067289072077802489 0.0742188789749397 0 -0.0045479415563476162 0.073225009503763344 0 -0.0077991232080091809 0.072675789943089653 0 -0.0090528525297832625 0.072804640855712144 0 -0.0083447935974724149 0.073926076134067709 0 -0.0090528525297832625 0.072804640855712144 0 -0.010168226174554165 0.072042946462201177 0 -0.0098868726892885391 0.073688443565121914 0 -0.0031643633164611866 0.053490344259989622 0 -0.0018402384384620728 0.045213757536229152 0 0.0010305318032181397 0.038000463327488847 0 0.00049577273609129307 0.039327875514388634 0 0.0025402612653511935 0.039695025000354073 0 -0.0090528525297832625 0.072804640855712144 0 -0.0083447935974724149 0.073926076134067709 0 -0.0098868726892885391 0.073688443565121914 0 6.4481966558342933e-05 0.05737262298348212 0 -0.0013226652551362572 0.064411513769866244 0 6.4481966558342933e-05 0.05737262298348212 0 0.0022360163599616971 0.05566008023904543 0 -0.0064927342407622452 0.037449768754575105 0 -0.0052170264511246928 0.036442191183833253 0 -0.0069215435119765658 0.035602195700164867 0 -0.0064927342407622452 0.037449768754575105 0 -0.0052170264511246928 0.036442191183833253 0 -0.0050761406126187082 0.037415533983516602 0 -0.0052170264511246928 0.036442191183833253 0 -0.0050761406126187082 0.037415533983516602 0 -0.0043189992657119121 0.037177984638232103 0 -0.0064927342407622452 0.037449768754575105 0 -0.0050761406126187082 0.037415533983516602 0 -0.0059409719877787214 0.039406508972069793 0 -0.0050761406126187082 0.037415533983516602 0 -0.0044844047036652467 0.038092451999362065 0 -0.0059409719877787214 0.039406508972069793 0 -0.00094954655717064069 0.060054664277529153 0 -0.0010192427738768984 0.049737833510026037 0 -0.0042396066019136786 0.038129213958456504 0 -0.0043189992657119121 0.037177984638232103 0 -0.0035607910318681659 0.03667966098517926 0 -0.0044844047036652467 0.038092451999362065 0 -0.0042396066019136786 0.038129213958456504 0 -0.004566947585604989 0.037640024924222873 0 -0.0010621406864878644 0.059932682072831603 0 -0.00094954655717064069 0.060054664277529153 0 -0.0042396066019136786 0.038129213958456504 0 -0.004566947585604989 0.037640024924222873 0 -0.0043189992657119121 0.037177984638232103 0 -0.0050761406126187082 0.037415533983516602 0 -0.0044844047036652467 0.038092451999362065 0 -0.004566947585604989 0.037640024924222873 0 -0.0050761406126187082 0.037415533983516602 0 -0.004566947585604989 0.037640024924222873 0 -0.0043189992657119121 0.037177984638232103 0 -0.0052170264511246928 0.036442191183833253 0 -0.0043189992657119121 0.037177984638232103 0 -0.0043435743618482087 0.03630462181312364 0 -0.0037391126157643307 0.035728781056455168 0 -0.0043435743618482087 0.03630462181312364 0 -0.0035607910318681659 0.03667966098517926 0 -0.0043189992657119121 0.037177984638232103 0 -0.0043435743618482087 0.03630462181312364 0 -0.0035607910318681659 0.03667966098517926 0 -0.0019458014890735087 0.055438652516514503 0 -0.002191620555809618 0.055915886123836279 0 -0.0018383539264663342 0.056149291217346582 0 -0.0019458014890735087 0.055438652516514503 0 -0.0014058215008103977 0.056301444258136352 0 -0.0018383539264663342 0.056149291217346582 0 -0.00162755809349553 0.046290733953908786 0 -0.0025102443502974998 0.052773872543283799 0 -0.00162755809349553 0.046290733953908786 0 -0.0010192427738768984 0.049737833510026037 0 -0.0015104872335177588 0.056928359500856542 0 -0.0026465243204530004 0.056736420518819469 0 -0.0018183027731280307 0.056539849888324521 0 -0.0014058215008103977 0.056301444258136352 0 -0.0018383539264663342 0.056149291217346582 0 -0.0018183027731280307 0.056539849888324521 0 -0.0026465243204530004 0.056736420518819469 0 -0.0018383539264663342 0.056149291217346582 0 -0.0018183027731280307 0.056539849888324521 0 -0.0024939438314296228 0.062190568284166123 0 -0.00094954655717064069 0.060054664277529153 0 -0.0025949475816099501 0.05671392015981698 0 -0.002191620555809618 0.055915886123836279 0 -0.0018383539264663342 0.056149291217346582 0 -0.00094954655717064069 0.060054664277529153 0 -0.00081306097243027595 0.059069629318499912 0 -0.0031328126126618245 0.078926797264717588 0 -0.0026485621423779967 0.076018755908730445 0 -0.00021888353228706356 0.077023882685054473 0 -0.0031328126126618245 0.078926797264717588 0 0.00063823243377521504 0.079594342824907668 0 -0.00021888353228706356 0.077023882685054473 0 -0.0026485621423779967 0.076018755908730445 0 -6.8165613896074555e-05 0.074799292020113414 0 -0.00021888353228706356 0.077023882685054473 0 -6.8165613896074555e-05 0.074799292020113414 0 0.0014037081957902903 0.075574705464123426 0 -0.00021888353228706356 0.077023882685054473 0 0.0014037081957902903 0.075574705464123426 0 -0.00021888353228706356 0.077023882685054473 0 0.0019744213454389193 0.077184054421985032 0 -0.00094954655717064069 0.060054664277529153 0 -0.0010108888431077576 0.069547680714079699 0 0.00063823243377521504 0.079594342824907668 0 -0.00021888353228706356 0.077023882685054473 0 0.0019744213454389193 0.077184054421985032 0 -0.00094954655717064069 0.060054664277529153 0 -0.0013226652551362572 0.064411513769866244 0 0.0024478677852484056 0.077395040029515708 0 0.0033478779605537897 0.075840803723853087 0 0.0047131418599082294 0.075932887912498567 0 -0.0044844047036652467 0.038092451999362065 0 -0.0042364256208893385 0.038131073809558387 0 -0.0059409719877787214 0.039406508972069793 0 0.0033478779605537897 0.075840803723853087 0 0.0046086291364890383 0.075555762129309492 0 0.0047131418599082294 0.075932887912498567 0 0.0014037081957902903 0.075574705464123426 0 0.0019744213454389193 0.077184054421985032 0 0.0033861503049958052 0.074792529685319409 0 0.0033478779605537897 0.075840803723853087 0 0.0042397651447694399 0.074088180616472113 0 0.0046086291364890383 0.075555762129309492 0 -0.0010108888431077576 0.069547680714079699 0 0.00039504835964082944 0.071504992896191014 0 -0.0013226652551362572 0.064411513769866244 0 0.0014366071465679038 0.066860620394347536 0 0.0054810782539205126 0.074584657003382571 0 0.004744182170645499 0.07604578633947888 0 0.0075360317108690913 0.074132592535829919 0 0.0046086291364890383 0.075555762129309492 0 0.0054810782539205126 0.074584657003382571 0 0.004744182170645499 0.07604578633947888 0 0.0042397651447694399 0.074088180616472113 0 0.0046086291364890383 0.075555762129309492 0 0.0054810782539205126 0.074584657003382571 0 0.0081936576142966969 0.074233802144282726 0 0.0079622874075995029 0.074249067908338184 0 0.0079709497848915196 0.074273203398623408 0 -0.0011924547395278128 0.064768289415464031 0 -0.0013226652551362572 0.064411513769866244 0 0.0050024924575052072 0.072271712965425852 0 0.0034732012600140754 0.069481736445195674 0 0.0064338884883944321 0.071025405963954638 0 0.0050024924575052072 0.072271712965425852 0 0.0062735260651347793 0.072337899654342216 0 0.0064338884883944321 0.071025405963954638 0 0.0050024924575052072 0.072271712965425852 0 0.0062735260651347793 0.072337899654342216 0 0.0062274000185233314 0.073277804364530852 0 0.0042397651447694399 0.074088180616472113 0 0.0054810782539205126 0.074584657003382571 0 0.0062274000185233314 0.073277804364530852 0 0.00039504835964082944 0.071504992896191014 0 0.0011426015743979153 0.071486342871233843 0 0.0054810782539205126 0.074584657003382571 0 0.0062274000185233314 0.073277804364530852 0 0.0075360317108690913 0.074132592535829919 0 0.0042397651447694399 0.074088180616472113 0 0.0050024924575052072 0.072271712965425852 0 0.0062274000185233314 0.073277804364530852 0 0.0033861503049958052 0.074792529685319409 0 0.0050024924575052072 0.072271712965425852 0 0.0029925925435965476 0.072844154251043736 0 0.0014037081957902903 0.075574705464123426 0 0.0033861503049958052 0.074792529685319409 0 0.0014996617905970173 0.073804694470107832 0 0.0033861503049958052 0.074792529685319409 0 0.0029925925435965476 0.072844154251043736 0 0.0014996617905970173 0.073804694470107832 0 0.0029925925435965476 0.072844154251043736 0 0.0015778268127843984 0.071732504457182641 0 0.0014996617905970173 0.073804694470107832 0 0.0050024924575052072 0.072271712965425852 0 0.0030939468313780408 0.071335658959975443 0 0.0034732012600140754 0.069481736445195674 0 0.0029925925435965476 0.072844154251043736 0 0.0030939468313780408 0.071335658959975443 0 0.0015778268127843984 0.071732504457182641 0 0.0050024924575052072 0.072271712965425852 0 0.0029925925435965476 0.072844154251043736 0 0.0030939468313780408 0.071335658959975443 0 0.0030939468313780408 0.071335658959975443 0 0.0015778268127843984 0.071732504457182641 0 0.0023908110611118292 0.069908039337915021 0 -0.00027572762875626035 0.071317473958875402 0 0.0015778268127843984 0.071732504457182641 0 0.00089892053755726258 0.069539838123703429 0 0.0015778268127843984 0.071732504457182641 0 0.00089892053755726258 0.069539838123703429 0 0.0023908110611118292 0.069908039337915021 0 -0.00027572762875626035 0.071317473958875402 0 0.0015778268127843984 0.071732504457182641 0 -0.00012741479936452009 0.072971481187452988 0 0.0015778268127843984 0.071732504457182641 0 0.0014996617905970173 0.073804694470107832 0 -0.00012741479936452009 0.072971481187452988 0 -6.8165613896074555e-05 0.074799292020113414 0 0.0014037081957902903 0.075574705464123426 0 0.0014996617905970173 0.073804694470107832 0 -6.8165613896074555e-05 0.074799292020113414 0 0.0014996617905970173 0.073804694470107832 0 -0.00012741479936452009 0.072971481187452988 0 -6.8165613896074555e-05 0.074799292020113414 0 -0.00012741479936452009 0.072971481187452988 0 -0.0022057224760489544 0.073050770506109086 0 -0.0031518624868137478 0.071149665412987451 0 -0.0028576709834230115 0.071871890301562602 0 -0.0026485621423779967 0.076018755908730445 0 -6.8165613896074555e-05 0.074799292020113414 0 -0.0022057224760489544 0.073050770506109086 0 -0.00027572762875626035 0.071317473958875402 0 -0.0022057224760489544 0.073050770506109086 0 -0.0017614773522086845 0.069900106082389099 0 -0.0028576709834230115 0.071871890301562602 0 -0.0026297166368387838 0.071270782776063343 0 -0.00027572762875626035 0.071317473958875402 0 -0.00012741479936452009 0.072971481187452988 0 -0.0022057224760489544 0.073050770506109086 0 -0.0017614773522086845 0.069900106082389099 0 -0.0020040707233288219 0.067120109378815088 0 -0.0002929527473731907 0.068465131457430897 0 -0.0017614773522086845 0.069900106082389099 0 -0.0020040707233288219 0.067120109378815088 0 -0.0037821774198175287 0.068682987278612329 0 -0.0022136058108961172 0.067316202441657674 0 -0.00054586296064816641 0.067344267103024047 0 -0.001756892762237685 0.067512828079020856 0 0.0016631551407410676 0.0673479747012522 0 -0.0005717119009099388 0.0658510808489461 0 -0.0020040707233288219 0.067120109378815088 0 0.0016631551407410676 0.0673479747012522 0 -0.0002929527473731907 0.068465131457430897 0 0.0016631551407410676 0.0673479747012522 0 0.0012796379346280409 0.065890210134822755 0 -0.0005717119009099388 0.0658510808489461 0 0.0016631551407410676 0.0673479747012522 0 0.00089892053755726258 0.069539838123703429 0 0.002158112710495051 0.068736440692014775 0 -0.00027572762875626035 0.071317473958875402 0 -0.0017614773522086845 0.069900106082389099 0 0.00089892053755726258 0.069539838123703429 0 -0.0017614773522086845 0.069900106082389099 0 -0.0002929527473731907 0.068465131457430897 0 0.00089892053755726258 0.069539838123703429 0 0.0016631551407410676 0.0673479747012522 0 -0.0002929527473731907 0.068465131457430897 0 0.00089892053755726258 0.069539838123703429 0 0.00089892053755726258 0.069539838123703429 0 0.0023908110611118292 0.069908039337915021 0 0.002158112710495051 0.068736440692014775 0 0.0023908110611118292 0.069908039337915021 0 0.0034732012600140754 0.069481736445195674 0 0.0031357580838548768 0.068744100292114946 0 0.0030939468313780408 0.071335658959975443 0 0.0023908110611118292 0.069908039337915021 0 0.0034732012600140754 0.069481736445195674 0 0.0031357580838548768 0.068744100292114946 0 0.0037364949023765033 0.068207093333371771 0 0.0023964905480869203 0.067763409386999193 0 0.0031357580838548768 0.068744100292114946 0 0.0037364949023765033 0.068207093333371771 0 0.0041078958421374269 0.069311697866590402 0 0.0034732012600140754 0.069481736445195674 0 0.0031357580838548768 0.068744100292114946 0 0.0041078958421374269 0.069311697866590402 0 0.0031357580838548768 0.068744100292114946 0 0.002158112710495051 0.068736440692014775 0 0.0023964905480869203 0.067763409386999193 0 0.0023908110611118292 0.069908039337915021 0 0.0031357580838548768 0.068744100292114946 0 0.002158112710495051 0.068736440692014775 0 0.0016631551407410676 0.0673479747012522 0 0.002158112710495051 0.068736440692014775 0 0.0023964905480869203 0.067763409386999193 0 0.0016631551407410676 0.0673479747012522 0 0.0023964905480869203 0.067763409386999193 0 0.0012796379346280409 0.065890210134822755 0 0.0030810046346238457 0.069485510956076926 0 0.0027797732049511061 0.067721716530849296 0 0.0011827578768493544 0.067033903988892557 0 0.0037364949023765033 0.068207093333371771 0 0.0023964905480869203 0.067763409386999193 0 0.0012796379346280409 0.065890210134822755 0 0.0034940814888466645 0.068823080254165656 0 0.0016467398964740076 0.066767751619144042 0 0.0027797732049511061 0.067721716530849296 0 0.0032913648806153326 0.068888160090688738 0 0.0033564399979336959 0.06795756979433934 0 0.0030810046346238457 0.069485510956076926 0 0.0027797732049511061 0.067721716530849296 0 0.0032913648806153326 0.068888160090688738 0 0.0030810046346238457 0.069485510956076926 0 0.0032922370274948327 0.069303354222305574 0 0.0032756381975889847 0.069513799089097938 0 0.0032922370274948327 0.069303354222305574 0 0.0038040824568315126 0.069241989687476552 0 0.0032756381975889847 0.069513799089097938 0 0.0038040824568315126 0.069241989687476552 0 0.0032913648806153326 0.068888160090688738 0 0.0039706712934712588 0.06824150407113605 0 0.0032922370274948327 0.069303354222305574 0 0.0038040824568315126 0.069241989687476552 0 0.0032913648806153326 0.068888160090688738 0 0.0030810046346238457 0.069485510956076926 0 0.0032922370274948327 0.069303354222305574 0 0.0032913648806153326 0.068888160090688738 0 0.0039706712934712588 0.06824150407113605 0 0.0033564399979336959 0.06795756979433934 0 0.0036095047348172859 0.067058642503788998 0 0.0032913648806153326 0.068888160090688738 0 0.0039706712934712588 0.06824150407113605 0 0.0033564399979336959 0.06795756979433934 0 0.0039706712934712588 0.06824150407113605 0 0.0047081305377601494 0.068936512217686 0 0.005029107990982243 0.067308455737691966 0 0.0038040824568315126 0.069241989687476552 0 0.0039706712934712588 0.06824150407113605 0 0.0047081305377601494 0.068936512217686 0 0.0038040824568315126 0.069241989687476552 0 0.0049619102492051963 0.069866410265152334 0 0.0047081305377601494 0.068936512217686 0 0.0032756381975889847 0.069513799089097938 0 0.0054047050704520748 0.070975037871141067 0 0.0045950392972122691 0.071188072528237112 0 0.0030810046346238457 0.069485510956076926 0 0.0032756381975889847 0.069513799089097938 0 0.0045950392972122691 0.071188072528237112 0 0.0034940814888466645 0.068823080254165656 0 0.0054515940398289029 0.070926817832926384 0 0.0048614978024766166 0.070552208823125087 0 0.0054515940398289029 0.070926817832926384 0 0.0037364949023765033 0.068207093333371771 0 0.0041078958421374269 0.069311697866590402 0 0.0060528922495331804 0.070818143069966311 0 0.0032756381975889847 0.069513799089097938 0 0.0053693364027076343 0.071401486286813406 0 0.0049619102492051963 0.069866410265152334 0 0.0038040824568315126 0.069241989687476552 0 0.0032756381975889847 0.069513799089097938 0 0.0049619102492051963 0.069866410265152334 0 0.0044271422859111266 0.070504500571449469 0 0.0055239211919804118 0.071309478756791944 0 0.0034732012600140754 0.069481736445195674 0 0.0041078958421374269 0.069311697866590402 0 0.0060528922495331804 0.070818143069966311 0 -0.0086658429189313199 0.071103984621642857 0 -0.0064313870588297338 0.071714120014749708 0 -0.0071046316596278646 0.068874868841140094 0 -0.0086658429189313199 0.071103984621642857 0 -0.0093451430993498185 0.068892701622047345 0 -0.010693410597260674 0.069769621365120715 0 -0.0086658429189313199 0.071103984621642857 0 -0.010693410597260674 0.069769621365120715 0 -0.010168226174554165 0.072042946462201177 0 -0.0090528525297832625 0.072804640855712144 0 -0.0086658429189313199 0.071103984621642857 0 -0.010168226174554165 0.072042946462201177 0 -0.0038834395070293905 0.069336441091684242 0 -0.0050904238276207299 0.069959020427105112 0 -0.0077991232080091809 0.072675789943089653 0 -0.0090528525297832625 0.072804640855712144 0 -0.0086658429189313199 0.071103984621642857 0 -0.0067289072077802489 0.0742188789749397 0 -0.0086658429189313199 0.071103984621642857 0 -0.0064313870588297338 0.071714120014749708 0 -0.0067289072077802489 0.0742188789749397 0 -0.0045479415563476162 0.073225009503763344 0 -0.0064313870588297338 0.071714120014749708 0 -0.0045479415563476162 0.073225009503763344 0 -0.0047887935331902189 0.070677860046393037 0 -0.0064313870588297338 0.071714120014749708 0 -0.0023465712757116185 0.072331589009921329 0 -0.0045479415563476162 0.073225009503763344 0 -0.0047887935331902189 0.070677860046393037 0 -0.0028315951761564524 0.074817253411066792 0 -0.0023465712757116185 0.072331589009921329 0 -0.0045479415563476162 0.073225009503763344 0 -0.0023465712757116185 0.072331589009921329 0 -0.0017614773522086845 0.069900106082389099 0 -0.0047887935331902189 0.070677860046393037 0 -0.0047887935331902189 0.070677860046393037 0 -0.0064313870588297338 0.071714120014749708 0 -0.0071046316596278646 0.068874868841140094 0 -0.0037821774198175287 0.068682987278612329 0 -0.0054383261176101875 0.067108137021455572 0 -0.0071046316596278646 0.068874868841140094 0 -0.0047887935331902189 0.070677860046393037 0 -0.0037821774198175287 0.068682987278612329 0 -0.0071046316596278646 0.068874868841140094 0 -0.0017614773522086845 0.069900106082389099 0 -0.0047887935331902189 0.070677860046393037 0 -0.0037821774198175287 0.068682987278612329 0 -0.0022136058108961172 0.067316202441657674 0 -0.0049651373746991282 0.067269411049988667 0 -0.001756892762237685 0.067512828079020856 0 -0.0052851902633861509 0.067444176038201339 0 -0.0028981719785573599 0.065178241155297814 0 -0.0020040707233288219 0.067120109378815088 0 -0.0037821774198175287 0.068682987278612329 0 -0.0054383261176101875 0.067108137021455572 0 -0.0049651373746991282 0.067269411049988667 0 -0.0065764668968004737 0.067240249709628414 0 -0.0052851902633861509 0.067444176038201339 0 -0.0086584915028173632 0.067222518577199894 0 -0.0070837356751010522 0.065772808798353524 0 -0.0071046316596278646 0.068874868841140094 0 -0.0091454427456639162 0.067956020415270102 0 -0.0086584915028173632 0.067222518577199894 0 -0.0054383261176101875 0.067108137021455572 0 -0.0071046316596278646 0.068874868841140094 0 -0.0086584915028173632 0.067222518577199894 0 -0.0086658429189313199 0.071103984621642857 0 -0.0071046316596278646 0.068874868841140094 0 -0.0093451430993498185 0.068892701622047345 0 -0.0093451430993498185 0.068892701622047345 0 -0.0098422550339065367 0.067092823176842939 0 -0.010693410597260674 0.069769621365120715 0 -0.0071046316596278646 0.068874868841140094 0 -0.0093451430993498185 0.068892701622047345 0 -0.0091454427456639162 0.067956020415270102 0 -0.0093451430993498185 0.068892701622047345 0 -0.0091454427456639162 0.067956020415270102 0 -0.0098422550339065367 0.067092823176842939 0 -0.0091454427456639162 0.067956020415270102 0 -0.0086584915028173632 0.067222518577199894 0 -0.0098422550339065367 0.067092823176842939 0 -0.0072699921106549534 0.048708308508959242 0 -0.0073019087305738924 0.048648847676739347 0 -0.00730931027624714 0.048772523904363638 0 -0.010282061631764485 0.066321430083521551 0 -0.011248930195644092 0.0667844911251992 0 -0.011420856112080215 0.065322004065271222 0 -0.0088864260015110372 0.055847736156950975 0 -0.010130935488751226 0.052069605240516882 0 -0.0073019087305738924 0.048648847676739347 0 -0.0072563578965739719 0.048665546088484717 0 -0.0072351533781395824 0.048626863640333466 0 -0.0072699921106549534 0.048708308508959242 0 -0.0073019087305738924 0.048648847676739347 0 -0.0072563578965739719 0.048665546088484717 0 -0.0052607674740100321 0.041032356162359056 0 -0.005931874759225699 0.042723446809953852 0 -0.006894999013182029 0.040329205990751148 0 -0.0054180247022535283 0.040945050504995764 0 -0.0059598598622235379 0.038094099160979583 0 -0.0052607674740100321 0.041032356162359056 0 -0.006894999013182029 0.040329205990751148 0 -0.0061664529368969413 0.039429062395613806 0 -0.0071685315434603302 0.044496927718523961 0 -0.0076130924912070248 0.042489866186533984 0 -0.0072699921106549534 0.048708308508959242 0 -0.0072149748814517986 0.048671613541465104 0 -0.0072645901335498895 0.0487811318751082 0 -0.0071685315434603302 0.044496927718523961 0 -0.0095322281317665406 0.050007289114224494 0 -0.0072699921106549534 0.048708308508959242 0 -0.0072563578965739719 0.048665546088484717 0 -0.0072149748814517986 0.048671613541465104 0 -0.0072351533781395824 0.048626863640333466 0 -0.0072188551973217949 0.048655170113276823 0 -0.007181427699299755 0.048582298966190332 0 -0.0072563578965739719 0.048665546088484717 0 -0.0072351533781395824 0.048626863640333466 0 -0.0072149748814517986 0.048671613541465104 0 -0.0070655333167400462 0.044769567055882087 0 -0.0071685315434603302 0.044496927718523961 0 -0.0071685315434603302 0.044496927718523961 0 -0.0054180247022535283 0.040945050504995764 0 -0.0072351533781395824 0.048626863640333466 0 -0.007181427699299755 0.048582298966190332 0 -0.0072433303829861524 0.048567127610411438 0 -0.0088864260015110372 0.055847736156950975 0 -0.0076712697243932551 0.057485673376731328 0 -0.0073019087305738924 0.048648847676739347 0 -0.0072871179865303375 0.048549096818705152 0 -0.0072433303829861524 0.048567127610411438 0 -0.010282061631764485 0.066321430083521551 0 -0.011248930195644092 0.0667844911251992 0 -0.011143723557714268 0.068053644709587691 0 -0.0099511113016595935 0.064289868014876697 0 -0.0076712697243932551 0.057485673376731328 0 -0.0073019087305738924 0.048648847676739347 0 -0.0072351533781395824 0.048626863640333466 0 -0.0072433303829861524 0.048567127610411438 0 -0.0046319631745191815 0.053612400945857092 0 -0.003475937199519981 0.051158976036913613 0 -0.0048439909098298324 0.05034790028898295 0 -0.0076712697243932551 0.057485673376731328 0 -0.0041635551897942734 0.045250015159986501 0 -0.0076712697243932551 0.057485673376731328 0 -0.0051137804578794254 0.057525257836082554 0 -0.0072871179865303375 0.048549096818705152 0 -0.0072433303829861524 0.048567127610411438 0 -0.0072165335655275465 0.048431550602060176 0 -0.007181427699299755 0.048582298966190332 0 -0.0072433303829861524 0.048567127610411438 0 -0.0072165335655275465 0.048431550602060176 0 -0.0037726354724429627 0.041903671905246964 0 -0.0053745763462976154 0.037850477604042143 0 -0.0022085870743410105 0.038027937793127513 0 -0.0054180247022535283 0.040945050504995764 0 -0.0041635551897942734 0.045250015159986501 0 -0.0037013556390922187 0.041679970545745008 0 -0.0037198406910385774 0.041609478315500631 0 -0.0036693901073054933 0.041613003193854699 0 -0.0053745763462976154 0.037850477604042143 0 -0.0022085870743410105 0.038027937793127513 0 -0.0044079568992646716 0.035757161412891071 0 -0.0041635551897942734 0.045250015159986501 0 -0.0024888778058392022 0.039919939633880748 0 -0.003475937199519981 0.051158976036913613 0 -0.0048439909098298324 0.05034790028898295 0 -0.0042384171502080374 0.04918364447977229 0 -0.0041635551897942734 0.045250015159986501 0 -0.0031720586105814961 0.04519319117885378 0 -0.0023968848640553032 0.028757178402119266 0 -0.0049402472502092796 0.03010859614431324 0 -0.0028438303590992663 0.033520025347371821 0 -0.0023968848640553032 0.028757178402119266 0 -0.0028438303590992663 0.033520025347371821 0 -0.00031969353630870195 0.030390289045377158 0 -0.0023968848640553032 0.028757178402119266 0 -0.0049402472502092796 0.03010859614431324 0 -0.0034191737926728858 0.026321806272718122 0 -0.0029917501930999358 0.034624787452684727 0 -0.00057482956630691955 0.029806252866726498 0 -0.0022085870743410105 0.038027937793127513 0 -0.0044079568992646716 0.035757161412891071 0 -0.0020017674203446105 0.034795295149408836 0 -0.0064662349561625098 0.033909410702845387 0 -0.0049402472502092796 0.03010859614431324 0 -0.0028438303590992663 0.033520025347371821 0 -0.0054180247022535283 0.040945050504995764 0 -0.0029917501930999358 0.034624787452684727 0 -0.0032085176604216914 0.030841929816450193 0 -0.0015670370717293849 0.02605558414791612 0 -0.0064662349561625098 0.033909410702845387 0 -0.0028438303590992663 0.033520025347371821 0 -0.005379960597764002 0.036652929250534046 0 -0.0032085176604216914 0.030841929816450193 0 -0.0059598598622235379 0.038094099160979583 0 -0.0043410533027740186 0.026002865433252677 0 -0.0066400073445847477 0.028856489247979372 0 -0.0042307369343261691 0.029021907073374612 0 -0.0043410533027740186 0.026002865433252677 0 -0.0042307369343261691 0.029021907073374612 0 -0.0017748593254666893 0.028692748378580834 0 -0.0030136037698684733 0.021694497121417553 0 -0.0018820169007118638 0.019783452843834003 0 -0.0033476780529781806 0.013261858829770405 0 -0.0032000008915275486 0.013282528619054865 0 -0.0032007703349628464 0.013060198188638341 0 -0.001384265759700779 0.015761439655213545 0 -0.0017973598920937198 0.014045114266770669 0 -0.0032000008915275486 0.013282528619054865 0 -0.0032007703349628464 0.013060198188638341 0 -0.0031286721602416978 0.013003029092353596 0 -0.0032007703349628464 0.013060198188638341 0 -0.0031286721602416978 0.013003029092353596 0 -0.0031793529642734596 0.01310487958582531 0 -0.0043410533027740186 0.026002865433252677 0 -0.0017748593254666893 0.028692748378580834 0 -0.00064760824544293381 0.025967801132856516 0 -0.0037791980126648697 0.011248685866201461 0 -0.0041853763122754999 0.010115964043772773 0 -0.0053319530969166739 0.01060179621224858 0 -0.0037791980126648697 0.011248685866201461 0 -0.003223215741629305 0.01003785025690051 0 -0.0041853763122754999 0.010115964043772773 0 -0.0014106789160782621 0.010426193876652116 0 -0.0024978901835326192 0.010500495320989039 0 -0.0025640559192871221 0.011796159945129657 0 -0.0037791980126648697 0.011248685866201461 0 -0.0024978901835326192 0.010500495320989039 0 -0.003223215741629305 0.01003785025690051 0 -0.0037791980126648697 0.011248685866201461 0 -0.0024978901835326192 0.010500495320989039 0 -0.0025640559192871221 0.011796159945129657 0 -0.0031286721602416978 0.013003029092353596 0 -0.0032192655626148187 0.013200773379056731 0 -0.0031793529642734596 0.01310487958582531 0 -0.0017973598920937198 0.014045114266770669 0 -0.0022518938178940715 0.013924118050944772 0 -0.0025640559192871221 0.011796159945129657 0 -0.0039432961911727354 0.012192380120220963 0 -0.0038423304720841397 0.013182747894345946 0 -0.0037791980126648697 0.011248685866201461 0 -0.0039432961911727354 0.012192380120220963 0 -0.0049658136396171669 0.011812046043006095 0 -0.0037791980126648697 0.011248685866201461 0 -0.0025640559192871221 0.011796159945129657 0 -0.0039432961911727354 0.012192380120220963 0 -0.0038423304720841397 0.013182747894345946 0 -0.0032192655626148187 0.013200773379056731 0 -0.004791799776137631 0.013524254342183038 0 -0.0032192655626148187 0.013200773379056731 0 -0.0030478745028164195 0.01306539416283909 0 -0.0028227348268674715 0.013140246553215117 0 -0.0039528184258834339 0.0098050940969235979 0 -0.0038187909693703959 0.0084692466969030489 0 -0.0039432961911727354 0.012192380120220963 0 -0.0038423304720841397 0.013182747894345946 0 -0.004695616453553539 0.012658620583295291 0 -0.0031286721602416978 0.013003029092353596 0 -0.0038423304720841397 0.013182747894345946 0 -0.0032192655626148187 0.013200773379056731 0 -0.0032192655626148187 0.013200773379056731 0 -0.0031870609748976828 0.013087319909561371 0 -0.0030478745028164195 0.01306539416283909 0 -0.0032192655626148187 0.013200773379056731 0 -0.0031793529642734596 0.01310487958582531 0 -0.0032198829820062344 0.013134556007841915 0 -0.0032192655626148187 0.013200773379056731 0 -0.0031870609748976828 0.013087319909561371 0 -0.0032198829820062344 0.013134556007841915 0 -0.0031870609748976828 0.013087319909561371 0 -0.0032198829820062344 0.013134556007841915 0 -0.0032203231282770094 0.012936888829426844 0 -0.0031870609748976828 0.013087319909561371 0 -0.0030478745028164195 0.01306539416283909 0 -0.0032203231282770094 0.012936888829426844 0 -0.0030478745028164195 0.01306539416283909 0 -0.0028227348268674715 0.013140246553215117 0 -0.002888227955667491 0.012907208485388219 0 -0.0030478745028164195 0.01306539416283909 0 -0.0032203231282770094 0.012936888829426844 0 -0.002888227955667491 0.012907208485388219 0 -0.0043410533027740186 0.026002865433252677 0 -0.00064760824544293381 0.025967801132856516 0 -0.0020315449348655532 0.023137748585513561 0 -0.0018820169007118638 0.019783452843834003 0 -0.00086112146475671549 0.018309160093812737 0 -0.0032007703349628464 0.013060198188638341 0 -0.0031793529642734596 0.01310487958582531 0 -0.0032198829820062344 0.013134556007841915 0 -0.00064760824544293381 0.025967801132856516 0 -0.0020315449348655532 0.023137748585513561 0 0.00048086048102988623 0.02323361845836245 0 0.00048086048102988623 0.02323361845836245 0 0.00028493955846720998 0.020269390102412334 0 0.0016067483171511962 0.02049400013626201 0 -0.0020315449348655532 0.023137748585513561 0 0.00048086048102988623 0.02323361845836245 0 0.00028493955846720998 0.020269390102412334 0 -0.0015670370717293849 0.02605558414791612 0 0.00050148292992437961 0.019901820125125272 0 -0.00086112146475671549 0.018309160093812737 0 0.00041226149307030331 0.016825683890197597 0 -0.00031969353630870195 0.030390289045377158 0 -0.00061252716278374631 0.026797229693993223 0 0.0021940746196630438 0.027268057167581398 0 -0.0023968848640553032 0.028757178402119266 0 -0.00031969353630870195 0.030390289045377158 0 -0.00061252716278374631 0.026797229693993223 0 0.00013517555482539821 0.025013290150627695 0 0.00050148292992437961 0.019901820125125272 0 0.0010957106079281759 0.024789076878317991 0 0.0020362253524122249 0.024950199209430438 0 0.0020519435245983271 0.02405721874872695 0 0.00050148292992437961 0.019901820125125272 0 0.00041226149307030331 0.016825683890197597 0 0.0020362253524122249 0.024950199209430438 0 0.0020519435245983271 0.02405721874872695 0 0.0028664347582783825 0.023959661013290768 0 0.0010957106079281759 0.024789076878317991 0 0.0020519435245983271 0.02405721874872695 0 0.0012815286461497365 0.023892425357578594 0 0.0010957106079281759 0.024789076878317991 0 0.0012815286461497365 0.023892425357578594 0 0.0006920183872660946 0.024226846884070365 0 0.0012815286461497365 0.023892425357578594 0 0.00062466850598869971 0.023473000437867809 0 0.0006920183872660946 0.024226846884070365 0 0.0026084117647398979 0.0084440439815992186 0 0.003431754739331576 0.0086185728344214223 0 0.0034203042503499468 0.0094197722566821268 0 0.00041226149307030331 0.016825683890197597 0 0.00057779007665122693 0.010308580248330758 0 0.0016901676897221347 0.0091809811130634106 0 0.0026084117647398979 0.0084440439815992186 0 0.0034203042503499468 0.0094197722566821268 0 0.0010218356841204899 0.0091356770585723276 0 0.0019480162817520829 0.0085540464187724985 0 0.0020554901858130829 0.0078637916169232765 0 0.00050148292992437961 0.019901820125125272 0 0.002536343005876138 0.016645005577660597 0 0.0019480162817520829 0.0085540464187724985 0 0.0016901676897221347 0.0091809811130634106 0 0.0026084117647398979 0.0084440439815992186 0 0.00088993664298384111 0.015435540016253812 0 0.00041226149307030331 0.016825683890197597 0 0.0010218356841204899 0.0091356770585723276 0 0.0019480162817520829 0.0085540464187724985 0 0.0016710314221969765 0.009249270219000412 0 0.0020519435245983271 0.02405721874872695 0 0.0028664347582783825 0.023959661013290768 0 0.0023435765666898305 0.023343546455056079 0 0.0019480162817520829 0.0085540464187724985 0 0.0020554901858130829 0.0078637916169232765 0 0.0026084117647398979 0.0084440439815992186 0 0.0020554901858130829 0.0078637916169232765 0 0.0026084117647398979 0.0084440439815992186 0 0.0026900403325145331 0.007666340221776204 0 0.0026084117647398979 0.0084440439815992186 0 0.0026900403325145331 0.007666340221776204 0 0.0032177765414706364 0.0079010135522081734 0 0.0026900403325145331 0.007666340221776204 0 0.0032177765414706364 0.0079010135522081734 0 0.0031190130253479567 0.0074174745494660901 0 0.0026084117647398979 0.0084440439815992186 0 0.0032177765414706364 0.0079010135522081734 0 0.003431754739331576 0.0086185728344214223 0 0.002536343005876138 0.016645005577660597 0 0.0037523898605581079 0.01487156754747768 0 0.0026900403325145331 0.007666340221776204 0 0.0030212239594074922 0.0066989070372029296 0 0.0031190130253479567 0.0074174745494660901 0 0.0030212239594074922 0.0066989070372029296 0 0.0031190130253479567 0.0074174745494660901 0 0.0036660610198343537 0.0076407737023087069 0 0.0020554901858130829 0.0078637916169232765 0 0.0026900403325145331 0.007666340221776204 0 0.0030212239594074922 0.0066989070372029296 0 0.0028664347582783825 0.023959661013290768 0 0.0037313476013501709 0.022894731991085385 0 0.0028022364436486921 0.022963643691624198 0 0.0028664347582783825 0.023959661013290768 0 0.0028022364436486921 0.022963643691624198 0 0.0023435765666898305 0.023343546455056079 0 0.0028022364436486921 0.022963643691624198 0 0.0023435765666898305 0.023343546455056079 0 0.0022548276665134365 0.022621704958572322 0 0.0028022364436486921 0.022963643691624198 0 0.0025014907255923612 0.022082405037663035 0 0.0022548276665134365 0.022621704958572322 0 0.0037313476013501709 0.022894731991085385 0 0.0028022364436486921 0.022963643691624198 0 0.0025014907255923612 0.022082405037663035 0 0.0056908722095203174 0.021926689127853092 0 0.0047303314549317389 0.021309567241490794 0 0.0052793352964879353 0.0215372466935899 0 0.0037523898605581079 0.01487156754747768 0 0.0030468013264817054 0.021693944155101955 0 0.0056404745420569145 0.020980546972170427 0 0.0047303314549317389 0.021309567241490794 0 0.0052793352964879353 0.0215372466935899 0 0.0030468013264817054 0.021693944155101955 0 0.002961074226951741 0.021841920374896236 0 0.0056404745420569145 0.020980546972170427 0 0.0052793352964879353 0.0215372466935899 0 0.0058773615899403928 0.021759269528643654 0 0.0052579951402434095 0.014525601364439479 0 0.0044895183640592763 0.013620695945628283 0 0.0056908722095203174 0.021926689127853092 0 0.0052793352964879353 0.0215372466935899 0 0.0058488289451625814 0.021726327372604791 0 0.0037523898605581079 0.01487156754747768 0 0.0044895183640592763 0.013620695945628283 0 0.0012815286461497365 0.023892425357578594 0 0.0016841807126894285 0.023230680372300111 0 0.00062466850598869971 0.023473000437867809 0 0.0016841807126894285 0.023230680372300111 0 0.0013338108506613072 0.022390737907943319 0 0.00062466850598869971 0.023473000437867809 0 0.0020519435245983271 0.02405721874872695 0 0.0023435765666898305 0.023343546455056079 0 0.0016483880548823532 0.023073803721621745 0 0.0020519435245983271 0.02405721874872695 0 0.0012815286461497365 0.023892425357578594 0 0.0016841807126894285 0.023230680372300111 0 0.0013609334378814179 0.023995921236979863 0 0.0012658686727213687 0.024034284776751885 0 0.0023435765666898305 0.023343546455056079 0 0.0016483880548823532 0.023073803721621745 0 0.0022548276665134365 0.022621704958572322 0 0.0016483880548823532 0.023073803721621745 0 0.0018625699403795647 0.022295446471032373 0 0.0012690955618500626 0.022129349733430677 0 0.0016483880548823532 0.023073803721621745 0 0.0022548276665134365 0.022621704958572322 0 0.0018625699403795647 0.022295446471032373 0 0.0024887785366643103 0.02211342563601737 0 0.0022548276665134365 0.022621704958572322 0 0.0018625699403795647 0.022295446471032373 0 0.00089957239341597857 0.027865465723419552 0 0.00078546077525182506 0.0279149373912429 0 0.0007734065352173582 0.028136130508814982 0 0.0012658686727213687 0.024034284776751885 0 0.0013525617761194378 0.025135191914911918 0 0.0013525617761194378 0.025135191914911918 0 0.00087798329372735118 0.026691722751475015 0 0.00077618454324382673 0.027825716182674202 0 0.00089957239341597857 0.027865465723419552 0 0.00078546077525182506 0.0279149373912429 0 0.00078546077525182506 0.0279149373912429 0 0.0006966166055978767 0.027853023771017872 0 0.0007734065352173582 0.028136130508814982 0 0.00077618454324382673 0.027825716182674202 0 0.00078546077525182506 0.0279149373912429 0 0.0006966166055978767 0.027853023771017872 0 0.0006966166055978767 0.027853023771017872 0 0.0007734065352173582 0.028136130508814982 0 0.00053644696442204667 0.028131845603814924 0 0.00087181142519700608 0.027948126900140743 0 0.0006966166055978767 0.027853023771017872 0 0.00081261762787242556 0.027814544329766728 0 0.0007514063229874491 0.02765183551301377 0 0.00081261762787242556 0.027814544329766728 0 0.00092720449500783197 0.027794265557420393 0 0.0011634496481833566 0.028809111093465109 0 0.00096605902989735772 0.029769192003930973 0 0.0006966166055978767 0.027853023771017872 0 0.0007514063229874491 0.02765183551301377 0 0.00081261762787242556 0.027814544329766728 0 0.0010918081316942474 0.028300943171179191 0 0.00087181142519700608 0.027948126900140743 0 0.00092720449500783197 0.027794265557420393 0 0.00087181142519700608 0.027948126900140743 0 0.00081261762787242556 0.027814544329766728 0 0.00092720449500783197 0.027794265557420393 0 0.0010918081316942474 0.028300943171179191 0 0.00092720449500783197 0.027794265557420393 0 0.0013458531070938483 0.027649863220007224 0 0.0013458531070938483 0.027649863220007224 0 0.0011194057765105015 0.027580756476385426 0 0.0012207285169839037 0.027410540955683533 0 -0.00010122350508570327 0.034740644308572058 0 -0.0018402384384620728 0.045213757536229152 0 0.00092720449500783197 0.027794265557420393 0 0.0013458531070938483 0.027649863220007224 0 0.0011194057765105015 0.027580756476385426 0 0.0007514063229874491 0.02765183551301377 0 0.00092720449500783197 0.027794265557420393 0 0.00094165166994817783 0.027544759725697719 0 0.00092720449500783197 0.027794265557420393 0 0.0011194057765105015 0.027580756476385426 0 0.00094165166994817783 0.027544759725697719 0 0.00094165166994817783 0.027544759725697719 0 0.00087340177230435002 0.027353291603172375 0 0.0012207285169839037 0.027410540955683533 0 -0.00063647839745358925 0.035145485360677117 0 -0.0018402384384620728 0.045213757536229152 0 0.0007514063229874491 0.02765183551301377 0 0.00094165166994817783 0.027544759725697719 0 0.00087340177230435002 0.027353291603172375 0 0.0011194057765105015 0.027580756476385426 0 0.00094165166994817783 0.027544759725697719 0 0.0012207285169839037 0.027410540955683533 0 -0.0018402384384620728 0.045213757536229152 0 -0.0031720586105814961 0.04519319117885378 0 -0.0036413028014664573 0.041550865120684476 0 -0.0037408074714245527 0.041546940145843189 0 -0.0037198406910385774 0.041609478315500631 0 -0.0051137804578794254 0.057525257836082554 0 -0.0018402384384620728 0.045213757536229152 0 -0.0048439909098298324 0.05034790028898295 0 -0.005043739778522684 0.047093406796218734 0 -0.0042384171502080374 0.04918364447977229 0 -0.0036413028014664573 0.041550865120684476 0 -0.0037198406910385774 0.041609478315500631 0 -0.0036693901073054933 0.041613003193854699 0 -0.0034402915348533342 0.033663248787036137 0 -0.0044079568992646716 0.035757161412891071 0 -0.0020017674203446105 0.034795295149408836 0 -0.00063647839745358925 0.035145485360677117 0 -0.0024888778058392022 0.039919939633880748 0 -0.0022085870743410105 0.038027937793127513 0 -0.0020017674203446105 0.034795295149408836 0 -0.00064386031213653158 0.034134487079991872 0 -0.00063647839745358925 0.035145485360677117 0 -0.00070073609893612783 0.030786321935984032 0 -0.0034402915348533342 0.033663248787036137 0 -0.0020017674203446105 0.034795295149408836 0 -0.0014866759246679173 0.033995609906170031 0 -0.0020017674203446105 0.034795295149408836 0 -0.0014859432533311653 0.033989484898131729 0 -0.00064386031213653158 0.034134487079991872 0 -0.00070073609893612783 0.030786321935984032 0 -0.00057482956630691955 0.029806252866726498 0 -0.00081728859331706865 0.031000608135333643 0 -0.00070073609893612783 0.030786321935984032 0 0.00013517555482539821 0.025013290150627695 0 -0.00057482956630691955 0.029806252866726498 0 -0.0023968848640553032 0.028757178402119266 0 -0.00061252716278374631 0.026797229693993223 0 -0.0034191737926728858 0.026321806272718122 0 0.0010957106079281759 0.024789076878317991 0 0.00016839829249535546 0.024643781047041985 0 0.0006920183872660946 0.024226846884070365 0 -0.00010952668906694931 0.024605127566190859 0 0.00016690664132864593 0.024654413196761451 0 0.00029329554313886256 0.024332287921083825 0 0.00062466850598869971 0.023473000437867809 0 0.00029329554313886256 0.024332287921083825 0 0.0006920183872660946 0.024226846884070365 0 0.00016839829249535546 0.024643781047041985 0 0.00029329554313886256 0.024332287921083825 0 0.0006920183872660946 0.024226846884070365 0 0.00062466850598869971 0.023473000437867809 0 -0.00010952668906694931 0.024605127566190859 0 0.00029329554313886256 0.024332287921083825 0 -0.00057482956630691955 0.029806252866726498 0 -0.00044666799531699531 0.029419971674423027 0 0.00087798329372735118 0.026691722751475015 0 -0.00070073609893612783 0.030786321935984032 0 0.00096605902989735772 0.029769192003930973 0 -0.00063647839745358925 0.035145485360677117 0 0.00053644696442204667 0.028131845603814924 0 0.00038103250308228764 0.028465803704722181 0 0.00057292095809114135 0.028491473941827241 0 0.0007734065352173582 0.028136130508814982 0 0.00053644696442204667 0.028131845603814924 0 0.00057292095809114135 0.028491473941827241 0 -2.0161246671908423e-05 0.084942819166674594 0 -1.1647959842918508e-08 0.084999948845340456 0 -1.435055982261185e-05 0.084970859229092421 0 -1.1647959842918508e-08 0.084999948845340456 0 -1.435055982261185e-05 0.084970859229092421 0 -5.4999536447721777e-09 0.084999968859556851 0 -0.00028539952248451923 0.083488332225830214 0 -0.00046035766057713634 0.082096592751370184 0 -2.0161246671908423e-05 0.084942819166674594 0 -1.435055982261185e-05 0.084970859229092421 0 -3.9016518573252611e-06 0.08494625004726844 0 -0.00028539952248451923 0.083488332225830214 0 -2.393562276633362e-05 0.081326586803704679 0 -0.0011508800730176091 0.080713971021241587 0 -0.00049479955405711765 0.080409919639694141 0 -0.00029445962246472083 0.080562397895335744 0 -0.00046035766057713634 0.082096592751370184 0 -0.00066677731507508973 0.080398860583999504 0 -0.00049479955405711765 0.080409919639694141 0 -0.00029445962246472083 0.080562397895335744 0 0.00016302478162942248 0.080111155101404125 0 -3.9016518573252611e-06 0.08494625004726844 0 1.9293423700682554e-07 0.084911742400467546 0 3.2524141128007835e-05 0.08491474079980986 0 -2.0161246671908423e-05 0.084942819166674594 0 -3.9016518573252611e-06 0.08494625004726844 0 1.9293423700682554e-07 0.084911742400467546 0 -2.0161246671908423e-05 0.084942819166674594 0 -1.3106541932940871e-05 0.084857763724118629 0 -2.3828479287214124e-05 0.084889832661428272 0 -2.0161246671908423e-05 0.084942819166674594 0 1.9293423700682554e-07 0.084911742400467546 0 -1.3106541932940871e-05 0.084857763724118629 0 1.9293423700682554e-07 0.084911742400467546 0 -1.3106541932940871e-05 0.084857763724118629 0 4.5205293565981411e-05 0.08486680414594075 0 0.00042830173612096607 0.082285832216568988 0 8.5196527594313956e-05 0.081409817793512182 0 -1.3106541932940871e-05 0.084857763724118629 0 -9.3949619853530996e-06 0.084732837324085528 0 3.8586518616577478e-05 0.084748144736719419 0 -1.3106541932940871e-05 0.084857763724118629 0 -2.3828479287214124e-05 0.084889832661428272 0 -2.6811444866612625e-05 0.084783008181536432 0 -2.0161246671908423e-05 0.084942819166674594 0 -2.3828479287214124e-05 0.084889832661428272 0 -4.5252658709284683e-08 0.084999882317602041 0 -2.0161246671908423e-05 0.084942819166674594 0 -1.1647959842918508e-08 0.084999948845340456 0 -4.5252658709284683e-08 0.084999882317602041 0 -4.5252658709284683e-08 0.084999882317602041 0 -2.4083919242611006e-05 0.084865722988592004 0 -1.3773600359545312e-08 0.084999842581380616 0 -2.3828479287214124e-05 0.084889832661428272 0 -4.5252658709284683e-08 0.084999882317602041 0 -2.4083919242611006e-05 0.084865722988592004 0 -1.3773600359545312e-08 0.084999842581380616 0 -1.0020681699730022e-06 0.084858920433370677 0 -8.5063041463552408e-09 0.084999783066616541 0 -2.4083919242611006e-05 0.084865722988592004 0 -1.3773600359545312e-08 0.084999842581380616 0 -1.0020681699730022e-06 0.084858920433370677 0 -2.4083919242611006e-05 0.084865722988592004 0 -1.0020681699730022e-06 0.084858920433370677 0 -2.4816727297645087e-05 0.08471095933543428 0 -2.5230327175314723e-06 0.084497864250578814 0 -5.9047495984034716e-06 0.084644071364059076 0 -7.123772215383606e-06 0.084428300094906941 0 -5.9047495984034716e-06 0.084644071364059076 0 -2.0048239993051814e-05 0.084565638708778076 0 -7.123772215383606e-06 0.084428300094906941 0 1.1519940165798096e-05 0.084790759839029339 0 -1.0020681699730022e-06 0.084858920433370677 0 -5.9047495984034716e-06 0.084644071364059076 0 -1.0020681699730022e-06 0.084858920433370677 0 -5.9047495984034716e-06 0.084644071364059076 0 -2.4816727297645087e-05 0.08471095933543428 0 -2.4816727297645087e-05 0.08471095933543428 0 -2.0048239993051814e-05 0.084565638708778076 0 -2.2747001273281926e-05 0.084647398557633161 0 -5.9047495984034716e-06 0.084644071364059076 0 -2.4816727297645087e-05 0.08471095933543428 0 -2.0048239993051814e-05 0.084565638708778076 0 -2.4816727297645087e-05 0.08471095933543428 0 -2.2747001273281926e-05 0.084647398557633161 0 -2.6811444866612625e-05 0.084783008181536432 0 -2.4083919242611006e-05 0.084865722988592004 0 -2.4816727297645087e-05 0.08471095933543428 0 -2.6811444866612625e-05 0.084783008181536432 0 -2.3828479287214124e-05 0.084889832661428272 0 -2.4083919242611006e-05 0.084865722988592004 0 -2.6811444866612625e-05 0.084783008181536432 0 -2.2747001273281926e-05 0.084647398557633161 0 -2.6811444866612625e-05 0.084783008181536432 0 -9.3949619853530996e-06 0.084732837324085528 0 -1.3106541932940871e-05 0.084857763724118629 0 -2.6811444866612625e-05 0.084783008181536432 0 -9.3949619853530996e-06 0.084732837324085528 0 -9.3949619853530996e-06 0.084732837324085528 0 1.2319034642841711e-05 0.084595027607722778 0 3.8586518616577478e-05 0.084748144736719419 0 9.0419276662006526e-05 0.084640350370583636 0 0.00014420255120763917 0.084719473735057588 0 3.8586518616577478e-05 0.084748144736719419 0 9.0419276662006526e-05 0.084640350370583636 0 1.2319034642841711e-05 0.084595027607722778 0 0.00011361411029551045 0.084510122240015861 0 9.0419276662006526e-05 0.084640350370583636 0 1.2319034642841711e-05 0.084595027607722778 0 3.8586518616577478e-05 0.084748144736719419 0 9.0419276662006526e-05 0.084640350370583636 0 0.00016641792065709982 0.08461094400654437 0 0.00014420255120763917 0.084719473735057588 0 9.0419276662006526e-05 0.084640350370583636 0 0.00011361411029551045 0.084510122240015861 0 0.00016641792065709982 0.08461094400654437 0 3.2003473301058554e-05 0.084383333428030602 0 1.2319034642841711e-05 0.084595027607722778 0 0.00011361411029551045 0.084510122240015861 0 3.2003473301058554e-05 0.084383333428030602 0 1.2319034642841711e-05 0.084595027607722778 0 -4.1628744384029982e-06 0.084477652345325921 0 -2.2747001273281926e-05 0.084647398557633161 0 -9.3949619853530996e-06 0.084732837324085528 0 1.2319034642841711e-05 0.084595027607722778 0 -2.2747001273281926e-05 0.084647398557633161 0 1.2319034642841711e-05 0.084595027607722778 0 -4.1628744384029982e-06 0.084477652345325921 0 -2.0048239993051814e-05 0.084565638708778076 0 -2.2747001273281926e-05 0.084647398557633161 0 -4.1628744384029982e-06 0.084477652345325921 0 -2.0048239993051814e-05 0.084565638708778076 0 -4.1628744384029982e-06 0.084477652345325921 0 -7.123772215383606e-06 0.084428300094906941 0 -4.1628744384029982e-06 0.084477652345325921 0 2.770425463474649e-05 0.084296022229035678 0 -7.123772215383606e-06 0.084428300094906941 0 3.2003473301058554e-05 0.084383333428030602 0 -4.1628744384029982e-06 0.084477652345325921 0 2.770425463474649e-05 0.084296022229035678 0 3.2003473301058554e-05 0.084383333428030602 0 2.770425463474649e-05 0.084296022229035678 0 3.3551728835053153e-05 0.08411487484318228 0 2.770425463474649e-05 0.084296022229035678 0 8.6862882257605415e-05 0.084103905093284442 0 3.3551728835053153e-05 0.08411487484318228 0 2.770425463474649e-05 0.084296022229035678 0 8.6862882257605415e-05 0.084103905093284442 0 -7.123772215383606e-06 0.084428300094906941 0 -2.5230327175314723e-06 0.084497864250578814 0 8.6862882257605415e-05 0.084103905093284442 0 -7.123772215383606e-06 0.084428300094906941 0 -0.000183090841305511 0.084196401869522319 0 -0.0014641645428363861 0.083084509820118599 0 1.0619940061241435e-05 0.083503495633983307 0 -0.0014641645428363861 0.083084509820118599 0 1.0619940061241435e-05 0.083503495633983307 0 -0.0013630056274058124 0.081945359442340257 0 -0.0014641645428363861 0.083084509820118599 0 -0.0013630056274058124 0.081945359442340257 0 -0.0022666618682345581 0.081945340788746268 0 -0.000183090841305511 0.084196401869522319 0 8.6862882257605415e-05 0.084103905093284442 0 1.0619940061241435e-05 0.083503495633983307 0 8.6862882257605415e-05 0.084103905093284442 0 1.0619940061241435e-05 0.083503495633983307 0 3.3551728835053153e-05 0.08411487484318228 0 1.0619940061241435e-05 0.083503495633983307 0 3.3551728835053153e-05 0.08411487484318228 0 0.00020953253264055578 0.084202638307451214 0 3.2003473301058554e-05 0.084383333428030602 0 3.3551728835053153e-05 0.08411487484318228 0 0.00017503549377535395 0.084385270996114883 0 3.3551728835053153e-05 0.08411487484318228 0 0.00020953253264055578 0.084202638307451214 0 0.00017503549377535395 0.084385270996114883 0 1.0619940061241435e-05 0.083503495633983307 0 0.00020953253264055578 0.084202638307451214 0 0.00050714836937359033 0.084402463442484227 0 -0.0013630056274058124 0.081945359442340257 0 -0.00055704726991102275 0.079885153850130924 0 -0.0021866660527829667 0.081016999375151125 0 1.0619940061241435e-05 0.083503495633983307 0 -0.0013630056274058124 0.081945359442340257 0 -0.00055704726991102275 0.079885153850130924 0 -0.0018343617519448077 0.082869318972678283 0 -0.0029210856305296319 0.081735756800093179 0 0.00020953253264055578 0.084202638307451214 0 0.00041216249065980433 0.084380403824646399 0 0.00050714836937359033 0.084402463442484227 0 0.00020953253264055578 0.084202638307451214 0 0.00041216249065980433 0.084380403824646399 0 0.00027018393060282344 0.08435191032116561 0 0.00041284986231865264 0.084388002873617571 0 0.00032752399584949805 0.084473084226759823 0 0.0004145813165235293 0.084616460310145372 0 -0.0029210856305296319 0.081735756800093179 0 -0.004112611443909185 0.08078147742080731 0 -0.0028809429675489464 0.081749824650731315 0 -0.0029210856305296319 0.081735756800093179 0 0.00041216249065980433 0.084380403824646399 0 0.00032752399584949805 0.084473084226759823 0 0.00027018393060282344 0.08435191032116561 0 0.00041216249065980433 0.084380403824646399 0 0.00041284986231865264 0.084388002873617571 0 0.00032752399584949805 0.084473084226759823 0 3.2003473301058554e-05 0.084383333428030602 0 0.00017503549377535395 0.084385270996114883 0 0.00011361411029551045 0.084510122240015861 0 0.00032752399584949805 0.084473084226759823 0 0.00017503549377535395 0.084385270996114883 0 0.00027018393060282344 0.08435191032116561 0 0.00020953253264055578 0.084202638307451214 0 0.00017503549377535395 0.084385270996114883 0 0.00027018393060282344 0.08435191032116561 0 0.00032752399584949805 0.084473084226759823 0 0.00017503549377535395 0.084385270996114883 0 0.00020992244041370941 0.084521777386015032 0 0.00032752399584949805 0.084473084226759823 0 0.00020992244041370941 0.084521777386015032 0 0.00028487947172974124 0.084588964801708105 0 0.00020992244041370941 0.084521777386015032 0 0.00011361411029551045 0.084510122240015861 0 0.00016641792065709982 0.08461094400654437 0 0.00017503549377535395 0.084385270996114883 0 0.00020992244041370941 0.084521777386015032 0 0.00011361411029551045 0.084510122240015861 0 0.00016641792065709982 0.08461094400654437 0 0.00028563717256016341 0.084706977395149138 0 0.00014420255120763917 0.084719473735057588 0 0.00020992244041370941 0.084521777386015032 0 0.00016641792065709982 0.08461094400654437 0 0.00028487947172974124 0.084588964801708105 0 0.00016641792065709982 0.08461094400654437 0 0.00028487947172974124 0.084588964801708105 0 0.00028563717256016341 0.084706977395149138 0 0.00028487947172974124 0.084588964801708105 0 0.00028563717256016341 0.084706977395149138 0 0.0004145813165235293 0.084616460310145372 0 0.00032752399584949805 0.084473084226759823 0 0.00028487947172974124 0.084588964801708105 0 0.0004145813165235293 0.084616460310145372 0 0.00028563717256016341 0.084706977395149138 0 0.00036766092022631227 0.08473453646258515 0 0.0004145813165235293 0.084616460310145372 0 0.00028563717256016341 0.084706977395149138 0 0.00036766092022631227 0.08473453646258515 0 0.00031678501095332585 0.084838476755512524 0 0.00028563717256016341 0.084706977395149138 0 0.00031678501095332585 0.084838476755512524 0 0.00021010849551871176 0.084796711487470908 0 -0.007888510539173282 0.071308494451753246 0 -0.0058979991549329815 0.070463900209645006 0 -0.0088000012092506446 0.069519854829636338 0 -0.007888510539173282 0.071308494451753246 0 -0.0088000012092506446 0.069519854829636338 0 -0.0092828216449685613 0.070753914784525015 0 -0.0045178473710482817 0.077415459672195125 0 -0.0027470836991630217 0.077775916751505761 0 0.00031678501095332585 0.084838476755512524 0 0.00017254257043488228 0.084890706004954949 0 0.00021010849551871176 0.084796711487470908 0 0.00017254257043488228 0.084890706004954949 0 0.00021010849551871176 0.084796711487470908 0 0.00011669105169626794 0.084798885184643916 0 0.00028563717256016341 0.084706977395149138 0 0.00021010849551871176 0.084796711487470908 0 0.00014420255120763917 0.084719473735057588 0 0.00021010849551871176 0.084796711487470908 0 0.00014420255120763917 0.084719473735057588 0 0.00011669105169626794 0.084798885184643916 0 0.00014420255120763917 0.084719473735057588 0 0.00011669105169626794 0.084798885184643916 0 3.8586518616577478e-05 0.084748144736719419 0 0.00011669105169626794 0.084798885184643916 0 3.8586518616577478e-05 0.084748144736719419 0 3.6577176910148097e-05 0.08483605030725877 0 -1.3106541932940871e-05 0.084857763724118629 0 3.8586518616577478e-05 0.084748144736719419 0 3.6577176910148097e-05 0.08483605030725877 0 -0.0027470836991630217 0.077775916751505761 0 8.5196527594313956e-05 0.081409817793512182 0 0.00017254257043488228 0.084890706004954949 0 0.00011669105169626794 0.084798885184643916 0 3.6577176910148097e-05 0.08483605030725877 0 8.3171931814295477e-05 0.084861278816114397 0 4.5205293565981411e-05 0.08486680414594075 0 7.0574940980609559e-05 0.084875051714850228 0 -0.00092910030317045703 0.077568195266111667 0 -0.00066677731507508973 0.080398860583999504 0 7.7289821455658051e-05 0.076000957502769778 0 0.00023048097509802487 0.07564728089958761 0 -0.00015142221877167961 0.075701881078722416 0 0.00081948357317715599 0.07981347992708572 0 0.00016302478162942248 0.080111155101404125 0 0.00056526977048619803 0.080418875128439191 0 -0.00092910030317045703 0.077568195266111667 0 0.0011953798710501457 0.078156920872751903 0 4.5205293565981411e-05 0.08486680414594075 0 7.0574940980609559e-05 0.084875051714850228 0 3.2524141128007835e-05 0.08491474079980986 0 1.9293423700682554e-07 0.084911742400467546 0 4.5205293565981411e-05 0.08486680414594075 0 3.2524141128007835e-05 0.08491474079980986 0 -2.393562276633362e-05 0.081326586803704679 0 0.0011953798710501457 0.078156920872751903 0 -0.00029445962246472083 0.080562397895335744 0 0.00016302478162942248 0.080111155101404125 0 0.00056526977048619803 0.080418875128439191 0 0.0011953798710501457 0.078156920872751903 0 0.0022777495892825103 0.07595106660010989 0 0.0061719991447051845 0.072690895224262586 0 0.0073340706745281346 0.073580993625887076 0 0.006294330312335319 0.073630758018600195 0 0.00445857569251072 0.072665412968365151 0 0.0061719991447051845 0.072690895224262586 0 0.006294330312335319 0.073630758018600195 0 0.0022777495892825103 0.07595106660010989 0 0.0018639339272518301 0.074601321569551224 0 0.0061719991447051845 0.072690895224262586 0 0.0075421972893697812 0.072992560962255509 0 0.0073340706745281346 0.073580993625887076 0 -0.0058379851903348212 0.070469457797663157 0 -0.0079012520987763769 0.069522973047163886 0 -0.0088000012092506446 0.069519854829636338 0 -0.00015142221877167961 0.075701881078722416 0 -0.00053743086455517028 0.075759029836424671 0 -0.00042410048857801562 0.075908353430974365 0 -0.0027470836991630217 0.077775916751505761 0 -0.007080535258525803 0.074692857688950134 0 -0.0058379851903348212 0.070469457797663157 0 -0.0048922203510162413 0.070079977462357709 0 -0.0079012520987763769 0.069522973047163886 0 -0.00092910030317045703 0.077568195266111667 0 -0.0033500653526678508 0.074605155211329668 0 7.7289821455658051e-05 0.076000957502769778 0 -0.00015142221877167961 0.075701881078722416 0 -0.00042410048857801562 0.075908353430974365 0 -0.0027470836991630217 0.077775916751505761 0 -0.00092910030317045703 0.077568195266111667 0 -0.0013203429860063297 0.073667103941352077 0 -0.0028168668028240068 0.073348897022070481 0 -0.010828456896432321 0.069066151550781774 0 -0.011440926140330085 0.070061038478108378 0 -0.010576131731901191 0.070604971707885655 0 -0.0012022331165199845 0.073329656978457086 0 -0.0013848616044585265 0.073300081062886338 0 -0.0015469883663062848 0.073389151926295443 0 -0.010828456896432321 0.069066151550781774 0 -0.011440926140330085 0.070061038478108378 0 -0.012242587194882689 0.069417027935487555 0 -0.0013203429860063297 0.073667103941352077 0 -0.00062113788327516288 0.073208895186066505 0 -0.00062113788327516288 0.073208895186066505 0 -0.00030610204095720691 0.073098339401244106 0 0.008404245675460385 0.073355540585431991 0 0.0087215931617221978 0.073493074827547814 0 0.0085384880486392926 0.073585930218935738 0 -0.010828456896432321 0.069066151550781774 0 -0.0098798617938464887 0.069978356465235036 0 -0.010576131731901191 0.070604971707885655 0 0.0018639339272518301 0.074601321569551224 0 -0.0013203429860063297 0.073667103941352077 0 -0.00053743086455517028 0.075759029836424671 0 -0.00042410048857801562 0.075908353430974365 0 -0.00092669208123431432 0.075821034403162763 0 -0.010828456896432321 0.069066151550781774 0 -0.0098798617938464887 0.069978356465235036 0 -0.0088000012092506446 0.069519854829636338 0 -0.0033500653526678508 0.074605155211329668 0 -0.0013203429860063297 0.073667103941352077 0 -0.0079012520987763769 0.069522973047163886 0 -0.010828456896432321 0.069066151550781774 0 -0.0088000012092506446 0.069519854829636338 0 -0.0098798617938464887 0.069978356465235036 0 -0.0088000012092506446 0.069519854829636338 0 -0.0092828216449685613 0.070753914784525015 0 0.0073340706745281346 0.073580993625887076 0 0.0081671296332223951 0.073602192957849158 0 0.0081571198964866948 0.074157989133842361 0 0.0075421972893697812 0.072992560962255509 0 0.008404245675460385 0.073355540585431991 0 0.0081671296332223951 0.073602192957849158 0 0.0075421972893697812 0.072992560962255509 0 0.0073340706745281346 0.073580993625887076 0 0.0081671296332223951 0.073602192957849158 0 0.0081671296332223951 0.073602192957849158 0 0.0085218309199833232 0.073940261666019691 0 0.0081571198964866948 0.074157989133842361 0 0.008404245675460385 0.073355540585431991 0 0.0081671296332223951 0.073602192957849158 0 0.0085384880486392926 0.073585930218935738 0 0.0081671296332223951 0.073602192957849158 0 0.0085218309199833232 0.073940261666019691 0 0.0085384880486392926 0.073585930218935738 0 0.0086239031787932272 0.073683776605127982 0 0.0085384880486392926 0.073585930218935738 0 0.00864580957152776 0.073872594249565882 0 0.0085218309199833232 0.073940261666019691 0 0.0085384880486392926 0.073585930218935738 0 0.00864580957152776 0.073872594249565882 0 0.0085218309199833232 0.073940261666019691 0 0.00864580957152776 0.073872594249565882 0 0.0087330110597871428 0.074132881871547707 0 0.0086239031787932272 0.073683776605127982 0 0.0087198218605904505 0.074021417760073857 0 0.0087502337433316441 0.074156596976787129 0 -0.00062113788327516288 0.073208895186066505 0 0.0015779608943190058 0.073477286249742077 0 0.00864580957152776 0.073872594249565882 0 0.0087198218605904505 0.074021417760073857 0 0.0087330110597871428 0.074132881871547707 0 0.0087198218605904505 0.074021417760073857 0 0.0087325630765959766 0.074192531023004618 0 0.0087330110597871428 0.074132881871547707 0 0.0087198218605904505 0.074021417760073857 0 0.0087325630765959766 0.074192531023004618 0 0.0087502337433316441 0.074156596976787129 0 0.0086239031787932272 0.073683776605127982 0 0.00864580957152776 0.073872594249565882 0 0.0087198218605904505 0.074021417760073857 0 0.0015779608943190058 0.073477286249742077 0 0.0013283008541677193 0.073583604200578467 0 -0.0020863207838071295 0.071799721497251362 0 -0.0020294142649118128 0.07178950236549736 0 -0.0019352886389565056 0.071840080073819534 0 0.0085386770477359712 0.074250601050917797 0 0.0087502337433316441 0.074156596976787129 0 0.0083762853859067621 0.074377841199079905 0 0.0085386770477359712 0.074250601050917797 0 0.0087325630765959766 0.074192531023004618 0 0.0086142205080198646 0.074264915445474686 0 0.0085386770477359712 0.074250601050917797 0 0.0087325630765959766 0.074192531023004618 0 0.0087502337433316441 0.074156596976787129 0 -0.0028168668028240068 0.073348897022070481 0 -0.006269499744811371 0.072354915805523418 0 -0.0021284547068505435 0.071765452244015884 0 -0.0020897330928653845 0.071762916028067933 0 -0.0020273288601147981 0.071724728068450053 0 -0.0020506802723059638 0.071762600104645455 0 -0.0020897330928653845 0.071762916028067933 0 -0.0020273288601147981 0.071724728068450053 0 -0.0020294142649118128 0.07178950236549736 0 -0.0020506802723059638 0.071762600104645455 0 -0.0020308198062959065 0.071753004899964182 0 -0.0020294142649118128 0.07178950236549736 0 -0.0020308198062959065 0.071753004899964182 0 -0.0020124049284118142 0.071739508615448949 0 -0.0020863207838071295 0.071799721497251362 0 -0.0020294142649118128 0.07178950236549736 0 -0.0020506802723059638 0.071762600104645455 0 -0.0020863207838071295 0.071799721497251362 0 -0.0020506802723059638 0.071762600104645455 0 -0.0020897330928653845 0.071762916028067933 0 -0.0020506802723059638 0.071762600104645455 0 -0.0020308198062959065 0.071753004899964182 0 -0.0020273288601147981 0.071724728068450053 0 -0.011440926140330085 0.070061038478108378 0 -0.012242587194882689 0.069417027935487555 0 -0.012128769815814877 0.070913265103442438 0 -0.0021440210883992773 0.071778460724531007 0 -0.0020863207838071295 0.071799721497251362 0 -0.0021227334344114277 0.071769236488631774 0 -0.00062113788327516288 0.073208895186066505 0 -0.0028168668028240068 0.073348897022070481 0 -0.0020863207838071295 0.071799721497251362 0 -0.0021227334344114277 0.071769236488631774 0 -0.0020897330928653845 0.071762916028067933 0 -0.0028168668028240068 0.073348897022070481 0 -0.0026897576376791106 0.073271960202362138 0 -0.012242587194882689 0.069417027935487555 0 -0.012128769815814877 0.070913265103442438 0 -0.014325458959605672 0.070679492857567625 0 -0.012128769815814877 0.070913265103442438 0 -0.014325458959605672 0.070679492857567625 0 -0.013296369278818672 0.071777727381388767 0 -0.013296369278818672 0.071777727381388767 0 -0.013436225107073025 0.072844257623849218 0 -0.014636419890000332 0.072173967058204044 0 -0.014325458959605672 0.070679492857567625 0 -0.013296369278818672 0.071777727381388767 0 -0.014636419890000332 0.072173967058204044 0 -0.0091359883965591721 0.076510149131933783 0 -0.010896612795957102 0.076625116830351836 0 -0.012128769815814877 0.070913265103442438 0 -0.013296369278818672 0.071777727381388767 0 -0.011835362306187409 0.072322507701884059 0 -0.013296369278818672 0.071777727381388767 0 -0.011835362306187409 0.072322507701884059 0 -0.013436225107073025 0.072844257623849218 0 -0.011835362306187409 0.072322507701884059 0 -0.011200116270495912 0.071285221607883323 0 -0.010162137094073868 0.071697579672437881 0 -0.0091359883965591721 0.076510149131933783 0 -0.0070513978625280473 0.077044589698762614 0 -0.0079675089573377055 0.077498903120930052 0 -0.0064091574976833021 0.076823093193748151 0 -0.0069442745863691991 0.078210971295379503 0 -0.012128769815814877 0.070913265103442438 0 -0.011835362306187409 0.072322507701884059 0 -0.011200116270495912 0.071285221607883323 0 -0.011200116270495912 0.071285221607883323 0 -0.010576131731901191 0.070604971707885655 0 -0.010162137094073868 0.071697579672437881 0 -0.011440926140330085 0.070061038478108378 0 -0.011200116270495912 0.071285221607883323 0 -0.010576131731901191 0.070604971707885655 0 -0.011440926140330085 0.070061038478108378 0 -0.012128769815814877 0.070913265103442438 0 -0.011200116270495912 0.071285221607883323 0 -0.007888510539173282 0.071308494451753246 0 -0.0092828216449685613 0.070753914784525015 0 -0.0099067317938244959 0.072188292788103348 0 -0.0045178473710482817 0.077415459672195125 0 -0.0070513978625280473 0.077044589698762614 0 -0.0098798617938464887 0.069978356465235036 0 -0.010576131731901191 0.070604971707885655 0 -0.0092828216449685613 0.070753914784525015 0 -0.010576131731901191 0.070604971707885655 0 -0.0092828216449685613 0.070753914784525015 0 -0.0099067317938244959 0.072188292788103348 0 -0.0079061805562999025 0.075209694684365794 0 -0.0070513978625280473 0.077044589698762614 0 -0.0064091574976833021 0.076823093193748151 0 -0.0056786441274942808 0.078510019196302447 0 -0.0069442745863691991 0.078210971295379503 0 0.00036766092022631227 0.08473453646258515 0 0.00031678501095332585 0.084838476755512524 0 0.00045323644696027189 0.084770296528496977 0 0.00036766092022631227 0.08473453646258515 0 0.00045323644696027189 0.084770296528496977 0 0.0004145813165235293 0.084616460310145372 0 -0.0070513978625280473 0.077044589698762614 0 -0.004112611443909185 0.08078147742080731 0 -0.0056786441274942808 0.078510019196302447 0 -0.0069442745863691991 0.078210971295379503 0 -0.0069979780335024562 0.079750787869226167 0 -0.0079675089573377055 0.077498903120930052 0 -0.0069442745863691991 0.078210971295379503 0 -0.0078613469283326954 0.078784653846055999 0 -0.0069442745863691991 0.078210971295379503 0 -0.0078613469283326954 0.078784653846055999 0 -0.0069979780335024562 0.079750787869226167 0 -0.0042046141415188858 0.078467237820649308 0 -0.0031025066244044141 0.079971943946535576 0 -0.0079405471772028315 0.080006572341735666 0 -0.0078613469283326954 0.078784653846055999 0 -0.0069979780335024562 0.079750787869226167 0 -0.0090466465582290361 0.079299304380415853 0 -0.00055704726991102275 0.079885153850130924 0 -0.0042046141415188858 0.078467237820649308 0 -0.0031025066244044141 0.079971943946535576 0 -0.0049454447977118187 0.080202457964230922 0 -0.0056786441274942808 0.078510019196302447 0 -0.0069979780335024562 0.079750787869226167 0 -0.0029210856305296319 0.081735756800093179 0 -0.0060209989498535713 0.079775010502898702 0 -0.00055704726991102275 0.079885153850130924 0 -0.0031025066244044141 0.079971943946535576 0 -0.0021866660527829667 0.081016999375151125 0 -0.0013630056274058124 0.081945359442340257 0 -0.0021866660527829667 0.081016999375151125 0 -0.0022666618682345581 0.081945340788746268 0 -0.0021866660527829667 0.081016999375151125 0 -0.0029706436016766744 0.081405537148338966 0 -0.0022666618682345581 0.081945340788746268 0 -0.0031025066244044141 0.079971943946535576 0 -0.0029706436016766744 0.081405537148338966 0 -0.003678856922145641 0.081377981033914012 0 -0.0031025066244044141 0.079971943946535576 0 -0.0021866660527829667 0.081016999375151125 0 -0.0029706436016766744 0.081405537148338966 0 -0.0046153459633196713 0.079392393428712141 0 -0.006605721616144397 0.079434799866473865 0 -0.0031025066244044141 0.079971943946535576 0 -0.003678856922145641 0.081377981033914012 0 -0.0043155071803175149 0.081316695348718854 0 -0.0029706436016766744 0.081405537148338966 0 -0.003678856922145641 0.081377981033914012 0 -0.0035109867637494116 0.081936102249342585 0 -0.0035109867637494116 0.081936102249342585 0 -0.0035718407256047691 0.082373631718687307 0 -0.0030451419194627754 0.082430003124301918 0 -0.0039118537633507601 0.082172368675160701 0 -0.0039258531901598679 0.081993910716092633 0 -0.0035718407256047691 0.082373631718687307 0 -0.0035109867637494116 0.081936102249342585 0 -0.0039258531901598679 0.081993910716092633 0 -0.0035718407256047691 0.082373631718687307 0 -0.003678856922145641 0.081377981033914012 0 -0.0035109867637494116 0.081936102249342585 0 -0.0039258531901598679 0.081993910716092633 0 -0.0030239019772557727 0.082851467392583394 0 -0.0035718407256047691 0.082373631718687307 0 -0.0030451419194627754 0.082430003124301918 0 -0.001359883692923784 0.08433626551486427 0 -0.0014641645428363861 0.083084509820118599 0 -0.0030451419194627754 0.082430003124301918 0 -0.0014641645428363861 0.083084509820118599 0 -0.0030451419194627754 0.082430003124301918 0 -0.0022666618682345581 0.081945340788746268 0 -0.0029706436016766744 0.081405537148338966 0 -0.0030451419194627754 0.082430003124301918 0 -0.0022666618682345581 0.081945340788746268 0 -0.0029706436016766744 0.081405537148338966 0 -0.0035109867637494116 0.081936102249342585 0 -0.0030451419194627754 0.082430003124301918 0 -0.0049041402625116604 0.082349679382640512 0 -0.0044282509012066188 0.08179230304016101 0 -0.0049150271630230002 0.081503360421512849 0 -0.0038637819893664227 0.082212147119356635 0 -0.0039258531901598679 0.081993910716092633 0 -0.0044282509012066188 0.08179230304016101 0 -0.0039258531901598679 0.081993910716092633 0 -0.0044282509012066188 0.08179230304016101 0 -0.0043155071803175149 0.081316695348718854 0 -0.003678856922145641 0.081377981033914012 0 -0.0039258531901598679 0.081993910716092633 0 -0.0043155071803175149 0.081316695348718854 0 -0.006605721616144397 0.079434799866473865 0 -0.011314645370081623 0.079021045573760676 0 -0.0079405471772028315 0.080006572341735666 0 -0.011576971886382872 0.077961152130204575 0 -0.013420371583924881 0.080659414453659956 0 -0.0044282509012066188 0.08179230304016101 0 -0.0043155071803175149 0.081316695348718854 0 -0.0049150271630230002 0.081503360421512849 0 -0.011576971886382872 0.077961152130204575 0 -0.0087827505672923873 0.076419211042215038 0 -0.013731567897860685 0.074705245622435634 0 -0.0079405471772028315 0.080006572341735666 0 -0.011576971886382872 0.077961152130204575 0 -0.0087827505672923873 0.076419211042215038 0 -0.0042046141415188858 0.078467237820649308 0 -0.0079405471772028315 0.080006572341735666 0 -0.0087827505672923873 0.076419211042215038 0 -0.0060209989498535713 0.079775010502898702 0 -0.0091981174628099523 0.078302887761409229 0 -0.0079675089573377055 0.077498903120930052 0 -0.0078613469283326954 0.078784653846055999 0 -0.0095312403952604353 0.078172984502019607 0 -0.0078613469283326954 0.078784653846055999 0 -0.0090466465582290361 0.079299304380415853 0 -0.0095312403952604353 0.078172984502019607 0 -0.0091981174628099523 0.078302887761409229 0 -0.012317939686190691 0.077143240621347961 0 -0.0090466465582290361 0.079299304380415853 0 -0.0095312403952604353 0.078172984502019607 0 -0.011097143560309428 0.078847671548444229 0 -0.010896612795957102 0.076625116830351836 0 -0.012317939686190691 0.077143240621347961 0 -0.013436225107073025 0.072844257623849218 0 -0.01486747320755216 0.073539788177385532 0 -0.014636419890000332 0.072173967058204044 0 -0.015109382117088654 0.07270136266443375 0 -0.01486747320755216 0.073539788177385532 0 -0.014636419890000332 0.072173967058204044 0 -0.014986611546688301 0.075077728141200409 0 -0.013373968179592825 0.074378712388173479 0 -0.015620490000411911 0.07386473560953033 0 -0.015109382117088654 0.07270136266443375 0 -0.01486747320755216 0.073539788177385532 0 -0.015620490000411911 0.07386473560953033 0 -0.012317939686190691 0.077143240621347961 0 -0.012784409771350496 0.076948345832541287 0 -0.01243177072291508 0.077127420969764798 0 -0.012317939686190691 0.077143240621347961 0 -0.015620490000411911 0.07386473560953033 0 -0.017755295094038562 0.077280019663524935 0 -0.015938229190348849 0.071798151206627372 0 -0.01556260126159492 0.064694744672024657 0 -0.014267023497644861 0.067934538131704844 0 -0.015938229190348849 0.071798151206627372 0 -0.01475705543850373 0.070379281295440826 0 -0.015227426771424335 0.070951170961475671 0 -0.014267023497644861 0.067934538131704844 0 -0.013646443838581579 0.069856998625954653 0 -0.015938229190348849 0.071798151206627372 0 -0.015109382117088654 0.07270136266443375 0 -0.015620490000411911 0.07386473560953033 0 -0.015938229190348849 0.071798151206627372 0 -0.014986611546688301 0.075077728141200409 0 -0.01532626256874077 0.077426705119337844 0 -0.017755295094038562 0.077280019663524935 0 -0.014986611546688301 0.075077728141200409 0 -0.015620490000411911 0.07386473560953033 0 -0.017755295094038562 0.077280019663524935 0 -0.01532626256874077 0.077426705119337844 0 -0.017755295094038562 0.077280019663524935 0 -0.015249570447569945 0.078951007506812693 0 -0.011576971886382872 0.077961152130204575 0 -0.013731567897860685 0.074705245622435634 0 -0.013757753447335644 0.076814987626824149 0 -0.014986611546688301 0.075077728141200409 0 -0.013731567897860685 0.074705245622435634 0 -0.013757753447335644 0.076814987626824149 0 -0.014986611546688301 0.075077728141200409 0 -0.01532626256874077 0.077426705119337844 0 -0.013757753447335644 0.076814987626824149 0 -0.01532626256874077 0.077426705119337844 0 -0.013757753447335644 0.076814987626824149 0 -0.01355997402705421 0.078934921463242824 0 -0.011576971886382872 0.077961152130204575 0 -0.013757753447335644 0.076814987626824149 0 -0.01355997402705421 0.078934921463242824 0 -0.011576971886382872 0.077961152130204575 0 -0.01355997402705421 0.078934921463242824 0 -0.013420371583924881 0.080659414453659956 0 -0.011380763155532322 0.079052366911633254 0 -0.011314645370081623 0.079021045573760676 0 -0.013520357939704263 0.080345843943683701 0 -0.015249570447569945 0.078951007506812693 0 -0.01616960421074486 0.080691176179182839 0 -0.011314645370081623 0.079021045573760676 0 -0.014359239311201333 0.079763119782595857 0 -0.01532626256874077 0.077426705119337844 0 -0.01355997402705421 0.078934921463242824 0 -0.015249570447569945 0.078951007506812693 0 -0.01355997402705421 0.078934921463242824 0 -0.013520357939704263 0.080345843943683701 0 -0.015249570447569945 0.078951007506812693 0 -0.017755295094038562 0.077280019663524935 0 -0.01616960421074486 0.080691176179182839 0 -0.01853629582322619 0.080972042856357174 0 -0.017755295094038562 0.077280019663524935 0 -0.015249570447569945 0.078951007506812693 0 -0.01616960421074486 0.080691176179182839 0 -0.017143268155131564 0.080732741312489212 0 -0.01821584619785813 0.081641074734893085 0 -0.01853629582322619 0.080972042856357174 0 -0.014359239311201333 0.079763119782595857 0 -0.015430556869815789 0.080014632468962801 0 -0.017143268155131564 0.080732741312489212 0 -0.017640369908834184 0.082083963347350589 0 -0.01821584619785813 0.081641074734893085 0 -0.017143268155131564 0.080732741312489212 0 -0.017640369908834184 0.082083963347350589 0 -0.016629900443430351 0.081936114822337661 0 -0.015757517542150556 0.080450168522613441 0 -0.017143268155131564 0.080732741312489212 0 -0.016629900443430351 0.081936114822337661 0 -0.0098670948741919253 0.073507924293894078 0 -0.011314645370081623 0.079021045573760676 0 -0.015589473178283202 0.083120985158468427 0 -0.015757517542150556 0.080450168522613441 0 -0.016629900443430351 0.081936114822337661 0 -0.0051912326745550928 0.055267843880643694 0 -0.0055040154284048326 0.052773892056918771 0 -0.0083998735954750933 0.058516581184591299 0 -0.0055040154284048326 0.052773892056918771 0 -0.0091939431923638848 0.056076272549746592 0 -0.0086334016591134172 0.061012556556146978 0 -0.005984934999841568 0.057310252872167296 0 -0.0071605678888038661 0.060720249843843103 0 -0.0091939431923638848 0.056076272549746592 0 -0.010072929025786676 0.054236476568051493 0 -0.010903886408782178 0.056333808558197244 0 -0.0055040154284048326 0.052773892056918771 0 -0.0091939431923638848 0.056076272549746592 0 -0.0084113721445183229 0.052907465937700453 0 -0.0091939431923638848 0.056076272549746592 0 -0.0084113721445183229 0.052907465937700453 0 -0.010072929025786676 0.054236476568051493 0 -0.0095072952989540965 0.052214091525024348 0 -0.0084113721445183229 0.052907465937700453 0 -0.010072929025786676 0.054236476568051493 0 -0.0095072952989540965 0.052214091525024348 0 -0.010072929025786676 0.054236476568051493 0 -0.012669443598544465 0.055432307736458956 0 -0.018416599799878728 0.082424290910918546 0 -0.01821584619785813 0.081641074734893085 0 -0.018901588201202371 0.081414847731077419 0 -0.018416599799878728 0.082424290910918546 0 -0.017640369908834184 0.082083963347350589 0 -0.01821584619785813 0.081641074734893085 0 -0.01821584619785813 0.081641074734893085 0 -0.01853629582322619 0.080972042856357174 0 -0.018901588201202371 0.081414847731077419 0 -0.012669443598544465 0.055432307736458956 0 -0.010903886408782178 0.056333808558197244 0 -0.011413513679024923 0.059408362477462021 0 -0.010072929025786676 0.054236476568051493 0 -0.012669443598544465 0.055432307736458956 0 -0.010903886408782178 0.056333808558197244 0 -0.01556260126159492 0.064694744672024657 0 -0.012669443598544465 0.055432307736458956 0 -0.011413513679024923 0.059408362477462021 0 -0.0091939431923638848 0.056076272549746592 0 -0.010903886408782178 0.056333808558197244 0 -0.011413513679024923 0.059408362477462021 0 -0.017755295094038562 0.077280019663524935 0 -0.01853629582322619 0.080972042856357174 0 -0.018901588201202371 0.081414847731077419 0 -0.01475705543850373 0.070379281295440826 0 -0.012630231970839338 0.06820712046153081 0 -0.01556260126159492 0.064694744672024657 0 -0.011413513679024923 0.059408362477462021 0 -0.012139312905179594 0.062852716086120336 0 -0.011413513679024923 0.059408362477462021 0 -0.0086334016591134172 0.061012556556146978 0 -0.012139312905179594 0.062852716086120336 0 -0.0046878803864801692 0.056538614944594792 0 -0.0051912326745550928 0.055267843880643694 0 -0.0083998735954750933 0.058516581184591299 0 -0.0046878803864801692 0.056538614944594792 0 -0.0083998735954750933 0.058516581184591299 0 -0.006267157443606312 0.058405809836496542 0 -0.0091939431923638848 0.056076272549746592 0 -0.011413513679024923 0.059408362477462021 0 -0.0086334016591134172 0.061012556556146978 0 -0.0083998735954750933 0.058516581184591299 0 -0.006267157443606312 0.058405809836496542 0 -0.0063641836678063309 0.060556697243989988 0 -0.0083998735954750933 0.058516581184591299 0 -0.0063641836678063309 0.060556697243989988 0 -0.011370772620953689 0.064168493765379364 0 -0.0042953196940381097 0.060735301358528712 0 -0.0072735974774085109 0.064873293589959274 0 -0.0086334016591134172 0.061012556556146978 0 -0.012699077499275237 0.065191581922774786 0 -0.012761624748461139 0.069378072416199921 0 -0.0071605678888038661 0.060720249843843103 0 -0.0072735974774085109 0.064873293589959274 0 -0.01556260126159492 0.064694744672024657 0 -0.012139312905179594 0.062852716086120336 0 -0.012699077499275237 0.065191581922774786 0 -0.0086334016591134172 0.061012556556146978 0 -0.012139312905179594 0.062852716086120336 0 -0.012699077499275237 0.065191581922774786 0 -0.012699077499275237 0.065191581922774786 0 -0.014267023497644861 0.067934538131704844 0 -0.012761624748461139 0.069378072416199921 0 -0.01556260126159492 0.064694744672024657 0 -0.012699077499275237 0.065191581922774786 0 -0.014267023497644861 0.067934538131704844 0 -0.0073554121298925754 0.061471695638895228 0 -0.0042839996512472854 0.061296666265331201 0 -0.0073191975822650491 0.064069697419919025 0 -0.013184606255099323 0.069667585636005905 0 -0.013646443838581579 0.069856998625954653 0 -0.015813639363403364 0.072052322595107313 0 -0.014267023497644861 0.067934538131704844 0 -0.012761624748461139 0.069378072416199921 0 -0.013646443838581579 0.069856998625954653 0 -0.0072735974774085109 0.064873293589959274 0 -0.0073869251662812534 0.064956912869742006 0 0.0025895365698956185 0.06539378590466173 0 0.00037174222651130932 0.068459780875523929 0 -0.0038371579332285412 0.058861397254668935 0 -0.0073554121298925754 0.061471695638895228 0 -0.0042839996512472854 0.061296666265331201 0 0.0092135733039652862 0.06912459512900182 0 0.0089497511689175559 0.069964638887062697 0 0.0082081741008352988 0.07055011426586176 0 0.0092135733039652862 0.06912459512900182 0 0.0089497511689175559 0.069964638887062697 0 0.0094730618130768069 0.069933804588533613 0 0.0090816884559385448 0.070513174762986769 0 0.0090163527631980014 0.071341418837827172 0 0.0087176979506074434 0.070461393569733549 0 0.0094730618130768069 0.069933804588533613 0 0.0090816884559385448 0.070513174762986769 0 0.0093954571821023118 0.070619530661954935 0 0.0089497511689175559 0.069964638887062697 0 0.0094730618130768069 0.069933804588533613 0 0.0090816884559385448 0.070513174762986769 0 0.0089497511689175559 0.069964638887062697 0 0.0090816884559385448 0.070513174762986769 0 0.0087176979506074434 0.070461393569733549 0 0.0090816884559385448 0.070513174762986769 0 0.0093954571821023118 0.070619530661954935 0 0.0090163527631980014 0.071341418837827172 0 0.010181443285480634 0.07047284606750974 0 0.0093954571821023118 0.070619530661954935 0 0.0090163527631980014 0.071341418837827172 0 0.0067550276917587608 0.058915785866569266 0 0.0085356548054259448 0.065630258065109692 0 0.0096607511615692272 0.072691917024296837 0 0.008423209121696475 0.072289101705888856 0 0.0087176979506074434 0.070461393569733549 0 0.008423209121696475 0.072289101705888856 0 0.0083225048899776694 0.070863588102138345 0 0.0074762273010896569 0.072534711968340312 0 0.008423209121696475 0.072289101705888856 0 0.0079628791301331291 0.073227939756985827 0 0.0085145492618392844 0.073545034359698488 0 0.0096607511615692272 0.072691917024296837 0 0.008423209121696475 0.072289101705888856 0 0.0085145492618392844 0.073545034359698488 0 0.008423209121696475 0.072289101705888856 0 0.0087176979506074434 0.070461393569733549 0 0.0083225048899776694 0.070863588102138345 0 -0.0073554121298925754 0.061471695638895228 0 -0.0073191975822650491 0.064069697419919025 0 -0.0092548591784972385 0.065112228766212019 0 -0.0072735974774085109 0.064873293589959274 0 -0.0040587172797461818 0.070064737807179187 0 0.00037174222651130932 0.068459780875523929 0 -0.0040587172797461818 0.070064737807179187 0 0.002282317655168121 0.067962803482720768 0 0.00037174222651130932 0.068459780875523929 0 0.0089497511689175559 0.069964638887062697 0 0.0087176979506074434 0.070461393569733549 0 0.0083225048899776694 0.070863588102138345 0 0.00037174222651130932 0.068459780875523929 0 -0.001613705553037195 0.070219508808937181 0 -0.00070930221926360248 0.069559005378174554 0 -0.0016678584000637418 0.070058744009389301 0 -0.0020336025583142896 0.070733789076739412 0 -0.015938229190348849 0.071798151206627372 0 -0.015813639363403364 0.072052322595107313 0 -0.014636419890000332 0.072173967058204044 0 -0.013646443838581579 0.069856998625954653 0 -0.015938229190348849 0.071798151206627372 0 -0.015813639363403364 0.072052322595107313 0 -0.014325458959605672 0.070679492857567625 0 -0.015813639363403364 0.072052322595107313 0 -0.014636419890000332 0.072173967058204044 0 -0.015109382117088654 0.07270136266443375 0 -0.015938229190348849 0.071798151206627372 0 -0.014636419890000332 0.072173967058204044 0 -0.0020273288601147981 0.071724728068450053 0 -0.0019901744850381515 0.071707960461360576 0 -0.0019960015960542006 0.07171907840537993 0 -0.006269499744811371 0.072354915805523418 0 -0.0040587172797461818 0.070064737807179187 0 -0.0020273288601147981 0.071724728068450053 0 -0.0019960015960542006 0.07171907840537993 0 -0.0020124049284118142 0.071739508615448949 0 -0.001613705553037195 0.070219508808937181 0 -0.0020363546137663882 0.070938503283480517 0 0.008423209121696475 0.072289101705888856 0 0.0074762273010896569 0.072534711968340312 0 0.0079628791301331291 0.073227939756985827 0 -0.0040587172797461818 0.070064737807179187 0 -0.001613705553037195 0.070219508808937181 0 0.0074762273010896569 0.072534711968340312 0 0.0079628791301331291 0.073227939756985827 0 0.0075984259393126561 0.073506392601832476 0 -0.001613705553037195 0.070219508808937181 0 0.00031132501703717971 0.071735780136297292 0 0.0079628791301331291 0.073227939756985827 0 0.0081030912697865054 0.073816648992070216 0 0.0075984259393126561 0.073506392601832476 0 0.0081030912697865054 0.073816648992070216 0 0.0075984259393126561 0.073506392601832476 0 0.0078669022023358931 0.073890233514498888 0 -0.0020308198062959065 0.071753004899964182 0 -0.0020273288601147981 0.071724728068450053 0 -0.0020124049284118142 0.071739508615448949 0 -0.0017373346361854918 0.071500572238447649 0 -0.0019047394488045963 0.071657402232526549 0 -0.0018390528568508393 0.071690489040671629 0 -0.0019047394488045963 0.071657402232526549 0 -0.0018390528568508393 0.071690489040671629 0 -0.001929250533901121 0.071744916815462079 0 0.0075984259393126561 0.073506392601832476 0 0.0077180453089644163 0.074140154539039868 0 0.0078669022023358931 0.073890233514498888 0 0.00031132501703717971 0.071735780136297292 0 0.0013283008541677193 0.073583604200578467 0 -0.0020294142649118128 0.07178950236549736 0 -0.0019047394488045963 0.071657402232526549 0 -0.001929250533901121 0.071744916815462079 0 -0.0018390528568508393 0.071690489040671629 0 -0.001929250533901121 0.071744916815462079 0 -0.0019352886389565056 0.071840080073819534 0 -0.002139874382045178 0.071136050205762885 0 -0.0020363546137663882 0.070938503283480517 0 -0.0020294142649118128 0.07178950236549736 0 -0.001929250533901121 0.071744916815462079 0 -0.0019352886389565056 0.071840080073819534 0 0.0083762853859067621 0.074377841199079905 0 0.0079746730373896294 0.074196908600683953 0 0.0082867021935147007 0.074266553340246372 0 0.0077180453089644163 0.074140154539039868 0 0.0078669022023358931 0.073890233514498888 0 0.0079746730373896294 0.074196908600683953 0 0.0078669022023358931 0.073890233514498888 0 0.0079746730373896294 0.074196908600683953 0 0.0080775198571357738 0.074089314283390301 0 0.0013283008541677193 0.073583604200578467 0 0.0017109754553112926 0.073644558355619283 0 0.0079746730373896294 0.074196908600683953 0 0.008139718018736709 0.074219382593534861 0 0.0080775198571357738 0.074089314283390301 0 0.008139718018736709 0.074219382593534861 0 0.0081996303254110482 0.074219993116984503 0 0.008300128264147548 0.074236582051651359 0 0.0079746730373896294 0.074196908600683953 0 0.008139718018736709 0.074219382593534861 0 0.0081996303254110482 0.074219993116984503 0 0.0079746730373896294 0.074196908600683953 0 0.0081996303254110482 0.074219993116984503 0 0.0082867021935147007 0.074266553340246372 0 0.0081996303254110482 0.074219993116984503 0 0.0082867021935147007 0.074266553340246372 0 0.0083640805707135592 0.074250056675668169 0 0.0083762853859067621 0.074377841199079905 0 0.0082867021935147007 0.074266553340246372 0 0.0084005917435127676 0.074279890329882206 0 0.0082867021935147007 0.074266553340246372 0 0.0083640805707135592 0.074250056675668169 0 0.0084005917435127676 0.074279890329882206 0 0.008300128264147548 0.074236582051651359 0 0.0083640805707135592 0.074250056675668169 0 0.0084167101483586595 0.074250407348523506 0 0.0081996303254110482 0.074219993116984503 0 0.008300128264147548 0.074236582051651359 0 0.0083640805707135592 0.074250056675668169 0 0.0085386770477359712 0.074250601050917797 0 0.0084167101483586595 0.074250407348523506 0 0.0084656041596983343 0.074262828419257104 0 0.0085386770477359712 0.074250601050917797 0 0.0083640805707135592 0.074250056675668169 0 0.0084167101483586595 0.074250407348523506 0 0.0085386770477359712 0.074250601050917797 0 0.0083762853859067621 0.074377841199079905 0 0.0084005917435127676 0.074279890329882206 0 0.0085386770477359712 0.074250601050917797 0 0.0083640805707135592 0.074250056675668169 0 0.0084005917435127676 0.074279890329882206 0 0.0081030912697865054 0.073816648992070216 0 0.0080775198571357738 0.074089314283390301 0 0.0082481483252325963 0.074118804076119246 0 0.0081030912697865054 0.073816648992070216 0 0.0078669022023358931 0.073890233514498888 0 0.0080775198571357738 0.074089314283390301 0 0.008139718018736709 0.074219382593534861 0 0.0080775198571357738 0.074089314283390301 0 0.0082071165888502051 0.074223575219836496 0 0.0080775198571357738 0.074089314283390301 0 0.0082481483252325963 0.074118804076119246 0 0.0082071165888502051 0.074223575219836496 0 0.0081030912697865054 0.073816648992070216 0 0.0082481483252325963 0.074118804076119246 0 0.0083966131396788213 0.073948092259538911 0 0.0082481483252325963 0.074118804076119246 0 0.0083966131396788213 0.073948092259538911 0 0.0083473473619316337 0.074163221272972868 0 0.0083966131396788213 0.073948092259538911 0 0.0085502265272296707 0.073964438377848288 0 0.0085145492618392844 0.073545034359698488 0 0.0083966131396788213 0.073948092259538911 0 0.0085502265272296707 0.073964438377848288 0 0.0083473473619316337 0.074163221272972868 0 0.0067550276917587608 0.058915785866569266 0 0.0022360163599616971 0.05566008023904543 0 0.0086387509506345144 0.073416367248996361 0 0.0085502265272296707 0.073964438377848288 0 0.0085145492618392844 0.073545034359698488 0 0.0067550276917587608 0.058915785866569266 0 0.0056264700918734608 0.061373230805098766 0 0.0079628791301331291 0.073227939756985827 0 0.0081030912697865054 0.073816648992070216 0 0.0085145492618392844 0.073545034359698488 0 0.0081030912697865054 0.073816648992070216 0 0.0083966131396788213 0.073948092259538911 0 0.0085145492618392844 0.073545034359698488 0 0.0082104196577937466 0.074309121746945664 0 0.0082749556569438349 0.074322521467060573 0 0.0082703140404414462 0.074261940202669241 0 0.0082104196577937466 0.074309121746945664 0 0.0082749556569438349 0.074322521467060573 0 0.008262358506160335 0.074348890095928016 0 0.0082104196577937466 0.074309121746945664 0 0.008262358506160335 0.074348890095928016 0 0.0081419636138206283 0.074309215005954068 0 0.0081936576142966969 0.074233802144282726 0 0.0082104196577937466 0.074309121746945664 0 0.0079709497848915196 0.074273203398623408 0 0.0081936576142966969 0.074233802144282726 0 0.0085502265272296707 0.073964438377848288 0 0.0083473473619316337 0.074163221272972868 0 0.0081936576142966969 0.074233802144282726 0 0.0082104196577937466 0.074309121746945664 0 0.0083473473619316337 0.074163221272972868 0 0.0082104196577937466 0.074309121746945664 0 0.0083473473619316337 0.074163221272972868 0 0.0082703140404414462 0.074261940202669241 0 0.0082481483252325963 0.074118804076119246 0 0.0083473473619316337 0.074163221272972868 0 0.0082703140404414462 0.074261940202669241 0 0.0082703140404414462 0.074261940202669241 0 0.0082071165888502051 0.074223575219836496 0 0.00827874628159171 0.074298969168395027 0 0.0082481483252325963 0.074118804076119246 0 0.0082703140404414462 0.074261940202669241 0 0.0082071165888502051 0.074223575219836496 0 0.008139718018736709 0.074219382593534861 0 0.0082071165888502051 0.074223575219836496 0 0.0082506731930138341 0.074265539031132907 0 0.0082071165888502051 0.074223575219836496 0 0.0082506731930138341 0.074265539031132907 0 0.00827874628159171 0.074298969168395027 0 0.00827874628159171 0.074298969168395027 0 0.0083480950390477093 0.074309514360084122 0 0.0083730220481934483 0.074347521562122709 0 0.0082506731930138341 0.074265539031132907 0 0.00827874628159171 0.074298969168395027 0 0.0083480950390477093 0.074309514360084122 0 0.0082749556569438349 0.074322521467060573 0 0.0082703140404414462 0.074261940202669241 0 0.00827874628159171 0.074298969168395027 0 0.008300128264147548 0.074236582051651359 0 0.0084167101483586595 0.074250407348523506 0 0.0084656041596983343 0.074262828419257104 0 0.008300128264147548 0.074236582051651359 0 0.0084656041596983343 0.074262828419257104 0 0.0083142883231904444 0.074262298997621087 0 0.0084656041596983343 0.074262828419257104 0 0.0083142883231904444 0.074262298997621087 0 0.008418575270576387 0.07430034433423599 0 0.008139718018736709 0.074219382593534861 0 0.008300128264147548 0.074236582051651359 0 0.0083142883231904444 0.074262298997621087 0 0.008139718018736709 0.074219382593534861 0 0.0082506731930138341 0.074265539031132907 0 0.0083142883231904444 0.074262298997621087 0 0.0082506731930138341 0.074265539031132907 0 0.0083142883231904444 0.074262298997621087 0 0.0083480950390477093 0.074309514360084122 0 0.0083480950390477093 0.074309514360084122 0 0.0084750546470051414 0.074363188280488227 0 0.0083730220481934483 0.074347521562122709 0 0.0083480950390477093 0.074309514360084122 0 0.008418575270576387 0.07430034433423599 0 0.0084750546470051414 0.074363188280488227 0 0.0083142883231904444 0.074262298997621087 0 0.0083480950390477093 0.074309514360084122 0 0.008418575270576387 0.07430034433423599 0 0.0085240260709322172 0.07432358814543967 0 0.0085888876917526776 0.074380926052663485 0 0.0084750546470051414 0.074363188280488227 0 0.0084656041596983343 0.074262828419257104 0 0.008418575270576387 0.07430034433423599 0 0.0085240260709322172 0.07432358814543967 0 0.008418575270576387 0.07430034433423599 0 0.0085240260709322172 0.07432358814543967 0 0.0084750546470051414 0.074363188280488227 0 0.0085240260709322172 0.07432358814543967 0 0.0085888876917526776 0.074380926052663485 0 0.0086172511235284143 0.074324309354343296 0 0.0084656041596983343 0.074262828419257104 0 0.0085240260709322172 0.07432358814543967 0 0.0086172511235284143 0.074324309354343296 0 0.0086305748365525584 0.07444655555042437 0 0.0085888876917526776 0.074380926052663485 0 0.0084750546470051414 0.074363188280488227 0 0.0086305748365525584 0.07444655555042437 0 0.0084750546470051414 0.074363188280488227 0 0.008548077534730688 0.074430296482017558 0 0.0084750546470051414 0.074363188280488227 0 0.0084416549818099578 0.074391947445538703 0 0.008548077534730688 0.074430296482017558 0 0.0084750546470051414 0.074363188280488227 0 0.0084416549818099578 0.074391947445538703 0 0.0083730220481934483 0.074347521562122709 0 0.008548077534730688 0.074430296482017558 0 0.0086505498010470555 0.074498494921283909 0 0.0085184329098211952 0.074426769787526006 0 0.0084416549818099578 0.074391947445538703 0 0.008548077534730688 0.074430296482017558 0 0.0085184329098211952 0.074426769787526006 0 0.0086305748365525584 0.07444655555042437 0 0.008548077534730688 0.074430296482017558 0 0.0086505498010470555 0.074498494921283909 0 0.0086305748365525584 0.07444655555042437 0 0.0086505498010470555 0.074498494921283909 0 0.0087406648468037751 0.07453103366559595 0 0.0082749556569438349 0.074322521467060573 0 0.008262358506160335 0.074348890095928016 0 0.0083422484206663264 0.07436263701106223 0 0.0082749556569438349 0.074322521467060573 0 0.00827874628159171 0.074298969168395027 0 0.0083422484206663264 0.07436263701106223 0 0.0084416549818099578 0.074391947445538703 0 0.0083422484206663264 0.07436263701106223 0 0.0083730220481934483 0.074347521562122709 0 0.00827874628159171 0.074298969168395027 0 0.0083422484206663264 0.07436263701106223 0 0.0083730220481934483 0.074347521562122709 0 0.0084416549818099578 0.074391947445538703 0 0.0084035386863144847 0.074382654626192882 0 0.0085184329098211952 0.074426769787526006 0 0.0084416549818099578 0.074391947445538703 0 0.0083422484206663264 0.07436263701106223 0 0.0084035386863144847 0.074382654626192882 0 0.008262358506160335 0.074348890095928016 0 0.0083422484206663264 0.07436263701106223 0 0.0084035386863144847 0.074382654626192882 0 0.008262358506160335 0.074348890095928016 0 0.0084035386863144847 0.074382654626192882 0 0.0082659903329691514 0.074317726290413305 0 0.0084035386863144847 0.074382654626192882 0 0.008409943577462815 0.074315499607979951 0 0.0082659903329691514 0.074317726290413305 0 0.0084035386863144847 0.074382654626192882 0 0.008409943577462815 0.074315499607979951 0 0.0085472493343075485 0.074398668790181005 0 0.008409943577462815 0.074315499607979951 0 0.0085472493343075485 0.074398668790181005 0 0.0084877314905850779 0.074199802394640413 0 0.008409943577462815 0.074315499607979951 0 0.0083160655310120287 0.074216730224509989 0 0.0082659903329691514 0.074317726290413305 0 0.0084035386863144847 0.074382654626192882 0 0.0085184329098211952 0.074426769787526006 0 0.0085472493343075485 0.074398668790181005 0 0.0086505498010470555 0.074498494921283909 0 0.0085184329098211952 0.074426769787526006 0 0.0085472493343075485 0.074398668790181005 0 0.0085472493343075485 0.074398668790181005 0 0.0085811235173953795 0.074321994832541469 0 0.0087258639704916284 0.074538397416171326 0 0.0086505498010470555 0.074498494921283909 0 0.0085472493343075485 0.074398668790181005 0 0.0087258639704916284 0.074538397416171326 0 0.0085811235173953795 0.074321994832541469 0 0.0085842574108915947 0.074340293140736174 0 0.0087258639704916284 0.074538397416171326 0 0.0085472493343075485 0.074398668790181005 0 0.0085811235173953795 0.074321994832541469 0 0.0084877314905850779 0.074199802394640413 0 0.0085811235173953795 0.074321994832541469 0 0.0085842574108915947 0.074340293140736174 0 0.0086480398515878399 0.074068452371246193 0 0.0079985777675978462 0.073091659258916447 0 0.0078698967367106954 0.072964421860841483 0 0.0085811235173953795 0.074321994832541469 0 0.0084877314905850779 0.074199802394640413 0 0.0086480398515878399 0.074068452371246193 0 0.0083160655310120287 0.074216730224509989 0 0.0084877314905850779 0.074199802394640413 0 0.0083012372139148922 0.073965974984635849 0 0.008409943577462815 0.074315499607979951 0 0.0083160655310120287 0.074216730224509989 0 0.0084877314905850779 0.074199802394640413 0 0.0084877314905850779 0.074199802394640413 0 0.0084403218291777046 0.073967749828062299 0 0.0086480398515878399 0.074068452371246193 0 0.0084877314905850779 0.074199802394640413 0 0.0084403218291777046 0.073967749828062299 0 0.0083012372139148922 0.073965974984635849 0 0.0083012372139148922 0.073965974984635849 0 0.0080498847622501798 0.074227225092286561 0 0.0080372265198223464 0.073744103130541971 0 0.0080498847622501798 0.074227225092286561 0 0.0075360317108690913 0.074132592535829919 0 0.0080372265198223464 0.073744103130541971 0 0.0083160655310120287 0.074216730224509989 0 0.0083012372139148922 0.073965974984635849 0 0.0080498847622501798 0.074227225092286561 0 0.0080498847622501798 0.074227225092286561 0 0.0082659903329691514 0.074317726290413305 0 0.0081419636138206283 0.074309215005954068 0 0.0083160655310120287 0.074216730224509989 0 0.0080498847622501798 0.074227225092286561 0 0.0082659903329691514 0.074317726290413305 0 0.0080498847622501798 0.074227225092286561 0 0.0081419636138206283 0.074309215005954068 0 0.0079709497848915196 0.074273203398623408 0 0.008262358506160335 0.074348890095928016 0 0.0082659903329691514 0.074317726290413305 0 0.0081419636138206283 0.074309215005954068 0 0.0082104196577937466 0.074309121746945664 0 0.0081419636138206283 0.074309215005954068 0 0.0079709497848915196 0.074273203398623408 0 0.0079622874075995029 0.074249067908338184 0 0.0079709497848915196 0.074273203398623408 0 0.0075360317108690913 0.074132592535829919 0 0.0080498847622501798 0.074227225092286561 0 0.0079709497848915196 0.074273203398623408 0 0.0075360317108690913 0.074132592535829919 0 0.0062274000185233314 0.073277804364530852 0 0.0075360317108690913 0.074132592535829919 0 0.0073443428126690165 0.07259413775017283 0 0.0075360317108690913 0.074132592535829919 0 0.0080372265198223464 0.073744103130541971 0 0.0073443428126690165 0.07259413775017283 0 0.0062735260651347793 0.072337899654342216 0 0.0062274000185233314 0.073277804364530852 0 0.0073443428126690165 0.07259413775017283 0 0.0080372265198223464 0.073744103130541971 0 0.0082407130056023434 0.073092454867830239 0 0.0083364263065725183 0.073708085916695906 0 0.0083012372139148922 0.073965974984635849 0 0.0080372265198223464 0.073744103130541971 0 0.0083364263065725183 0.073708085916695906 0 0.0080372265198223464 0.073744103130541971 0 0.0082407130056023434 0.073092454867830239 0 0.0073443428126690165 0.07259413775017283 0 0.0065992215476322162 0.07171615148646969 0 0.0053693364027076343 0.071401486286813406 0 0.0060719355075647737 0.070982293735307872 0 0.0066921968954386209 0.072259948343885633 0 0.0054047050704520748 0.070975037871141067 0 0.0074818127518606883 0.07241087244374822 0 0.0055239211919804118 0.071309478756791944 0 0.0071664677208376024 0.072502484488143892 0 0.0065992215476322162 0.07171615148646969 0 0.0053693364027076343 0.071401486286813406 0 0.0070497629859357681 0.073138998940296046 0 0.0082407130056023434 0.073092454867830239 0 0.0073443428126690165 0.07259413775017283 0 0.00685056706471602 0.071766849678501443 0 0.0066921968954386209 0.072259948343885633 0 0.0054047050704520748 0.070975037871141067 0 0.0045950392972122691 0.071188072528237112 0 0.0071091980348455229 0.072259296253737476 0 0.0054515940398289029 0.070926817832926384 0 0.0062735260651347793 0.072337899654342216 0 0.0073443428126690165 0.07259413775017283 0 0.0064338884883944321 0.071025405963954638 0 0.0057738198575045035 0.071255177215327009 0 0.0054515940398289029 0.070926817832926384 0 0.0049619102492051963 0.069866410265152334 0 0.0060397120869749004 0.070267186507009638 0 0.0057969558557998601 0.068990861524119582 0 0.0049619102492051963 0.069866410265152334 0 0.0056025452719130281 0.070653829389057884 0 0.0060397120869749004 0.070267186507009638 0 0.0053693364027076343 0.071401486286813406 0 0.0056025452719130281 0.070653829389057884 0 0.0060719355075647737 0.070982293735307872 0 0.0053693364027076343 0.071401486286813406 0 0.0049619102492051963 0.069866410265152334 0 0.0056025452719130281 0.070653829389057884 0 0.0060719355075647737 0.070982293735307872 0 0.0067466700451448694 0.070807877006569611 0 0.0060397120869749004 0.070267186507009638 0 0.0056025452719130281 0.070653829389057884 0 0.0060719355075647737 0.070982293735307872 0 0.0060397120869749004 0.070267186507009638 0 0.0065992215476322162 0.07171615148646969 0 0.0067466700451448694 0.070807877006569611 0 0.0074918097910974309 0.071542198375523058 0 0.0065992215476322162 0.07171615148646969 0 0.0060719355075647737 0.070982293735307872 0 0.0067466700451448694 0.070807877006569611 0 0.0067466700451448694 0.070807877006569611 0 0.0068522873822603157 0.069733193539726554 0 0.0074789650316147704 0.070470196429051959 0 0.0067466700451448694 0.070807877006569611 0 0.0060397120869749004 0.070267186507009638 0 0.0068522873822603157 0.069733193539726554 0 0.0068522873822603157 0.069733193539726554 0 0.006847820232397479 0.068386832353261442 0 0.0057969558557998601 0.068990861524119582 0 0.0060397120869749004 0.070267186507009638 0 0.0068522873822603157 0.069733193539726554 0 0.0057969558557998601 0.068990861524119582 0 0.006847820232397479 0.068386832353261442 0 0.0057969558557998601 0.068990861524119582 0 0.0062858230874741627 0.067381519817877308 0 0.0047081305377601494 0.068936512217686 0 0.0057969558557998601 0.068990861524119582 0 0.005029107990982243 0.067308455737691966 0 0.0049619102492051963 0.069866410265152334 0 0.0047081305377601494 0.068936512217686 0 0.0057969558557998601 0.068990861524119582 0 0.0087485470394219594 0.070381973464823749 0 0.0079839161527046724 0.069121210364568697 0 0.0089231351033185677 0.069116483052497457 0 0.0087485470394219594 0.070381973464823749 0 0.0079839161527046724 0.069121210364568697 0 0.0082449636081392986 0.071038686904285969 0 0.0079839161527046724 0.069121210364568697 0 0.0074789650316147704 0.070470196429051959 0 0.0082449636081392986 0.071038686904285969 0 0.0068522873822603157 0.069733193539726554 0 0.006847820232397479 0.068386832353261442 0 0.0079839161527046724 0.069121210364568697 0 0.0068522873822603157 0.069733193539726554 0 0.0079839161527046724 0.069121210364568697 0 0.0074789650316147704 0.070470196429051959 0 0.0067466700451448694 0.070807877006569611 0 0.0074789650316147704 0.070470196429051959 0 0.0074918097910974309 0.071542198375523058 0 0.0074789650316147704 0.070470196429051959 0 0.0074918097910974309 0.071542198375523058 0 0.0082449636081392986 0.071038686904285969 0 0.0082449636081392986 0.071038686904285969 0 0.0086103394145397982 0.072209996596272169 0 0.0090444262483964036 0.071564468825248112 0 0.0074918097910974309 0.071542198375523058 0 0.0082449636081392986 0.071038686904285969 0 0.0081599732114521345 0.07208906895018842 0 0.0087485470394219594 0.070381973464823749 0 0.0082449636081392986 0.071038686904285969 0 0.0090444262483964036 0.071564468825248112 0 0.0082449636081392986 0.071038686904285969 0 0.0086103394145397982 0.072209996596272169 0 0.0081599732114521345 0.07208906895018842 0 0.0086103394145397982 0.072209996596272169 0 0.0081599732114521345 0.07208906895018842 0 0.0083556515332085003 0.073023949157821802 0 0.0081599732114521345 0.07208906895018842 0 0.0083556515332085003 0.073023949157821802 0 0.0077153321378810825 0.072365930911389667 0 0.0083556515332085003 0.073023949157821802 0 0.0077153321378810825 0.072365930911389667 0 0.0076537149296708063 0.072931556156209318 0 0.0065992215476322162 0.07171615148646969 0 0.0074918097910974309 0.071542198375523058 0 0.0072585687192729233 0.072320690011672462 0 0.0074918097910974309 0.071542198375523058 0 0.0077153321378810825 0.072365930911389667 0 0.0072585687192729233 0.072320690011672462 0 0.0074918097910974309 0.071542198375523058 0 0.0081599732114521345 0.07208906895018842 0 0.0077153321378810825 0.072365930911389667 0 0.0077153321378810825 0.072365930911389667 0 0.0076537149296708063 0.072931556156209318 0 0.0072585687192729233 0.072320690011672462 0 0.0076537149296708063 0.072931556156209318 0 0.0072585687192729233 0.072320690011672462 0 0.0070497629859357681 0.073138998940296046 0 0.0065992215476322162 0.07171615148646969 0 0.0072585687192729233 0.072320690011672462 0 0.0070497629859357681 0.073138998940296046 0 0.0066921968954386209 0.072259948343885633 0 0.0074818127518606883 0.07241087244374822 0 0.0087848347125049821 0.073311572442383413 0 0.0084403218291777046 0.073967749828062299 0 0.0083364263065725183 0.073708085916695906 0 0.0086480398515878399 0.074068452371246193 0 0.0070497629859357681 0.073138998940296046 0 0.0080412407167808793 0.073515480198291655 0 0.0079961983671915111 0.073990875362779804 0 0.0076537149296708063 0.072931556156209318 0 0.0070497629859357681 0.073138998940296046 0 0.0080412407167808793 0.073515480198291655 0 0.0071091980348455229 0.072259296253737476 0 0.0078698967367106954 0.072964421860841483 0 0.0082407130056023434 0.073092454867830239 0 0.0083364263065725183 0.073708085916695906 0 0.0086480398515878399 0.074068452371246193 0 0.0071664677208376024 0.072502484488143892 0 0.0078698967367106954 0.072964421860841483 0 0.0084403218291777046 0.073967749828062299 0 0.0083012372139148922 0.073965974984635849 0 0.0083364263065725183 0.073708085916695906 0 0.0083556515332085003 0.073023949157821802 0 0.0084972848827648273 0.073868271747613318 0 0.0088464071030200236 0.074013307426298081 0 0.0083556515332085003 0.073023949157821802 0 0.0080412407167808793 0.073515480198291655 0 0.0084972848827648273 0.073868271747613318 0 0.0083556515332085003 0.073023949157821802 0 0.0076537149296708063 0.072931556156209318 0 0.0080412407167808793 0.073515480198291655 0 0.0085842574108915947 0.074340293140736174 0 0.0080412407167808793 0.073515480198291655 0 0.0079961983671915111 0.073990875362779804 0 0.0085842574108915947 0.074340293140736174 0 0.0084972848827648273 0.073868271747613318 0 0.0088464071030200236 0.074013307426298081 0 0.0085842574108915947 0.074340293140736174 0 0.0080412407167808793 0.073515480198291655 0 0.0084972848827648273 0.073868271747613318 0 0.0088464071030200236 0.074013307426298081 0 0.0092613329380421515 0.074659839188061045 0 0.0090742120534046296 0.073227875946756185 0 0.0088464071030200236 0.074013307426298081 0 0.0092613329380421515 0.074659839188061045 0 0.0089530007678411891 0.074639193749747784 0 0.0092613329380421515 0.074659839188061045 0 0.0096784561512603326 0.074439023199725493 0 0.0096169078021765848 0.075717130417965475 0 0.0092613329380421515 0.074659839188061045 0 0.0090742120534046296 0.073227875946756185 0 0.0096784561512603326 0.074439023199725493 0 0.0090742120534046296 0.073227875946756185 0 0.009703524797620067 0.072124620164192382 0 0.0096784561512603326 0.074439023199725493 0 0.0083556515332085003 0.073023949157821802 0 0.0088464071030200236 0.074013307426298081 0 0.0090742120534046296 0.073227875946756185 0 0.0086103394145397982 0.072209996596272169 0 0.0083556515332085003 0.073023949157821802 0 0.0090742120534046296 0.073227875946756185 0 0.0090742120534046296 0.073227875946756185 0 0.0090444262483964036 0.071564468825248112 0 0.009703524797620067 0.072124620164192382 0 0.0086103394145397982 0.072209996596272169 0 0.0090742120534046296 0.073227875946756185 0 0.0090444262483964036 0.071564468825248112 0 0.0090444262483964036 0.071564468825248112 0 0.009703524797620067 0.072124620164192382 0 0.0095489086276897249 0.070163817647626192 0 0.009703524797620067 0.072124620164192382 0 0.0095489086276897249 0.070163817647626192 0 0.010659937109987506 0.070494380704312409 0 0.0087485470394219594 0.070381973464823749 0 0.0090444262483964036 0.071564468825248112 0 0.0095489086276897249 0.070163817647626192 0 0.0087485470394219594 0.070381973464823749 0 0.0095489086276897249 0.070163817647626192 0 0.0089231351033185677 0.069116483052497457 0 0.01203463683002663 0.070797811759694129 0 0.010659937109987506 0.070494380704312409 0 0.010693912886072731 0.072701161319579516 0 0.009703524797620067 0.072124620164192382 0 0.010659937109987506 0.070494380704312409 0 0.010693912886072731 0.072701161319579516 0 0.009703524797620067 0.072124620164192382 0 0.010693912886072731 0.072701161319579516 0 0.0096784561512603326 0.074439023199725493 0 0.010693912886072731 0.072701161319579516 0 0.010210378081151409 0.076682296029722846 0 0.013340938262739426 0.072421309943495493 0 0.01203463683002663 0.070797811759694129 0 0.010693912886072731 0.072701161319579516 0 0.013340938262739426 0.072421309943495493 0 0.0093361353972019889 0.076584128449076611 0 0.0087727192956713641 0.076710936589279327 0 0.010693912886072731 0.072701161319579516 0 0.0096784561512603326 0.074439023199725493 0 0.010210378081151409 0.076682296029722846 0 0.0096784561512603326 0.074439023199725493 0 0.0096169078021765848 0.075717130417965475 0 0.010210378081151409 0.076682296029722846 0 0.0096169078021765848 0.075717130417965475 0 0.010210378081151409 0.076682296029722846 0 0.0083369980722590355 0.076171571617345363 0 0.0096169078021765848 0.075717130417965475 0 0.0083369980722590355 0.076171571617345363 0 0.0090048218396897965 0.075367511720359215 0 0.0082559064178455658 0.075304372085810492 0 0.0090048218396897965 0.075367511720359215 0 0.0084783342008823512 0.074817263392654598 0 0.0083369980722590355 0.076171571617345363 0 0.0082559064178455658 0.075304372085810492 0 0.0090048218396897965 0.075367511720359215 0 0.0090048218396897965 0.075367511720359215 0 0.0092335189428220631 0.075115978251838578 0 0.0090057125559307918 0.074937157019176387 0 0.0090048218396897965 0.075367511720359215 0 0.0084783342008823512 0.074817263392654598 0 0.008828061269916242 0.074856249562081395 0 0.0090048218396897965 0.075367511720359215 0 0.0090057125559307918 0.074937157019176387 0 0.008828061269916242 0.074856249562081395 0 0.0096169078021765848 0.075717130417965475 0 0.0090048218396897965 0.075367511720359215 0 0.0092335189428220631 0.075115978251838578 0 0.0092613329380421515 0.074659839188061045 0 0.0092335189428220631 0.075115978251838578 0 0.0089530007678411891 0.074639193749747784 0 0.0092613329380421515 0.074659839188061045 0 0.0096169078021765848 0.075717130417965475 0 0.0092335189428220631 0.075115978251838578 0 0.0092335189428220631 0.075115978251838578 0 0.0089530007678411891 0.074639193749747784 0 0.008946764010600702 0.074767758055748076 0 0.0089530007678411891 0.074639193749747784 0 0.0087258639704916284 0.074538397416171326 0 0.008946764010600702 0.074767758055748076 0 0.0085842574108915947 0.074340293140736174 0 0.0088464071030200236 0.074013307426298081 0 0.0089530007678411891 0.074639193749747784 0 0.0085842574108915947 0.074340293140736174 0 0.0089530007678411891 0.074639193749747784 0 0.0087258639704916284 0.074538397416171326 0 0.0087258639704916284 0.074538397416171326 0 0.008946764010600702 0.074767758055748076 0 0.0087881418746637453 0.074603817982547407 0 0.008946764010600702 0.074767758055748076 0 0.0088383753663612546 0.074622408123426853 0 0.0087881418746637453 0.074603817982547407 0 0.008946764010600702 0.074767758055748076 0 0.0088383753663612546 0.074622408123426853 0 0.0088922799150457782 0.074667890424262542 0 0.0086505498010470555 0.074498494921283909 0 0.0087258639704916284 0.074538397416171326 0 0.0087881418746637453 0.074603817982547407 0 0.0086505498010470555 0.074498494921283909 0 0.0087881418746637453 0.074603817982547407 0 0.0087406648468037751 0.07453103366559595 0 0.0088383753663612546 0.074622408123426853 0 0.0087881418746637453 0.074603817982547407 0 0.0087406648468037751 0.07453103366559595 0 0.0092335189428220631 0.075115978251838578 0 0.008946764010600702 0.074767758055748076 0 0.0090057125559307918 0.074937157019176387 0 0.008946764010600702 0.074767758055748076 0 0.0090057125559307918 0.074937157019176387 0 0.0088922799150457782 0.074667890424262542 0 0.0090057125559307918 0.074937157019176387 0 0.0088249878315635362 0.07457397174192186 0 0.008828061269916242 0.074856249562081395 0 0.0090057125559307918 0.074937157019176387 0 0.0088922799150457782 0.074667890424262542 0 0.0088249878315635362 0.07457397174192186 0 0.0088922799150457782 0.074667890424262542 0 0.008814817162598276 0.074473669073748361 0 0.0087974716931330417 0.07452689116833143 0 0.0088922799150457782 0.074667890424262542 0 0.008814817162598276 0.074473669073748361 0 0.0088249878315635362 0.07457397174192186 0 0.008814817162598276 0.074473669073748361 0 0.0088249878315635362 0.07457397174192186 0 0.0087739211565528458 0.074363442904191487 0 0.0086305748365525584 0.07444655555042437 0 0.0087406648468037751 0.07453103366559595 0 0.0086912361903950901 0.074440518835240596 0 0.0087406648468037751 0.07453103366559595 0 0.0087974716931330417 0.07452689116833143 0 0.0086912361903950901 0.074440518835240596 0 0.0088383753663612546 0.074622408123426853 0 0.0088922799150457782 0.074667890424262542 0 0.0087974716931330417 0.07452689116833143 0 0.0088383753663612546 0.074622408123426853 0 0.0087406648468037751 0.07453103366559595 0 0.0087974716931330417 0.07452689116833143 0 0.008814817162598276 0.074473669073748361 0 0.0087974716931330417 0.07452689116833143 0 0.0087394404692567058 0.074403770327394717 0 0.0087974716931330417 0.07452689116833143 0 0.0086912361903950901 0.074440518835240596 0 0.0087394404692567058 0.074403770327394717 0 0.0086305748365525584 0.07444655555042437 0 0.0085888876917526776 0.074380926052663485 0 0.0086912361903950901 0.074440518835240596 0 0.0085888876917526776 0.074380926052663485 0 0.0086912361903950901 0.074440518835240596 0 0.0086172511235284143 0.074324309354343296 0 0.0086912361903950901 0.074440518835240596 0 0.0086172511235284143 0.074324309354343296 0 0.0087394404692567058 0.074403770327394717 0 0.0086172511235284143 0.074324309354343296 0 0.0087021351166921366 0.074307331870401519 0 0.0087394404692567058 0.074403770327394717 0 0.0087021351166921366 0.074307331870401519 0 0.0087394404692567058 0.074403770327394717 0 0.0087677028226269167 0.074305162637140001 0 0.0087325630765959766 0.074192531023004618 0 0.0087021351166921366 0.074307331870401519 0 0.0087677028226269167 0.074305162637140001 0 0.0087325630765959766 0.074192531023004618 0 0.0087021351166921366 0.074307331870401519 0 0.0086142205080198646 0.074264915445474686 0 0.0086172511235284143 0.074324309354343296 0 0.0087021351166921366 0.074307331870401519 0 0.0086142205080198646 0.074264915445474686 0 0.0085386770477359712 0.074250601050917797 0 0.0084656041596983343 0.074262828419257104 0 0.0086142205080198646 0.074264915445474686 0 0.0084656041596983343 0.074262828419257104 0 0.0086172511235284143 0.074324309354343296 0 0.0086142205080198646 0.074264915445474686 0 0.0088249878315635362 0.07457397174192186 0 0.0087739211565528458 0.074363442904191487 0 0.0086515524983076554 0.074356712124253668 0 0.0087739211565528458 0.074363442904191487 0 0.0087330110597871428 0.074132881871547707 0 0.0086515524983076554 0.074356712124253668 0 0.008814817162598276 0.074473669073748361 0 0.0087739211565528458 0.074363442904191487 0 0.0087677028226269167 0.074305162637140001 0 0.008814817162598276 0.074473669073748361 0 0.0087394404692567058 0.074403770327394717 0 0.0087677028226269167 0.074305162637140001 0 0.0087325630765959766 0.074192531023004618 0 0.0087677028226269167 0.074305162637140001 0 0.0087330110597871428 0.074132881871547707 0 0.0087739211565528458 0.074363442904191487 0 0.0087677028226269167 0.074305162637140001 0 0.0087330110597871428 0.074132881871547707 0 0.0085218309199833232 0.073940261666019691 0 0.0086515524983076554 0.074356712124253668 0 0.0081571198964866948 0.074157989133842361 0 0.0085218309199833232 0.073940261666019691 0 0.0087330110597871428 0.074132881871547707 0 0.0086515524983076554 0.074356712124253668 0 0.0086515524983076554 0.074356712124253668 0 0.0081571198964866948 0.074157989133842361 0 0.0084783342008823512 0.074817263392654598 0 0.0081571198964866948 0.074157989133842361 0 0.0078760224390368328 0.074777371648317159 0 0.0071147906884242744 0.074346605626363679 0 0.0081571198964866948 0.074157989133842361 0 0.0078760224390368328 0.074777371648317159 0 0.0084783342008823512 0.074817263392654598 0 0.0082559064178455658 0.075304372085810492 0 0.0078760224390368328 0.074777371648317159 0 0.0084783342008823512 0.074817263392654598 0 0.0088249878315635362 0.07457397174192186 0 0.0086515524983076554 0.074356712124253668 0 0.008828061269916242 0.074856249562081395 0 0.0086515524983076554 0.074356712124253668 0 0.0084783342008823512 0.074817263392654598 0 0.008828061269916242 0.074856249562081395 0 0.0062944374239359792 0.075259229785733614 0 0.005439921940181237 0.074471352270170738 0 0.0053454172538332416 0.076149537962414901 0 0.0062944374239359792 0.075259229785733614 0 0.0071147906884242744 0.074346605626363679 0 0.005439921940181237 0.074471352270170738 0 0.0062944374239359792 0.075259229785733614 0 0.0072918036863913053 0.075346526491250648 0 0.0071147906884242744 0.074346605626363679 0 0.0078760224390368328 0.074777371648317159 0 0.0072918036863913053 0.075346526491250648 0 0.0071147906884242744 0.074346605626363679 0 0.0082559064178455658 0.075304372085810492 0 0.0078760224390368328 0.074777371648317159 0 0.0072918036863913053 0.075346526491250648 0 0.0073340706745281346 0.073580993625887076 0 0.0081571198964866948 0.074157989133842361 0 0.0071147906884242744 0.074346605626363679 0 0.0073340706745281346 0.073580993625887076 0 0.0071147906884242744 0.074346605626363679 0 0.006294330312335319 0.073630758018600195 0 0.0071147906884242744 0.074346605626363679 0 0.006294330312335319 0.073630758018600195 0 0.005439921940181237 0.074471352270170738 0 0.00445857569251072 0.072665412968365151 0 0.006294330312335319 0.073630758018600195 0 0.005439921940181237 0.074471352270170738 0 0.00445857569251072 0.072665412968365151 0 0.005439921940181237 0.074471352270170738 0 0.0030785121013901149 0.074739453943581752 0 0.0011953798710501457 0.078156920872751903 0 0.0011967155852434749 0.079752931703998803 0 0.00012515679414636555 0.084499400656205689 0 0.00061981289299023121 0.084420187452055068 0 0.00032719358431363386 0.084832206577679162 0 0.00061981289299023121 0.084420187452055068 0 0.00032719358431363386 0.084832206577679162 0 0.00038385514619453717 0.084894939071078326 0 0.005439921940181237 0.074471352270170738 0 0.0053454172538332416 0.076149537962414901 0 0.0037849701550988 0.076137106628807058 0 0.005439921940181237 0.074471352270170738 0 0.0030785121013901149 0.074739453943581752 0 0.0037849701550988 0.076137106628807058 0 0.0053454172538332416 0.076149537962414901 0 0.0033245882592971383 0.078204641849864615 0 0.005221807416625303 0.077577841508588347 0 0.0053454172538332416 0.076149537962414901 0 0.0037849701550988 0.076137106628807058 0 0.0033245882592971383 0.078204641849864615 0 0.0037849701550988 0.076137106628807058 0 0.0033245882592971383 0.078204641849864615 0 0.0014027518711159088 0.077671671728379549 0 0.0011967155852434749 0.079752931703998803 0 0.00074158820512345419 0.081322909358773357 0 0.0030785121013901149 0.074739453943581752 0 0.0037849701550988 0.076137106628807058 0 0.0014027518711159088 0.077671671728379549 0 0.0033245882592971383 0.078204641849864615 0 0.0017238908113074919 0.080225628026779766 0 0.00098944878254986928 0.078844872260024915 0 0.0014500934306008126 0.081048335249491316 0 0.00074158820512345419 0.081322909358773357 0 0.0033245882592971383 0.078204641849864615 0 0.0042919421757992614 0.079229431617470106 0 0.0024757235390104135 0.080422233712737254 0 0.0033245882592971383 0.078204641849864615 0 0.0017238908113074919 0.080225628026779766 0 0.0024757235390104135 0.080422233712737254 0 0.0033245882592971383 0.078204641849864615 0 0.005221807416625303 0.077577841508588347 0 0.0042919421757992614 0.079229431617470106 0 0.005221807416625303 0.077577841508588347 0 0.006576475530647421 0.076439116092216763 0 0.0064004773167136726 0.077898410855369679 0 0.005221807416625303 0.077577841508588347 0 0.0064004773167136726 0.077898410855369679 0 0.0042919421757992614 0.079229431617470106 0 0.0062944374239359792 0.075259229785733614 0 0.0072918036863913053 0.075346526491250648 0 0.006576475530647421 0.076439116092216763 0 0.0062944374239359792 0.075259229785733614 0 0.0053454172538332416 0.076149537962414901 0 0.006576475530647421 0.076439116092216763 0 0.0053454172538332416 0.076149537962414901 0 0.005221807416625303 0.077577841508588347 0 0.006576475530647421 0.076439116092216763 0 0.0083369980722590355 0.076171571617345363 0 0.0082559064178455658 0.075304372085810492 0 0.0072918036863913053 0.075346526491250648 0 0.0083369980722590355 0.076171571617345363 0 0.0072918036863913053 0.075346526491250648 0 0.006576475530647421 0.076439116092216763 0 0.0083369980722590355 0.076171571617345363 0 0.006576475530647421 0.076439116092216763 0 0.0064004773167136726 0.077898410855369679 0 0.010210378081151409 0.076682296029722846 0 0.0064004773167136726 0.077898410855369679 0 0.0065321253569314407 0.079957289418125729 0 0.010210378081151409 0.076682296029722846 0 0.0083369980722590355 0.076171571617345363 0 0.0064004773167136726 0.077898410855369679 0 0.0064004773167136726 0.077898410855369679 0 0.0065321253569314407 0.079957289418125729 0 0.0047218764659709804 0.080334775715429463 0 0.0064004773167136726 0.077898410855369679 0 0.0047218764659709804 0.080334775715429463 0 0.0042919421757992614 0.079229431617470106 0 0.0065321253569314407 0.079957289418125729 0 0.0044538870571935764 0.08242384130391664 0 0.0047218764659709804 0.080334775715429463 0 0.010210378081151409 0.076682296029722846 0 0.0065321253569314407 0.079957289418125729 0 0.0081135648096520904 0.082677461455026011 0 0.0065321253569314407 0.079957289418125729 0 0.0081135648096520904 0.082677461455026011 0 0.0044538870571935764 0.08242384130391664 0 0.0044538870571935764 0.08242384130391664 0 0.002787315336547469 0.084812721856838566 0 0.0059582469573318713 0.085886698573124559 0 0.0081135648096520904 0.082677461455026011 0 0.0044538870571935764 0.08242384130391664 0 0.0059582469573318713 0.085886698573124559 0 0.0087727192956713641 0.076710936589279327 0 0.0063421836336905874 0.077092819360523063 0 0.01203463683002663 0.070797811759694129 0 0.013340938262739426 0.072421309943495493 0 0.014598614722483886 0.069629746530306305 0 0.002787315336547469 0.084812721856838566 0 0.0024228085374377283 0.083396961007163359 0 0.0014517628735847747 0.084398852044340111 0 0.0044538870571935764 0.08242384130391664 0 0.002787315336547469 0.084812721856838566 0 0.0024228085374377283 0.083396961007163359 0 0.0044538870571935764 0.08242384130391664 0 0.0024228085374377283 0.083396961007163359 0 0.0025180150856644636 0.081719042122105429 0 0.0024228085374377283 0.083396961007163359 0 0.0025180150856644636 0.081719042122105429 0 0.001496973614069244 0.083255325179826201 0 0.0024228085374377283 0.083396961007163359 0 0.001496973614069244 0.083255325179826201 0 0.0014517628735847747 0.084398852044340111 0 0.0044538870571935764 0.08242384130391664 0 0.0025180150856644636 0.081719042122105429 0 0.0047218764659709804 0.080334775715429463 0 0.0025180150856644636 0.081719042122105429 0 0.0047218764659709804 0.080334775715429463 0 0.0042919421757992614 0.079229431617470106 0 0.0025180150856644636 0.081719042122105429 0 0.0024757235390104135 0.080422233712737254 0 0.0011661983189117399 0.081697778510415126 0 0.0025180150856644636 0.081719042122105429 0 0.0042919421757992614 0.079229431617470106 0 0.0024757235390104135 0.080422233712737254 0 0.0017238908113074919 0.080225628026779766 0 0.0024757235390104135 0.080422233712737254 0 0.0011661983189117399 0.081697778510415126 0 0.0011661983189117399 0.081697778510415126 0 0.00053157202862992505 0.08249073269393882 0 0.0005375097310048744 0.081454704120077256 0 0.0011661983189117399 0.081697778510415126 0 0.00053157202862992505 0.08249073269393882 0 0.00088781940954553266 0.0827902392484096 0 0.00053157202862992505 0.08249073269393882 0 0.00088781940954553266 0.0827902392484096 0 0.0002068683860414774 0.083645408613182051 0 0.00053157202862992505 0.08249073269393882 0 0.0002068683860414774 0.083645408613182051 0 0.00032763997290168338 0.083147966980300997 0 0.00053157202862992505 0.08249073269393882 0 0.00032763997290168338 0.083147966980300997 0 0.0005375097310048744 0.081454704120077256 0 0.00088781940954553266 0.0827902392484096 0 0.00063363270606312113 0.083930085681637276 0 0.0002068683860414774 0.083645408613182051 0 0.0025180150856644636 0.081719042122105429 0 0.0011661983189117399 0.081697778510415126 0 0.00088781940954553266 0.0827902392484096 0 0.0025180150856644636 0.081719042122105429 0 0.00088781940954553266 0.0827902392484096 0 0.001496973614069244 0.083255325179826201 0 0.001496973614069244 0.083255325179826201 0 0.00063363270606312113 0.083930085681637276 0 0.0014517628735847747 0.084398852044340111 0 0.00088781940954553266 0.0827902392484096 0 0.001496973614069244 0.083255325179826201 0 0.00063363270606312113 0.083930085681637276 0 0.00063363270606312113 0.083930085681637276 0 0.00081910332747581584 0.084539966037511058 0 0.00031861126830462114 0.084718575530960655 0 0.00063363270606312113 0.083930085681637276 0 0.00081910332747581584 0.084539966037511058 0 0.0014517628735847747 0.084398852044340111 0 -2.7353298627395925e-09 0.084999661509156305 0 0.00015818522538588314 0.084426049126562763 0 0.00031861126830462114 0.084718575530960655 0 0.00063363270606312113 0.083930085681637276 0 0.00015818522538588314 0.084426049126562763 0 0.00031861126830462114 0.084718575530960655 0 0.00063363270606312113 0.083930085681637276 0 0.00015818522538588314 0.084426049126562763 0 0.0002068683860414774 0.083645408613182051 0 -2.7353298627395925e-09 0.084999661509156305 0 0.00015818522538588314 0.084426049126562763 0 -6.7401934925222237e-08 0.084998979115041104 0 0.0002068683860414774 0.083645408613182051 0 1.436563570805739e-07 0.084998259061759784 0 0.00032763997290168338 0.083147966980300997 0 -6.7401934925222237e-08 0.084998979115041104 0 0.0002068683860414774 0.083645408613182051 0 1.436563570805739e-07 0.084998259061759784 0 0.00015818522538588314 0.084426049126562763 0 -6.7401934925222237e-08 0.084998979115041104 0 0.0002068683860414774 0.083645408613182051 0 1.436563570805739e-07 0.084998259061759784 0 0.00040537764952438171 0.083502373727251486 0 0.00032763997290168338 0.083147966980300997 0 1.436563570805739e-07 0.084998259061759784 0 1.7524192225573337e-07 0.084998744672407228 0 0.00040537764952438171 0.083502373727251486 0 1.041452464882195e-06 0.084997630205545835 0 0.00057767756735341096 0.08351769463306008 0 -1.5066687236134209e-08 0.08500012629804661 0 8.4302615928324938e-05 0.08504262751702607 0 5.8091718678616879e-05 0.084973414204173606 0 0.00040537764952438171 0.083502373727251486 0 0.00032763997290168338 0.083147966980300997 0 0.0005375097310048744 0.081454704120077256 0 0.00040537764952438171 0.083502373727251486 0 0.0005375097310048744 0.081454704120077256 0 0.00026908748406994721 0.081992290154209654 0 0.0017238908113074919 0.080225628026779766 0 0.0011661983189117399 0.081697778510415126 0 0.0005375097310048744 0.081454704120077256 0 0.00076461205984894125 0.081235222239051885 0 0.00074158820512345419 0.081322909358773357 0 0.0017238908113074919 0.080225628026779766 0 0.0005375097310048744 0.081454704120077256 0 0.00098944878254986928 0.078844872260024915 0 0.00057767756735341096 0.08351769463306008 0 0.00074158820512345419 0.081322909358773357 0 8.4302615928324938e-05 0.08504262751702607 0 0.00026607411549068531 0.085092967983202053 0 0.00020524534423707727 0.084957507740980834 0 8.4302615928324938e-05 0.08504262751702607 0 0.00011700429347308331 0.084966695560400277 0 0.00020524534423707727 0.084957507740980834 0 0.00011700429347308331 0.084966695560400277 0 0.00020524534423707727 0.084957507740980834 0 0.0001271362548857013 0.08488951896367343 0 0.00032719358431363386 0.084832206577679162 0 0.00038385514619453717 0.084894939071078326 0 0.00020524534423707727 0.084957507740980834 0 0.00038385514619453717 0.084894939071078326 0 0.00026607411549068531 0.085092967983202053 0 0.00020524534423707727 0.084957507740980834 0 0.00032719358431363386 0.084832206577679162 0 0.00020524534423707727 0.084957507740980834 0 0.0001271362548857013 0.08488951896367343 0 0.00016827093316988925 0.084793174874924715 0 2.2052902060083478e-05 0.084762918953378757 0 0.00012515679414636555 0.084499400656205689 0 0.00032719358431363386 0.084832206577679162 0 -0.00015224066334356494 0.084757427275320443 0 -0.00035728953297978547 0.084575614704201343 0 0.00012515679414636555 0.084499400656205689 0 -0.00015224066334356494 0.084757427275320443 0 2.2052902060083478e-05 0.084762918953378757 0 -0.00012555825890543255 0.084687723906961984 0 -0.00035728953297978547 0.084575614704201343 0 -0.00015224066334356494 0.084757427275320443 0 -0.00062095322817697833 0.084690283903444991 0 0.0001271362548857013 0.08488951896367343 0 1.8608608834287485e-05 0.084950744256725177 0 5.8091718678616879e-05 0.084973414204173606 0 -0.00028539952248451923 0.083488332225830214 0 -0.00012555825890543255 0.084687723906961984 0 -0.00028539952248451923 0.083488332225830214 0 -4.5754106947246208e-07 0.084997290766735081 0 -1.0164810106474424e-05 0.084988661622828157 0 -3.855373185383844e-06 0.084994578309574201 0 2.2629720903617377e-10 0.085000003424266321 0 -0.00012555825890543255 0.084687723906961984 0 -2.0134982366600883e-07 0.084998495052898623 0 -3.1510783722398347e-07 0.084999387418974462 0 -1.2591285802407294e-10 0.084999999658495223 0 -3.9816581460028293e-13 0.084999999727975867 0 -3.855373185383844e-06 0.084994578309574201 0 2.2629720903617377e-10 0.085000003424266321 0 -1.0372142950896246e-09 0.084999993212624983 0 1.8608608834287485e-05 0.084950744256725177 0 2.9244399951037474e-08 0.084999804588725456 0 1.930317596368192e-05 0.084983591519319876 0 -0.00012555825890543255 0.084687723906961984 0 -5.9161668106353396e-07 0.084998559929149342 0 -1.5066687236134209e-08 0.08500012629804661 0 2.9244399951037474e-08 0.084999804588725456 0 1.930317596368192e-05 0.084983591519319876 0 -1.5066687236134209e-08 0.08500012629804661 0 1.930317596368192e-05 0.084983591519319876 0 5.8091718678616879e-05 0.084973414204173606 0 1.8608608834287485e-05 0.084950744256725177 0 1.930317596368192e-05 0.084983591519319876 0 5.8091718678616879e-05 0.084973414204173606 0 8.4302615928324938e-05 0.08504262751702607 0 0.00011700429347308331 0.084966695560400277 0 5.8091718678616879e-05 0.084973414204173606 0 0.00011700429347308331 0.084966695560400277 0 0.0001271362548857013 0.08488951896367343 0 5.8091718678616879e-05 0.084973414204173606 0 6.5571947702468259e-05 0.085008688198617482 0 0.0001385882742420496 0.084717718142892515 0 -0.00014889026904188729 0.084614532070553444 0 6.5571947702468259e-05 0.085008688198617482 0 0.0001066935629591257 0.084987090496675202 0 0.0001385882742420496 0.084717718142892515 0 0.0001066935629591257 0.084987090496675202 0 -1.0292828412415394e-07 0.085000135791758177 0 0.0001385882742420496 0.084717718142892515 0 0.0001066935629591257 0.084987090496675202 0 -1.0292828412415394e-07 0.085000135791758177 0 2.4314225526122022e-07 0.085000105850657579 0 -1.0292828412415394e-07 0.085000135791758177 0 0.0001385882742420496 0.084717718142892515 0 0.00023235933272349146 0.084475338091607205 0 0.0001385882742420496 0.084717718142892515 0 -1.1467434530431403e-05 0.084120502687826129 0 0.00023235933272349146 0.084475338091607205 0 0.0001385882742420496 0.084717718142892515 0 -0.00014889026904188729 0.084614532070553444 0 -1.1467434530431403e-05 0.084120502687826129 0 -0.00014889026904188729 0.084614532070553444 0 -0.00073366462865466237 0.083715452163374962 0 -1.1467434530431403e-05 0.084120502687826129 0 -0.00014889026904188729 0.084614532070553444 0 -0.00069575713669063426 0.084880062195745273 0 -0.00073366462865466237 0.083715452163374962 0 -0.00069575713669063426 0.084880062195745273 0 -0.0015959999896874805 0.084332269987311068 0 -0.00073366462865466237 0.083715452163374962 0 -0.00057708905973451793 0.083576758052573738 0 -0.00017459615114659064 0.082589671957919289 0 -0.00069575713669063426 0.084880062195745273 0 -0.00026042828684530082 0.085213793300351559 0 -0.00059717468619846991 0.085262415385709528 0 -0.00014889026904188729 0.084614532070553444 0 -0.00069575713669063426 0.084880062195745273 0 -0.00019527681250346274 0.085006525920524809 0 -0.00069575713669063426 0.084880062195745273 0 -0.00019527681250346274 0.085006525920524809 0 -0.00026042828684530082 0.085213793300351559 0 6.5571947702468259e-05 0.085008688198617482 0 -0.00014889026904188729 0.084614532070553444 0 -0.00019527681250346274 0.085006525920524809 0 6.5571947702468259e-05 0.085008688198617482 0 -0.00019527681250346274 0.085006525920524809 0 2.9228871192527111e-05 0.085235652458821531 0 2.9228871192527111e-05 0.085235652458821531 0 0.00020759575446495455 0.08552499512788149 0 0.00015440074521878979 0.085262849180298902 0 6.5571947702468259e-05 0.085008688198617482 0 2.9228871192527111e-05 0.085235652458821531 0 0.00015440074521878979 0.085262849180298902 0 -0.00026042828684530082 0.085213793300351559 0 0.00020759575446495455 0.08552499512788149 0 -0.00058355060701482605 0.085340205798873039 0 0.00038054061848943925 0.083126520020821784 0 2.5079867260877555e-05 0.082554091641714941 0 -0.00026042828684530082 0.085213793300351559 0 -0.00058355060701482605 0.085340205798873039 0 -0.00059717468619846991 0.085262415385709528 0 -0.00019527681250346274 0.085006525920524809 0 2.9228871192527111e-05 0.085235652458821531 0 -0.00026042828684530082 0.085213793300351559 0 2.9228871192527111e-05 0.085235652458821531 0 -0.00026042828684530082 0.085213793300351559 0 0.00020759575446495455 0.08552499512788149 0 0.00020759575446495455 0.08552499512788149 0 0.00086194605512209389 0.08555278613925496 0 0.00043202942344202808 0.085652388705021038 0 0.00020759575446495455 0.08552499512788149 0 0.00041457751526302546 0.085436918014817329 0 0.00086194605512209389 0.08555278613925496 0 0.00020759575446495455 0.08552499512788149 0 0.00015440074521878979 0.085262849180298902 0 0.00041457751526302546 0.085436918014817329 0 0.00015440074521878979 0.085262849180298902 0 0.00027714264065784559 0.085256648104947361 0 0.00011982866368923681 0.085158716882490576 0 6.5571947702468259e-05 0.085008688198617482 0 0.0001066935629591257 0.084987090496675202 0 0.00015440074521878979 0.085262849180298902 0 0.0001066935629591257 0.084987090496675202 0 0.00015440074521878979 0.085262849180298902 0 2.4314225526122022e-07 0.085000105850657579 0 0.00015440074521878979 0.085262849180298902 0 2.4314225526122022e-07 0.085000105850657579 0 0.00011982866368923681 0.085158716882490576 0 2.4314225526122022e-07 0.085000105850657579 0 6.3324579717714814e-08 0.085000325286883921 0 0.00011982866368923681 0.085158716882490576 0 6.3324579717714814e-08 0.085000325286883921 0 0.00011982866368923681 0.085158716882490576 0 0.00011788422054552702 0.085092073210074337 0 0.00027714264065784559 0.085256648104947361 0 0.00011982866368923681 0.085158716882490576 0 0.00011788422054552702 0.085092073210074337 0 0.00027714264065784559 0.085256648104947361 0 0.00011788422054552702 0.085092073210074337 0 0.00028128352774653295 0.085055267371561813 0 6.3324579717714814e-08 0.085000325286883921 0 0.00011788422054552702 0.085092073210074337 0 9.9978169949850083e-08 0.08500004783084146 0 9.9978169949850083e-08 0.08500004783084146 0 0.00028128352774653295 0.085055267371561813 0 0.00011830031520868289 0.084937961199883102 0 0.00011788422054552702 0.085092073210074337 0 9.9978169949850083e-08 0.08500004783084146 0 0.00028128352774653295 0.085055267371561813 0 0.00028128352774653295 0.085055267371561813 0 0.00031861126830462114 0.084718575530960655 0 0.00011830031520868289 0.084937961199883102 0 -2.7353298627395925e-09 0.084999661509156305 0 0.00031861126830462114 0.084718575530960655 0 0.00011830031520868289 0.084937961199883102 0 -2.7353298627395925e-09 0.084999661509156305 0 9.9978169949850083e-08 0.08500004783084146 0 0.00011830031520868289 0.084937961199883102 0 0.00081910332747581584 0.084539966037511058 0 0.0014517628735847747 0.084398852044340111 0 0.00089770911513159025 0.084981410745507649 0 0.0014517628735847747 0.084398852044340111 0 0.00089770911513159025 0.084981410745507649 0 0.0018287453088899593 0.085017046814970881 0 0.00081910332747581584 0.084539966037511058 0 0.00031861126830462114 0.084718575530960655 0 0.00089770911513159025 0.084981410745507649 0 0.00028128352774653295 0.085055267371561813 0 0.00031861126830462114 0.084718575530960655 0 0.00089770911513159025 0.084981410745507649 0 0.00028128352774653295 0.085055267371561813 0 0.00089770911513159025 0.084981410745507649 0 0.00069185642140806244 0.085267878912737363 0 0.00089770911513159025 0.084981410745507649 0 0.00069185642140806244 0.085267878912737363 0 0.0013906940546837678 0.08526494156328461 0 0.00069185642140806244 0.085267878912737363 0 0.00086194605512209389 0.08555278613925496 0 0.0013906940546837678 0.08526494156328461 0 0.00027714264065784559 0.085256648104947361 0 0.00028128352774653295 0.085055267371561813 0 0.00069185642140806244 0.085267878912737363 0 0.00015440074521878979 0.085262849180298902 0 0.00027714264065784559 0.085256648104947361 0 0.00041457751526302546 0.085436918014817329 0 0.00027714264065784559 0.085256648104947361 0 0.00069185642140806244 0.085267878912737363 0 0.00041457751526302546 0.085436918014817329 0 0.00069185642140806244 0.085267878912737363 0 0.00041457751526302546 0.085436918014817329 0 0.00086194605512209389 0.08555278613925496 0 0.00086194605512209389 0.08555278613925496 0 0.0016462584530654275 0.085724533589407112 0 0.0013906940546837678 0.08526494156328461 0 0.0037069174618967232 0.073282842912353957 0 0.0031840674540081354 0.07335523583974668 0 0.003846405968848565 0.073041898451440268 0 0.003534791430251203 0.073446536738201618 0 0.0037069174618967232 0.073282842912353957 0 0.0039499362847336796 0.073406856396076151 0 0.003534791430251203 0.073446536738201618 0 0.0037069174618967232 0.073282842912353957 0 0.0031840674540081354 0.07335523583974668 0 0.0031840674540081354 0.07335523583974668 0 0.0038119704794196173 0.072737906930058438 0 0.003846405968848565 0.073041898451440268 0 0.0022556379048693587 0.079736923989191799 0 0.0038151647759182236 0.078728206805121839 0 0.0031840674540081354 0.07335523583974668 0 0.0038186743849476235 0.072039547228515605 0 0.0038119704794196173 0.072737906930058438 0 0.0016462584530654275 0.085724533589407112 0 0.0013906940546837678 0.08526494156328461 0 0.0023361918604328973 0.085207371435739726 0 0.002787315336547469 0.084812721856838566 0 0.0018287453088899593 0.085017046814970881 0 0.0023361918604328973 0.085207371435739726 0 0.00089770911513159025 0.084981410745507649 0 0.0013906940546837678 0.08526494156328461 0 0.0018287453088899593 0.085017046814970881 0 0.0013906940546837678 0.08526494156328461 0 0.0018287453088899593 0.085017046814970881 0 0.0023361918604328973 0.085207371435739726 0 0.002787315336547469 0.084812721856838566 0 0.0014517628735847747 0.084398852044340111 0 0.0018287453088899593 0.085017046814970881 0 0.002787315336547469 0.084812721856838566 0 0.0027905254884186127 0.084893298756845273 0 0.0023361918604328973 0.085207371435739726 0 0.0063421836336905874 0.077092819360523063 0 0.0079882371517100027 0.073159192327049163 0 0.0045356591830153122 0.070613784436682453 0 0.004941138437359451 0.071605571685783381 0 0.0058485623463412741 0.070946231413678756 0 0.01203463683002663 0.070797811759694129 0 0.014598614722483886 0.069629746530306305 0 0.012143026207083541 0.069046811160077173 0 0.0054784889151105369 0.078537839297756012 0 0.0063421836336905874 0.077092819360523063 0 0.004941138437359451 0.071605571685783381 0 0.0038186743849476235 0.072039547228515605 0 0.0045544294829956327 0.072317914590219523 0 0.0063421836336905874 0.077092819360523063 0 0.0038151647759182236 0.078728206805121839 0 0.0045356591830153122 0.070613784436682453 0 0.004941138437359451 0.071605571685783381 0 0.0038186743849476235 0.072039547228515605 0 0.004941138437359451 0.071605571685783381 0 0.0054057877358370792 0.072127816118886412 0 0.0055204936083369108 0.071582075540290252 0 0.004941138437359451 0.071605571685783381 0 0.0054057877358370792 0.072127816118886412 0 0.0045544294829956327 0.072317914590219523 0 0.0052389247054606793 0.072658195438234194 0 0.0045544294829956327 0.072317914590219523 0 0.0041517902142648444 0.072970287392623401 0 0.0054057877358370792 0.072127816118886412 0 0.0052389247054606793 0.072658195438234194 0 0.0045544294829956327 0.072317914590219523 0 0.0038186743849476235 0.072039547228515605 0 0.0045544294829956327 0.072317914590219523 0 0.0040815786673714339 0.072597367577411601 0 0.0045544294829956327 0.072317914590219523 0 0.0040815786673714339 0.072597367577411601 0 0.0041517902142648444 0.072970287392623401 0 0.0038186743849476235 0.072039547228515605 0 0.0040815786673714339 0.072597367577411601 0 0.0038119704794196173 0.072737906930058438 0 0.0040815786673714339 0.072597367577411601 0 0.0038119704794196173 0.072737906930058438 0 0.0040641973259180003 0.072961519666626909 0 0.0038119704794196173 0.072737906930058438 0 0.003846405968848565 0.073041898451440268 0 0.0040641973259180003 0.072961519666626909 0 0.0040815786673714339 0.072597367577411601 0 0.0040641973259180003 0.072961519666626909 0 0.0041517902142648444 0.072970287392623401 0 0.0049293465484056345 0.071241194717790071 0 0.0049327644441598834 0.071239415202423703 0 0.0048607864303816441 0.071283384765574637 0 0.0049327644441598834 0.071239415202423703 0 0.003846405968848565 0.073041898451440268 0 0.0041070083494311651 0.072951255222281783 0 0.0040407462690140172 0.073130600669361723 0 0.003846405968848565 0.073041898451440268 0 0.0040641973259180003 0.072961519666626909 0 0.0041511108743238073 0.072970539977172122 0 0.0049327644441598834 0.071239415202423703 0 0.0051799238963792082 0.071067541203775259 0 0.0041070083494311651 0.072951255222281783 0 0.0040407462690140172 0.073130600669361723 0 0.0046109968300595255 0.072971025931105979 0 0.0043613872708557731 0.072994483914244776 0 0.004463906671468754 0.072998433517337591 0 0.0039640811125557958 0.073479450257426859 0 0.0041664405092146388 0.072101204447712716 0 0.0051799238963792082 0.071067541203775259 0 0.0053411975554880026 0.070858033174845264 0 0.0042862722104295859 0.072184524963806854 0 0.0040407462690140172 0.073130600669361723 0 0.0039499362847336796 0.073406856396076151 0 0.0046109968300595255 0.072971025931105979 0 0.003799544767567456 0.073383437580228042 0 0.0043613872708557731 0.072994483914244776 0 0.0039640811125557958 0.073479450257426859 0 0.0037069174618967232 0.073282842912353957 0 0.003846405968848565 0.073041898451440268 0 0.0040407462690140172 0.073130600669361723 0 0.0037069174618967232 0.073282842912353957 0 0.0040407462690140172 0.073130600669361723 0 0.0039499362847336796 0.073406856396076151 0 0.0055395021087667811 0.071074677994719893 0 0.0049327644441598834 0.071239415202423703 0 0.0053850871182299399 0.071125951307632676 0 0.0050907548347471467 0.071218674373056831 0 0.0052427351347861537 0.071225492101473262 0 0.0053411975554880026 0.070858033174845264 0 0.0070385390178758995 0.068323161343165337 0 0.0044966699238024243 0.072881136665480531 0 0.0044898669084624228 0.073332557139037108 0 0.0052116068178098942 0.072903408340826537 0 0.0065070114697906986 0.069669137508432413 0 0.0060379561053270281 0.070113361914958525 0 0.0069633001642161073 0.070155636700849178 0 0.0055395021087667811 0.071074677994719893 0 0.0053411975554880026 0.070858033174845264 0 0.005479988393814696 0.071144288586879822 0 0.0055466784370128116 0.071095984731343417 0 0.0055298654692368544 0.07109531654488481 0 0.0055395021087667811 0.071074677994719893 0 0.0051799238963792082 0.071067541203775259 0 0.0051799238963792082 0.071067541203775259 0 0.0053411975554880026 0.070858033174845264 0 0.0044966699238024243 0.072881136665480531 0 0.0044898669084624228 0.073332557139037108 0 0.0039384187063020689 0.073439497255990374 0 0.0050872114108312574 0.068742468859917485 0 0.0070385390178758995 0.068323161343165337 0 0.0021400680416652691 0.061369283321540333 0 0.0032367509981282806 0.061853399014411746 0 0.0032190754121925336 0.06070845164864172 0 0.0050872114108312574 0.068742468859917485 0 0.0027138318705973823 0.069708000205999612 0 0.0021400680416652691 0.061369283321540333 0 0.0028633575692408307 0.063356509470578651 0 0.0032367509981282806 0.061853399014411746 0 0.0043182000097487802 0.073419666216365836 0 0.0046146943711400682 0.074350156081172888 0 0.0039192438942140268 0.074274469768668416 0 0.0046146943711400682 0.074350156081172888 0 0.0039192438942140268 0.074274469768668416 0 0.0042316861802730215 0.074724046913584821 0 0.0039192438942140268 0.074274469768668416 0 0.0034452314738053821 0.074335256012341561 0 0.0035583327357349955 0.074778113594753212 0 0.0039192438942140268 0.074274469768668416 0 0.0034933484881313555 0.073913059619354113 0 0.0034452314738053821 0.074335256012341561 0 0.0039192438942140268 0.074274469768668416 0 0.0038338494457938158 0.073713257930961784 0 0.0034933484881313555 0.073913059619354113 0 0.0043182000097487802 0.073419666216365836 0 0.0039192438942140268 0.074274469768668416 0 0.0038338494457938158 0.073713257930961784 0 0.0050872114108312574 0.068742468859917485 0 0.00426123314072685 0.069681534014731733 0 0.0044898669084624228 0.073332557139037108 0 0.0039384187063020689 0.073439497255990374 0 0.0038338494457938158 0.073713257930961784 0 0.0042862722104295859 0.072184524963806854 0 0.0039536644399878638 0.072601688285387322 0 0.003799544767567456 0.073383437580228042 0 0.0039640811125557958 0.073479450257426859 0 0.0034933484881313555 0.073913059619354113 0 0.0039384187063020689 0.073439497255990374 0 0.0038338494457938158 0.073713257930961784 0 0.0034933484881313555 0.073913059619354113 0 0.003799544767567456 0.073383437580228042 0 0.0032979460479373251 0.073746736918331918 0 0.0034933484881313555 0.073913059619354113 0 0.003534791430251203 0.073446536738201618 0 0.0039499362847336796 0.073406856396076151 0 0.0032979460479373251 0.073746736918331918 0 0.0031840674540081354 0.07335523583974668 0 0.0032979460479373251 0.073746736918331918 0 0.0031457780682297323 0.074090276946222514 0 0.0041664405092146388 0.072101204447712716 0 0.0038302021658696561 0.072435190078624118 0 0.003534791430251203 0.073446536738201618 0 0.0031840674540081354 0.07335523583974668 0 0.0032979460479373251 0.073746736918331918 0 0.0032979460479373251 0.073746736918331918 0 0.0034933484881313555 0.073913059619354113 0 0.0031457780682297323 0.074090276946222514 0 0.0016462584530654275 0.085724533589407112 0 0.0010302515135507729 0.086709606139137391 0 0.0010859952377711886 0.086742224179857344 0 0.0022556379048693587 0.079736923989191799 0 -9.8587544115902654e-05 0.082174452804921402 0 0.00086194605512209389 0.08555278613925496 0 0.0016462584530654275 0.085724533589407112 0 0.0010302515135507729 0.086709606139137391 0 0.0031840674540081354 0.07335523583974668 0 0.0027188852173288878 0.074323756672578123 0 0.0031457780682297323 0.074090276946222514 0 0.00043729446062546097 0.084764739949159243 0 2.5079867260877555e-05 0.082554091641714941 0 -0.00067790798702945312 0.081440581298857423 0 -0.00054383486911387655 0.081520638076204591 0 -0.00063910174126177277 0.081709167191785712 0 2.5079867260877555e-05 0.082554091641714941 0 -9.8587544115902654e-05 0.082174452804921402 0 -0.0019637470415571454 0.08355751002411059 0 -0.0019322797142889547 0.083495041316073687 0 -0.0022387329361400724 0.083109268712854692 0 -9.8587544115902654e-05 0.082174452804921402 0 -0.00017459615114659064 0.082589671957919289 0 2.5079867260877555e-05 0.082554091641714941 0 -0.00017459615114659064 0.082589671957919289 0 0.0027188852173288878 0.074323756672578123 0 0.0034452314738053821 0.074335256012341561 0 0.0035583327357349955 0.074778113594753212 0 0.0027188852173288878 0.074323756672578123 0 0.0031457780682297323 0.074090276946222514 0 0.0034452314738053821 0.074335256012341561 0 -9.8587544115902654e-05 0.082174452804921402 0 -1.4688336544765349e-05 0.079477018173314443 0 0.0034933484881313555 0.073913059619354113 0 0.0031457780682297323 0.074090276946222514 0 0.0034452314738053821 0.074335256012341561 0 -0.0019637470415571454 0.08355751002411059 0 -0.0027298776890185071 0.083129624602893498 0 -0.0022387329361400724 0.083109268712854692 0 -0.0027298776890185071 0.083129624602893498 0 -0.002484145626058751 0.082755745900287087 0 -0.00311408726195004 0.082680276059630797 0 -0.0027298776890185071 0.083129624602893498 0 -0.0022387329361400724 0.083109268712854692 0 -0.002484145626058751 0.082755745900287087 0 -0.00069575713669063426 0.084880062195745273 0 -0.0012120762590466328 0.085923281630638323 0 -0.0015959999896874805 0.084332269987311068 0 -0.0019322797142889547 0.083495041316073687 0 -0.0022387329361400724 0.083109268712854692 0 -0.0020930467511031583 0.082626016595025137 0 -0.00017459615114659064 0.082589671957919289 0 -0.00098671359373615091 0.083110909262326574 0 -0.0022387329361400724 0.083109268712854692 0 -0.0020930467511031583 0.082626016595025137 0 -0.002484145626058751 0.082755745900287087 0 -0.0020930467511031583 0.082626016595025137 0 -0.002484145626058751 0.082755745900287087 0 -0.0025096162412200709 0.082304929052583353 0 -0.002484145626058751 0.082755745900287087 0 -0.00311408726195004 0.082680276059630797 0 -0.0025096162412200709 0.082304929052583353 0 -0.00311408726195004 0.082680276059630797 0 -0.0034524840612383109 0.081895909491570787 0 -0.0025096162412200709 0.082304929052583353 0 -0.0027298776890185071 0.083129624602893498 0 -0.00311408726195004 0.082680276059630797 0 -0.0035500558778232523 0.082671154720181619 0 -0.0037822338186727744 0.082661595710235652 0 -0.0042580692546950582 0.081883477301660262 0 -0.0034524840612383109 0.081895909491570787 0 -0.0037822338186727744 0.082661595710235652 0 -0.004820091659968443 0.082659755516330355 0 -0.0042580692546950582 0.081883477301660262 0 -0.00311408726195004 0.082680276059630797 0 -0.0037822338186727744 0.082661595710235652 0 -0.0034524840612383109 0.081895909491570787 0 -0.00047663771626470415 0.077007500252078434 0 0.00023210462315975856 0.073157670495595517 0 -0.0011272307779336848 0.077379862541008398 0 -0.00047663771626470415 0.077007500252078434 0 0.0046146943711400682 0.074350156081172888 0 0.0042316861802730215 0.074724046913584821 0 0.004904676957653043 0.075237404904358207 0 0.0043519834902629685 0.075228106400727593 0 0.0042316861802730215 0.074724046913584821 0 0.004904676957653043 0.075237404904358207 0 0.0039192438942140268 0.074274469768668416 0 0.0035583327357349955 0.074778113594753212 0 0.0042316861802730215 0.074724046913584821 0 -1.4688336544765349e-05 0.079477018173314443 0 -0.00047663771626470415 0.077007500252078434 0 0.0035583327357349955 0.074778113594753212 0 0.0043519834902629685 0.075228106400727593 0 0.0042316861802730215 0.074724046913584821 0 0.0043318457171413168 0.064014109398632571 0 0.0035568163735003985 0.065239742045693924 0 0.004997274633352462 0.065233385541003663 0 0.0043318457171413168 0.064014109398632571 0 0.004997274633352462 0.065233385541003663 0 0.0053099486175333145 0.064086160598277681 0 0.0028633575692408307 0.063356509470578651 0 0.0043318457171413168 0.064014109398632571 0 0.0035568163735003985 0.065239742045693924 0 0.0027138318705973823 0.069708000205999612 0 0.00023210462315975856 0.073157670495595517 0 0.00023210462315975856 0.073157670495595517 0 0.0012692124183121675 0.06994864062877959 0 -0.009585417389408003 0.065605108102931561 0 -0.0035139851750719629 0.065736372368673912 0 -0.0075771732913224293 0.071432514158261226 0 0.0012692124183121675 0.06994864062877959 0 0.0036305199871493614 0.068500404539685714 0 0.004997274633352462 0.065233385541003663 0 0.0062228158676740208 0.065342322589557272 0 0.0053099486175333145 0.064086160598277681 0 -0.0035139851750719629 0.065736372368673912 0 0.0021106563529103522 0.066060704657375166 0 0.00099909639365813332 0.070042088224857399 0 0.0021106563529103522 0.066060704657375166 0 0.0071677900731697509 0.066185091198038323 0 0.0043257973385563159 0.070108880280247476 0 0.0036305199871493614 0.068500404539685714 0 0.0049806992595769241 0.068114010291636246 0 0.0062228158676740208 0.065342322589557272 0 0.0063986460602852421 0.063638314742704233 0 0.0069795806977909162 0.064401040900315384 0 0.0062228158676740208 0.065342322589557272 0 0.0053099486175333145 0.064086160598277681 0 0.0063986460602852421 0.063638314742704233 0 0.0053099486175333145 0.064086160598277681 0 0.0053118515585624413 0.062865442960914508 0 0.0063986460602852421 0.063638314742704233 0 0.0053118515585624413 0.062865442960914508 0 0.0063986460602852421 0.063638314742704233 0 0.0071182273610999125 0.062106626540944787 0 0.0063986460602852421 0.063638314742704233 0 0.0074769341322429884 0.0629206172084983 0 0.0069795806977909162 0.064401040900315384 0 0.0063986460602852421 0.063638314742704233 0 0.0071182273610999125 0.062106626540944787 0 0.0074769341322429884 0.0629206172084983 0 0.0071182273610999125 0.062106626540944787 0 0.0057088989639764902 0.061614633893785284 0 0.0065838704064127276 0.060778732989008336 0 0.0053118515585624413 0.062865442960914508 0 0.0071182273610999125 0.062106626540944787 0 0.0057088989639764902 0.061614633893785284 0 0.0053118515585624413 0.062865442960914508 0 0.0057088989639764902 0.061614633893785284 0 0.0047500859708370959 0.061746961728062329 0 0.0053118515585624413 0.062865442960914508 0 0.0047500859708370959 0.061746961728062329 0 0.0040129485385980617 0.062391647765929099 0 0.0047500859708370959 0.061746961728062329 0 0.0040129485385980617 0.062391647765929099 0 0.0039620540757077704 0.061422659863299686 0 0.0043318457171413168 0.064014109398632571 0 0.0053099486175333145 0.064086160598277681 0 0.0053118515585624413 0.062865442960914508 0 0.0043318457171413168 0.064014109398632571 0 0.0053118515585624413 0.062865442960914508 0 0.0040129485385980617 0.062391647765929099 0 0.0028633575692408307 0.063356509470578651 0 0.0043318457171413168 0.064014109398632571 0 0.0040129485385980617 0.062391647765929099 0 0.0028633575692408307 0.063356509470578651 0 0.0040129485385980617 0.062391647765929099 0 0.0032367509981282806 0.061853399014411746 0 0.0040129485385980617 0.062391647765929099 0 0.0032367509981282806 0.061853399014411746 0 0.0039620540757077704 0.061422659863299686 0 0.0070385390178758995 0.068323161343165337 0 0.0086294219805817737 0.065365523042097917 0 0.0032367509981282806 0.061853399014411746 0 0.0039620540757077704 0.061422659863299686 0 0.0032190754121925336 0.06070845164864172 0 0.0039620540757077704 0.061422659863299686 0 0.0032190754121925336 0.06070845164864172 0 0.0048063913651721262 0.060718895473368832 0 0.01621664785451778 0.061954444921843259 0 0.014187973928824016 0.061821480064260421 0 0.014489484498905539 0.062991858311675239 0 0.0057088989639764902 0.061614633893785284 0 0.0047500859708370959 0.061746961728062329 0 0.0048063913651721262 0.060718895473368832 0 0.0047500859708370959 0.061746961728062329 0 0.0039620540757077704 0.061422659863299686 0 0.0048063913651721262 0.060718895473368832 0 0.0081114231783076217 0.069483922662036887 0 0.007914656168085718 0.069230741450232156 0 0.0092583836578708778 0.06882101317247788 0 0.0072088472517753965 0.070136055414522266 0 0.0090923364799063398 0.068910910790474067 0 0.0064664661758840969 0.07215879267484597 0 0.0071716125673085898 0.071650903161521451 0 0.0075200971005635496 0.07184272784142641 0 0.0096772001058810821 0.067591231855475609 0 0.0090923364799063398 0.068910910790474067 0 0.014187973928824016 0.061821480064260421 0 0.014489484498905539 0.062991858311675239 0 0.013077485939914908 0.062725131193556993 0 0.0064664661758840969 0.07215879267484597 0 0.0061135813378306019 0.072039286060802052 0 0.0067685858472395811 0.071602178008420447 0 0.0054223737518604691 0.072467210755975842 0 0.0064664661758840969 0.07215879267484597 0 0.0061135813378306019 0.072039286060802052 0 0.0055395021087667811 0.071074677994719893 0 0.0072088472517753965 0.070136055414522266 0 0.0070385390178758995 0.068323161343165337 0 0.0096772001058810821 0.067591231855475609 0 0.0065070114697906986 0.069669137508432413 0 0.0069633001642161073 0.070155636700849178 0 0.007914656168085718 0.069230741450232156 0 0.0069633001642161073 0.070155636700849178 0 0.0081114231783076217 0.069483922662036887 0 0.007914656168085718 0.069230741450232156 0 0.0055395021087667811 0.071074677994719893 0 0.0057417424873799187 0.071291672010031198 0 0.0054057877358370792 0.072127816118886412 0 0.0059542385110103457 0.071994361360767145 0 0.0056708313568788081 0.071858390218941762 0 0.0055395021087667811 0.071074677994719893 0 0.0056725884625158035 0.07131818578974726 0 0.0054057877358370792 0.072127816118886412 0 0.0052389247054606793 0.072658195438234194 0 0.0059542385110103457 0.071994361360767145 0 0.0054671207778299261 0.07243197703367614 0 0.0061242250812005173 0.072018601219664621 0 0.0060544488289225014 0.07187908721966961 0 0.0054057877358370792 0.072127816118886412 0 0.0056708313568788081 0.071858390218941762 0 0.0055204936083369108 0.071582075540290252 0 0.0058053865682243409 0.071731429129739441 0 0.0055204936083369108 0.071582075540290252 0 0.0061055512350445618 0.0714358773325314 0 0.004941138437359451 0.071605571685783381 0 0.0055204936083369108 0.071582075540290252 0 0.0058485623463412741 0.070946231413678756 0 0.0059542385110103457 0.071994361360767145 0 0.0056708313568788081 0.071858390218941762 0 0.0058053865682243409 0.071731429129739441 0 0.0056708313568788081 0.071858390218941762 0 0.0058053865682243409 0.071731429129739441 0 0.0055204936083369108 0.071582075540290252 0 0.0055204936083369108 0.071582075540290252 0 0.0061055512350445618 0.0714358773325314 0 0.0058485623463412741 0.070946231413678756 0 0.0061055512350445618 0.0714358773325314 0 0.0066583926745506557 0.071295697662074622 0 0.0058485623463412741 0.070946231413678756 0 0.0059542385110103457 0.071994361360767145 0 0.0061055512350445618 0.0714358773325314 0 0.0066583926745506557 0.071295697662074622 0 0.0059542385110103457 0.071994361360767145 0 0.0058053865682243409 0.071731429129739441 0 0.0061055512350445618 0.0714358773325314 0 0.0061242250812005173 0.072018601219664621 0 0.0060544488289225014 0.07187908721966961 0 0.0067685858472395811 0.071602178008420447 0 0.0056725884625158035 0.07131818578974726 0 0.0058477953600103126 0.071263809140137246 0 0.0057417424873799187 0.071291672010031198 0 0.0059085205002163809 0.071281439400672858 0 0.0066583926745506557 0.071295697662074622 0 0.0058485623463412741 0.070946231413678756 0 0.0071391829100479051 0.071257933019339012 0 0.0060544488289225014 0.07187908721966961 0 0.0067685858472395811 0.071602178008420447 0 0.0066583926745506557 0.071295697662074622 0 0.0064664661758840969 0.07215879267484597 0 0.0067685858472395811 0.071602178008420447 0 0.0071716125673085898 0.071650903161521451 0 0.0067685858472395811 0.071602178008420447 0 0.0071391829100479051 0.071257933019339012 0 0.0071716125673085898 0.071650903161521451 0 0.0067685858472395811 0.071602178008420447 0 0.0066583926745506557 0.071295697662074622 0 0.0071391829100479051 0.071257933019339012 0 0.0079882371517100027 0.073159192327049163 0 0.0085177126852109316 0.070875717648613695 0 0.010659937109987506 0.070494380704312409 0 0.012143026207083541 0.069046811160077173 0 0.010289356092074155 0.068492090411407427 0 0.01203463683002663 0.070797811759694129 0 0.010659937109987506 0.070494380704312409 0 0.012143026207083541 0.069046811160077173 0 0.0095489086276897249 0.070163817647626192 0 0.0093805220415151824 0.068741644145511538 0 0.0089231351033185677 0.069116483052497457 0 0.0093805220415151824 0.068741644145511538 0 0.0089231351033185677 0.069116483052497457 0 0.008991352552791437 0.068073777733249852 0 0.0095489086276897249 0.070163817647626192 0 0.0093805220415151824 0.068741644145511538 0 0.010289356092074155 0.068492090411407427 0 0.0095489086276897249 0.070163817647626192 0 0.010659937109987506 0.070494380704312409 0 0.010289356092074155 0.068492090411407427 0 0.0093805220415151824 0.068741644145511538 0 0.010289356092074155 0.068492090411407427 0 0.0091723003208617534 0.067933995168863143 0 0.0085177126852109316 0.070875717648613695 0 0.0090451234104840603 0.06919664530633278 0 0.0071391829100479051 0.071257933019339012 0 0.0077319080078953745 0.071716089702352201 0 0.0083518623628111039 0.071574083569918498 0 0.0071391829100479051 0.071257933019339012 0 0.0071716125673085898 0.071650903161521451 0 0.0077319080078953745 0.071716089702352201 0 0.0071716125673085898 0.071650903161521451 0 0.0075200971005635496 0.07184272784142641 0 0.0077319080078953745 0.071716089702352201 0 0.0090923364799063398 0.068910910790474067 0 0.0090146736865052528 0.068975814051542933 0 0.0075242987569484132 0.07183989148232553 0 0.0077319080078953745 0.071716089702352201 0 0.0083518623628111039 0.071574083569918498 0 0.0090923364799063398 0.068910910790474067 0 0.0090451234104840603 0.06919664530633278 0 0.0093805220415151824 0.068741644145511538 0 0.0091723003208617534 0.067933995168863143 0 0.008991352552791437 0.068073777733249852 0 0.010697342009473929 0.06466772439391108 0 0.01092836134112137 0.064747361343768087 0 0.010359345863418827 0.063825834920247057 0 0.0090585476406142423 0.06918325768029697 0 0.0090451234104840603 0.06919664530633278 0 0.01259896544246708 0.064178401785956921 0 0.01092836134112137 0.064747361343768087 0 0.011460729722713073 0.063305589180354699 0 0.01092836134112137 0.064747361343768087 0 0.010359345863418827 0.063825834920247057 0 0.011460729722713073 0.063305589180354699 0 0.010359345863418827 0.063825834920247057 0 0.011460729722713073 0.063305589180354699 0 0.010342112036131208 0.06268231624671515 0 0.011460729722713073 0.063305589180354699 0 0.010342112036131208 0.06268231624671515 0 0.012005785500042918 0.061569711951948429 0 0.014489484498905539 0.062991858311675239 0 0.01259896544246708 0.064178401785956921 0 0.013077485939914908 0.062725131193556993 0 0.01259896544246708 0.064178401785956921 0 0.011460729722713073 0.063305589180354699 0 0.013077485939914908 0.062725131193556993 0 0.011460729722713073 0.063305589180354699 0 0.013077485939914908 0.062725131193556993 0 0.012005785500042918 0.061569711951948429 0 0.014187973928824016 0.061821480064260421 0 0.013077485939914908 0.062725131193556993 0 0.012005785500042918 0.061569711951948429 0 0.0057088989639764902 0.061614633893785284 0 0.0048063913651721262 0.060718895473368832 0 0.0065838704064127276 0.060778732989008336 0 0.0086294219805817737 0.065365523042097917 0 0.0088990174320851684 0.063922242965722562 0 0.010342112036131208 0.06268231624671515 0 0.012005785500042918 0.061569711951948429 0 0.0089185263770495994 0.061351729081816547 0 0.0071182273610999125 0.062106626540944787 0 0.0065838704064127276 0.060778732989008336 0 0.0089185263770495994 0.061351729081816547 0 0.0088990174320851684 0.063922242965722562 0 0.0088525631691544048 0.063498803826321767 0 0.0089185263770495994 0.061351729081816547 0 0.0087504087361830775 0.062030392654182802 0 0.0087859253508148858 0.061180588466402223 0 0.0089185263770495994 0.061351729081816547 0 0.0087504087361830775 0.062030392654182802 0 0.0093635152989633534 0.062996547238783104 0 0.0087504087361830775 0.062030392654182802 0 0.0083458753680361476 0.061980557307615911 0 0.0087859253508148858 0.061180588466402223 0 0.0087504087361830775 0.062030392654182802 0 0.0083791254051749156 0.064160700386881167 0 0.0083458753680361476 0.061980557307615911 0 0.0087504087361830775 0.062030392654182802 0 0.0083791254051749156 0.064160700386881167 0 0.0093635152989633534 0.062996547238783104 0 0.010342112036131208 0.06268231624671515 0 0.0089185263770495994 0.061351729081816547 0 0.0093635152989633534 0.062996547238783104 0 0.010359345863418827 0.063825834920247057 0 0.010342112036131208 0.06268231624671515 0 0.0093635152989633534 0.062996547238783104 0 0.0083791254051749156 0.064160700386881167 0 0.0093635152989633534 0.062996547238783104 0 0.0094917580306683406 0.064359919677873578 0 0.010359345863418827 0.063825834920247057 0 0.0093635152989633534 0.062996547238783104 0 0.0094917580306683406 0.064359919677873578 0 0.010697342009473929 0.06466772439391108 0 0.010359345863418827 0.063825834920247057 0 0.0094917580306683406 0.064359919677873578 0 0.010697342009473929 0.06466772439391108 0 0.0094917580306683406 0.064359919677873578 0 0.0084288846534147695 0.066603572858851059 0 0.0090451234104840603 0.06919664530633278 0 0.0089501052576217051 0.068562645578136974 0 0.0091723003208617534 0.067933995168863143 0 0.0084288846534147695 0.066603572858851059 0 0.008991352552791437 0.068073777733249852 0 0.010697342009473929 0.06466772439391108 0 0.010985843130757383 0.064667378709444001 0 0.0084288846534147695 0.066603572858851059 0 0.0083791254051749156 0.064160700386881167 0 0.0084288846534147695 0.066603572858851059 0 0.0073124768267623869 0.066863274041709664 0 0.0083791254051749156 0.064160700386881167 0 0.0094917580306683406 0.064359919677873578 0 0.0084288846534147695 0.066603572858851059 0 0.0079839161527046724 0.069121210364568697 0 0.0084288846534147695 0.066603572858851059 0 0.0073124768267623869 0.066863274041709664 0 0.006847820232397479 0.068386832353261442 0 0.0079839161527046724 0.069121210364568697 0 0.0073124768267623869 0.066863274041709664 0 0.0084288846534147695 0.066603572858851059 0 0.0089231351033185677 0.069116483052497457 0 0.008991352552791437 0.068073777733249852 0 0.0079839161527046724 0.069121210364568697 0 0.0084288846534147695 0.066603572858851059 0 0.0089231351033185677 0.069116483052497457 0 0.005029107990982243 0.067308455737691966 0 0.0062858230874741627 0.067381519817877308 0 0.0064128000928415805 0.065327928768273119 0 0.0057969558557998601 0.068990861524119582 0 0.005029107990982243 0.067308455737691966 0 0.0062858230874741627 0.067381519817877308 0 0.0062858230874741627 0.067381519817877308 0 0.0073124768267623869 0.066863274041709664 0 0.0064128000928415805 0.065327928768273119 0 0.006847820232397479 0.068386832353261442 0 0.0062858230874741627 0.067381519817877308 0 0.0073124768267623869 0.066863274041709664 0 0.0083791254051749156 0.064160700386881167 0 0.0073124768267623869 0.066863274041709664 0 0.0064128000928415805 0.065327928768273119 0 0.005029107990982243 0.067308455737691966 0 0.0064128000928415805 0.065327928768273119 0 0.0045626609904463279 0.064714544193914522 0 0.0064128000928415805 0.065327928768273119 0 0.0064724285832391051 0.061935292642626864 0 0.0045626609904463279 0.064714544193914522 0 0.0064128000928415805 0.065327928768273119 0 0.0083458753680361476 0.061980557307615911 0 0.0064724285832391051 0.061935292642626864 0 0.0083791254051749156 0.064160700386881167 0 0.0064128000928415805 0.065327928768273119 0 0.0083458753680361476 0.061980557307615911 0 0.0083458753680361476 0.061980557307615911 0 0.0064724285832391051 0.061935292642626864 0 0.009495677222952208 0.059656253534537969 0 0.0064724285832391051 0.061935292642626864 0 0.009495677222952208 0.059656253534537969 0 0.0055270142025604149 0.057642430990457592 0 0.0095553868348726805 0.052992338151948586 0 0.0055270142025604149 0.057642430990457592 0 0.0057362462373932548 0.052248209912867084 0 0.009495677222952208 0.059656253534537969 0 0.0095553868348726805 0.052992338151948586 0 0.0055270142025604149 0.057642430990457592 0 0.009495677222952208 0.059656253534537969 0 0.0087063734264745049 0.063353305728995085 0 0.011914108441340006 0.063703089103833863 0 0.010115861440152208 0.059216369644155192 0 0.010131298005690287 0.058835936826190371 0 0.0083458753680361476 0.061980557307615911 0 0.009495677222952208 0.059656253534537969 0 0.0087859253508148858 0.061180588466402223 0 0.0071182273610999125 0.062106626540944787 0 0.0089185263770495994 0.061351729081816547 0 0.0087859253508148858 0.061180588466402223 0 0.0071182273610999125 0.062106626540944787 0 0.0087859253508148858 0.061180588466402223 0 0.0074769341322429884 0.0629206172084983 0 0.0087859253508148858 0.061180588466402223 0 0.0074769341322429884 0.0629206172084983 0 0.0087063734264745049 0.063353305728995085 0 0.009495677222952208 0.059656253534537969 0 0.0087859253508148858 0.061180588466402223 0 0.0087063734264745049 0.063353305728995085 0 0.0087063734264745049 0.063353305728995085 0 0.0069795806977909162 0.064401040900315384 0 0.0071677900731697509 0.066185091198038323 0 0.0074769341322429884 0.0629206172084983 0 0.0087063734264745049 0.063353305728995085 0 0.0069795806977909162 0.064401040900315384 0 0.0062228158676740208 0.065342322589557272 0 0.0069795806977909162 0.064401040900315384 0 0.0071677900731697509 0.066185091198038323 0 0.0071677900731697509 0.066185091198038323 0 0.0099257856340423615 0.067718028128449972 0 0.0073031145253753911 0.069943489399261649 0 0.0087063734264745049 0.063353305728995085 0 0.0071677900731697509 0.066185091198038323 0 0.0099257856340423615 0.067718028128449972 0 0.0099257856340423615 0.067718028128449972 0 0.013365742312608691 0.068188772965497232 0 0.011914108441340006 0.063703089103833863 0 0.0098556324332774118 0.058536235892791028 0 0.010131298005690287 0.058835936826190371 0 0.0087450524010449053 0.047998493911254866 0 0.0095553868348726805 0.052992338151948586 0 0.0057362462373932548 0.052248209912867084 0 0.0087063734264745049 0.063353305728995085 0 0.0099257856340423615 0.067718028128449972 0 0.011914108441340006 0.063703089103833863 0 0.011004789815799313 0.073486240468989508 0 0.014054073974694348 0.073218141311064133 0 0.011323261049537148 0.070735074566416048 0 0.011004789815799313 0.073486240468989508 0 0.011323261049537148 0.070735074566416048 0 0.0090059750370462821 0.071711671139664993 0 0.0098556324332774118 0.058536235892791028 0 0.0088807554333832483 0.058395330732484228 0 0.013365742312608691 0.068188772965497232 0 0.014054073974694348 0.073218141311064133 0 0.011323261049537148 0.070735074566416048 0 0.0087450524010449053 0.047998493911254866 0 0.0078246272488796224 0.043713940964864022 0 0.0049863586940477019 0.044960295963548461 0 0.0099257856340423615 0.067718028128449972 0 0.013365742312608691 0.068188772965497232 0 0.011323261049537148 0.070735074566416048 0 0.0099257856340423615 0.067718028128449972 0 0.011323261049537148 0.070735074566416048 0 0.0090059750370462821 0.071711671139664993 0 0.0099257856340423615 0.067718028128449972 0 0.0073031145253753911 0.069943489399261649 0 0.0090059750370462821 0.071711671139664993 0 0.0073031145253753911 0.069943489399261649 0 0.0055873495962216512 0.074024727588809541 0 0.0043257973385563159 0.070108880280247476 0 0.0071677900731697509 0.066185091198038323 0 0.0073031145253753911 0.069943489399261649 0 0.0043257973385563159 0.070108880280247476 0 0.0073031145253753911 0.069943489399261649 0 0.0055873495962216512 0.074024727588809541 0 0.0090059750370462821 0.071711671139664993 0 0.0055873495962216512 0.074024727588809541 0 0.0090059750370462821 0.071711671139664993 0 0.0083699555846093263 0.074782482798255667 0 0.011004789815799313 0.073486240468989508 0 0.0090059750370462821 0.071711671139664993 0 0.0083699555846093263 0.074782482798255667 0 0.0083699555846093263 0.074782482798255667 0 0.0068733218561863648 0.077396741748503986 0 0.011565681686239528 0.07609461932743164 0 0.0069861191249924234 0.076803962492412975 0 0.0088814890249572561 0.076563937947620481 0 0.0068733218561863648 0.077396741748503986 0 0.0045427219885178791 0.076335766667318297 0 0.0021613519181752899 0.078146473936731173 0 0.0055873495962216512 0.074024727588809541 0 0.0062518106817860738 0.075699719533611196 0 0.0045427219885178791 0.076335766667318297 0 0.0083699555846093263 0.074782482798255667 0 0.0062518106817860738 0.075699719533611196 0 0.0068733218561863648 0.077396741748503986 0 0.0055873495962216512 0.074024727588809541 0 0.0083699555846093263 0.074782482798255667 0 0.0062518106817860738 0.075699719533611196 0 0.0062518106817860738 0.075699719533611196 0 0.0068733218561863648 0.077396741748503986 0 0.0045427219885178791 0.076335766667318297 0 0.0069861191249924234 0.076803962492412975 0 0.0035381123199808916 0.077156026321891849 0 0.0082543807727703585 0.076410846555017786 0 0.0080630332540653094 0.077450908187770201 0 0.0066845586266496733 0.077576586682359144 0 0.0036144888507408982 0.068658425067944867 0 0.0042475833334329619 0.066184208405005815 0 0.0080630332540653094 0.077450908187770201 0 0.0070307512198333503 0.078808423155006843 0 0.0066845586266496733 0.077576586682359144 0 0.0082543807727703585 0.076410846555017786 0 0.010055747453104932 0.07731470315403273 0 0.011565681686239528 0.07609461932743164 0 0.0080630332540653094 0.077450908187770201 0 0.010055747453104932 0.07731470315403273 0 0.010697953315105023 0.079916752945736927 0 0.0082543807727703585 0.076410846555017786 0 0.0080630332540653094 0.077450908187770201 0 0.010055747453104932 0.07731470315403273 0 0.012195276640444223 0.078250980571986484 0 0.011565681686239528 0.07609461932743164 0 0.01415780697081768 0.077262412566246053 0 0.010055747453104932 0.07731470315403273 0 0.012195276640444223 0.078250980571986484 0 0.010697953315105023 0.079916752945736927 0 0.010055747453104932 0.07731470315403273 0 0.012195276640444223 0.078250980571986484 0 0.011565681686239528 0.07609461932743164 0 0.011004789815799313 0.073486240468989508 0 0.0083699555846093263 0.074782482798255667 0 0.011565681686239528 0.07609461932743164 0 0.011004789815799313 0.073486240468989508 0 0.014054073974694348 0.073218141311064133 0 0.011565681686239528 0.07609461932743164 0 0.0088807554333832483 0.058395330732484228 0 0.0065746016484942021 0.057297676829385483 0 0.014054073974694348 0.073218141311064133 0 0.011565681686239528 0.07609461932743164 0 0.01415780697081768 0.077262412566246053 0 0.0078246272488796224 0.043713940964864022 0 0.0063285497181613786 0.039071428641288715 0 0.0056121003334506196 0.041651571616992948 0 0.0065746016484942021 0.057297676829385483 0 0.0014553808270841748 0.05119518113851422 0 0.0063285497181613786 0.039071428641288715 0 0.0043626162103501381 0.034731384007108727 0 0.0042202851655677364 0.03647945935780935 0 0.012195276640444223 0.078250980571986484 0 0.01415780697081768 0.077262412566246053 0 0.014457247033774866 0.080594492426863992 0 0.004821690618138621 0.059874312241730128 0 0.0014553808270841748 0.05119518113851422 0 0.012195276640444223 0.078250980571986484 0 0.010697953315105023 0.079916752945736927 0 0.014457247033774866 0.080594492426863992 0 0.00065601730554576149 0.044356898088149403 0 0.00051461361358735684 0.043911341762737276 0 0.00052265604307923888 0.044910801170240926 0 0.00065601730554576149 0.044356898088149403 0 -0.00010849295067177434 0.044952689634114591 0 0.00051461361358735684 0.043911341762737276 0 -0.00010849295067177434 0.044952689634114591 0 0.00051461361358735684 0.043911341762737276 0 -0.00020469995927533752 0.041336834487703561 0 0.0014553808270841748 0.05119518113851422 0 0.00039685347240277474 0.043928215026291711 0 0.00051461361358735684 0.043911341762737276 0 0.00032526435625476762 0.043636240626097431 0 -0.00020469995927533752 0.041336834487703561 0 0.00051461361358735684 0.043911341762737276 0 0.00032526435625476762 0.043636240626097431 0 0.00052265604307923888 0.044910801170240926 0 0.00032526435625476762 0.043636240626097431 0 0.00052265604307923888 0.044910801170240926 0 0.00032418478167394864 0.045813790583271168 0 0.00032418478167394864 0.045813790583271168 0 1.0226078506193734e-07 0.043840064866571417 0 3.2112364881548727e-07 0.048930681089169349 0 0.00032526435625476762 0.043636240626097431 0 1.0226078506193734e-07 0.043840064866571417 0 -0.00020469995927533752 0.041336834487703561 0 0.00032526435625476762 0.043636240626097431 0 0.00032418478167394864 0.045813790583271168 0 1.0226078506193734e-07 0.043840064866571417 0 -0.00028138688664300013 0.051449939320015278 0 3.2112364881548727e-07 0.048930681089169349 0 -1.2159926262123222e-06 0.0540271309450579 0 -0.00148745527549944 0.048228292792588341 0 -0.00028138688664300013 0.051449939320015278 0 2.7154896857756593e-05 0.047577614791270789 0 -0.00148745527549944 0.048228292792588341 0 -0.00028138688664300013 0.051449939320015278 0 -0.003596767208536621 0.048998623323078055 0 0.00032418478167394864 0.045813790583271168 0 3.2112364881548727e-07 0.048930681089169349 0 2.7154896857756593e-05 0.047577614791270789 0 -0.00028138688664300013 0.051449939320015278 0 3.2112364881548727e-07 0.048930681089169349 0 2.7154896857756593e-05 0.047577614791270789 0 0.00052265604307923888 0.044910801170240926 0 0.00032418478167394864 0.045813790583271168 0 2.7154896857756593e-05 0.047577614791270789 0 0.00052265604307923888 0.044910801170240926 0 2.7154896857756593e-05 0.047577614791270789 0 2.6855865083134043e-05 0.045353215094874326 0 2.7154896857756593e-05 0.047577614791270789 0 -0.0012600831592666536 0.046243763171059778 0 2.6855865083134043e-05 0.045353215094874326 0 -0.00148745527549944 0.048228292792588341 0 2.7154896857756593e-05 0.047577614791270789 0 -0.0012600831592666536 0.046243763171059778 0 -0.00148745527549944 0.048228292792588341 0 -0.0012600831592666536 0.046243763171059778 0 -0.0030971455019268104 0.046985201065467323 0 -0.0012600831592666536 0.046243763171059778 0 -0.00091150636708591578 0.044806116749590869 0 -0.0034462981970814419 0.045079935667815998 0 -0.00091150636708591578 0.044806116749590869 0 -0.0017096681253835619 0.043330069867904691 0 -0.0034462981970814419 0.045079935667815998 0 -0.0012600831592666536 0.046243763171059778 0 -0.00091150636708591578 0.044806116749590869 0 2.6855865083134043e-05 0.045353215094874326 0 0.00065601730554576149 0.044356898088149403 0 -0.00091150636708591578 0.044806116749590869 0 2.6855865083134043e-05 0.045353215094874326 0 0.00065601730554576149 0.044356898088149403 0 0.00052265604307923888 0.044910801170240926 0 2.6855865083134043e-05 0.045353215094874326 0 0.004821690618138621 0.059874312241730128 0 0.0042475833334329619 0.066184208405005815 0 0.0080630332540653094 0.077450908187770201 0 0.010697953315105023 0.079916752945736927 0 0.0068952087735034556 0.079146825697122891 0 0.00065601730554576149 0.044356898088149403 0 -0.00091150636708591578 0.044806116749590869 0 -0.0017096681253835619 0.043330069867904691 0 0.0042475833334329619 0.066184208405005815 0 0.0026145508431441025 0.060082076197373969 0 0.0024087370717893971 0.06616963550021554 0 0.0028365460508772253 0.066254438138713165 0 0.0026905833546460784 0.06573737383629645 0 0.0042475833334329619 0.066184208405005815 0 0.0043823950167270267 0.068964648880186413 0 0.0070307512198333503 0.078808423155006843 0 0.0048871075280780517 0.078313774767681102 0 0.0066845586266496733 0.077576586682359144 0 0.0028365460508772253 0.066254438138713165 0 0.0029805683356407694 0.065964838109942803 0 0.0032727744894988403 0.06634434577280976 0 0.0028365460508772253 0.066254438138713165 0 0.0029805683356407694 0.065964838109942803 0 0.0026905833546460784 0.06573737383629645 0 0.0029805683356407694 0.065964838109942803 0 0.0030222957445623496 0.065667179851673946 0 0.0032606933677823313 0.065897047484765991 0 0.0029805683356407694 0.065964838109942803 0 0.0030222957445623496 0.065667179851673946 0 0.0026905833546460784 0.06573737383629645 0 -0.0030971455019268104 0.046985201065467323 0 -0.0056068473503975442 0.047687525208265441 0 -0.003596767208536621 0.048998623323078055 0 -0.0034462981970814419 0.045079935667815998 0 -0.0030971455019268104 0.046985201065467323 0 -0.0056068473503975442 0.047687525208265441 0 -0.0012600831592666536 0.046243763171059778 0 -0.0034462981970814419 0.045079935667815998 0 -0.0030971455019268104 0.046985201065467323 0 -0.00148745527549944 0.048228292792588341 0 -0.0030971455019268104 0.046985201065467323 0 -0.003596767208536621 0.048998623323078055 0 0.0026145508431441025 0.060082076197373969 0 0.00021274096754579375 0.059322914552897267 0 0.0030222957445623496 0.065667179851673946 0 0.0029715178704861019 0.065301508512110654 0 0.0032466405457299034 0.06544974619646543 0 0.0030222957445623496 0.065667179851673946 0 0.0026905833546460784 0.06573737383629645 0 0.0029715178704861019 0.065301508512110654 0 0.00021274096754579375 0.059322914552897267 0 0.00091104366431641183 0.064567195033200547 0 0.00021274096754579375 0.059322914552897267 0 -0.0011500327983952204 0.056880216991606218 0 0.00021274096754579375 0.059322914552897267 0 5.4175086308613958e-05 0.059386846649050397 0 -1.2159926262123222e-06 0.0540271309450579 0 0.00014379610919001 0.055125250591304915 0 -6.7670750399979367e-06 0.058809616068316181 0 -1.2159926262123222e-06 0.0540271309450579 0 -6.7670750399979367e-06 0.058809616068316181 0 1.6997178329544143e-07 0.059112581247093045 0 -0.0001164975923362728 0.056059482273768169 0 0.00014379610919001 0.055125250591304915 0 -6.7670750399979367e-06 0.058809616068316181 0 -0.0011397354857058519 0.056296149483400677 0 -0.0011500327983952204 0.056880216991606218 0 -0.00028138688664300013 0.051449939320015278 0 -1.2159926262123222e-06 0.0540271309450579 0 0.00014379610919001 0.055125250591304915 0 2.0446699323920749e-06 0.063197973704292337 0 0.00021521322931308205 0.062532143245458999 0 -3.4285285912740003e-06 0.059125129578673878 0 2.0446699323920749e-06 0.063197973704292337 0 0.00021521322931308205 0.062532143245458999 0 0.00051870018375600843 0.064199469180691832 0 -0.00036594641695767544 0.060212039364538693 0 -0.00072635567981496315 0.060736363734400167 0 -0.00073435577779730791 0.06002224951460311 0 0.00021521322931308205 0.062532143245458999 0 -0.00023184108517623517 0.059596806200421334 0 -0.0010474360718039156 0.063767672429086153 0 0.00021521322931308205 0.062532143245458999 0 -0.00023184108517623517 0.059596806200421334 0 -3.4285285912740003e-06 0.059125129578673878 0 5.4175086308613958e-05 0.059386846649050397 0 0.00091104366431641183 0.064567195033200547 0 5.4175086308613958e-05 0.059386846649050397 0 1.6683480534551414e-06 0.059122626924513838 0 0.00021521322931308205 0.062532143245458999 0 -0.0010474360718039156 0.063767672429086153 0 0.00035427698583807843 0.0642263348714181 0 0.00091104366431641183 0.064567195033200547 0 0.00082720107436713827 0.069436545088670268 0 0.00035427698583807843 0.0642263348714181 0 0.00041482604028904963 0.064102145508046757 0 0.00051870018375600843 0.064199469180691832 0 0.00021521322931308205 0.062532143245458999 0 0.00035427698583807843 0.0642263348714181 0 0.00051870018375600843 0.064199469180691832 0 0.00082720107436713827 0.069436545088670268 0 -0.00027890002623322778 0.073525876503556617 0 0.0027767360425522882 0.077307617630905184 0 0.0027691185215782616 0.077359271537465829 0 0.0028238570803387655 0.07733779445895507 0 0.0030222957445623496 0.065667179851673946 0 0.0032466405457299034 0.06544974619646543 0 0.0032606933677823313 0.065897047484765991 0 0.00091104366431641183 0.064567195033200547 0 0.0027635270252246436 0.069346057590525506 0 0.0027235976298898719 0.077254433267138767 0 0.0027767360425522882 0.077307617630905184 0 0.0027450331503607113 0.077355672732913841 0 0.0027767360425522882 0.077307617630905184 0 0.0027691185215782616 0.077359271537465829 0 0.0027450331503607113 0.077355672732913841 0 0.0029805683356407694 0.065964838109942803 0 0.0032606933677823313 0.065897047484765991 0 0.0032727744894988403 0.06634434577280976 0 0.0027450331503607113 0.077355672732913841 0 0.0027825429738840518 0.077379179404481968 0 0.0028299858913810806 0.077364655301657273 0 0.0027635270252246436 0.069346057590525506 0 0.0044900027468575505 0.070608895065797442 0 0.0027691185215782616 0.077359271537465829 0 0.0027450331503607113 0.077355672732913841 0 0.0027825429738840518 0.077379179404481968 0 0.0027825429738840518 0.077379179404481968 0 0.0027544348739965241 0.077407879358960291 0 0.0028333509298153494 0.077361923326674117 0 0.0027825429738840518 0.077379179404481968 0 0.0028299858913810806 0.077364655301657273 0 0.0028333509298153494 0.077361923326674117 0 0.0027691185215782616 0.077359271537465829 0 0.0027544348739965241 0.077407879358960291 0 0.0028238570803387655 0.07733779445895507 0 -0.0011095677615920246 0.076461945004168946 0 -0.00027890002623322778 0.073525876503556617 0 0.0027691185215782616 0.077359271537465829 0 0.0027825429738840518 0.077379179404481968 0 0.0027544348739965241 0.077407879358960291 0 -0.0049354422270078292 0.079699532532916922 0 -0.0045356570384052376 0.07978749793809263 0 -0.0043664384445829905 0.079292879090003029 0 -0.0049538349072904614 0.07904081686512085 0 -0.0049354422270078292 0.079699532532916922 0 -0.0043664384445829905 0.079292879090003029 0 -0.0049538349072904614 0.07904081686512085 0 -0.0049354422270078292 0.079699532532916922 0 -0.0055369936363119645 0.079772625242561943 0 -0.0049354422270078292 0.079699532532916922 0 -0.0049737594923022835 0.07952990043225569 0 -0.0045356570384052376 0.07978749793809263 0 -0.0049737594923022835 0.07952990043225569 0 -0.0045161432157052239 0.079989765577845706 0 -0.0045356570384052376 0.07978749793809263 0 -0.0049737594923022835 0.07952990043225569 0 -0.0045161432157052239 0.079989765577845706 0 -0.0048042561908582821 0.079681376155075381 0 -0.005154666459501492 0.078426716480365088 0 -0.0043569818037652334 0.079475596023086986 0 -0.0019889588285517735 0.079382344104038785 0 -0.0049737594923022835 0.07952990043225569 0 -0.005154666459501492 0.078426716480365088 0 -0.0048042561908582821 0.079681376155075381 0 -0.0049737594923022835 0.07952990043225569 0 -0.005154666459501492 0.078426716480365088 0 -0.0043569818037652334 0.079475596023086986 0 -0.0049737594923022835 0.07952990043225569 0 -0.0043569818037652334 0.079475596023086986 0 -0.00454589988345553 0.080329044036592703 0 -0.0007313169665099428 0.077425051952160165 0 -0.00048823196936601551 0.077177145540416839 0 -0.0043569818037652334 0.079475596023086986 0 -0.00454589988345553 0.080329044036592703 0 -0.0019889588285517735 0.079382344104038785 0 -0.0049354422270078292 0.079699532532916922 0 -0.0049737594923022835 0.07952990043225569 0 -0.00454589988345553 0.080329044036592703 0 -0.001733279389302922 0.077677421628053675 0 -0.0007313169665099428 0.077425051952160165 0 0.0027544348739965241 0.077407879358960291 0 0.0027764463074937593 0.077163009881599631 0 0.0028333509298153494 0.077361923326674117 0 -0.0011095677615920246 0.076461945004168946 0 -0.0007313169665099428 0.077425051952160165 0 0.0044811876821787052 0.070796039700361427 0 0.0044900027468575505 0.070608895065797442 0 0.0027764463074937593 0.077163009881599631 0 0.0029167880559653535 0.077395874113794602 0 0.0028333509298153494 0.077361923326674117 0 0.0029167880559653535 0.077395874113794602 0 0.0028525518948656551 0.077368970057295136 0 0.0028333509298153494 0.077361923326674117 0 0.0044900027468575505 0.070608895065797442 0 0.0044843004966552457 0.070622347661937701 0 -0.0007313169665099428 0.077425051952160165 0 0.0035381123199808916 0.077156026321891849 0 0.0043823950167270267 0.068964648880186413 0 0.0044900027468575505 0.070608895065797442 0 0.0048871075280780517 0.078313774767681102 0 0.0029167880559653535 0.077395874113794602 0 0.0029212191384076179 0.077834710236999491 0 0.0027764463074937593 0.077163009881599631 0 0.0029167880559653535 0.077395874113794602 0 0.0053041268428735367 0.076770762485338553 0 0.0048871075280780517 0.078313774767681102 0 0.0029167880559653535 0.077395874113794602 0 0.0053041268428735367 0.076770762485338553 0 0.0048871075280780517 0.078313774767681102 0 0.0066845586266496733 0.077576586682359144 0 0.0053041268428735367 0.076770762485338553 0 0.0082543807727703585 0.076410846555017786 0 0.0066845586266496733 0.077576586682359144 0 0.0053041268428735367 0.076770762485338553 0 0.0055873495962216512 0.074024727588809541 0 0.0045427219885178791 0.076335766667318297 0 0.0023834457856715579 0.076045550649602417 0 0.0045427219885178791 0.076335766667318297 0 0.0021613519181752899 0.078146473936731173 0 0.0023834457856715579 0.076045550649602417 0 -0.0018661540563049937 0.078586847890470796 0 0.0021613519181752899 0.078146473936731173 0 0.00016591681621579634 0.076384562871030237 0 0.0021613519181752899 0.078146473936731173 0 0.0023834457856715579 0.076045550649602417 0 0.00016591681621579634 0.076384562871030237 0 0.0023834457856715579 0.076045550649602417 0 0.00016591681621579634 0.076384562871030237 0 0.0020201454448009332 0.074376261157355128 0 -0.00048823196936601551 0.077177145540416839 0 0.00010046681736606616 0.076542047108147326 0 -0.005154666459501492 0.078426716480365088 0 -0.0019889588285517735 0.079382344104038785 0 -0.0024247203010259767 0.072931708262074929 0 -0.0019889588285517735 0.079382344104038785 0 -0.0024247203010259767 0.072931708262074929 0 0.0020201454448009332 0.074376261157355128 0 0.0055873495962216512 0.074024727588809541 0 0.0023834457856715579 0.076045550649602417 0 0.0020201454448009332 0.074376261157355128 0 0.0055873495962216512 0.074024727588809541 0 0.0020201454448009332 0.074376261157355128 0 0.0043257973385563159 0.070108880280247476 0 0.0021106563529103522 0.066060704657375166 0 0.0043257973385563159 0.070108880280247476 0 0.00099909639365813332 0.070042088224857399 0 0.0020201454448009332 0.074376261157355128 0 0.0043257973385563159 0.070108880280247476 0 0.00099909639365813332 0.070042088224857399 0 -0.0024247203010259767 0.072931708262074929 0 0.0020201454448009332 0.074376261157355128 0 0.00099909639365813332 0.070042088224857399 0 -0.0035139851750719629 0.065736372368673912 0 -0.0024247203010259767 0.072931708262074929 0 0.00099909639365813332 0.070042088224857399 0 -0.0035139851750719629 0.065736372368673912 0 -0.0024247203010259767 0.072931708262074929 0 -0.0075771732913224293 0.071432514158261226 0 0.00023210462315975856 0.073157670495595517 0 -0.0019760714495747128 0.074923098538292196 0 -0.0053030003114692397 0.081211640230064441 0 -0.004274970184253277 0.080847319851744967 0 -0.0042580692546950582 0.081883477301660262 0 -0.004820091659968443 0.082659755516330355 0 -0.0053030003114692397 0.081211640230064441 0 -0.0042580692546950582 0.081883477301660262 0 -0.0045161432157052239 0.079989765577845706 0 -0.004274970184253277 0.080847319851744967 0 -0.0048042561908582821 0.079681376155075381 0 -0.0053030003114692397 0.081211640230064441 0 -0.004274970184253277 0.080847319851744967 0 -0.0048042561908582821 0.079681376155075381 0 -0.005154666459501492 0.078426716480365088 0 -0.0024247203010259767 0.072931708262074929 0 -0.0075771732913224293 0.071432514158261226 0 -0.0023813543200848128 0.076023736775221396 0 -0.0019760714495747128 0.074923098538292196 0 -0.005154666459501492 0.078426716480365088 0 -0.0053030003114692397 0.081211640230064441 0 -0.0048042561908582821 0.079681376155075381 0 -0.0028619052928582898 0.081672114941940391 0 -0.0036398528223465505 0.08094371073567011 0 -0.0028279187057795251 0.080940480440105184 0 -0.0045161432157052239 0.079989765577845706 0 -0.004274970184253277 0.080847319851744967 0 -0.0036398528223465505 0.08094371073567011 0 -0.004274970184253277 0.080847319851744967 0 -0.0036398528223465505 0.08094371073567011 0 -0.0034524840612383109 0.081895909491570787 0 -0.004274970184253277 0.080847319851744967 0 -0.0042580692546950582 0.081883477301660262 0 -0.0034524840612383109 0.081895909491570787 0 -0.0028619052928582898 0.081672114941940391 0 -0.0036398528223465505 0.08094371073567011 0 -0.0034524840612383109 0.081895909491570787 0 -0.0028619052928582898 0.081672114941940391 0 -0.0034524840612383109 0.081895909491570787 0 -0.0025096162412200709 0.082304929052583353 0 -0.0028619052928582898 0.081672114941940391 0 -0.0025096162412200709 0.082304929052583353 0 -0.0020334785628760648 0.08219216441170539 0 -0.0015959999896874805 0.084332269987311068 0 -0.0020334785628760648 0.08219216441170539 0 -0.00073366462865466237 0.083715452163374962 0 -0.0020930467511031583 0.082626016595025137 0 -0.0025096162412200709 0.082304929052583353 0 -0.0020334785628760648 0.08219216441170539 0 -0.00098671359373615091 0.083110909262326574 0 -0.0012920047345524612 0.082678565249318076 0 -0.0020334785628760648 0.08219216441170539 0 -0.0018679786615688819 0.081313221734229904 0 -0.0010988491388707422 0.082184609290411145 0 -0.0020334785628760648 0.08219216441170539 0 -0.0010988491388707422 0.082184609290411145 0 -0.00073366462865466237 0.083715452163374962 0 -0.0020334785628760648 0.08219216441170539 0 -0.0028279187057795251 0.080940480440105184 0 -0.0018679786615688819 0.081313221734229904 0 -0.0028619052928582898 0.081672114941940391 0 -0.0020334785628760648 0.08219216441170539 0 -0.0028279187057795251 0.080940480440105184 0 -0.0028279187057795251 0.080940480440105184 0 -0.0018679786615688819 0.081313221734229904 0 -0.0020158273250358806 0.080327684778006003 0 -0.0018679786615688819 0.081313221734229904 0 -0.0011734087601564626 0.080863791779449093 0 -0.0020158273250358806 0.080327684778006003 0 -0.0018679786615688819 0.081313221734229904 0 -0.0011734087601564626 0.080863791779449093 0 -0.0010988491388707422 0.082184609290411145 0 -0.001029319439551576 0.079956741692921524 0 -0.0020158273250358806 0.080327684778006003 0 -0.0015895358243439124 0.079109712929725573 0 -0.0011734087601564626 0.080863791779449093 0 -0.001029319439551576 0.079956741692921524 0 -0.0020158273250358806 0.080327684778006003 0 -0.0011734087601564626 0.080863791779449093 0 -0.001029319439551576 0.079956741692921524 0 -0.00065961517707744798 0.080420068513407689 0 -0.0028279187057795251 0.080940480440105184 0 -0.0020158273250358806 0.080327684778006003 0 -0.0031161142589285853 0.079603648373565206 0 -0.0020158273250358806 0.080327684778006003 0 -0.0031161142589285853 0.079603648373565206 0 -0.0015895358243439124 0.079109712929725573 0 -0.0031161142589285853 0.079603648373565206 0 -0.0039365048145989573 0.080049785352608066 0 -0.0043664384445829905 0.079292879090003029 0 -0.0028279187057795251 0.080940480440105184 0 -0.0031161142589285853 0.079603648373565206 0 -0.0039365048145989573 0.080049785352608066 0 -0.0036398528223465505 0.08094371073567011 0 -0.0028279187057795251 0.080940480440105184 0 -0.0039365048145989573 0.080049785352608066 0 -0.0045161432157052239 0.079989765577845706 0 -0.0036398528223465505 0.08094371073567011 0 -0.0039365048145989573 0.080049785352608066 0 -0.0045161432157052239 0.079989765577845706 0 -0.0039365048145989573 0.080049785352608066 0 -0.0045356570384052376 0.07978749793809263 0 -0.0039365048145989573 0.080049785352608066 0 -0.0045356570384052376 0.07978749793809263 0 -0.0043664384445829905 0.079292879090003029 0 -0.0049538349072904614 0.07904081686512085 0 -0.0043664384445829905 0.079292879090003029 0 -0.0044359290001810894 0.078308191832987706 0 -0.0043664384445829905 0.079292879090003029 0 -0.0037955696060580886 0.078533252576888424 0 -0.0044359290001810894 0.078308191832987706 0 -0.0031161142589285853 0.079603648373565206 0 -0.0043664384445829905 0.079292879090003029 0 -0.0037955696060580886 0.078533252576888424 0 -0.0031161142589285853 0.079603648373565206 0 -0.0037955696060580886 0.078533252576888424 0 -0.0020031525061249417 0.077553509712128141 0 -0.0037955696060580886 0.078533252576888424 0 -0.0039431579731160418 0.074849738572672589 0 -0.0020031525061249417 0.077553509712128141 0 -0.0037955696060580886 0.078533252576888424 0 -0.0060037486308015999 0.077406193584732275 0 -0.0039431579731160418 0.074849738572672589 0 -0.00027890002623322778 0.073525876503556617 0 -0.00028400659305577805 0.071401748617319585 0 -0.0011786611127598166 0.074020214734833084 0 -0.00027890002623322778 0.073525876503556617 0 0.00041482604028904963 0.064102145508046757 0 0.00051870018375600843 0.064199469180691832 0 -0.00022087683257804425 0.065087675802135828 0 -0.00022087683257804425 0.065087675802135828 0 9.3019268794400281e-07 0.067102347697049911 0 -2.513323862042973e-06 0.070998959463682287 0 0.00051870018375600843 0.064199469180691832 0 -0.00022087683257804425 0.065087675802135828 0 9.3019268794400281e-07 0.067102347697049911 0 2.0446699323920749e-06 0.063197973704292337 0 0.00051870018375600843 0.064199469180691832 0 9.3019268794400281e-07 0.067102347697049911 0 0.00029403400864120069 0.073893336044050656 0 -5.1972105946882262e-06 0.071015653545331486 0 -0.00013331179979671632 0.074782373085380618 0 0.00029403400864120069 0.073893336044050656 0 -5.1972105946882262e-06 0.071015653545331486 0 3.7287841881707106e-06 0.075151182785203025 0 -5.1972105946882262e-06 0.071015653545331486 0 -0.0013125745646576797 0.075152558551772233 0 -0.00013331179979671632 0.074782373085380618 0 -0.0039431579731160418 0.074849738572672589 0 -5.1972105946882262e-06 0.071015653545331486 0 -0.0013125745646576797 0.075152558551772233 0 -0.00028400659305577805 0.071401748617319585 0 8.3213689703256969e-08 0.071004276041789077 0 -0.0039431579731160418 0.074849738572672589 0 -0.0013125745646576797 0.075152558551772233 0 -0.0020031525061249417 0.077553509712128141 0 -0.0013125745646576797 0.075152558551772233 0 -0.00050961730408958313 0.076003868869128952 0 -0.00013331179979671632 0.074782373085380618 0 0.00029403400864120069 0.073893336044050656 0 -0.00013331179979671632 0.074782373085380618 0 0.00068938379207610491 0.074530179145361419 0 -0.00050961730408958313 0.076003868869128952 0 -0.00013331179979671632 0.074782373085380618 0 0.00068938379207610491 0.074530179145361419 0 -0.00050961730408958313 0.076003868869128952 0 -0.00014682732065451827 0.077771336975623051 0 -0.0020031525061249417 0.077553509712128141 0 -0.00050961730408958313 0.076003868869128952 0 -0.00014682732065451827 0.077771336975623051 0 0.00068938379207610491 0.074530179145361419 0 -0.0013125745646576797 0.075152558551772233 0 -0.00050961730408958313 0.076003868869128952 0 -0.0020031525061249417 0.077553509712128141 0 -0.0031161142589285853 0.079603648373565206 0 -0.0020031525061249417 0.077553509712128141 0 -0.0015895358243439124 0.079109712929725573 0 -0.00014682732065451827 0.077771336975623051 0 -0.0020031525061249417 0.077553509712128141 0 -0.0015895358243439124 0.079109712929725573 0 -0.00014682732065451827 0.077771336975623051 0 -0.0015895358243439124 0.079109712929725573 0 -0.00057406946974810724 0.079092999645413928 0 -0.001029319439551576 0.079956741692921524 0 -0.0015895358243439124 0.079109712929725573 0 -0.00057406946974810724 0.079092999645413928 0 -0.00057406946974810724 0.079092999645413928 0 -0.00022633911513801256 0.079841617801539422 0 0.00048429177683131881 0.079096281334685839 0 -0.001029319439551576 0.079956741692921524 0 -0.00057406946974810724 0.079092999645413928 0 -0.00022633911513801256 0.079841617801539422 0 -0.00060919399538320994 0.0804110546945698 0 -0.000377932324043145 0.080643083994285533 0 -0.0004536264475326688 0.080340151176160904 0 -0.00022633911513801256 0.079841617801539422 0 -0.00052136713720737232 0.080258285444651023 0 -0.0004536264475326688 0.080340151176160904 0 -0.00052136713720737232 0.080258285444651023 0 -0.00060919399538320994 0.0804110546945698 0 -0.0004536264475326688 0.080340151176160904 0 0.00017061857897251987 0.080001723425954546 0 0.00019837312085491218 0.079987010715532075 0 -0.00052136713720737232 0.080258285444651023 0 -0.00066828377213669116 0.080422339874855059 0 -0.00060919399538320994 0.0804110546945698 0 -0.00022633911513801256 0.079841617801539422 0 -0.00052136713720737232 0.080258285444651023 0 -0.00066828377213669116 0.080422339874855059 0 -0.00014682732065451827 0.077771336975623051 0 -0.00057406946974810724 0.079092999645413928 0 0.00048429177683131881 0.079096281334685839 0 -0.00060919399538320994 0.0804110546945698 0 -0.00013266388510405096 0.081084181720495654 0 -0.00018548494479326335 0.080251653364483116 0 0.00019837312085491218 0.079987010715532075 0 0.00030666242726720152 0.081066684118245427 0 -0.00060919399538320994 0.0804110546945698 0 -0.00013266388510405096 0.081084181720495654 0 -0.00043299320401577384 0.08274760303063293 0 -0.00066828377213669116 0.080422339874855059 0 -0.00060919399538320994 0.0804110546945698 0 -0.00018548494479326335 0.080251653364483116 0 -0.00020413696632413963 0.080176990959039199 0 0.00013137947098781729 0.079913334189371479 0 -0.00033287000345815789 0.079878127185977935 0 0.00019837312085491218 0.079987010715532075 0 9.363198207204284e-05 0.078346186465313244 0 2.3503148707351557e-06 0.076349145931295895 0 4.1914917686685572e-05 0.075785200943823017 0 -0.00014682732065451827 0.077771336975623051 0 0.00048429177683131881 0.079096281334685839 0 0.00049357278975929199 0.076704350013242981 0 0.00049357278975929199 0.076704350013242981 0 0.00015995670998085712 0.0765099268164742 0 2.6966546222907223e-06 0.076755056669707056 0 -0.00014682732065451827 0.077771336975623051 0 0.00049357278975929199 0.076704350013242981 0 0.00015995670998085712 0.0765099268164742 0 -0.00033287000345815789 0.079878127185977935 0 0.00046962352567072788 0.079730935198237665 0 -1.7531373986254296e-06 0.076773834685339798 0 0.00013137947098781729 0.079913334189371479 0 -0.00033287000345815789 0.079878127185977935 0 0.00046962352567072788 0.079730935198237665 0 0.00046962352567072788 0.079730935198237665 0 1.752046711460721e-06 0.079633958248423592 0 -1.7531373986254296e-06 0.076773834685339798 0 4.1914917686685572e-05 0.075785200943823017 0 2.2671813265477199e-07 0.075161401822756047 0 0.00015995670998085712 0.0765099268164742 0 2.6966546222907223e-06 0.076755056669707056 0 -2.5032801427990964e-06 0.075172696619203158 0 9.363198207204284e-05 0.078346186465313244 0 2.3883393305040201e-07 0.07676850038126784 0 0.00029403400864120069 0.073893336044050656 0 0.00068938379207610491 0.074530179145361419 0 3.7287841881707106e-06 0.075151182785203025 0 -2.1683857718924672e-05 0.084399641216617194 0 -2.2288161923490687e-06 0.082509286136584203 0 -0.0011772721884230983 0.086347498351729529 0 -2.1683857718924672e-05 0.084399641216617194 0 4.9017729375951251e-07 0.084996670395748278 0 1.2558028582598241e-06 0.08499996411682316 0 1.8791076977112641e-07 0.082503103239313078 0 0.00020533235359877531 0.082856264421682979 0 -2.1683857718924672e-05 0.084399641216617194 0 4.9017729375951251e-07 0.084996670395748278 0 -2.2288161923490687e-06 0.082509286136584203 0 -1.7422290992813105e-06 0.082497343264713363 0 0.00032181061430413866 0.080521549183662444 0 -0.00011424926964048992 0.079344086021620089 0 0.00046962352567072788 0.079730935198237665 0 1.752046711460721e-06 0.079633958248423592 0 0.00032181061430413866 0.080521549183662444 0 1.752046711460721e-06 0.079633958248423592 0 -1.7422290992813105e-06 0.082497343264713363 0 0.00032181061430413866 0.080521549183662444 0 0.00013137947098781729 0.079913334189371479 0 0.00046962352567072788 0.079730935198237665 0 -0.00011424926964048992 0.079344086021620089 0 0.00046962352567072788 0.079730935198237665 0 0.00032181061430413866 0.080521549183662444 0 -0.00011424926964048992 0.079344086021620089 0 1.5296278160208992e-05 0.085005335444199623 0 -4.4257258755218083e-08 0.084999957313617439 0 1.0335549063463859e-07 0.085000113621750251 0 -2.1683857718924672e-05 0.084399641216617194 0 -0.0011772721884230983 0.086347498351729529 0 1.2558028582598241e-06 0.08499996411682316 0 0.00020533235359877531 0.082856264421682979 0 -1.3593204014378593e-06 0.084996308507584412 0 1.5296278160208992e-05 0.085005335444199623 0 1.0335549063463859e-07 0.085000113621750251 0 0.00010711623265449907 0.085062469397372706 0 0.00030666242726720152 0.081066684118245427 0 0.00020533235359877531 0.082856264421682979 0 0.00020533235359877531 0.082856264421682979 0 0.00033941030662201213 0.083143606277465781 0 -0.00018548494479326335 0.080251653364483116 0 0.0010640401568501581 0.079329942535497341 0 0.0010298138340760743 0.081231339087161111 0 -0.00013266388510405096 0.081084181720495654 0 0.0010298138340760743 0.081231339087161111 0 -0.00043299320401577384 0.08274760303063293 0 -0.00013266388510405096 0.081084181720495654 0 -0.00018548494479326335 0.080251653364483116 0 0.0010298138340760743 0.081231339087161111 0 1.0335549063463859e-07 0.085000113621750251 0 0.00010711623265449907 0.085062469397372706 0 -9.443375091676687e-08 0.084999935293238557 0 0.00010711623265449907 0.085062469397372706 0 9.4805182272737456e-05 0.084836946684074294 0 0.00028270778036057416 0.084425900522848665 0 -9.443375091676687e-08 0.084999935293238557 0 9.4805182272737456e-05 0.084836946684074294 0 0.00012772499442181379 0.084804284030223137 0 0.00010711623265449907 0.085062469397372706 0 -9.443375091676687e-08 0.084999935293238557 0 9.4805182272737456e-05 0.084836946684074294 0 -9.443375091676687e-08 0.084999935293238557 0 3.8789643783773429e-07 0.084999575697278285 0 0.00012772499442181379 0.084804284030223137 0 3.8789643783773429e-07 0.084999575697278285 0 0.00012772499442181379 0.084804284030223137 0 0.00031743649921051379 0.084933467547279623 0 9.4805182272737456e-05 0.084836946684074294 0 0.00012772499442181379 0.084804284030223137 0 0.00028270778036057416 0.084425900522848665 0 0.00012772499442181379 0.084804284030223137 0 0.00031743649921051379 0.084933467547279623 0 0.00028270778036057416 0.084425900522848665 0 0.00010133397669589934 0.082495931651933599 0 0.00069740679776848498 0.082811055443056794 0 0.00012032165066924682 0.080948009184899 0 -9.1988437036746989e-05 0.083783552475300685 0 -0.00035101937570665529 0.082650382622669688 0 0.00031743649921051379 0.084933467547279623 0 0.00028270778036057416 0.084425900522848665 0 -0.00043299320401577384 0.08274760303063293 0 0.00010133397669589934 0.082495931651933599 0 0.00069740679776848498 0.082811055443056794 0 0.00031384149494530027 0.083172254648734775 0 0.00033941030662201213 0.083143606277465781 0 0.00033864552845859367 0.08361520445953699 0 0.0010298138340760743 0.081231339087161111 0 0.00028270778036057416 0.084425900522848665 0 -0.00043299320401577384 0.08274760303063293 0 -0.00056226162343356691 0.082073233247973984 0 -0.00035101937570665529 0.082650382622669688 0 -0.00060919399538320994 0.0804110546945698 0 -0.000377932324043145 0.080643083994285533 0 0.00012032165066924682 0.080948009184899 0 -0.000377932324043145 0.080643083994285533 0 0.00012032165066924682 0.080948009184899 0 -0.00023669446774783742 0.081630406507974262 0 -0.00022633911513801256 0.079841617801539422 0 -0.00065961517707744798 0.080420068513407689 0 -0.0004536264475326688 0.080340151176160904 0 -0.001029319439551576 0.079956741692921524 0 -0.00022633911513801256 0.079841617801539422 0 -0.00065961517707744798 0.080420068513407689 0 -0.000377932324043145 0.080643083994285533 0 -0.00065961517707744798 0.080420068513407689 0 -0.0004536264475326688 0.080340151176160904 0 -0.000377932324043145 0.080643083994285533 0 -0.00065961517707744798 0.080420068513407689 0 -0.00064108768436636863 0.081423254109734625 0 -0.0011734087601564626 0.080863791779449093 0 -0.00065961517707744798 0.080420068513407689 0 -0.00064108768436636863 0.081423254109734625 0 -0.00064108768436636863 0.081423254109734625 0 -0.00034582632973445792 0.08253660873042426 0 -0.0010988491388707422 0.082184609290411145 0 -0.0011734087601564626 0.080863791779449093 0 -0.00064108768436636863 0.081423254109734625 0 -0.0010988491388707422 0.082184609290411145 0 0.00010133397669589934 0.082495931651933599 0 0.00012032165066924682 0.080948009184899 0 -0.00023669446774783742 0.081630406507974262 0 -0.000377932324043145 0.080643083994285533 0 -0.00064108768436636863 0.081423254109734625 0 -0.00023669446774783742 0.081630406507974262 0 -0.00064108768436636863 0.081423254109734625 0 -0.00023669446774783742 0.081630406507974262 0 -0.00034582632973445792 0.08253660873042426 0 0.00010133397669589934 0.082495931651933599 0 -0.00023669446774783742 0.081630406507974262 0 -0.00034582632973445792 0.08253660873042426 0 0.00010133397669589934 0.082495931651933599 0 -0.00034582632973445792 0.08253660873042426 0 0.00012646634238905558 0.083542064460672763 0 -0.00034582632973445792 0.08253660873042426 0 -0.00039188904151074924 0.083305346735188204 0 0.00012646634238905558 0.083542064460672763 0 -0.00034582632973445792 0.08253660873042426 0 -0.0010988491388707422 0.082184609290411145 0 -0.00039188904151074924 0.083305346735188204 0 -0.0010988491388707422 0.082184609290411145 0 -0.00073366462865466237 0.083715452163374962 0 -0.00039188904151074924 0.083305346735188204 0 -0.00073366462865466237 0.083715452163374962 0 -0.00039188904151074924 0.083305346735188204 0 -1.1467434530431403e-05 0.084120502687826129 0 -0.00039188904151074924 0.083305346735188204 0 -1.1467434530431403e-05 0.084120502687826129 0 0.00012646634238905558 0.083542064460672763 0 -1.1467434530431403e-05 0.084120502687826129 0 0.00023235933272349146 0.084475338091607205 0 0.00012646634238905558 0.083542064460672763 0 0.00023235933272349146 0.084475338091607205 0 0.00012646634238905558 0.083542064460672763 0 0.00030830199641885663 0.083880721402036715 0 -1.0292828412415394e-07 0.085000135791758177 0 0.00023235933272349146 0.084475338091607205 0 1.7738165952094615e-06 0.084997004745848495 0 0.00023235933272349146 0.084475338091607205 0 1.7738165952094615e-06 0.084997004745848495 0 0.00030830199641885663 0.083880721402036715 0 -9.1988437036746989e-05 0.083783552475300685 0 3.3587882846519404e-07 0.084998015015442963 0 0.00069740679776848498 0.082811055443056794 0 1.7738165952094615e-06 0.084997004745848495 0 0.00030830199641885663 0.083880721402036715 0 3.8789643783773429e-07 0.084999575697278285 0 0.00031743649921051379 0.084933467547279623 0 -1.2498893107241676e-07 0.08499994383393554 0 0.00069740679776848498 0.082811055443056794 0 0.00031384149494530027 0.083172254648734775 0 0.00030830199641885663 0.083880721402036715 0 0.00010133397669589934 0.082495931651933599 0 0.00031384149494530027 0.083172254648734775 0 0.00012646634238905558 0.083542064460672763 0 0.00031384149494530027 0.083172254648734775 0 0.00012646634238905558 0.083542064460672763 0 0.00030830199641885663 0.083880721402036715 0 -0.012092882996462783 0.036157433808195395 0 -0.011136962375149887 0.034503163762995198 0 -0.01739604404069383 0.051272613357963619 0 -0.017348765765869006 0.051616621403858455 0 -0.018087141230144876 0.053848090449505941 0 -0.017348765765869006 0.051616621403858455 0 -0.018087141230144876 0.053848090449505941 0 -0.01704556080799503 0.052538746204807696 0 -0.0097768405245027938 0.018774480065103322 0 -0.0047838503129205828 0.01719805833071605 0 -0.0074896933860141342 0.013387160093767208 0 -0.0047838503129205828 0.01719805833071605 0 -0.0048466288335718422 0.022285271074167574 0 -0.00015850880689166692 0.01793718014403909 0 -0.0074896933860141342 0.013387160093767208 0 -0.0023821463941793284 0.013114103515350747 0 -0.0040424109020086585 0.010302028360002552 0 -0.0047838503129205828 0.01719805833071605 0 -0.0020173690143387565 0.015650191031802492 0 -0.0023821463941793284 0.013114103515350747 0 -0.0047838503129205828 0.01719805833071605 0 -0.0074896933860141342 0.013387160093767208 0 -0.0023821463941793284 0.013114103515350747 0 -0.018087141230144876 0.053848090449505941 0 -0.016681098382825537 0.053111298694564921 0 -0.01704556080799503 0.052538746204807696 0 -0.018087141230144876 0.053848090449505941 0 -0.016681098382825537 0.053111298694564921 0 -0.017061983337893334 0.054510977515678953 0 -0.016681098382825537 0.053111298694564921 0 -0.014802688405857016 0.052531216668969087 0 -0.017061983337893334 0.054510977515678953 0 -0.015403902508182179 0.0517070055829527 0 -0.016873580521875417 0.051135052867432494 0 -0.014530588358052017 0.053913065042488113 0 -0.0139069070669245 0.057437101668688727 0 -0.017228673531885823 0.057495658103916845 0 -0.014530588358052017 0.053913065042488113 0 -0.0139069070669245 0.057437101668688727 0 -0.011431186629860311 0.055416200600869991 0 -0.014530588358052017 0.053913065042488113 0 -0.011431186629860311 0.055416200600869991 0 -0.011488826407658857 0.049783481413087409 0 -0.015403902508182179 0.0517070055829527 0 -0.013904227097529663 0.050600013745376711 0 -0.014802688405857016 0.052531216668969087 0 -0.016028573129195693 0.051012653765282592 0 -0.014633555626790603 0.049765520675949915 0 -0.017348765765869006 0.051616621403858455 0 -0.01704556080799503 0.052538746204807696 0 -0.01668979036315953 0.051851830295445822 0 -0.016681098382825537 0.053111298694564921 0 -0.01626498803671492 0.052233943696513865 0 -0.01704556080799503 0.052538746204807696 0 -0.01626498803671492 0.052233943696513865 0 -0.01704556080799503 0.052538746204807696 0 -0.01668979036315953 0.051851830295445822 0 -0.016681098382825537 0.053111298694564921 0 -0.014802688405857016 0.052531216668969087 0 -0.01626498803671492 0.052233943696513865 0 -0.014802688405857016 0.052531216668969087 0 -0.01626498803671492 0.052233943696513865 0 -0.016028573129195693 0.051012653765282592 0 -0.01626498803671492 0.052233943696513865 0 -0.016028573129195693 0.051012653765282592 0 -0.01668979036315953 0.051851830295445822 0 -0.017348765765869006 0.051616621403858455 0 -0.016028573129195693 0.051012653765282592 0 -0.01668979036315953 0.051851830295445822 0 -0.016028573129195693 0.051012653765282592 0 -0.014633555626790603 0.049765520675949915 0 -0.016571347349687248 0.047650206027390417 0 -0.017348765765869006 0.051616621403858455 0 -0.016028573129195693 0.051012653765282592 0 -0.016571347349687248 0.047650206027390417 0 -0.01739604404069383 0.051272613357963619 0 -0.017348765765869006 0.051616621403858455 0 -0.016378731851653575 0.048342384556614514 0 -0.015446199820128185 0.046818624669411467 0 -0.012788747241173855 0.039695816119055601 0 -0.012092882996462783 0.036157433808195395 0 -0.012788747241173855 0.039695816119055601 0 -0.014802688405857016 0.052531216668969087 0 -0.014633555626790603 0.049765520675949915 0 -0.011488826407658857 0.049783481413087409 0 -0.014633555626790603 0.049765520675949915 0 -0.013737639166963697 0.047191489502089304 0 -0.011488826407658857 0.049783481413087409 0 -0.014633555626790603 0.049765520675949915 0 -0.013737639166963697 0.047191489502089304 0 -0.016571347349687248 0.047650206027390417 0 -0.013737639166963697 0.047191489502089304 0 -0.010849000397907036 0.046639917947480382 0 -0.012631801472159001 0.04415446877161551 0 -0.013737639166963697 0.047191489502089304 0 -0.016571347349687248 0.047650206027390417 0 -0.015914980486354879 0.044595908789042536 0 -0.012788747241173855 0.039695816119055601 0 -0.0098312553749768609 0.034984258179697067 0 -0.012056461733062631 0.024255823211571614 0 -0.0096305792052159452 0.026635581947277498 0 -0.013364924469351966 0.027920150377776867 0 -0.0096305792052159452 0.026635581947277498 0 -0.0088139254653221023 0.022629630852876444 0 -0.0048466288335718422 0.022285271074167574 0 -0.012056461733062631 0.024255823211571614 0 -0.0096305792052159452 0.026635581947277498 0 -0.0088139254653221023 0.022629630852876444 0 -0.0063852728532413075 0.028281741169392725 0 -0.0049478063221875031 0.02428967473745659 0 -0.0097768405245027938 0.018774480065103322 0 -0.0088139254653221023 0.022629630852876444 0 -0.0048466288335718422 0.022285271074167574 0 -0.0097768405245027938 0.018774480065103322 0 -0.012056461733062631 0.024255823211571614 0 -0.0088139254653221023 0.022629630852876444 0 -0.0097768405245027938 0.018774480065103322 0 -0.0047838503129205828 0.01719805833071605 0 -0.0048466288335718422 0.022285271074167574 0 -0.0028743466234386755 0.030794883507341331 0 -0.0038392647228500686 0.031412913690794186 0 -0.0038328855538098355 0.030662883190273355 0 -0.0038392647228500686 0.031412913690794186 0 -0.0044746583569047482 0.030977943244922698 0 -0.0038328855538098355 0.030662883190273355 0 -0.004602613542079974 0.030165134416830497 0 -0.0047779987389985614 0.030426209973514702 0 -0.004687382806020224 0.027912801741422171 0 0.00048251585750147438 0.00041688848444169186 0 0.00063186174437679431 0.00078350160920085668 0 0.0004094241395504332 0.00093914572201132069 0 0.00063186174437679431 0.00078350160920085668 0 0.00054783614385995791 0.00042775394815180518 0 0.00091755700926282981 0.0011077675633603195 0 0.00054783614385995791 0.00042775394815180518 0 -0.0012519984756546216 -0.00078771245987679635 0 -0.00085080425862241475 -0.0038210957706777309 0 0.00054783614385995791 0.00042775394815180518 0 -0.00060543210352514932 -0.0041083802056441918 0 -0.00085080425862241475 -0.0038210957706777309 0 0.00041948998548105499 -0.00084245101898153371 0 0.00022887245499648585 -0.0014100260504377349 0 0.00063186174437679431 0.00078350160920085668 0 0.0005498635856168129 0.0010152213963505077 0 0.0004094241395504332 0.00093914572201132069 0 0.00063186174437679431 0.00078350160920085668 0 0.00069499328548523634 0.0010116574924230745 0 0.0005498635856168129 0.0010152213963505077 0 0.00048251585750147438 0.00041688848444169186 0 0.00063186174437679431 0.00078350160920085668 0 0.00054783614385995791 0.00042775394815180518 0 0.00054783614385995791 0.00042775394815180518 0 -0.0012519984756546216 -0.00078771245987679635 0 -0.00072258473445372241 0.0018708418723918404 0 0.00054783614385995791 0.00042775394815180518 0 0.00067554773305146271 0.0013093752455041526 0 -0.00072258473445372241 0.0018708418723918404 0 -0.0038392647228500686 0.031412913690794186 0 -0.0045787051713631578 0.031948095901234354 0 -0.0047944188803770611 0.032272125821877766 0 -0.0047779987389985614 0.030426209973514702 0 -0.0045787051713631578 0.031948095901234354 0 -0.0047944188803770611 0.032272125821877766 0 -0.0034308228644502141 0.02708180194456598 0 -0.0037254943743419006 0.029539286058780957 0 -0.0049478063221875031 0.02428967473745659 0 -0.00091048859149135729 0.015970837803691584 0 -0.0038392647228500686 0.031412913690794186 0 -0.0044746583569047482 0.030977943244922698 0 -0.0045787051713631578 0.031948095901234354 0 -0.0017090952992046414 0.015851465166000885 0 -0.00091048859149135729 0.015970837803691584 0 0.00048251585750147438 0.00041688848444169186 0 0.00067554773305146271 0.0013093752455041526 0 0.0012031789463459654 0.0018645881378817255 0 0.00048251585750147438 0.00041688848444169186 0 0.00054783614385995791 0.00042775394815180518 0 0.00067554773305146271 0.0013093752455041526 0 -0.004602613542079974 0.030165134416830497 0 -0.0047779987389985614 0.030426209973514702 0 -0.0045787051713631578 0.031948095901234354 0 -0.0012203857582128476 -0.0040015855470714942 0 -0.0010913223203561665 -0.0041555287777307682 0 -0.0014841777702220412 -0.0042609289488192469 0 -0.0025832803389223146 -0.0023152215637256453 0 -0.0018308306598908007 -0.0030951196090210405 0 -0.0012519984756546216 -0.00078771245987679635 0 -0.0034998612832904913 -4.4881372251769251e-05 0 -0.00085080425862241475 -0.0038210957706777309 0 -0.0012203857582128476 -0.0040015855470714942 0 -0.0010913223203561665 -0.0041555287777307682 0 -0.00085080425862241475 -0.0038210957706777309 0 -0.0012519984756546216 -0.00078771245987679635 0 -0.0034998612832904913 -4.4881372251769251e-05 0 -0.0027105881790482926 0.0018532433906753177 0 -0.0012519984756546216 -0.00078771245987679635 0 -0.0027105881790482926 0.0018532433906753177 0 -0.00072258473445372241 0.0018708418723918404 0 -0.0034998612832904913 -4.4881372251769251e-05 0 -0.0027105881790482926 0.0018532433906753177 0 -0.0050939810369927518 0.0026241316572515674 0 -0.0025832803389223146 -0.0023152215637256453 0 -0.0038762896879312465 -0.0012694517552527239 0 -0.0027105881790482926 0.0018532433906753177 0 -0.0020658502052644367 0.0037658293564733049 0 -0.0050939810369927518 0.0026241316572515674 0 -0.0027105881790482926 0.0018532433906753177 0 -0.0020658502052644367 0.0037658293564733049 0 -0.00072258473445372241 0.0018708418723918404 0 -0.0020658502052644367 0.0037658293564733049 0 -0.00072258473445372241 0.0018708418723918404 0 -0.00036504472902219951 0.0033158974763796358 0 -0.0020658502052644367 0.0037658293564733049 0 -0.00048009378065185648 0.0049055332397392269 0 -0.0015553867252687788 0.0059219920123680337 0 -0.0020658502052644367 0.0037658293564733049 0 -0.003581540121130954 0.0053515452448153113 0 -0.0015553867252687788 0.0059219920123680337 0 -0.0020658502052644367 0.0037658293564733049 0 -0.00036504472902219951 0.0033158974763796358 0 -0.00048009378065185648 0.0049055332397392269 0 -0.0020658502052644367 0.0037658293564733049 0 -0.003581540121130954 0.0053515452448153113 0 -0.0050939810369927518 0.0026241316572515674 0 -0.0047838503129205828 0.01719805833071605 0 -0.0020173690143387565 0.015650191031802492 0 -0.00015850880689166692 0.01793718014403909 0 0.0013280569701740318 0.0019275546103318668 0 0.0010518638251874818 0.0021759117769210193 0 0.00098257613283981747 0.0049638390439938158 0 0.00067554773305146271 0.0013093752455041526 0 0.0012031789463459654 0.0018645881378817255 0 0.0010518638251874818 0.0021759117769210193 0 -0.00091048859149135729 0.015970837803691584 0 -0.00082419255203891736 0.015852135533681443 0 0.00067554773305146271 0.0013093752455041526 0 0.00023944426296527158 0.0023267759496644557 0 -0.00072258473445372241 0.0018708418723918404 0 0.00067554773305146271 0.0013093752455041526 0 0.0010518638251874818 0.0021759117769210193 0 0.00023944426296527158 0.0023267759496644557 0 0.00023944426296527158 0.0023267759496644557 0 -0.00072258473445372241 0.0018708418723918404 0 -0.00036504472902219951 0.0033158974763796358 0 0.0010518638251874818 0.0021759117769210193 0 0.00023944426296527158 0.0023267759496644557 0 0.00035186952205006256 0.0029654989410128709 0 0.0010518638251874818 0.0021759117769210193 0 0.00035186952205006256 0.0029654989410128709 0 0.00039680404030700719 0.0038630484691339262 0 0.00023944426296527158 0.0023267759496644557 0 0.00035186952205006256 0.0029654989410128709 0 -0.00036504472902219951 0.0033158974763796358 0 0.0010518638251874818 0.0021759117769210193 0 0.00039680404030700719 0.0038630484691339262 0 0.00098257613283981747 0.0049638390439938158 0 0.00035186952205006256 0.0029654989410128709 0 0.00039680404030700719 0.0038630484691339262 0 -0.00036504472902219951 0.0033158974763796358 0 0.00039680404030700719 0.0038630484691339262 0 -0.00036504472902219951 0.0033158974763796358 0 -0.00048009378065185648 0.0049055332397392269 0 0.00039680404030700719 0.0038630484691339262 0 -0.00048009378065185648 0.0049055332397392269 0 0.00098257613283981747 0.0049638390439938158 0 -0.00091048859149135729 0.015970837803691584 0 -2.7223249230570132e-05 0.010448558747116999 0 -0.0020173690143387565 0.015650191031802492 0 -0.00015850880689166692 0.01793718014403909 0 0.00028136584583266248 0.012437798324138639 0 -0.0020173690143387565 0.015650191031802492 0 0.00028136584583266248 0.012437798324138639 0 -0.0023821463941793284 0.013114103515350747 0 0.00028136584583266248 0.012437798324138639 0 -0.0023821463941793284 0.013114103515350747 0 -0.0015135028519377891 0.010403568487675567 0 -0.0023821463941793284 0.013114103515350747 0 -0.0015135028519377891 0.010403568487675567 0 -0.0032713562170561005 0.010632815193764564 0 0.00028136584583266248 0.012437798324138639 0 -0.0015135028519377891 0.010403568487675567 0 6.0037077982118526e-05 0.0079515864279067778 0 -0.0015135028519377891 0.010403568487675567 0 -0.001579720039514946 0.0087396648117573153 0 -0.00259355641897861 0.0093408419600610922 0 0.00098257613283981747 0.0049638390439938158 0 -0.00043955950557735788 0.0064258589648926636 0 6.0037077982118526e-05 0.0079515864279067778 0 -2.7223249230570132e-05 0.010448558747116999 0 0.00013082302715537294 0.0092111954774948112 0 -0.00043955950557735788 0.0064258589648926636 0 -0.00081287077075410641 0.0077720389046053101 0 -0.0015553867252687788 0.0059219920123680337 0 -0.00048009378065185648 0.0049055332397392269 0 0.00098257613283981747 0.0049638390439938158 0 -0.00043955950557735788 0.0064258589648926636 0 -0.00048009378065185648 0.0049055332397392269 0 -0.00043955950557735788 0.0064258589648926636 0 -0.0015553867252687788 0.0059219920123680337 0 -0.00081287077075410641 0.0077720389046053101 0 -0.0019084115167908304 0.0081558407878363545 0 -0.00016713500753226808 0.0078212500846228002 0 -0.00043955950557735788 0.0064258589648926636 0 6.0037077982118526e-05 0.0079515864279067778 0 -0.00081287077075410641 0.0077720389046053101 0 -0.00081287077075410641 0.0077720389046053101 0 -0.0002078739093455813 0.0078723508558746821 0 -0.00016713500753226808 0.0078212500846228002 0 6.0037077982118526e-05 0.0079515864279067778 0 -0.00081287077075410641 0.0077720389046053101 0 -0.0002078739093455813 0.0078723508558746821 0 -0.0002078739093455813 0.0078723508558746821 0 -0.0010719624165582997 0.0076240755111102159 0 -0.00016713500753226808 0.0078212500846228002 0 6.0037077982118526e-05 0.0079515864279067778 0 -0.0002078739093455813 0.0078723508558746821 0 -0.0010719624165582997 0.0076240755111102159 0 6.0037077982118526e-05 0.0079515864279067778 0 -0.0010719624165582997 0.0076240755111102159 0 -0.001579720039514946 0.0087396648117573153 0 -0.0010719624165582997 0.0076240755111102159 0 -0.002124020141594751 0.0081128764827351658 0 -0.001579720039514946 0.0087396648117573153 0 -0.0010719624165582997 0.0076240755111102159 0 -0.002124020141594751 0.0081128764827351658 0 -0.0018113574659010918 0.0073548583724348396 0 -0.002124020141594751 0.0081128764827351658 0 -0.001579720039514946 0.0087396648117573153 0 -0.00259355641897861 0.0093408419600610922 0 -0.0015135028519377891 0.010403568487675567 0 6.0037077982118526e-05 0.0079515864279067778 0 -0.001579720039514946 0.0087396648117573153 0 -0.003581540121130954 0.0053515452448153113 0 -0.0025363460509647429 0.0068116859718904965 0 -0.0041937825740806078 0.0074150965044654229 0 -0.003581540121130954 0.0053515452448153113 0 -0.0015553867252687788 0.0059219920123680337 0 -0.0025363460509647429 0.0068116859718904965 0 -0.00081287077075410641 0.0077720389046053101 0 -0.0025363460509647429 0.0068116859718904965 0 -0.0019084115167908304 0.0081558407878363545 0 -0.00081287077075410641 0.0077720389046053101 0 -0.0015553867252687788 0.0059219920123680337 0 -0.0025363460509647429 0.0068116859718904965 0 -0.0025363460509647429 0.0068116859718904965 0 -0.0019084115167908304 0.0081558407878363545 0 -0.0041937825740806078 0.0074150965044654229 0 -0.0028609725494530796 0.0079438752269112151 0 -0.0041937825740806078 0.0074150965044654229 0 -0.0037080150465987069 0.0084384308369129159 0 -0.0042221032298608574 0.01429801320172094 0 -0.004538747153482685 0.013153374546434593 0 -0.0041937825740806078 0.0074150965044654229 0 -0.0037080150465987069 0.0084384308369129159 0 -0.0046852649319950425 0.0090340308133834181 0 -0.0037080150465987069 0.0084384308369129159 0 -0.0037421134110017253 0.0093173070818958811 0 -0.0046852649319950425 0.0090340308133834181 0 -0.0037080150465987069 0.0084384308369129159 0 -0.0029372843024985484 0.0089572008310809543 0 -0.0037421134110017253 0.0093173070818958811 0 -0.0042221032298608574 0.01429801320172094 0 -0.0041346265663345042 0.017855941240709512 0 -0.0028609725494530796 0.0079438752269112151 0 -0.0037080150465987069 0.0084384308369129159 0 -0.0029372843024985484 0.0089572008310809543 0 -0.0028609725494530796 0.0079438752269112151 0 -0.0029372843024985484 0.0089572008310809543 0 -0.001974202679227508 0.008719625745426951 0 -0.0029372843024985484 0.0089572008310809543 0 -0.0023093768043435602 0.009173100327272329 0 -0.001974202679227508 0.008719625745426951 0 -0.0029372843024985484 0.0089572008310809543 0 -0.0023093768043435602 0.009173100327272329 0 -0.0024000072176854135 0.0096633636671335389 0 -0.0023093768043435602 0.009173100327272329 0 -0.0024000072176854135 0.0096633636671335389 0 -0.0019282543650357168 0.0093573504528704256 0 -0.0024978901835326192 0.010500495320989039 0 -0.0024000072176854135 0.0096633636671335389 0 -0.003223215741629305 0.01003785025690051 0 -0.0024978901835326192 0.010500495320989039 0 -0.0024000072176854135 0.0096633636671335389 0 -0.0018235821300955097 0.0098693985175992826 0 -0.0029372843024985484 0.0089572008310809543 0 -0.0024000072176854135 0.0096633636671335389 0 -0.003223215741629305 0.01003785025690051 0 -0.0029372843024985484 0.0089572008310809543 0 -0.003223215741629305 0.01003785025690051 0 -0.0037421134110017253 0.0093173070818958811 0 -0.003223215741629305 0.01003785025690051 0 -0.0037421134110017253 0.0093173070818958811 0 -0.0041853763122754999 0.010115964043772773 0 -0.0037421134110017253 0.0093173070818958811 0 -0.0041853763122754999 0.010115964043772773 0 -0.0046852649319950425 0.0090340308133834181 0 -0.0010719624165582997 0.0076240755111102159 0 -0.0016971115973634788 0.0066271138247168968 0 -0.00016713500753226808 0.0078212500846228002 0 -0.00032348726255017226 0.0091868189954774672 0 -0.0001152727454621871 0.0089472500958223417 0 -0.0014826290879115865 0.0084475023361562929 0 -0.0047881355192717998 0.025052904748649293 0 -0.0041346265663345042 0.017855941240709512 0 -0.0081751306447395491 0.02607449741305733 0 -0.0038173614276699685 0.02704288381698465 0 -0.0048167226600536114 0.022125796108896728 0 -0.0040106053041281953 0.023691040305576221 0 -0.0049020552601570025 0.025272503617244327 0 -0.0049020552601570025 0.025272503617244327 0 -0.0052935855024460396 0.026226690438920206 0 -0.0038173614276699685 0.02704288381698465 0 -0.0048167226600536114 0.022125796108896728 0 -0.0021304136845231511 0.02294277650855326 0 -0.0047881355192717998 0.025052904748649293 0 -0.0052935855024460396 0.026226690438920206 0 -0.0040106053041281953 0.023691040305576221 0 -0.0047881355192717998 0.025052904748649293 0 -0.0016971115973634788 0.0066271138247168968 0 -0.0018113574659010918 0.0073548583724348396 0 -0.0023755532541902468 0.0071268509237664866 0 -0.0010719624165582997 0.0076240755111102159 0 -0.0016971115973634788 0.0066271138247168968 0 -0.0018113574659010918 0.0073548583724348396 0 -0.0028609725494530796 0.0079438752269112151 0 -0.0014826290879115865 0.0084475023361562929 0 -0.001974202679227508 0.008719625745426951 0 -0.00032348726255017226 0.0091868189954774672 0 -0.0014826290879115865 0.0084475023361562929 0 -0.001974202679227508 0.008719625745426951 0 -0.00030121919449831749 0.0091275436840528024 0 -0.001974202679227508 0.008719625745426951 0 -0.0012483699274821653 0.0094348051285704226 0 -0.0040106053041281953 0.023691040305576221 0 -0.0037211889940313571 0.020592605435656042 0 -0.0023093768043435602 0.009173100327272329 0 -0.001974202679227508 0.008719625745426951 0 -0.0019282543650357168 0.0093573504528704256 0 -0.001974202679227508 0.008719625745426951 0 -0.0012483699274821653 0.0094348051285704226 0 -0.0019282543650357168 0.0093573504528704256 0 -0.0024000072176854135 0.0096633636671335389 0 -0.0019282543650357168 0.0093573504528704256 0 -0.0018235821300955097 0.0098693985175992826 0 -0.0012483699274821653 0.0094348051285704226 0 -0.0019282543650357168 0.0093573504528704256 0 -0.0018235821300955097 0.0098693985175992826 0 -0.0014106789160782621 0.010426193876652116 0 -0.0024978901835326192 0.010500495320989039 0 -0.0018235821300955097 0.0098693985175992826 0 -0.0014106789160782621 0.010426193876652116 0 -0.0012483699274821653 0.0094348051285704226 0 -0.0018235821300955097 0.0098693985175992826 0 -0.0014106789160782621 0.010426193876652116 0 -0.00030121919449831749 0.0091275436840528024 0 -0.0012483699274821653 0.0094348051285704226 0 -0.001384265759700779 0.015761439655213545 0 -0.0040106053041281953 0.023691040305576221 0 -0.0033476780529781806 0.013261858829770405 0 -0.0032000008915275486 0.013282528619054865 0 -0.0034372030525828884 0.013644955900053952 0 -0.0042307369343261691 0.029021907073374612 0 -0.0017748593254666893 0.028692748378580834 0 -0.0028985336823175172 0.03140559880395262 0 -0.0030136037698684733 0.021694497121417553 0 -0.0049020552601570025 0.025272503617244327 0 -0.0033476780529781806 0.013261858829770405 0 -0.0034372030525828884 0.013644955900053952 0 -0.0035050845005755874 0.013633610406179388 0 -0.0042307369343261691 0.029021907073374612 0 -0.0028985336823175172 0.03140559880395262 0 -0.0058802412035895068 0.030758658720478116 0 -0.0049020552601570025 0.025272503617244327 0 -0.0070271748529593834 0.036956362812065054 0 -0.0071937381486554307 0.031142555330528541 0 -0.0055293410463635659 0.031361101410776887 0 -0.0054533359363098961 0.031554323961175232 0 -0.0066400073445847477 0.028856489247979372 0 -0.0042307369343261691 0.029021907073374612 0 -0.0058802412035895068 0.030758658720478116 0 -0.0059598598622235379 0.038094099160979583 0 -0.0070271748529593834 0.036956362812065054 0 -0.0052213096276465462 0.041902688067655409 0 -0.0046489243277244878 0.03922155339649875 0 -0.0039930917197737135 0.040388504690517871 0 -0.0052213096276465462 0.041902688067655409 0 -0.0064526292803131352 0.03881888432734406 0 -0.0046489243277244878 0.03922155339649875 0 -0.0059598598622235379 0.038094099160979583 0 -0.0076130924912070248 0.042489866186533984 0 -0.0072437099471871639 0.036786813521315041 0 -0.0070271748529593834 0.036956362812065054 0 -0.0070271748529593834 0.036956362812065054 0 -0.0077555308544314961 0.041761798112980184 0 -0.0072437099471871639 0.036786813521315041 0 -0.0077699663651649995 0.041662194671096796 0 -0.0075199345782951069 0.039647340412327522 0 -0.0075576791370193207 0.039649793736030225 0 -0.0075627557420755035 0.039641213383888763 0 -0.0075149787452869522 0.039659348094553605 0 -0.0075199345782951069 0.039647340412327522 0 -0.0075576791370193207 0.039649793736030225 0 -0.0077699663651649995 0.041662194671096796 0 -0.0077555308544314961 0.041761798112980184 0 -0.0072437099471871639 0.036786813521315041 0 -0.0086553424740348096 0.03465902425821462 0 -0.0090887901391729069 0.040220030865905081 0 -0.0089716775334565541 0.038273396390560821 0 -0.010668067807165256 0.036284770967395463 0 -0.01741997253958464 0.065005216502954696 0 -0.018647327313551527 0.062887460009864227 0 -0.017166129413189339 0.062909932774200233 0 -0.0077699663651649995 0.041662194671096796 0 -0.0085642871875213928 0.042112463248429988 0 -0.0090887901391729069 0.040220030865905081 0 -0.0076221339528236244 0.040666043915085673 0 -0.0089716775334565541 0.038273396390560821 0 -0.018647327313551527 0.062887460009864227 0 -0.017226548822509971 0.061498674186773315 0 -0.017166129413189339 0.062909932774200233 0 -0.0072437099471871639 0.036786813521315041 0 -0.0052935855024460396 0.026226690438920206 0 -0.0071937381486554307 0.031142555330528541 0 -0.0055293410463635659 0.031361101410776887 0 -0.0070800368146651492 0.030866482686076804 0 -0.0075160103536371873 0.032638169853529013 0 -0.010048236643215011 0.03185789445759158 0 -0.0097022623521138152 0.03101302743487654 0 -0.0075160103536371873 0.032638169853529013 0 -0.0097022623521138152 0.03101302743487654 0 -0.0086569851014795234 0.029784255812396607 0 -0.0066747618059448113 0.025767245332361743 0 -0.0064103033788932345 0.025848093334014853 0 -0.0061002767893689946 0.025092203838040953 0 -0.0052935855024460396 0.026226690438920206 0 -0.0059027262170891943 0.027544781316510454 0 -0.0047881355192717998 0.025052904748649293 0 -0.0059027262170891943 0.027544781316510454 0 -0.0059027262170891943 0.027544781316510454 0 -0.0086553424740348096 0.03465902425821462 0 -0.0059027262170891943 0.027544781316510454 0 -0.0089560869595948743 0.031976411230763974 0 -0.002124020141594751 0.0081128764827351658 0 -0.0018113574659010918 0.0073548583724348396 0 -0.0023755532541902468 0.0071268509237664866 0 -0.002124020141594751 0.0081128764827351658 0 -0.0023755532541902468 0.0071268509237664866 0 -0.0035101832726693247 0.0088344210772007149 0 -0.002124020141594751 0.0081128764827351658 0 -0.0035101832726693247 0.0088344210772007149 0 -0.00259355641897861 0.0093408419600610922 0 -0.0095559059316311801 0.033970940469829305 0 -0.0089560869595948743 0.031976411230763974 0 -0.0099876895550925857 0.031680438834097116 0 -0.011090729142827938 0.034367400209310721 0 -0.0066781343312176536 0.037566231317144233 0 -0.0089560869595948743 0.031976411230763974 0 -0.0086553424740348096 0.03465902425821462 0 -0.011090729142827938 0.034367400209310721 0 -0.0066781343312176536 0.037566231317144233 0 -0.0088110979337536668 0.040076377269999471 0 -0.0095559059316311801 0.033970940469829305 0 -0.0099896598267040226 0.037621457584373408 0 -0.0070097614874422877 0.029931037885523221 0 -0.0088505310544451793 0.034368065965816007 0 -0.0094670451759270614 0.032809625772995524 0 -0.0099896598267040226 0.037621457584373408 0 -0.0086553424740348096 0.03465902425821462 0 -0.0085642871875213928 0.042112463248429988 0 -0.0099896598267040226 0.037621457584373408 0 -0.0089716775334565541 0.038273396390560821 0 -0.010323907632999743 0.035879136377721374 0 -0.010668067807165256 0.036284770967395463 0 -0.018647327313551527 0.062887460009864227 0 -0.019864006217178626 0.060741016371093498 0 -0.018351113186819534 0.060957022860576471 0 -0.018647327313551527 0.062887460009864227 0 -0.018351113186819534 0.060957022860576471 0 -0.017226548822509971 0.061498674186773315 0 -0.018351113186819534 0.060957022860576471 0 -0.017226548822509971 0.061498674186773315 0 -0.016904413960367102 0.060401583587569876 0 -0.018351113186819534 0.060957022860576471 0 -0.017819664425567865 0.059686541296137374 0 -0.016904413960367102 0.060401583587569876 0 -0.019864006217178626 0.060741016371093498 0 -0.018351113186819534 0.060957022860576471 0 -0.017819664425567865 0.059686541296137374 0 -0.018728850857097332 0.055636034153184875 0 -0.018482610674034977 0.056055788867154066 0 -0.017061983337893334 0.054510977515678953 0 -0.0099896598267040226 0.037621457584373408 0 -0.016873580521875417 0.051135052867432494 0 -0.019864006217178626 0.060741016371093498 0 -0.017819664425567865 0.059686541296137374 0 -0.017228673531885823 0.057495658103916845 0 -0.018087141230144876 0.053848090449505941 0 -0.018728850857097332 0.055636034153184875 0 -0.017061983337893334 0.054510977515678953 0 -0.011136962375149887 0.034503163762995198 0 -0.0095559059316311801 0.033970940469829305 0 -0.0074896933860141342 0.013387160093767208 0 -0.0052583700843256273 0.0081610794860941891 0 -0.0040424109020086585 0.010302028360002552 0 -0.010598586845348638 0.025577213923119596 0 -0.010211864869644826 0.028545670060325649 0 -0.0035101832726693247 0.0088344210772007149 0 -0.0032713562170561005 0.010632815193764564 0 -0.00259355641897861 0.0093408419600610922 0 -0.0015135028519377891 0.010403568487675567 0 -0.0032713562170561005 0.010632815193764564 0 -0.00259355641897861 0.0093408419600610922 0 -0.0089560869595948743 0.031976411230763974 0 -0.010211864869644826 0.028545670060325649 0 -0.0095559059316311801 0.033970940469829305 0 -0.010211864869644826 0.028545670060325649 0 -0.0078931292018363138 0.033482664178918868 0 -0.0083627046011606893 0.034630098368304857 0 -0.010294540390050733 0.029225735309393392 0 -0.0139069070669245 0.057437101668688727 0 -0.015153420019608859 0.058865781695174056 0 -0.013526787785839343 0.060675067568935925 0 -0.0139069070669245 0.057437101668688727 0 -0.011450276076794195 0.05999492370395082 0 -0.011431186629860311 0.055416200600869991 0 -0.0139069070669245 0.057437101668688727 0 -0.013526787785839343 0.060675067568935925 0 -0.011450276076794195 0.05999492370395082 0 -0.0139069070669245 0.057437101668688727 0 -0.017228673531885823 0.057495658103916845 0 -0.015153420019608859 0.058865781695174056 0 -0.017228673531885823 0.057495658103916845 0 -0.016568615763613022 0.059036989044408655 0 -0.015153420019608859 0.058865781695174056 0 -0.017819664425567865 0.059686541296137374 0 -0.016568615763613022 0.059036989044408655 0 -0.016904413960367102 0.060401583587569876 0 -0.017819664425567865 0.059686541296137374 0 -0.017228673531885823 0.057495658103916845 0 -0.016568615763613022 0.059036989044408655 0 -0.016568615763613022 0.059036989044408655 0 -0.015153420019608859 0.058865781695174056 0 -0.015411989355374044 0.060411657569096729 0 -0.015411989355374044 0.060411657569096729 0 -0.016904413960367102 0.060401583587569876 0 -0.016219501507485187 0.061250192892985139 0 -0.016568615763613022 0.059036989044408655 0 -0.015411989355374044 0.060411657569096729 0 -0.016904413960367102 0.060401583587569876 0 -0.017226548822509971 0.061498674186773315 0 -0.016904413960367102 0.060401583587569876 0 -0.016219501507485187 0.061250192892985139 0 -0.017226548822509971 0.061498674186773315 0 -0.016219501507485187 0.061250192892985139 0 -0.016244941804130698 0.062153876580421312 0 -0.015411989355374044 0.060411657569096729 0 -0.015297728767617952 0.061800234288558673 0 -0.014471487759031405 0.061353234914798702 0 -0.015411989355374044 0.060411657569096729 0 -0.016219501507485187 0.061250192892985139 0 -0.015297728767617952 0.061800234288558673 0 -0.016219501507485187 0.061250192892985139 0 -0.015297728767617952 0.061800234288558673 0 -0.016244941804130698 0.062153876580421312 0 -0.015297728767617952 0.061800234288558673 0 -0.014700094924468252 0.062128463365765836 0 -0.014471487759031405 0.061353234914798702 0 -0.013355855568206249 0.056699503970670938 0 -0.012298767996660328 0.057941881941536329 0 -0.014471487759031405 0.061353234914798702 0 -0.013526787785839343 0.060675067568935925 0 -0.013926792727877642 0.062679755492087499 0 -0.011986454235287561 0.062634929608358494 0 -0.010287722843806642 0.06242690319427073 0 -0.010439718972984562 0.060147491671266998 0 -0.013526787785839343 0.060675067568935925 0 -0.013926792727877642 0.062679755492087499 0 -0.011450276076794195 0.05999492370395082 0 -0.014700094924468252 0.062128463365765836 0 -0.014471487759031405 0.061353234914798702 0 -0.013926792727877642 0.062679755492087499 0 -0.015153420019608859 0.058865781695174056 0 -0.015411989355374044 0.060411657569096729 0 -0.013526787785839343 0.060675067568935925 0 -0.015411989355374044 0.060411657569096729 0 -0.014471487759031405 0.061353234914798702 0 -0.013526787785839343 0.060675067568935925 0 -0.011849762662886561 0.062922614018855252 0 -0.012153444149532877 0.063232875852548387 0 -0.012214703364767591 0.063646075282210737 0 -0.011986454235287561 0.062634929608358494 0 -0.011849762662886561 0.062922614018855252 0 -0.010287722843806642 0.06242690319427073 0 -0.011849762662886561 0.062922614018855252 0 -0.010458738415708581 0.063242560561536612 0 -0.010287722843806642 0.06242690319427073 0 -0.014700094924468252 0.062128463365765836 0 -0.013926792727877642 0.062679755492087499 0 -0.015162510324143254 0.062785305977149389 0 -0.011986454235287561 0.062634929608358494 0 -0.011849762662886561 0.062922614018855252 0 -0.012153444149532877 0.063232875852548387 0 -0.011849762662886561 0.062922614018855252 0 -0.011406706714218654 0.063615408731682324 0 -0.01199584778898577 0.064090130727567751 0 -0.011849762662886561 0.062922614018855252 0 -0.011406706714218654 0.063615408731682324 0 -0.010458738415708581 0.063242560561536612 0 -0.011406706714218654 0.063615408731682324 0 -0.011512523511096986 0.064067755044626237 0 -0.01199584778898577 0.064090130727567751 0 -0.011406706714218654 0.063615408731682324 0 -0.010741944596010293 0.064055013428314975 0 -0.010458738415708581 0.063242560561536612 0 -0.011406706714218654 0.063615408731682324 0 -0.011512523511096986 0.064067755044626237 0 -0.010741944596010293 0.064055013428314975 0 -0.011986454235287561 0.062634929608358494 0 -0.012153444149532877 0.063232875852548387 0 -0.012627241095180918 0.063589246940629798 0 -0.013355855568206249 0.056699503970670938 0 -0.0087236421210636714 0.044981941419128084 0 -0.013926792727877642 0.062679755492087499 0 -0.015590458213506403 0.063601613767956547 0 -0.016291265402621227 0.065486544476117778 0 -0.017226548822509971 0.061498674186773315 0 -0.017166129413189339 0.062909932774200233 0 -0.016244941804130698 0.062153876580421312 0 -0.017166129413189339 0.062909932774200233 0 -0.016244941804130698 0.062153876580421312 0 -0.01617606480178109 0.063128593096499402 0 -0.013926792727877642 0.062679755492087499 0 -0.015162510324143254 0.062785305977149389 0 -0.015590458213506403 0.063601613767956547 0 -0.01617606480178109 0.063128593096499402 0 -0.015162510324143254 0.062785305977149389 0 -0.015590458213506403 0.063601613767956547 0 -0.015297728767617952 0.061800234288558673 0 -0.016244941804130698 0.062153876580421312 0 -0.015162510324143254 0.062785305977149389 0 -0.016244941804130698 0.062153876580421312 0 -0.01617606480178109 0.063128593096499402 0 -0.015162510324143254 0.062785305977149389 0 -0.015297728767617952 0.061800234288558673 0 -0.014700094924468252 0.062128463365765836 0 -0.015162510324143254 0.062785305977149389 0 -0.01741997253958464 0.065005216502954696 0 -0.017166129413189339 0.062909932774200233 0 -0.016496247886514347 0.064038747724394204 0 -0.015590458213506403 0.063601613767956547 0 -0.016496247886514347 0.064038747724394204 0 -0.016291265402621227 0.065486544476117778 0 -0.01617606480178109 0.063128593096499402 0 -0.015590458213506403 0.063601613767956547 0 -0.016496247886514347 0.064038747724394204 0 -0.017166129413189339 0.062909932774200233 0 -0.01617606480178109 0.063128593096499402 0 -0.016496247886514347 0.064038747724394204 0 -0.01741997253958464 0.065005216502954696 0 -0.016496247886514347 0.064038747724394204 0 -0.016291265402621227 0.065486544476117778 0 -0.0085898512969919266 0.043821603218418451 0 -0.0085559958749378533 0.043882986973910097 0 -0.0083417892337605531 0.043933751360720232 0 -0.0077699663651649995 0.041662194671096796 0 -0.0087236421210636714 0.044981941419128084 0 -0.0077555308544314961 0.041761798112980184 0 -0.0087236421210636714 0.044981941419128084 0 -0.0077873007288221385 0.042502733778987396 0 -0.0036614000590516169 0.043420808974371387 0 -0.0057952753163712043 0.046050833091485881 0 -0.012153444149532877 0.063232875852548387 0 -0.012627241095180918 0.063589246940629798 0 -0.012307262359862466 0.063486016809236323 0 -0.012153444149532877 0.063232875852548387 0 -0.012307262359862466 0.063486016809236323 0 -0.012214703364767591 0.063646075282210737 0 -0.012627241095180918 0.063589246940629798 0 -0.012387129094802293 0.063587697362042034 0 -0.012307262359862466 0.063486016809236323 0 -0.0087236421210636714 0.044981941419128084 0 -0.0088200891354341445 0.04520068422000878 0 -0.012387129094802293 0.063587697362042034 0 -0.012307262359862466 0.063486016809236323 0 -0.012214703364767591 0.063646075282210737 0 -0.0087236421210636714 0.044981941419128084 0 -0.0095322281317665406 0.050007289114224494 0 -0.0070529896932032491 0.04431665674956408 0 -0.0054067928439346146 0.044685983419113631 0 -0.0076146563347812149 0.045008994898823207 0 -0.0063974769557295155 0.047168343756031211 0 -0.0054067928439346146 0.044685983419113631 0 -0.0076146563347812149 0.045008994898823207 0 -0.012604903812189084 0.063556256178551776 0 -0.012387129094802293 0.063587697362042034 0 -0.012214703364767591 0.063646075282210737 0 -0.0087236421210636714 0.044981941419128084 0 -0.0076130924912070248 0.042489866186533984 0 -0.0077555308544314961 0.041761798112980184 0 -0.0076130924912070248 0.042489866186533984 0 -0.011849762662886561 0.062922614018855252 0 -0.012663186064810211 0.065122196462435694 0 -0.01199584778898577 0.064090130727567751 0 -0.011273417811349213 0.055296105832229672 0 -0.0095322281317665406 0.050007289114224494 0 -0.011385559030081639 0.064528973042385002 0 -0.011648550215239839 0.064908473839842412 0 -0.010689826532593849 0.064915524433630717 0 -0.011385559030081639 0.064528973042385002 0 -0.011648550215239839 0.064908473839842412 0 -0.011783968378514165 0.064616797380672525 0 -0.011385559030081639 0.064528973042385002 0 -0.011757091012176884 0.064324095067858869 0 -0.011783968378514165 0.064616797380672525 0 -0.011385559030081639 0.064528973042385002 0 -0.010689826532593849 0.064915524433630717 0 -0.010741944596010293 0.064055013428314975 0 -0.011385559030081639 0.064528973042385002 0 -0.011512523511096986 0.064067755044626237 0 -0.010741944596010293 0.064055013428314975 0 -0.011385559030081639 0.064528973042385002 0 -0.011512523511096986 0.064067755044626237 0 -0.011757091012176884 0.064324095067858869 0 -0.01199584778898577 0.064090130727567751 0 -0.011990911095180289 0.064469380476097821 0 -0.012304947827167423 0.064822646714221457 0 -0.012663186064810211 0.065122196462435694 0 -0.01199584778898577 0.064090130727567751 0 -0.012304947827167423 0.064822646714221457 0 -0.011512523511096986 0.064067755044626237 0 -0.01199584778898577 0.064090130727567751 0 -0.011757091012176884 0.064324095067858869 0 -0.01199584778898577 0.064090130727567751 0 -0.011990911095180289 0.064469380476097821 0 -0.011757091012176884 0.064324095067858869 0 -0.011990911095180289 0.064469380476097821 0 -0.011757091012176884 0.064324095067858869 0 -0.011783968378514165 0.064616797380672525 0 -0.011990911095180289 0.064469380476097821 0 -0.011783968378514165 0.064616797380672525 0 -0.012010232602229344 0.06467630860746397 0 -0.011990911095180289 0.064469380476097821 0 -0.012304947827167423 0.064822646714221457 0 -0.012010232602229344 0.06467630860746397 0 -0.012304947827167423 0.064822646714221457 0 -0.012010232602229344 0.06467630860746397 0 -0.011988433188668672 0.064966420840993355 0 -0.011648550215239839 0.064908473839842412 0 -0.012010232602229344 0.06467630860746397 0 -0.011988433188668672 0.064966420840993355 0 -0.011648550215239839 0.064908473839842412 0 -0.011783968378514165 0.064616797380672525 0 -0.012010232602229344 0.06467630860746397 0 -0.0072699921106549534 0.048708308508959242 0 -0.0072645901335498895 0.0487811318751082 0 -0.00730931027624714 0.048772523904363638 0 -0.011648550215239839 0.064908473839842412 0 -0.011988433188668672 0.064966420840993355 0 -0.011902965317765827 0.065280667659479319 0 -0.012304947827167423 0.064822646714221457 0 -0.011988433188668672 0.064966420840993355 0 -0.011902965317765827 0.065280667659479319 0 -0.0095322281317665406 0.050007289114224494 0 -0.010130935488751226 0.052069605240516882 0 -0.012663186064810211 0.065122196462435694 0 -0.012304947827167423 0.064822646714221457 0 -0.011902965317765827 0.065280667659479319 0 -0.010130935488751226 0.052069605240516882 0 -0.0098204911452251329 0.053004099746262592 0 -0.010282061631764485 0.066321430083521551 0 -0.011420856112080215 0.065322004065271222 0 -0.010351020604846601 0.0655409637996162 0 -0.011902965317765827 0.065280667659479319 0 -0.010351020604846601 0.0655409637996162 0 -0.010689826532593849 0.064915524433630717 0 -0.011648550215239839 0.064908473839842412 0 -0.011902965317765827 0.065280667659479319 0 -0.010689826532593849 0.064915524433630717 0 -0.010351020604846601 0.0655409637996162 0 -0.010689826532593849 0.064915524433630717 0 -0.0088302729525828599 0.063941619786897663 0 -0.0099511113016595935 0.064289868014876697 0 -0.0097760299121242566 0.064407540479253581 0 -0.0086584915028173632 0.067222518577199894 0 -0.0098422550339065367 0.067092823176842939 0 -0.0088302729525828599 0.063941619786897663 0 -0.010282061631764485 0.066321430083521551 0 -0.010351020604846601 0.0655409637996162 0 -0.0088302729525828599 0.063941619786897663 0 -0.010689826532593849 0.064915524433630717 0 -0.010741944596010293 0.064055013428314975 0 -0.0088302729525828599 0.063941619786897663 0 -0.010458738415708581 0.063242560561536612 0 -0.0088302729525828599 0.063941619786897663 0 -0.010287722843806642 0.06242690319427073 0 -0.010741944596010293 0.064055013428314975 0 -0.010458738415708581 0.063242560561536612 0 -0.0088302729525828599 0.063941619786897663 0 -0.0088302729525828599 0.063941619786897663 0 -0.010287722843806642 0.06242690319427073 0 -0.0078396711213327194 0.061820534441143465 0 -0.0088302729525828599 0.063941619786897663 0 -0.0055842159626766866 0.064393402449686013 0 -0.0078396711213327194 0.061820534441143465 0 -0.0088302729525828599 0.063941619786897663 0 -0.0070837356751010522 0.065772808798353524 0 -0.0055842159626766866 0.064393402449686013 0 -0.0086584915028173632 0.067222518577199894 0 -0.0088302729525828599 0.063941619786897663 0 -0.0070837356751010522 0.065772808798353524 0 -0.0052851902633861509 0.067444176038201339 0 -0.0070837356751010522 0.065772808798353524 0 -0.0055842159626766866 0.064393402449686013 0 -0.0052851902633861509 0.067444176038201339 0 -0.0028981719785573599 0.065178241155297814 0 -0.0055842159626766866 0.064393402449686013 0 -0.0028981719785573599 0.065178241155297814 0 -0.00325559000049788 0.06303312951487898 0 -0.0055842159626766866 0.064393402449686013 0 -0.00325559000049788 0.06303312951487898 0 -0.0055842159626766866 0.064393402449686013 0 -0.0050348154108216317 0.061164035829260152 0 -0.0055842159626766866 0.064393402449686013 0 -0.0050348154108216317 0.061164035829260152 0 -0.0078396711213327194 0.061820534441143465 0 -0.00325559000049788 0.06303312951487898 0 -0.0050348154108216317 0.061164035829260152 0 -0.0024550623719334828 0.060620788548071569 0 -0.0050348154108216317 0.061164035829260152 0 -0.0024550623719334828 0.060620788548071569 0 -0.0051036167256159979 0.057614074941753558 0 -0.0024550623719334828 0.060620788548071569 0 -0.0013955772122567717 0.057142284162183296 0 -0.0051036167256159979 0.057614074941753558 0 -0.0050348154108216317 0.061164035829260152 0 -0.0074704289709184839 0.05961971430031341 0 -0.0051036167256159979 0.057614074941753558 0 -0.0074704289709184839 0.05961971430031341 0 -0.0086982903377304417 0.057132464812131474 0 -0.0051036167256159979 0.057614074941753558 0 -0.0074704289709184839 0.05961971430031341 0 -0.010439718972984562 0.060147491671266998 0 -0.0086982903377304417 0.057132464812131474 0 -0.012298767996660328 0.057941881941536329 0 -0.011278612251942309 0.057401120740577058 0 -0.011450276076794195 0.05999492370395082 0 -0.011431186629860311 0.055416200600869991 0 -0.0086982903377304417 0.057132464812131474 0 -0.010287722843806642 0.06242690319427073 0 -0.010439718972984562 0.060147491671266998 0 -0.0078396711213327194 0.061820534441143465 0 -0.0074704289709184839 0.05961971430031341 0 -0.010439718972984562 0.060147491671266998 0 -0.0078396711213327194 0.061820534441143465 0 -0.0050348154108216317 0.061164035829260152 0 -0.0074704289709184839 0.05961971430031341 0 -0.0078396711213327194 0.061820534441143465 0 0.0045626609904463279 0.064714544193914522 0 0.0036095047348172859 0.067058642503788998 0 0.0023033927445236593 0.065644022899712939 0 0.005029107990982243 0.067308455737691966 0 0.0045626609904463279 0.064714544193914522 0 0.0036095047348172859 0.067058642503788998 0 0.0039706712934712588 0.06824150407113605 0 0.005029107990982243 0.067308455737691966 0 0.0036095047348172859 0.067058642503788998 0 0.0027797732049511061 0.067721716530849296 0 0.0033564399979336959 0.06795756979433934 0 0.0036095047348172859 0.067058642503788998 0 0.0027797732049511061 0.067721716530849296 0 0.0036095047348172859 0.067058642503788998 0 0.0023033927445236593 0.065644022899712939 0 0.0027797732049511061 0.067721716530849296 0 0.0023033927445236593 0.065644022899712939 0 0.0011827578768493544 0.067033903988892557 0 0.0045626609904463279 0.064714544193914522 0 0.0023033927445236593 0.065644022899712939 0 0.0020597405144473836 0.063220253769916149 0 0.0023033927445236593 0.065644022899712939 0 0.0020597405144473836 0.063220253769916149 0 -0.00083821089363070094 0.063848176952196439 0 0.0023033927445236593 0.065644022899712939 0 0.0011827578768493544 0.067033903988892557 0 -0.00083821089363070094 0.063848176952196439 0 0.0012796379346280409 0.065890210134822755 0 -0.0005717119009099388 0.0658510808489461 0 -0.00083821089363070094 0.063848176952196439 0 0.0016467398964740076 0.066767751619144042 0 0.00061235705576519282 0.065581441115082406 0 -0.001756892762237685 0.067512828079020856 0 -0.0028981719785573599 0.065178241155297814 0 -0.0005717119009099388 0.0658510808489461 0 -0.0028981719785573599 0.065178241155297814 0 -0.0005717119009099388 0.0658510808489461 0 -0.00083821089363070094 0.063848176952196439 0 -0.0028981719785573599 0.065178241155297814 0 -0.00325559000049788 0.06303312951487898 0 -0.00083821089363070094 0.063848176952196439 0 -0.0024550623719334828 0.060620788548071569 0 -0.00083821089363070094 0.063848176952196439 0 0.000450687973059973 0.060524232197853876 0 -0.00325559000049788 0.06303312951487898 0 -0.0024550623719334828 0.060620788548071569 0 -0.00083821089363070094 0.063848176952196439 0 -0.0024550623719334828 0.060620788548071569 0 0.000450687973059973 0.060524232197853876 0 -0.0013955772122567717 0.057142284162183296 0 0.000450687973059973 0.060524232197853876 0 0.0018560619878532729 0.057383991460195682 0 -0.0013955772122567717 0.057142284162183296 0 0.0020597405144473836 0.063220253769916149 0 -0.00083821089363070094 0.063848176952196439 0 0.000450687973059973 0.060524232197853876 0 0.0020597405144473836 0.063220253769916149 0 0.000450687973059973 0.060524232197853876 0 0.0036282185669232487 0.061314979681599636 0 0.0045626609904463279 0.064714544193914522 0 0.0020597405144473836 0.063220253769916149 0 0.0036282185669232487 0.061314979681599636 0 0.000450687973059973 0.060524232197853876 0 0.0036282185669232487 0.061314979681599636 0 0.0018560619878532729 0.057383991460195682 0 0.0064724285832391051 0.061935292642626864 0 0.0036282185669232487 0.061314979681599636 0 0.0055270142025604149 0.057642430990457592 0 0.0064724285832391051 0.061935292642626864 0 0.0045626609904463279 0.064714544193914522 0 0.0036282185669232487 0.061314979681599636 0 0.0055270142025604149 0.057642430990457592 0 0.0033517914224227108 0.054447809552055387 0 0.0057362462373932548 0.052248209912867084 0 0.0055270142025604149 0.057642430990457592 0 0.0033517914224227108 0.054447809552055387 0 0.0018560619878532729 0.057383991460195682 0 0.0036282185669232487 0.061314979681599636 0 0.0055270142025604149 0.057642430990457592 0 0.0018560619878532729 0.057383991460195682 0 0.0033517914224227108 0.054447809552055387 0 0.0018560619878532729 0.057383991460195682 0 0.00018550056288455961 0.053178196506814962 0 0.0018560619878532729 0.057383991460195682 0 -0.0013955772122567717 0.057142284162183296 0 0.00018550056288455961 0.053178196506814962 0 -0.0013955772122567717 0.057142284162183296 0 0.00018550056288455961 0.053178196506814962 0 -0.0034892272818630474 0.05407328395106005 0 0.00018550056288455961 0.053178196506814962 0 -0.0034892272818630474 0.05407328395106005 0 -0.0021004868491977897 0.050281471113721957 0 0.00018550056288455961 0.053178196506814962 0 0.00074994448577701703 0.04749740815282244 0 -0.0021004868491977897 0.050281471113721957 0 0.00074994448577701703 0.04749740815282244 0 0.0024574563298009186 0.050910081656657953 0 0.0038658077330360136 0.048587937008154419 0 0.00018550056288455961 0.053178196506814962 0 0.00074994448577701703 0.04749740815282244 0 0.0024574563298009186 0.050910081656657953 0 0.0033517914224227108 0.054447809552055387 0 0.00018550056288455961 0.053178196506814962 0 0.0024574563298009186 0.050910081656657953 0 0.0033517914224227108 0.054447809552055387 0 0.0024574563298009186 0.050910081656657953 0 0.0057362462373932548 0.052248209912867084 0 0.0024574563298009186 0.050910081656657953 0 0.0038658077330360136 0.048587937008154419 0 0.0057362462373932548 0.052248209912867084 0 0.0087450524010449053 0.047998493911254866 0 0.0038658077330360136 0.048587937008154419 0 0.0057362462373932548 0.052248209912867084 0 -0.0074929694155796657 0.053506035239642445 0 -0.011431186629860311 0.055416200600869991 0 -0.011488826407658857 0.049783481413087409 0 -0.0074929694155796657 0.053506035239642445 0 -0.0086982903377304417 0.057132464812131474 0 -0.0051036167256159979 0.057614074941753558 0 -0.0074929694155796657 0.053506035239642445 0 -0.011431186629860311 0.055416200600869991 0 -0.0086982903377304417 0.057132464812131474 0 -0.0074929694155796657 0.053506035239642445 0 -0.0051036167256159979 0.057614074941753558 0 -0.0034892272818630474 0.05407328395106005 0 -0.0013955772122567717 0.057142284162183296 0 -0.0051036167256159979 0.057614074941753558 0 -0.0034892272818630474 0.05407328395106005 0 -0.0074929694155796657 0.053506035239642445 0 -0.0034892272818630474 0.05407328395106005 0 -0.0051757258604659675 0.050930132043082901 0 -0.0051757258604659675 0.050930132043082901 0 -0.0021004868491977897 0.050281471113721957 0 -0.003257069587205732 0.046059920633636314 0 -0.0034892272818630474 0.05407328395106005 0 -0.0051757258604659675 0.050930132043082901 0 -0.0021004868491977897 0.050281471113721957 0 0.00074994448577701703 0.04749740815282244 0 -0.0021004868491977897 0.050281471113721957 0 -0.003257069587205732 0.046059920633636314 0 -0.003257069587205732 0.046059920633636314 0 -0.0075595919816728576 0.048020500276784811 0 -0.0054711128670580688 0.043410896752567436 0 -0.0051757258604659675 0.050930132043082901 0 -0.003257069587205732 0.046059920633636314 0 -0.0075595919816728576 0.048020500276784811 0 -0.0075595919816728576 0.048020500276784811 0 -0.010849000397907036 0.046639917947480382 0 -0.0088819708540205117 0.043923284577104295 0 -0.0074929694155796657 0.053506035239642445 0 -0.0075595919816728576 0.048020500276784811 0 -0.011488826407658857 0.049783481413087409 0 -0.0074929694155796657 0.053506035239642445 0 -0.0051757258604659675 0.050930132043082901 0 -0.0075595919816728576 0.048020500276784811 0 -0.013737639166963697 0.047191489502089304 0 -0.011488826407658857 0.049783481413087409 0 -0.010849000397907036 0.046639917947480382 0 -0.0075595919816728576 0.048020500276784811 0 -0.011488826407658857 0.049783481413087409 0 -0.010849000397907036 0.046639917947480382 0 -0.010679957301829879 0.041253283122702662 0 -0.0088819708540205117 0.043923284577104295 0 -0.012631801472159001 0.04415446877161551 0 -0.010849000397907036 0.046639917947480382 0 -0.0088819708540205117 0.043923284577104295 0 -0.012631801472159001 0.04415446877161551 0 -0.010679957301829879 0.041253283122702662 0 -0.010386781360792144 0.036812391881061106 0 -0.014791481344052204 0.041346483891404419 0 -0.010679957301829879 0.041253283122702662 0 -0.0061581848744051565 0.039639997150304473 0 -0.010386781360792144 0.036812391881061106 0 -0.010679957301829879 0.041253283122702662 0 -0.0061581848744051565 0.039639997150304473 0 -0.0088819708540205117 0.043923284577104295 0 -0.0075595919816728576 0.048020500276784811 0 -0.0088819708540205117 0.043923284577104295 0 -0.0054711128670580688 0.043410896752567436 0 -0.0061581848744051565 0.039639997150304473 0 -0.0088819708540205117 0.043923284577104295 0 -0.0054711128670580688 0.043410896752567436 0 -0.003257069587205732 0.046059920633636314 0 -0.0054711128670580688 0.043410896752567436 0 -0.0016592267373496993 0.039844960929196378 0 -0.003257069587205732 0.046059920633636314 0 -0.0016592267373496993 0.039844960929196378 0 0.00050104919906560031 0.04195058222681991 0 -0.0061581848744051565 0.039639997150304473 0 -0.0016592267373496993 0.039844960929196378 0 -0.0024873155210519788 0.036324064317891577 0 -0.0061581848744051565 0.039639997150304473 0 -0.0054711128670580688 0.043410896752567436 0 -0.0016592267373496993 0.039844960929196378 0 -0.0061581848744051565 0.039639997150304473 0 -0.0024873155210519788 0.036324064317891577 0 -0.002848574916503891 0.031615564695438907 0 -0.0016592267373496993 0.039844960929196378 0 -0.0024873155210519788 0.036324064317891577 0 -9.0531755673646018e-05 0.034757784845729521 0 -9.0531755673646018e-05 0.034757784845729521 0 -0.002848574916503891 0.031615564695438907 0 -6.3527037840352857e-05 0.031195135039671456 0 -0.0024873155210519788 0.036324064317891577 0 -9.0531755673646018e-05 0.034757784845729521 0 -0.002848574916503891 0.031615564695438907 0 -0.002848574916503891 0.031615564695438907 0 -0.0011980526883905241 0.028834067822403366 0 -0.0014186230634370435 0.028969502376389237 0 -0.002848574916503891 0.031615564695438907 0 -0.0011980526883905241 0.028834067822403366 0 -0.0015796606004392312 0.028715083204200968 0 -0.0011980526883905241 0.028834067822403366 0 -0.0015796606004392312 0.028715083204200968 0 -0.0014095189018181096 0.028707728169736203 0 -0.0061581848744051565 0.039639997150304473 0 -0.002848574916503891 0.031615564695438907 0 -0.010386781360792144 0.036812391881061106 0 -0.0051533753432141212 0.031597483376426254 0 -0.0063516003134287497 0.032192317509998292 0 0.0078246272488796224 0.043713940964864022 0 0.0049863586940477019 0.044960295963548461 0 0.0056121003334506196 0.041651571616992948 0 0.0087450524010449053 0.047998493911254866 0 0.0038658077330360136 0.048587937008154419 0 0.0049863586940477019 0.044960295963548461 0 0.0038658077330360136 0.048587937008154419 0 0.0049863586940477019 0.044960295963548461 0 0.0017457949234846032 0.045111594080087282 0 0.0023016647505000286 0.042811754589962878 0 0.0036680928764871294 0.039746696809218607 0 0.0049863586940477019 0.044960295963548461 0 0.0017457949234846032 0.045111594080087282 0 0.0032028408269287999 0.041062693507735802 0 0.00389841060152161 0.040717498123276297 0 0.00050104919906560031 0.04195058222681991 0 0.0020476657609075593 0.03715842441088333 0 0.0012711237795287051 0.044869227525486909 0 0.0023016647505000286 0.042811754589962878 0 0.00074994448577701703 0.04749740815282244 0 0.00389841060152161 0.040717498123276297 0 0.00050104919906560031 0.04195058222681991 0 0.00074994448577701703 0.04749740815282244 0 0.0038658077330360136 0.048587937008154419 0 0.0017457949234846032 0.045111594080087282 0 0.00074994448577701703 0.04749740815282244 0 -0.003257069587205732 0.046059920633636314 0 0.00050104919906560031 0.04195058222681991 0 -0.0016592267373496993 0.039844960929196378 0 0.00050104919906560031 0.04195058222681991 0 0.0020476657609075593 0.03715842441088333 0 -0.0016592267373496993 0.039844960929196378 0 -9.0531755673646018e-05 0.034757784845729521 0 0.0020476657609075593 0.03715842441088333 0 -9.0531755673646018e-05 0.034757784845729521 0 0.0015352160752715887 0.034685565143792181 0 0.00053512435351609562 0.033374010086076267 0 -9.0531755673646018e-05 0.034757784845729521 0 0.0020476657609075593 0.03715842441088333 0 0.0015352160752715887 0.034685565143792181 0 0.0020476657609075593 0.03715842441088333 0 0.0027442262915917779 0.035815405308023504 0 0.0015352160752715887 0.034685565143792181 0 0.00389841060152161 0.040717498123276297 0 0.0020476657609075593 0.03715842441088333 0 0.003797960909560325 0.037237202904676123 0 0.0020476657609075593 0.03715842441088333 0 0.003797960909560325 0.037237202904676123 0 0.0027442262915917779 0.035815405308023504 0 0.0063285497181613786 0.039071428641288715 0 0.0032028408269287999 0.041062693507735802 0 0.0042202851655677364 0.03647945935780935 0 0.0036680928764871294 0.039746696809218607 0 0.0044045978793370594 0.038119725802557389 0 0.003797960909560325 0.037237202904676123 0 0.0042202851655677364 0.03647945935780935 0 0.0027442262915917779 0.035815405308023504 0 0.0049863586940477019 0.044960295963548461 0 0.0032028408269287999 0.041062693507735802 0 0.0056121003334506196 0.041651571616992948 0 0.0063285497181613786 0.039071428641288715 0 0.0032028408269287999 0.041062693507735802 0 0.0056121003334506196 0.041651571616992948 0 -0.0012360232394891251 0.034659506182758495 0 0.0020379615563414131 0.03524710660942347 0 -0.00020469995927533752 0.041336834487703561 0 0.0014553808270841748 0.05119518113851422 0 0.0011135617807715773 0.049849056806015847 0 0.0042202851655677364 0.03647945935780935 0 0.0027555923880382745 0.035713802434694644 0 0.0027442262915917779 0.035815405308023504 0 0.0043626162103501381 0.034731384007108727 0 0.0042202851655677364 0.03647945935780935 0 0.0027555923880382745 0.035713802434694644 0 0.0043626162103501381 0.034731384007108727 0 0.0020379615563414131 0.03524710660942347 0 0.0027555923880382745 0.035713802434694644 0 0.0020379615563414131 0.03524710660942347 0 0.0027555923880382745 0.035713802434694644 0 0.0019364693548698571 0.035084681055131295 0 0.0027555923880382745 0.035713802434694644 0 0.0027442262915917779 0.035815405308023504 0 0.0019364693548698571 0.035084681055131295 0 0.0020379615563414131 0.03524710660942347 0 0.0019364693548698571 0.035084681055131295 0 0.001311177118241566 0.037391488160338687 0 0.0019364693548698571 0.035084681055131295 0 0.0006659834745786588 0.03357417039883525 0 0.0010460188548433015 0.035253924567009348 0 0.0019364693548698571 0.035084681055131295 0 0.0015352160752715887 0.034685565143792181 0 0.0006659834745786588 0.03357417039883525 0 0.0027442262915917779 0.035815405308023504 0 0.0019364693548698571 0.035084681055131295 0 0.0015352160752715887 0.034685565143792181 0 0.0015352160752715887 0.034685565143792181 0 0.0006659834745786588 0.03357417039883525 0 0.00053512435351609562 0.033374010086076267 0 0.0006659834745786588 0.03357417039883525 0 0.00060206301892262151 0.033283159810816587 0 0.0010460188548433015 0.035253924567009348 0 0.00060206301892262151 0.033283159810816587 0 2.7340708559322619e-06 0.03365485947099843 0 0.0010460188548433015 0.035253924567009348 0 2.7340708559322619e-06 0.03365485947099843 0 0.0010460188548433015 0.035253924567009348 0 1.3398936762203887e-06 0.038748858481469708 0 0.0010460188548433015 0.035253924567009348 0 0.001311177118241566 0.037391488160338687 0 1.3398936762203887e-06 0.038748858481469708 0 0.0019364693548698571 0.035084681055131295 0 0.0010460188548433015 0.035253924567009348 0 0.001311177118241566 0.037391488160338687 0 1.0226078506193734e-07 0.043840064866571417 0 1.3398936762203887e-06 0.038748858481469708 0 -0.00020469995927533752 0.041336834487703561 0 0.001311177118241566 0.037391488160338687 0 1.3398936762203887e-06 0.038748858481469708 0 -0.00020469995927533752 0.041336834487703561 0 0.0020379615563414131 0.03524710660942347 0 0.001311177118241566 0.037391488160338687 0 -0.00020469995927533752 0.041336834487703561 0 -0.00051333886840615245 0.027896871809906722 0 -0.0014186230634370435 0.028969502376389237 0 -6.3527037840352857e-05 0.031195135039671456 0 -0.00051333886840615245 0.027896871809906722 0 -0.00062336499296274648 0.02667966188378736 0 3.1582558872874618e-05 0.025636600184831406 0 -0.00051333886840615245 0.027896871809906722 0 -0.00062336499296274648 0.02667966188378736 0 -0.0014186230634370435 0.028969502376389237 0 -0.00062336499296274648 0.02667966188378736 0 -0.00010820030067593336 0.023812758709954734 0 -0.00079722681465531581 0.026606928182483287 0 -0.00062336499296274648 0.02667966188378736 0 -0.0014186230634370435 0.028969502376389237 0 -0.00079722681465531581 0.026606928182483287 0 -0.0011980526883905241 0.028834067822403366 0 -0.0014186230634370435 0.028969502376389237 0 -0.00079722681465531581 0.026606928182483287 0 -0.002848574916503891 0.031615564695438907 0 -0.0014186230634370435 0.028969502376389237 0 -6.3527037840352857e-05 0.031195135039671456 0 -9.0531755673646018e-05 0.034757784845729521 0 -6.3527037840352857e-05 0.031195135039671456 0 0.00053512435351609562 0.033374010086076267 0 0.0006659834745786588 0.03357417039883525 0 -6.3527037840352857e-05 0.031195135039671456 0 0.00053512435351609562 0.033374010086076267 0 0.0006659834745786588 0.03357417039883525 0 -6.3527037840352857e-05 0.031195135039671456 0 -0.00024983633862329458 0.032886740505254898 0 -0.00051333886840615245 0.027896871809906722 0 -6.3527037840352857e-05 0.031195135039671456 0 0.00028940836682736547 0.026503160313696643 0 3.2358898300205295e-06 0.030143792728110956 0 5.0277908632627792e-06 0.029592261150889566 0 -0.00051333886840615245 0.027896871809906722 0 0.00028940836682736547 0.026503160313696643 0 3.1582558872874618e-05 0.025636600184831406 0 0.0006659834745786588 0.03357417039883525 0 0.00060206301892262151 0.033283159810816587 0 -0.00024983633862329458 0.032886740505254898 0 0.00060206301892262151 0.033283159810816587 0 -0.00024983633862329458 0.032886740505254898 0 -2.7553969053726166e-06 0.028572671959160089 0 0.00060206301892262151 0.033283159810816587 0 2.7340708559322619e-06 0.03365485947099843 0 -2.7553969053726166e-06 0.028572671959160089 0 5.0277908632627792e-06 0.029592261150889566 0 -5.9070066580797596e-09 0.028565273764768421 0 0.00028940836682736547 0.026503160313696643 0 9.9309539395429856e-08 0.028555887094267592 0 3.1582558872874618e-05 0.025636600184831406 0 9.9309539395429856e-08 0.028555887094267592 0 7.8881622891468311e-07 0.024491128688822073 0 3.1582558872874618e-05 0.025636600184831406 0 -0.00062336499296274648 0.02667966188378736 0 3.1582558872874618e-05 0.025636600184831406 0 -0.00010820030067593336 0.023812758709954734 0 7.8881622891468311e-07 0.024491128688822073 0 -0.00010820030067593336 0.023812758709954734 0 -6.3245322092643806e-07 0.020415742871540514 0 7.8881622891468311e-07 0.024491128688822073 0 3.1582558872874618e-05 0.025636600184831406 0 -0.00010820030067593336 0.023812758709954734 0 -0.00010820030067593336 0.023812758709954734 0 -6.3245322092643806e-07 0.020415742871540514 0 -0.00016243287502498723 0.020990280731558415 0 -0.00016243287502498723 0.020990280731558415 0 2.2792076262130585e-06 0.016339008092921919 0 -0.00099341688735933098 0.020398690939753432 0 -6.3245322092643806e-07 0.020415742871540514 0 -0.00016243287502498723 0.020990280731558415 0 2.2792076262130585e-06 0.016339008092921919 0 -0.00016243287502498723 0.020990280731558415 0 -0.00099341688735933098 0.020398690939753432 0 -0.00072885607220160868 0.024089870300738985 0 -0.00010820030067593336 0.023812758709954734 0 -0.00016243287502498723 0.020990280731558415 0 -0.00072885607220160868 0.024089870300738985 0 -2.8031041078766525e-06 0.012265157604410177 0 -0.0014724944539325801 0.013735291935593447 0 2.2792076262130585e-06 0.016339008092921919 0 -1.1378057035291576e-05 0.012273874983572495 0 -0.00099341688735933098 0.020398690939753432 0 -1.1378057035291576e-05 0.012273874983572495 0 -0.00099341688735933098 0.020398690939753432 0 -0.0047141760092628123 0.021411538868844854 0 -0.0014724944539325801 0.013735291935593447 0 -0.0021654917354700888 0.014743918035800555 0 -0.0047141760092628123 0.021411538868844854 0 -0.0023189700533378073 0.025702261332223364 0 -0.0051585766446313559 0.02604571237001755 0 -0.00099341688735933098 0.020398690939753432 0 -0.0047141760092628123 0.021411538868844854 0 -0.0023189700533378073 0.025702261332223364 0 -0.0023189700533378073 0.025702261332223364 0 -0.0051585766446313559 0.02604571237001755 0 -0.0033952351348872081 0.027898397225148575 0 -0.00079722681465531581 0.026606928182483287 0 -0.00072885607220160868 0.024089870300738985 0 -0.001268220137134045 0.026711738347341404 0 -0.00010820030067593336 0.023812758709954734 0 -0.00079722681465531581 0.026606928182483287 0 -0.00072885607220160868 0.024089870300738985 0 -0.0023189700533378073 0.025702261332223364 0 -0.00072885607220160868 0.024089870300738985 0 -0.001268220137134045 0.026711738347341404 0 -0.00099341688735933098 0.020398690939753432 0 -0.0023189700533378073 0.025702261332223364 0 -0.00072885607220160868 0.024089870300738985 0 -0.0023189700533378073 0.025702261332223364 0 -0.001268220137134045 0.026711738347341404 0 -0.001848928151400254 0.027904349246215824 0 -0.0011980526883905241 0.028834067822403366 0 -0.00079722681465531581 0.026606928182483287 0 -0.001268220137134045 0.026711738347341404 0 -0.0011980526883905241 0.028834067822403366 0 -0.001268220137134045 0.026711738347341404 0 -0.001848928151400254 0.027904349246215824 0 -0.0011980526883905241 0.028834067822403366 0 -0.0016938733753081114 0.028683713128395634 0 -0.001848928151400254 0.027904349246215824 0 -0.0011980526883905241 0.028834067822403366 0 -0.0013997164446983071 0.02890275692861137 0 -0.0016938733753081114 0.028683713128395634 0 -0.0042526160154208962 0.028701370819292912 0 -0.00497477197333554 0.029229616632143334 0 -0.0013997164446983071 0.02890275692861137 0 -0.0016938733753081114 0.028683713128395634 0 -0.0017186586304223865 0.029179968438737745 0 -0.0015796606004392312 0.028715083204200968 0 -0.0014246359506549463 0.028708837913693341 0 -0.0014095189018181096 0.028707728169736203 0 -0.0016938733753081114 0.028683713128395634 0 -0.001848928151400254 0.027904349246215824 0 -0.0026493111711424736 0.028977253658793847 0 -0.0016938733753081114 0.028683713128395634 0 -0.0026493111711424736 0.028977253658793847 0 -0.0020669051197958282 0.029291636929766825 0 -0.0016938733753081114 0.028683713128395634 0 -0.0017186586304223865 0.029179968438737745 0 -0.0020669051197958282 0.029291636929766825 0 -0.0023189700533378073 0.025702261332223364 0 -0.001848928151400254 0.027904349246215824 0 -0.0033952351348872081 0.027898397225148575 0 -0.001848928151400254 0.027904349246215824 0 -0.0033952351348872081 0.027898397225148575 0 -0.0026493111711424736 0.028977253658793847 0 -0.0051585766446313559 0.02604571237001755 0 -0.0033952351348872081 0.027898397225148575 0 -0.0047835917547660763 0.028518159225438728 0 -0.0021654917354700888 0.014743918035800555 0 -0.0023253038670289199 0.015549111800156872 0 -0.0033952351348872081 0.027898397225148575 0 -0.0038173421748223728 0.029116700509191892 0 -0.0047835917547660763 0.028518159225438728 0 -0.0033952351348872081 0.027898397225148575 0 -0.0038173421748223728 0.029116700509191892 0 -0.0026493111711424736 0.028977253658793847 0 -0.0026493111711424736 0.028977253658793847 0 -0.0034848040807501542 0.029888826418106772 0 -0.0026124609316787299 0.029927593432043289 0 -0.0038173421748223728 0.029116700509191892 0 -0.0026493111711424736 0.028977253658793847 0 -0.0034848040807501542 0.029888826418106772 0 -0.0038173421748223728 0.029116700509191892 0 -0.0045664924187201203 0.030000906912339705 0 -0.0047835917547660763 0.028518159225438728 0 -0.0038173421748223728 0.029116700509191892 0 -0.0034848040807501542 0.029888826418106772 0 -0.0045664924187201203 0.030000906912339705 0 -0.0034848040807501542 0.029888826418106772 0 -0.0038328855538098355 0.030662883190273355 0 -0.0045664924187201203 0.030000906912339705 0 -0.0028743466234386755 0.030794883507341331 0 -0.0034848040807501542 0.029888826418106772 0 -0.0026124609316787299 0.029927593432043289 0 -0.0028743466234386755 0.030794883507341331 0 -0.0034848040807501542 0.029888826418106772 0 -0.0038328855538098355 0.030662883190273355 0 -0.0028743466234386755 0.030794883507341331 0 -0.001677205164764098 0.029900508700517098 0 -0.0026124609316787299 0.029927593432043289 0 -0.0063852728532413075 0.028281741169392725 0 -0.0076246303133325598 0.031748489656394395 0 -0.0096305792052159452 0.026635581947277498 0 -0.013364924469351966 0.027920150377776867 0 -0.014446533307105746 0.030956134891184199 0 -0.0098312553749768609 0.034984258179697067 0 -0.0076246303133325598 0.031748489656394395 0 -0.015914980486354879 0.044595908789042536 0 -0.012631801472159001 0.04415446877161551 0 -0.014791481344052204 0.041346483891404419 0 -0.013737639166963697 0.047191489502089304 0 -0.015914980486354879 0.044595908789042536 0 -0.012631801472159001 0.04415446877161551 0 -0.010679957301829879 0.041253283122702662 0 -0.012631801472159001 0.04415446877161551 0 -0.014791481344052204 0.041346483891404419 0 -0.0098312553749768609 0.034984258179697067 0 -0.0078512015972430401 0.032287500623245452 0 -0.0092295033537446065 0.034716538469681375 0 -0.0083168920232045713 0.03213969264196094 0 -0.0078379462290355164 0.031708102953785934 0 -0.0013997164446983071 0.02890275692861137 0 -0.001677205164764098 0.029900508700517098 0 -0.0017186586304223865 0.029179968438737745 0 -0.0014095189018181096 0.028707728169736203 0 -0.0015311785862791166 0.028788766138900929 0 -0.0015070628862457692 0.028779692034403236 0 -0.00497477197333554 0.029229616632143334 0 -0.0076246303133325598 0.031748489656394395 0 -0.0015796606004392312 0.028715083204200968 0 -0.0014246359506549463 0.028708837913693341 0 -0.001369498863412998 0.028596094823012314 0 -0.0063516003134287497 0.032192317509998292 0 -0.0078512015972430401 0.032287500623245452 0 -0.0014246359506549463 0.028708837913693341 0 -0.0014095189018181096 0.028707728169736203 0 -0.0015070628862457692 0.028779692034403236 0 -0.0076246303133325598 0.031748489656394395 0 -0.0078512015972430401 0.032287500623245452 0 -0.0068011988597939986 0.030815289029182558 0 -0.0078512015972430401 0.032287500623245452 0 -0.001677205164764098 0.029900508700517098 0 -0.0020669051197958282 0.029291636929766825 0 -0.0026124609316787299 0.029927593432043289 0 -0.001677205164764098 0.029900508700517098 0 -0.0017186586304223865 0.029179968438737745 0 -0.0020669051197958282 0.029291636929766825 0 -0.0026493111711424736 0.028977253658793847 0 -0.0020669051197958282 0.029291636929766825 0 -0.0026124609316787299 0.029927593432043289 0 0.001162925742260065 0.0022850606817979733 0 0.0007916429629559775 0.0018027534643711672 0 0.00091755700926282981 0.0011077675633603195 0 0.001162925742260065 0.0022850606817979733 0 0.0007916429629559775 0.0018027534643711672 0 0.00063945254655128968 0.0023415172824467687 0 0.00015872986490285217 -0.001874080439749629 0 0.00022887245499648585 -0.0014100260504377349 0 -0.00057143519764180659 -0.0054322048783330924 0 -0.0012015792833864993 -0.00497872744671403 0 -0.0008849698565703705 -0.0046123251946680955 0 -0.00057143519764180659 -0.0054322048783330924 0 -0.0012015792833864993 -0.00497872744671403 0 -0.0015254539526389254 -0.0054967795170361078 0 -0.0012015792833864993 -0.00497872744671403 0 -0.0013704609032690782 -0.0045471114036659821 0 -0.0008849698565703705 -0.0046123251946680955 0 -0.0013704609032690782 -0.0045471114036659821 0 -0.0010913223203561665 -0.0041555287777307682 0 -0.0014841777702220412 -0.0042609289488192469 0 -0.0013704609032690782 -0.0045471114036659821 0 -0.0010913223203561665 -0.0041555287777307682 0 -0.0008849698565703705 -0.0046123251946680955 0 -0.00090089576971117129 -0.0041512346549731063 0 -0.0008849698565703705 -0.0046123251946680955 0 -0.00060543210352514932 -0.0041083802056441918 0 -0.00057143519764180659 -0.0054322048783330924 0 -0.0008849698565703705 -0.0046123251946680955 0 -0.00060543210352514932 -0.0041083802056441918 0 -0.0010913223203561665 -0.0041555287777307682 0 -0.00090089576971117129 -0.0041512346549731063 0 -0.00085080425862241475 -0.0038210957706777309 0 -0.0010913223203561665 -0.0041555287777307682 0 -0.00090089576971117129 -0.0041512346549731063 0 -0.0008849698565703705 -0.0046123251946680955 0 0.0007916429629559775 0.0018027534643711672 0 0.00091755700926282981 0.0011077675633603195 0 0.0007421333870395989 0.001342250677711419 0 -0.00090089576971117129 -0.0041512346549731063 0 -0.00060543210352514932 -0.0041083802056441918 0 -0.00085080425862241475 -0.0038210957706777309 0 0.00063186174437679431 0.00078350160920085668 0 0.00091755700926282981 0.0011077675633603195 0 0.00069499328548523634 0.0010116574924230745 0 0.00091755700926282981 0.0011077675633603195 0 0.00075044524618674913 0.0011370696343225338 0 0.00069499328548523634 0.0010116574924230745 0 0.00091755700926282981 0.0011077675633603195 0 0.00075044524618674913 0.0011370696343225338 0 0.0007421333870395989 0.001342250677711419 0 0.00075044524618674913 0.0011370696343225338 0 0.00063448755101189495 0.0011794157274763362 0 0.0007421333870395989 0.001342250677711419 0 0.00075044524618674913 0.0011370696343225338 0 0.00063448755101189495 0.0011794157274763362 0 0.00069499328548523634 0.0010116574924230745 0 0.00063448755101189495 0.0011794157274763362 0 0.00069499328548523634 0.0010116574924230745 0 0.0005498635856168129 0.0010152213963505077 0 0.0005498635856168129 0.0010152213963505077 0 0.00042335790181402067 0.0012562859338379295 0 0.0004094241395504332 0.00093914572201132069 0 0.00063448755101189495 0.0011794157274763362 0 0.0005498635856168129 0.0010152213963505077 0 0.00042335790181402067 0.0012562859338379295 0 0.00063448755101189495 0.0011794157274763362 0 0.00042335790181402067 0.0012562859338379295 0 0.00059644813640439588 0.0015227024175490408 0 0.00042335790181402067 0.0012562859338379295 0 0.00059644813640439588 0.0015227024175490408 0 0.00036801402085940443 0.0016224441214877882 0 0.0007916429629559775 0.0018027534643711672 0 0.00059644813640439588 0.0015227024175490408 0 0.0007421333870395989 0.001342250677711419 0 0.00063448755101189495 0.0011794157274763362 0 0.00059644813640439588 0.0015227024175490408 0 0.0007421333870395989 0.001342250677711419 0 -0.0034308228644502141 0.02708180194456598 0 -0.0022672123524791182 0.016083615540221294 0 0.00048251585750147438 0.00041688848444169186 0 0.0004094241395504332 0.00093914572201132069 0 -0.00023306574614545477 0.0015973120604387077 0 -0.0044746583569047482 0.030977943244922698 0 -0.0038328855538098355 0.030662883190273355 0 -0.0045664924187201203 0.030000906912339705 0 -0.0017090952992046414 0.015851465166000885 0 -0.0022672123524791182 0.016083615540221294 0 0.00042335790181402067 0.0012562859338379295 0 0.0004094241395504332 0.00093914572201132069 0 -0.00023306574614545477 0.0015973120604387077 0 0.00042335790181402067 0.0012562859338379295 0 -0.00023306574614545477 0.0015973120604387077 0 0.00036801402085940443 0.0016224441214877882 0 -0.00023306574614545477 0.0015973120604387077 0 0.00010191050257590486 0.0019731075676782763 0 -0.00034125966343842969 0.0023533085740827745 0 -0.0022672123524791182 0.016083615540221294 0 -0.0015107493172279276 0.0078347036327163326 0 -0.0001801389603496803 0.0026447137606650634 0 -0.00037057904825819519 0.0028905760683399198 0 -0.00028727349765866346 0.002797371534968993 0 -0.0022672123524791182 0.016083615540221294 0 -0.0023253038670289199 0.015549111800156872 0 -0.00023306574614545477 0.0015973120604387077 0 0.00010191050257590486 0.0019731075676782763 0 0.00036801402085940443 0.0016224441214877882 0 0.00010191050257590486 0.0019731075676782763 0 0.00021630018901330845 0.0023460177246584558 0 -0.00034125966343842969 0.0023533085740827745 0 0.0007916429629559775 0.0018027534643711672 0 0.00059644813640439588 0.0015227024175490408 0 0.00047317362564599645 0.0019260729724862513 0 0.00010191050257590486 0.0019731075676782763 0 0.00047317362564599645 0.0019260729724862513 0 0.00036801402085940443 0.0016224441214877882 0 0.00059644813640439588 0.0015227024175490408 0 0.00047317362564599645 0.0019260729724862513 0 0.00036801402085940443 0.0016224441214877882 0 0.00010191050257590486 0.0019731075676782763 0 0.00047317362564599645 0.0019260729724862513 0 0.00021630018901330845 0.0023460177246584558 0 0.0007916429629559775 0.0018027534643711672 0 0.00047317362564599645 0.0019260729724862513 0 0.00063945254655128968 0.0023415172824467687 0 0.00047317362564599645 0.0019260729724862513 0 0.00063945254655128968 0.0023415172824467687 0 0.00021630018901330845 0.0023460177246584558 0 0.00063945254655128968 0.0023415172824467687 0 0.00021630018901330845 0.0023460177246584558 0 0.00032745858745716731 0.0027884436141474706 0 0.00021630018901330845 0.0023460177246584558 0 0.00032745858745716731 0.0027884436141474706 0 -4.6648913400758422e-05 0.0027005930139514201 0 0.00063945254655128968 0.0023415172824467687 0 0.00032745858745716731 0.0027884436141474706 0 0.00074862054228739671 0.0028070133793624314 0 -0.00034125966343842969 0.0023533085740827745 0 -4.6648913400758422e-05 0.0027005930139514201 0 -0.00040010509661132538 0.0030388132670154293 0 -0.0015107493172279276 0.0078347036327163326 0 -0.0013147017757722092 0.005957444821677562 0 -0.00037057904825819519 0.0028905760683399198 0 -0.00028727349765866346 0.002797371534968993 0 -0.00040010509661132538 0.0030388132670154293 0 0.00021630018901330845 0.0023460177246584558 0 -0.00034125966343842969 0.0023533085740827745 0 -4.6648913400758422e-05 0.0027005930139514201 0 0.00032745858745716731 0.0027884436141474706 0 -4.6648913400758422e-05 0.0027005930139514201 0 -6.4243280944091235e-05 0.0030131702424518185 0 -0.00078414560282548786 0.0035371542828420261 0 -0.00040010509661132538 0.0030388132670154293 0 -0.00018762826387782726 0.0032849484369101905 0 -0.00078414560282548786 0.0035371542828420261 0 -0.00037057904825819519 0.0028905760683399198 0 -0.00040010509661132538 0.0030388132670154293 0 -0.00040010509661132538 0.0030388132670154293 0 -6.4243280944091235e-05 0.0030131702424518185 0 -0.00018762826387782726 0.0032849484369101905 0 -4.6648913400758422e-05 0.0027005930139514201 0 -0.00040010509661132538 0.0030388132670154293 0 -6.4243280944091235e-05 0.0030131702424518185 0 -6.4243280944091235e-05 0.0030131702424518185 0 -0.00018762826387782726 0.0032849484369101905 0 0.00019398577482550411 0.0032381599103338096 0 0.00032745858745716731 0.0027884436141474706 0 0.00053128385465243803 0.0031189263311387212 0 0.00074862054228739671 0.0028070133793624314 0 0.00032745858745716731 0.0027884436141474706 0 0.00019398577482550411 0.0032381599103338096 0 0.00053128385465243803 0.0031189263311387212 0 0.00032745858745716731 0.0027884436141474706 0 -6.4243280944091235e-05 0.0030131702424518185 0 0.00019398577482550411 0.0032381599103338096 0 0.00019398577482550411 0.0032381599103338096 0 0.00053128385465243803 0.0031189263311387212 0 0.00059245995754470286 0.0035333710669949712 0 0.00053128385465243803 0.0031189263311387212 0 0.00081397417412324888 0.0031938045649194053 0 0.00059245995754470286 0.0035333710669949712 0 0.00081397417412324888 0.0031938045649194053 0 0.00093451736041418412 0.0029703743887041882 0 0.0009183563142970831 0.0032118566499502719 0 0.00081397417412324888 0.0031938045649194053 0 0.00093451736041418412 0.0029703743887041882 0 0.00074862054228739671 0.0028070133793624314 0 0.00053128385465243803 0.0031189263311387212 0 0.00081397417412324888 0.0031938045649194053 0 0.00074862054228739671 0.0028070133793624314 0 0.001162925742260065 0.0022850606817979733 0 0.00093451736041418412 0.0029703743887041882 0 0.00074862054228739671 0.0028070133793624314 0 0.001162925742260065 0.0022850606817979733 0 0.00063945254655128968 0.0023415172824467687 0 0.00074862054228739671 0.0028070133793624314 0 -0.00057143519764180659 -0.0054322048783330924 0 -0.0012810843993266569 -0.0060844865969390738 0 -0.0015254539526389254 -0.0054967795170361078 0 0.00015872986490285217 -0.001874080439749629 0 0.00012732031576194369 -0.0023039697087144911 0 -0.00057143519764180659 -0.0054322048783330924 0 -0.00069570217202696426 -0.0067216631615582573 0 -0.0012810843993266569 -0.0060844865969390738 0 0.001162925742260065 0.0022850606817979733 0 0.00093451736041418412 0.0029703743887041882 0 0.00099753342571202411 0.0032444071337416128 0 -0.00057143519764180659 -0.0054322048783330924 0 -0.00069570217202696426 -0.0067216631615582573 0 -0.00059482973932469658 -0.0072087120803760799 0 0.00099753342571202411 0.0032444071337416128 0 0.0009183563142970831 0.0032118566499502719 0 0.00087993688516733786 0.0033394112971060386 0 0.00093451736041418412 0.0029703743887041882 0 0.00099753342571202411 0.0032444071337416128 0 0.0009183563142970831 0.0032118566499502719 0 0.00081397417412324888 0.0031938045649194053 0 0.0009183563142970831 0.0032118566499502719 0 0.00087993688516733786 0.0033394112971060386 0 0.00099753342571202411 0.0032444071337416128 0 0.00087993688516733786 0.0033394112971060386 0 0.00022746313171345835 0.0031127747219872625 0 0.00081397417412324888 0.0031938045649194053 0 0.00087993688516733786 0.0033394112971060386 0 0.00059245995754470286 0.0035333710669949712 0 0.00087993688516733786 0.0033394112971060386 0 0.00059245995754470286 0.0035333710669949712 0 0.00076712311043477816 0.0039017074039776434 0 0.00087993688516733786 0.0033394112971060386 0 0.00064756626902261183 0.0022157645697757299 0 0.00076712311043477816 0.0039017074039776434 0 0.00087993688516733786 0.0033394112971060386 0 0.00064756626902261183 0.0022157645697757299 0 0.00022746313171345835 0.0031127747219872625 0 -0.00078414560282548786 0.0035371542828420261 0 8.6472073550362505e-05 0.0036349469291268497 0 0.00018882994613304065 0.0043933553253106212 0 -0.00078414560282548786 0.0035371542828420261 0 -0.00018762826387782726 0.0032849484369101905 0 8.6472073550362505e-05 0.0036349469291268497 0 -0.00018762826387782726 0.0032849484369101905 0 0.00019398577482550411 0.0032381599103338096 0 8.6472073550362505e-05 0.0036349469291268497 0 8.6472073550362505e-05 0.0036349469291268497 0 0.00059245995754470286 0.0035333710669949712 0 0.00018882994613304065 0.0043933553253106212 0 0.00019398577482550411 0.0032381599103338096 0 8.6472073550362505e-05 0.0036349469291268497 0 0.00059245995754470286 0.0035333710669949712 0 0.00059245995754470286 0.0035333710669949712 0 0.00018882994613304065 0.0043933553253106212 0 0.00076712311043477816 0.0039017074039776434 0 -0.0013246061229885201 0.0057828882472236052 0 -0.00078414560282548786 0.0035371542828420261 0 0.00018882994613304065 0.0043933553253106212 0 -0.0013246061229885201 0.0057828882472236052 0 0.00018882994613304065 0.0043933553253106212 0 0.00056864804704056854 0.0057587830910270513 0 0.00018882994613304065 0.0043933553253106212 0 0.00056864804704056854 0.0057587830910270513 0 0.00076712311043477816 0.0039017074039776434 0 0.00056864804704056854 0.0057587830910270513 0 2.2311872145676259e-06 0.0077272071383786044 0 1.2484436689274752e-06 0.0031895468982854882 0 -5.5246971416862046e-06 0.012254544617162163 0 -0.0013246061229885201 0.0057828882472236052 0 0.00056864804704056854 0.0057587830910270513 0 -5.5246971416862046e-06 0.012254544617162163 0 0.00056864804704056854 0.0057587830910270513 0 2.2311872145676259e-06 0.0077272071383786044 0 0.00056864804704056854 0.0057587830910270513 0 0.00076712311043477816 0.0039017074039776434 0 1.2484436689274752e-06 0.0031895468982854882 0 0.00064756626902261183 0.0022157645697757299 0 0.00076712311043477816 0.0039017074039776434 0 1.2484436689274752e-06 0.0031895468982854882 0 0.00064756626902261183 0.0022157645697757299 0 1.2484436689274752e-06 0.0031895468982854882 0 1.9798525029387553e-06 -0.0013473465069603824 0 0.00064756626902261183 0.0022157645697757299 0 1.9798525029387553e-06 -0.0013473465069603824 0 -0.00074506549100216606 0.00065906789346001728 0 0.00014682991488005262 -0.0038387171967984263 0 -1.9871355312349704e-07 -0.0058811888963025052 0 1.9798525029387553e-06 -0.0013473465069603824 0 -0.00074506549100216606 0.00065906789346001728 0 -4.9134471399336898e-06 -0.0058763369735680181 0 -0.00052315053771971457 -0.008048080346215904 0 -1.9916201113066208e-06 -0.0058905584725260987 0 0.00024291127796841316 -0.0079776014714388801 0 -1.9916201113066208e-06 -0.0058905584725260987 0 2.3532840800889743e-06 -0.0088893368110549362 0 0.00024291127796841316 -0.0079776014714388801 0 2.3532840800889743e-06 -0.0088893368110549362 0 0.00015353521990310259 -0.00902638439205097 0 -3.2145137023978707e-06 -0.011888763615840401 0 2.3532840800889743e-06 -0.0088893368110549362 0 0.00015353521990310259 -0.00902638439205097 0 0.00024291127796841316 -0.0079776014714388801 0 0.00015353521990310259 -0.00902638439205097 0 6.4400287916984098e-05 -0.0081991047196677963 0 0.00024291127796841316 -0.0079776014714388801 0 0.00015353521990310259 -0.00902638439205097 0 6.4400287916984098e-05 -0.0081991047196677963 0 -0.00046048633106848222 -0.008004688167619926 0 -0.00052315053771971457 -0.008048080346215904 0 0.00024291127796841316 -0.0079776014714388801 0 -0.00027600750769501574 -0.0080539259936456952 0 6.4400287916984098e-05 -0.0081991047196677963 0 0.00024291127796841316 -0.0079776014714388801 0 -0.00027600750769501574 -0.0080539259936456952 0 -0.00027600750769501574 -0.0080539259936456952 0 -0.00023181838833875851 -0.0079687916246260967 0 -0.0003258305605013774 -0.0078250943626577973 0 6.4400287916984098e-05 -0.0081991047196677963 0 -0.00027600750769501574 -0.0080539259936456952 0 -0.00023181838833875851 -0.0079687916246260967 0 -0.00023181838833875851 -0.0079687916246260967 0 -0.00046238991151088485 -0.0078285813558204315 0 -0.00046048633106848222 -0.008004688167619926 0 6.4400287916984098e-05 -0.0081991047196677963 0 -0.00023181838833875851 -0.0079687916246260967 0 -0.00046048633106848222 -0.008004688167619926 0 -0.00023181838833875851 -0.0079687916246260967 0 -0.00046238991151088485 -0.0078285813558204315 0 -0.0003258305605013774 -0.0078250943626577973 0 -0.00046238991151088485 -0.0078285813558204315 0 -0.0003258305605013774 -0.0078250943626577973 0 -0.00040672752304551511 -0.0077080886125866612 0 -0.00027600750769501574 -0.0080539259936456952 0 -0.0003258305605013774 -0.0078250943626577973 0 -0.00037972112942829861 -0.0077333695844295945 0 -0.0003258305605013774 -0.0078250943626577973 0 -0.00037972112942829861 -0.0077333695844295945 0 -0.00037197136029615849 -0.0077091873243659587 0 -0.00027600750769501574 -0.0080539259936456952 0 -0.00037972112942829861 -0.0077333695844295945 0 -0.00035470909408542964 -0.0078087721033660304 0 0.00012732031576194369 -0.0023039697087144911 0 0.00012002818069552038 -0.0028476772128375421 0 -0.00037972112942829861 -0.0077333695844295945 0 -0.00035470909408542964 -0.0078087721033660304 0 -0.00047961965869280178 -0.007540880419838511 0 -0.00059482973932469658 -0.0072087120803760799 0 -0.00035470909408542964 -0.0078087721033660304 0 -0.00047961965869280178 -0.007540880419838511 0 0.00064756626902261183 0.0022157645697757299 0 -0.00074506549100216606 0.00065906789346001728 0 0.00022746313171345835 0.0031127747219872625 0 0.00014682991488005262 -0.0038387171967984263 0 0.00012002818069552038 -0.0028476772128375421 0 -0.00052315053771971457 -0.008048080346215904 0 -0.00027600750769501574 -0.0080539259936456952 0 -0.00035470909408542964 -0.0078087721033660304 0 0.00036465365574400358 -0.018071416441357884 0 -0.0003085497783727182 -0.017529877544560955 0 -0.00071018244158679487 -0.018120506952998251 0 9.9121029151491566e-07 -0.019425478612783747 0 0.00036465365574400358 -0.018071416441357884 0 -0.00071018244158679487 -0.018120506952998251 0 -4.4452536403261339e-06 -0.019442486348248456 0 -0.0024160241020612801 -0.022740940714677207 0 -3.8743275356697876e-07 -0.017015809542579263 0 -0.00021020903741319477 -0.016629744873023659 0 1.0496753798034779e-07 -0.017005844316647853 0 -2.5410893131929913e-05 -0.014536483086321331 0 0.00037273396725407906 -0.014657110500102632 0 9.9121029151491566e-07 -0.019425478612783747 0 -1.0224282152261046e-06 -0.017029438004964387 0 0.00036465365574400358 -0.018071416441357884 0 -2.5410893131929913e-05 -0.014536483086321331 0 0.00037273396725407906 -0.014657110500102632 0 1.3380653393222762e-05 -0.014926969038895621 0 -2.5410893131929913e-05 -0.014536483086321331 0 1.3380653393222762e-05 -0.014926969038895621 0 -3.7643819639558826e-05 -0.014738804327321381 0 1.0496753798034779e-07 -0.017005844316647853 0 0.00037273396725407906 -0.014657110500102632 0 -1.1099115032111804e-07 -0.011905539624310322 0 -1.0508223951139346e-06 -0.011895318016549156 0 -0.0005659155712985966 -0.012074722840868315 0 0.00037273396725407906 -0.014657110500102632 0 -1.1099115032111804e-07 -0.011905539624310322 0 1.3380653393222762e-05 -0.014926969038895621 0 0.00015353521990310259 -0.00902638439205097 0 -3.2145137023978707e-06 -0.011888763615840401 0 -0.0010451620149211143 -0.0084340221019046924 0 0.00015353521990310259 -0.00902638439205097 0 -0.0010451620149211143 -0.0084340221019046924 0 -0.00046048633106848222 -0.008004688167619926 0 -0.0010451620149211143 -0.0084340221019046924 0 -0.00046048633106848222 -0.008004688167619926 0 -0.00077200773586163368 -0.0078079670388826114 0 -0.00046238991151088485 -0.0078285813558204315 0 -0.00046048633106848222 -0.008004688167619926 0 -0.00077200773586163368 -0.0078079670388826114 0 -0.00046238991151088485 -0.0078285813558204315 0 -0.00077200773586163368 -0.0078079670388826114 0 -0.00068008679110145322 -0.0077888952997173435 0 -2.689377233907357e-05 -0.014732423943574364 0 1.1686232315781859e-05 -0.014768435786522168 0 1.7320565668655109e-05 -0.01484921545872314 0 -0.0010796286830958312 -0.012989829939600286 0 -0.001020706622909774 -0.018195472915443829 0 -0.0005659155712985966 -0.012074722840868315 0 -0.0010796286830958312 -0.012989829939600286 0 1.3380653393222762e-05 -0.014926969038895621 0 -2.689377233907357e-05 -0.014732423943574364 0 -3.7643819639558826e-05 -0.014738804327321381 0 -2.689377233907357e-05 -0.014732423943574364 0 -3.7643819639558826e-05 -0.014738804327321381 0 1.1686232315781859e-05 -0.014768435786522168 0 0.00036465365574400358 -0.018071416441357884 0 0.00031663598322828965 -0.017333265168209641 0 -0.0003085497783727182 -0.017529877544560955 0 -0.00021020903741319477 -0.016629744873023659 0 -0.00061274774605824108 -0.017043499718591707 0 -2.5410893131929913e-05 -0.014536483086321331 0 -3.7643819639558826e-05 -0.014738804327321381 0 1.1686232315781859e-05 -0.014768435786522168 0 -0.00061274774605824108 -0.017043499718591707 0 -0.0014628441470585585 -0.020077166329820824 0 0.00031663598322828965 -0.017333265168209641 0 -0.00038950331018416674 -0.016895151464036834 0 0.00032993086114734932 -0.016563570918167903 0 0.00031663598322828965 -0.017333265168209641 0 -0.00038950331018416674 -0.016895151464036834 0 -0.0003085497783727182 -0.017529877544560955 0 -0.00096646127626162507 -0.032627919572593117 0 -0.00096052983955135748 -0.032741798318251768 0 -0.00083082465567214296 -0.032704915737046716 0 -0.00096646127626162507 -0.032627919572593117 0 -0.0011102444103528548 -0.032716235187615843 0 -0.00096052983955135748 -0.032741798318251768 0 -0.00095285280083394345 -0.032491854291607933 0 -0.00096646127626162507 -0.032627919572593117 0 -0.0008391313227328087 -0.03256589570787085 0 -0.00095285280083394345 -0.032491854291607933 0 -0.00096646127626162507 -0.032627919572593117 0 -0.0011081611866612497 -0.032548544456731582 0 -0.0016358706049948721 -0.025203837961165002 0 -0.0014628441470585585 -0.020077166329820824 0 -0.0014628441470585585 -0.020077166329820824 0 -0.001020706622909774 -0.018195472915443829 0 -0.00062613542116839139 -0.018390830305794852 0 -0.00066902946117512589 -0.019882996450899602 0 -0.0010479742506649345 -0.018591589174086754 0 -0.00096646127626162507 -0.032627919572593117 0 -0.0011081611866612497 -0.032548544456731582 0 -0.0011102444103528548 -0.032716235187615843 0 -0.0014628441470585585 -0.020077166329820824 0 -0.0012298425188529943 -0.019973767466993381 0 -0.0012298425188529943 -0.019973767466993381 0 -0.001020706622909774 -0.018195472915443829 0 -0.00017494396080444628 -0.0085234466662246801 0 -0.00051758807251500217 -0.0081285500898987794 0 -0.00042657310001798535 -0.0078872739881683789 0 -0.00017494396080444628 -0.0085234466662246801 0 -0.00062125856128090616 -0.0083939838205889516 0 -0.00051758807251500217 -0.0081285500898987794 0 -0.00062125856128090616 -0.0083939838205889516 0 -0.00072032523386627407 -0.0080770548721864916 0 -0.00088637308119802344 -0.0083768202772306604 0 -0.00062125856128090616 -0.0083939838205889516 0 -0.00088637308119802344 -0.0083768202772306604 0 -0.000758295624325071 -0.0085478698525045908 0 -0.00062125856128090616 -0.0083939838205889516 0 -0.00072032523386627407 -0.0080770548721864916 0 -0.00051758807251500217 -0.0081285500898987794 0 -0.00072032523386627407 -0.0080770548721864916 0 -0.00051758807251500217 -0.0081285500898987794 0 -0.00060278753021890885 -0.0079913055793964499 0 -0.00051758807251500217 -0.0081285500898987794 0 -0.00051458670252841167 -0.0079145953336620684 0 -0.00060278753021890885 -0.0079913055793964499 0 -0.00050188465900989881 -0.0078831011214688541 0 -0.00051458670252841167 -0.0079145953336620684 0 -0.00068008679110145322 -0.0077888952997173435 0 -0.00077200773586163368 -0.0078079670388826114 0 -0.00050188465900989881 -0.0078831011214688541 0 -0.00068008679110145322 -0.0077888952997173435 0 -2.689377233907357e-05 -0.014732423943574364 0 1.7320565668655109e-05 -0.01484921545872314 0 -1.0736125938453493e-05 -0.014864016803528725 0 -0.001020706622909774 -0.018195472915443829 0 -0.00098835515589939735 -0.018155770268293882 0 -0.00051758807251500217 -0.0081285500898987794 0 -0.00042657310001798535 -0.0078872739881683789 0 -0.00051458670252841167 -0.0079145953336620684 0 -0.00072032523386627407 -0.0080770548721864916 0 -0.00068008679110145322 -0.0077888952997173435 0 -0.00060278753021890885 -0.0079913055793964499 0 -0.00051458670252841167 -0.0079145953336620684 0 -0.00068008679110145322 -0.0077888952997173435 0 -0.00060278753021890885 -0.0079913055793964499 0 -0.00068008679110145322 -0.0077888952997173435 0 -0.0011575352110638109 -0.0080731743226148019 0 -0.00090819419639874099 -0.0081214125721566499 0 -0.00068008679110145322 -0.0077888952997173435 0 -0.0011575352110638109 -0.0080731743226148019 0 -0.0015690362415956619 -0.0078451468826958269 0 -0.00046238991151088485 -0.0078285813558204315 0 -0.00068008679110145322 -0.0077888952997173435 0 -0.00040672752304551511 -0.0077080886125866612 0 -0.00090026401737983229 -0.0077369218251846002 0 -0.0010983785224353609 -0.0077409877745849695 0 -0.00072032523386627407 -0.0080770548721864916 0 -0.00068008679110145322 -0.0077888952997173435 0 -0.00090819419639874099 -0.0081214125721566499 0 -0.0011575352110638109 -0.0080731743226148019 0 -0.00090819419639874099 -0.0081214125721566499 0 -0.0010536497019075625 -0.0083331915608042713 0 -0.00090819419639874099 -0.0081214125721566499 0 -0.00088637308119802344 -0.0083768202772306604 0 -0.0010536497019075625 -0.0083331915608042713 0 -0.00072032523386627407 -0.0080770548721864916 0 -0.00090819419639874099 -0.0081214125721566499 0 -0.00088637308119802344 -0.0083768202772306604 0 -0.00088637308119802344 -0.0083768202772306604 0 -0.0010536497019075625 -0.0083331915608042713 0 -0.0010400102604753126 -0.0085635772701381039 0 -0.0011575352110638109 -0.0080731743226148019 0 -0.0010536497019075625 -0.0083331915608042713 0 -0.0012747305539341741 -0.0085311735262329491 0 -0.0010536497019075625 -0.0083331915608042713 0 -0.0010400102604753126 -0.0085635772701381039 0 -0.0012747305539341741 -0.0085311735262329491 0 -0.0010400102604753126 -0.0085635772701381039 0 -0.00099560059385048801 -0.0090206617373100699 0 -0.0012747305539341741 -0.0085311735262329491 0 -0.00088637308119802344 -0.0083768202772306604 0 -0.00089336517041058215 -0.0086993242666607972 0 -0.000758295624325071 -0.0085478698525045908 0 -0.0010400102604753126 -0.0085635772701381039 0 -0.00089336517041058215 -0.0086993242666607972 0 -0.00099560059385048801 -0.0090206617373100699 0 -0.00088637308119802344 -0.0083768202772306604 0 -0.0010400102604753126 -0.0085635772701381039 0 -0.00089336517041058215 -0.0086993242666607972 0 -0.00089336517041058215 -0.0086993242666607972 0 -0.00099560059385048801 -0.0090206617373100699 0 -0.00080425412571601715 -0.008854933273445836 0 -0.00099560059385048801 -0.0090206617373100699 0 -0.00080425412571601715 -0.008854933273445836 0 -0.0007005053798767888 -0.0089730584300081895 0 -0.0032705958897623452 -0.0051178663049556471 0 -0.0032984943056329663 -0.0049056143753958975 0 -0.0030618070451613965 -0.0048954401890930052 0 -0.0032984943056329663 -0.0049056143753958975 0 -0.0032861870476320414 -0.0047434822468205452 0 -0.0030618070451613965 -0.0048954401890930052 0 -0.0032861870476320414 -0.0047434822468205452 0 -0.0035706596863228964 -0.0048629591138303089 0 -0.0034447347820009328 -0.0046287400497002041 0 -0.0032984943056329663 -0.0049056143753958975 0 -0.0032861870476320414 -0.0047434822468205452 0 -0.0035706596863228964 -0.0048629591138303089 0 -0.0050615619085456936 -0.010245005028980547 0 -0.0048155503148836392 -0.011091662910927979 0 -0.0032705958897623452 -0.0051178663049556471 0 -0.0032984943056329663 -0.0049056143753958975 0 -0.0035706596863228964 -0.0048629591138303089 0 -0.0033628786271360871 -0.0051001582305351002 0 -0.0032705958897623452 -0.0051178663049556471 0 -0.0035130724266913657 -0.0050396546840824202 0 -0.00055599371710861659 -0.0091966396319824069 0 -0.0004282546027803902 -0.0089700397973668852 0 -0.0007005053798767888 -0.0089730584300081895 0 -0.00099560059385048801 -0.0090206617373100699 0 -0.00055599371710861659 -0.0091966396319824069 0 -0.0007005053798767888 -0.0089730584300081895 0 -0.0034149879743030406 -0.0096535538765755626 0 -0.0034222021303129107 -0.014206945707022651 0 -0.00099560059385048801 -0.0090206617373100699 0 -0.00055599371710861659 -0.0091966396319824069 0 -0.00027587261004913765 -0.0096002618653748279 0 -0.0033628786271360871 -0.0051001582305351002 0 -0.0035130724266913657 -0.0050396546840824202 0 -0.0037356756214035397 -0.0049873040574090676 0 -0.0048155503148836392 -0.011091662910927979 0 -0.0034222021303129107 -0.014206945707022651 0 -0.00055599371710861659 -0.0091966396319824069 0 -0.0003309436699271463 -0.0093208689242464966 0 -0.00027587261004913765 -0.0096002618653748279 0 -0.0003309436699271463 -0.0093208689242464966 0 -0.0004282546027803902 -0.0089700397973668852 0 -0.00017967995681457259 -0.0090840090887189442 0 -0.00055599371710861659 -0.0091966396319824069 0 -0.0003309436699271463 -0.0093208689242464966 0 -0.0004282546027803902 -0.0089700397973668852 0 -0.0004282546027803902 -0.0089700397973668852 0 -0.0007005053798767888 -0.0089730584300081895 0 -0.00062872396899810634 -0.0087274512562629473 0 -0.00080425412571601715 -0.008854933273445836 0 -0.0007005053798767888 -0.0089730584300081895 0 -0.00062872396899810634 -0.0087274512562629473 0 -0.00089336517041058215 -0.0086993242666607972 0 -0.000758295624325071 -0.0085478698525045908 0 -0.00062872396899810634 -0.0087274512562629473 0 -0.00089336517041058215 -0.0086993242666607972 0 -0.00080425412571601715 -0.008854933273445836 0 -0.00062872396899810634 -0.0087274512562629473 0 -0.00062125856128090616 -0.0083939838205889516 0 -0.000758295624325071 -0.0085478698525045908 0 -0.00062872396899810634 -0.0087274512562629473 0 -0.00017494396080444628 -0.0085234466662246801 0 -0.0004282546027803902 -0.0089700397973668852 0 -0.00062872396899810634 -0.0087274512562629473 0 -0.00017494396080444628 -0.0085234466662246801 0 -0.00062125856128090616 -0.0083939838205889516 0 -0.00062872396899810634 -0.0087274512562629473 0 -0.0016254286995680152 -0.01989554056554909 0 -0.0016040915118814155 -0.019888053857650762 0 -0.001608006836308368 -0.019888021236872774 0 -0.0012298425188529943 -0.019973767466993381 0 -0.00010804890825234456 -0.024144549716590667 0 -0.00017494396080444628 -0.0085234466662246801 0 -0.0004282546027803902 -0.0089700397973668852 0 -0.00017967995681457259 -0.0090840090887189442 0 -0.0012298425188529943 -0.019973767466993381 0 -0.0018716215284323994 -0.016698573949113976 0 -0.0011102444103528548 -0.032716235187615843 0 -0.0010554673597945288 -0.032888202329881461 0 -0.00098007655398536157 -0.032832096507032241 0 -0.0018716215284323994 -0.016698573949113976 0 -0.0028227095777727386 -0.015877997082741502 0 -0.0016040915118814155 -0.019888053857650762 0 -0.001608006836308368 -0.019888021236872774 0 -0.0015979133246958434 -0.019883809592954556 0 -0.0003309436699271463 -0.0093208689242464966 0 -0.00017967995681457259 -0.0090840090887189442 0 -0.00020057295169263544 -0.0096577896042859476 0 -0.0003309436699271463 -0.0093208689242464966 0 -0.00027587261004913765 -0.0096002618653748279 0 -0.00020057295169263544 -0.0096577896042859476 0 -0.00092974484864597894 -0.032949577403893558 0 -0.00098007655398536157 -0.032832096507032241 0 -0.00084800306112397996 -0.032862096144888622 0 -0.0010554673597945288 -0.032888202329881461 0 -0.00092974484864597894 -0.032949577403893558 0 -0.001000636424025282 -0.033050957197275625 0 -0.0010554673597945288 -0.032888202329881461 0 -0.00092974484864597894 -0.032949577403893558 0 -0.00098007655398536157 -0.032832096507032241 0 -0.0011102444103528548 -0.032716235187615843 0 -0.00098007655398536157 -0.032832096507032241 0 -0.00096052983955135748 -0.032741798318251768 0 -0.00098007655398536157 -0.032832096507032241 0 -0.00096052983955135748 -0.032741798318251768 0 -0.00084800306112397996 -0.032862096144888622 0 -0.0020286146378811431 -0.0060990101256508346 0 -0.0017168515929614151 -0.0064443684491355003 0 -0.0022828577661423758 -0.006317572616571546 0 -0.0020286146378811431 -0.0060990101256508346 0 -0.0023628431513737524 -0.0058363532186620892 0 -0.0022828577661423758 -0.006317572616571546 0 -0.0023628431513737524 -0.0058363532186620892 0 -0.0020404921807069929 -0.0057227842488702715 0 -0.0024446996784472626 -0.0053695453440764209 0 -0.0020286146378811431 -0.0060990101256508346 0 -0.0023628431513737524 -0.0058363532186620892 0 -0.0020404921807069929 -0.0057227842488702715 0 -0.0020286146378811431 -0.0060990101256508346 0 -0.0020404921807069929 -0.0057227842488702715 0 -0.0017591108296460497 -0.0060195907930517501 0 -0.0020404921807069929 -0.0057227842488702715 0 -0.0017591108296460497 -0.0060195907930517501 0 -0.0015254539526389254 -0.0054967795170361078 0 -0.00069570217202696426 -0.0067216631615582573 0 -0.0012810843993266569 -0.0060844865969390738 0 -0.0017168515929614151 -0.0064443684491355003 0 -0.0012810843993266569 -0.0060844865969390738 0 -0.0017591108296460497 -0.0060195907930517501 0 -0.0015254539526389254 -0.0054967795170361078 0 -0.0012810843993266569 -0.0060844865969390738 0 -0.0017591108296460497 -0.0060195907930517501 0 -0.0017168515929614151 -0.0064443684491355003 0 -0.0020286146378811431 -0.0060990101256508346 0 -0.0017591108296460497 -0.0060195907930517501 0 -0.0017168515929614151 -0.0064443684491355003 0 -0.00057093547526754598 -0.0074210946065811998 0 -0.00047961965869280178 -0.007540880419838511 0 -0.0004408545609588271 -0.0075983526144785939 0 -0.00085443781872151354 -0.0074083762704511653 0 -0.0010855970517521282 -0.0074995306497816971 0 -0.00069570217202696426 -0.0067216631615582573 0 -0.00059482973932469658 -0.0072087120803760799 0 -0.00057093547526754598 -0.0074210946065811998 0 -0.00059482973932469658 -0.0072087120803760799 0 -0.00057093547526754598 -0.0074210946065811998 0 -0.00047961965869280178 -0.007540880419838511 0 -0.0010855970517521282 -0.0074995306497816971 0 -0.0016312372514288567 -0.0077517725204458623 0 -0.00057093547526754598 -0.0074210946065811998 0 -0.0004408545609588271 -0.0075983526144785939 0 -0.00040827802735436951 -0.0076509417198912617 0 -0.00037972112942829861 -0.0077333695844295945 0 -0.00047961965869280178 -0.007540880419838511 0 -0.0004408545609588271 -0.0075983526144785939 0 -0.0004408545609588271 -0.0075983526144785939 0 -0.0003912930161567042 -0.0076547899525994962 0 -0.00037197136029615849 -0.0077091873243659587 0 -0.0015985790988371615 -0.0077658133500019613 0 -0.0016312372514288567 -0.0077517725204458623 0 -0.00037972112942829861 -0.0077333695844295945 0 -0.0004408545609588271 -0.0075983526144785939 0 -0.00037197136029615849 -0.0077091873243659587 0 -0.0003912930161567042 -0.0076547899525994962 0 -0.00037197136029615849 -0.0077091873243659587 0 -0.00040672752304551511 -0.0077080886125866612 0 -0.0016312372514288567 -0.0077517725204458623 0 -0.0010983785224353609 -0.0077409877745849695 0 -0.0003258305605013774 -0.0078250943626577973 0 -0.00037197136029615849 -0.0077091873243659587 0 -0.00040672752304551511 -0.0077080886125866612 0 -0.0011575352110638109 -0.0080731743226148019 0 -0.0015690362415956619 -0.0078451468826958269 0 -0.0016879825168631621 -0.0084832146129145275 0 -0.0011575352110638109 -0.0080731743226148019 0 -0.0016879825168631621 -0.0084832146129145275 0 -0.0012747305539341741 -0.0085311735262329491 0 -0.0024051040790485471 -0.007942909230820458 0 -0.0015690362415956619 -0.0078451468826958269 0 -0.0016879825168631621 -0.0084832146129145275 0 -0.0016312372514288567 -0.0077517725204458623 0 -0.0027128735024275737 -0.0080840534953647344 0 -0.0023628431513737524 -0.0058363532186620892 0 -0.0022828577661423758 -0.006317572616571546 0 -0.0029094507790761682 -0.00558106820283017 0 -0.0023628431513737524 -0.0058363532186620892 0 -0.0029094507790761682 -0.00558106820283017 0 -0.0024446996784472626 -0.0053695453440764209 0 -0.0029094507790761682 -0.00558106820283017 0 -0.0024446996784472626 -0.0053695453440764209 0 -0.0028185195931321586 -0.0050926458250272139 0 -0.0024446996784472626 -0.0053695453440764209 0 -0.0028185195931321586 -0.0050926458250272139 0 -0.0023865592606714453 -0.004880538523521021 0 -0.00099560059385048801 -0.0090206617373100699 0 -0.0016879825168631621 -0.0084832146129145275 0 -0.0012747305539341741 -0.0085311735262329491 0 -0.0033628786271360871 -0.0051001582305351002 0 -0.0032705958897623452 -0.0051178663049556471 0 -0.0029094507790761682 -0.00558106820283017 0 -0.0032705958897623452 -0.0051178663049556471 0 -0.0029094507790761682 -0.00558106820283017 0 -0.0028185195931321586 -0.0050926458250272139 0 -0.0034149879743030406 -0.0096535538765755626 0 -0.0027128735024275737 -0.0080840534953647344 0 -0.0028185195931321586 -0.0050926458250272139 0 -0.0030618070451613965 -0.0048954401890930052 0 -0.0027308569013486956 -0.0046250210663728707 0 -0.0032705958897623452 -0.0051178663049556471 0 -0.0028185195931321586 -0.0050926458250272139 0 -0.0030618070451613965 -0.0048954401890930052 0 -0.0030618070451613965 -0.0048954401890930052 0 -0.0027308569013486956 -0.0046250210663728707 0 -0.0030557588973386708 -0.0045669517136468383 0 -0.0032861870476320414 -0.0047434822468205452 0 -0.0030618070451613965 -0.0048954401890930052 0 -0.0030557588973386708 -0.0045669517136468383 0 -0.0028185195931321586 -0.0050926458250272139 0 -0.0023865592606714453 -0.004880538523521021 0 -0.0027308569013486956 -0.0046250210663728707 0 -0.0023865592606714453 -0.004880538523521021 0 -0.0027308569013486956 -0.0046250210663728707 0 -0.0022872551628860863 -0.004396656984672659 0 -0.0023865592606714453 -0.004880538523521021 0 -0.0018821780599821562 -0.0046016442928707886 0 -0.0022872551628860863 -0.004396656984672659 0 -0.0023865592606714453 -0.004880538523521021 0 -0.0018821780599821562 -0.0046016442928707886 0 -0.0020290932575820122 -0.0051721250528731092 0 -0.0024446996784472626 -0.0053695453440764209 0 -0.0023865592606714453 -0.004880538523521021 0 -0.0020290932575820122 -0.0051721250528731092 0 -0.0020404921807069929 -0.0057227842488702715 0 -0.0024446996784472626 -0.0053695453440764209 0 -0.0020290932575820122 -0.0051721250528731092 0 -0.0020404921807069929 -0.0057227842488702715 0 -0.0020290932575820122 -0.0051721250528731092 0 -0.0015254539526389254 -0.0054967795170361078 0 -0.0020290932575820122 -0.0051721250528731092 0 -0.0015254539526389254 -0.0054967795170361078 0 -0.0016115969965981431 -0.0049734049033828146 0 -0.0012015792833864993 -0.00497872744671403 0 -0.0015254539526389254 -0.0054967795170361078 0 -0.0016115969965981431 -0.0049734049033828146 0 -0.0013704609032690782 -0.0045471114036659821 0 -0.0018821780599821562 -0.0046016442928707886 0 -0.0016115969965981431 -0.0049734049033828146 0 -0.0013704609032690782 -0.0045471114036659821 0 -0.0018821780599821562 -0.0046016442928707886 0 -0.0014841777702220412 -0.0042609289488192469 0 -0.0018821780599821562 -0.0046016442928707886 0 -0.0020290932575820122 -0.0051721250528731092 0 -0.0016115969965981431 -0.0049734049033828146 0 -0.0012015792833864993 -0.00497872744671403 0 -0.0013704609032690782 -0.0045471114036659821 0 -0.0016115969965981431 -0.0049734049033828146 0 -0.0012203857582128476 -0.0040015855470714942 0 -0.0014841777702220412 -0.0042609289488192469 0 -0.0018133641785472159 -0.0040473170100873241 0 -0.0018821780599821562 -0.0046016442928707886 0 -0.0014841777702220412 -0.0042609289488192469 0 -0.0018133641785472159 -0.0040473170100873241 0 -0.0022872551628860863 -0.004396656984672659 0 -0.0018133641785472159 -0.0040473170100873241 0 -0.0023254085216376265 -0.0039986920839988685 0 -0.0018821780599821562 -0.0046016442928707886 0 -0.0022872551628860863 -0.004396656984672659 0 -0.0018133641785472159 -0.0040473170100873241 0 -0.0018133641785472159 -0.0040473170100873241 0 -0.0020934464836823317 -0.0036727743725691038 0 -0.0023254085216376265 -0.0039986920839988685 0 -0.0018133641785472159 -0.0040473170100873241 0 -0.0017130962462055014 -0.0035824205001177387 0 -0.0020934464836823317 -0.0036727743725691038 0 -0.0012203857582128476 -0.0040015855470714942 0 -0.0018133641785472159 -0.0040473170100873241 0 -0.0017130962462055014 -0.0035824205001177387 0 -0.0017130962462055014 -0.0035824205001177387 0 -0.0020934464836823317 -0.0036727743725691038 0 -0.0021742050482747013 -0.0031700050440135233 0 -0.0020934464836823317 -0.0036727743725691038 0 -0.0021742050482747013 -0.0031700050440135233 0 -0.0024480776283190061 -0.003586607029614706 0 -0.0020934464836823317 -0.0036727743725691038 0 -0.0024480776283190061 -0.003586607029614706 0 -0.0023254085216376265 -0.0039986920839988685 0 -0.003581540121130954 0.0053515452448153113 0 -0.0050939810369927518 0.0026241316572515674 0 -0.0051404529269969464 0.0048321525849306735 0 -0.0050939810369927518 0.0026241316572515674 0 -0.0065022909405327029 0.0049469935823227458 0 -0.0051404529269969464 0.0048321525849306735 0 -0.0038762896879312465 -0.0012694517552527239 0 -0.0052074071648288527 -0.0010609672944110102 0 -0.002858331655044555 -0.0033524236706792476 0 -0.0033227188621803298 -0.0033793037982963519 0 -0.002914635700479248 -0.0030345155023141375 0 -0.002858331655044555 -0.0033524236706792476 0 -0.0025799700013353958 -0.0031364948095935594 0 -0.002914635700479248 -0.0030345155023141375 0 -0.0021742050482747013 -0.0031700050440135233 0 -0.0024480776283190061 -0.003586607029614706 0 -0.0025799700013353958 -0.0031364948095935594 0 -0.002858331655044555 -0.0033524236706792476 0 -0.0024480776283190061 -0.003586607029614706 0 -0.0025799700013353958 -0.0031364948095935594 0 -0.0024480776283190061 -0.003586607029614706 0 -0.0028104772193937055 -0.0036849965385521159 0 -0.0027636583268419042 -0.0040201804597693675 0 -0.002858331655044555 -0.0033524236706792476 0 -0.0024480776283190061 -0.003586607029614706 0 -0.0028104772193937055 -0.0036849965385521159 0 -0.002858331655044555 -0.0033524236706792476 0 -0.0028104772193937055 -0.0036849965385521159 0 -0.0031418442063802553 -0.0036564199583662971 0 -0.0028104772193937055 -0.0036849965385521159 0 -0.003136216224877465 -0.0039788134103182441 0 -0.0031418442063802553 -0.0036564199583662971 0 -0.0028104772193937055 -0.0036849965385521159 0 -0.0027636583268419042 -0.0040201804597693675 0 -0.003136216224877465 -0.0039788134103182441 0 -0.0027636583268419042 -0.0040201804597693675 0 -0.0030652703513448371 -0.0042435183393537759 0 -0.0028540734034089403 -0.0043433370503161983 0 -0.0027636583268419042 -0.0040201804597693675 0 -0.0025966428789075428 -0.0042759116685675098 0 -0.0028540734034089403 -0.0043433370503161983 0 -0.0027636583268419042 -0.0040201804597693675 0 -0.0030652703513448371 -0.0042435183393537759 0 -0.003136216224877465 -0.0039788134103182441 0 -0.0027636583268419042 -0.0040201804597693675 0 -0.0023254085216376265 -0.0039986920839988685 0 -0.0025966428789075428 -0.0042759116685675098 0 -0.0024480776283190061 -0.003586607029614706 0 -0.0027636583268419042 -0.0040201804597693675 0 -0.0023254085216376265 -0.0039986920839988685 0 -0.0027308569013486956 -0.0046250210663728707 0 -0.0022872551628860863 -0.004396656984672659 0 -0.0025966428789075428 -0.0042759116685675098 0 -0.0022872551628860863 -0.004396656984672659 0 -0.0023254085216376265 -0.0039986920839988685 0 -0.0025966428789075428 -0.0042759116685675098 0 -0.0027308569013486956 -0.0046250210663728707 0 -0.0025966428789075428 -0.0042759116685675098 0 -0.0028540734034089403 -0.0043433370503161983 0 -0.0030652703513448371 -0.0042435183393537759 0 -0.0028540734034089403 -0.0043433370503161983 0 -0.0030557588973386708 -0.0045669517136468383 0 -0.0027308569013486956 -0.0046250210663728707 0 -0.0028540734034089403 -0.0043433370503161983 0 -0.0030557588973386708 -0.0045669517136468383 0 -0.0032861870476320414 -0.0047434822468205452 0 -0.0030557588973386708 -0.0045669517136468383 0 -0.003304968974527049 -0.0044845024214656259 0 -0.0030652703513448371 -0.0042435183393537759 0 -0.0030557588973386708 -0.0045669517136468383 0 -0.003304968974527049 -0.0044845024214656259 0 -0.0030652703513448371 -0.0042435183393537759 0 -0.003304968974527049 -0.0044845024214656259 0 -0.00334173484568183 -0.0042460345378131231 0 -0.003304968974527049 -0.0044845024214656259 0 -0.0036127208150241999 -0.0044225696781046908 0 -0.00334173484568183 -0.0042460345378131231 0 -0.003304968974527049 -0.0044845024214656259 0 -0.0034447347820009328 -0.0046287400497002041 0 -0.0036127208150241999 -0.0044225696781046908 0 -0.0032861870476320414 -0.0047434822468205452 0 -0.003304968974527049 -0.0044845024214656259 0 -0.0034447347820009328 -0.0046287400497002041 0 -0.0035706596863228964 -0.0048629591138303089 0 -0.0034447347820009328 -0.0046287400497002041 0 -0.0036127208150241999 -0.0044225696781046908 0 -0.0036127208150241999 -0.0044225696781046908 0 -0.0039272540590482323 -0.0046137649840239077 0 -0.0038603602736986728 -0.0038944506529078973 0 -0.0035706596863228964 -0.0048629591138303089 0 -0.0036127208150241999 -0.0044225696781046908 0 -0.0038742652681272218 -0.0046535042249328676 0 -0.0036127208150241999 -0.0044225696781046908 0 -0.0038742652681272218 -0.0046535042249328676 0 -0.0039272540590482323 -0.0046137649840239077 0 -0.0036127208150241999 -0.0044225696781046908 0 -0.0034387149490283046 -0.0039294642713940476 0 -0.0038603602736986728 -0.0038944506529078973 0 -0.0036127208150241999 -0.0044225696781046908 0 -0.0034387149490283046 -0.0039294642713940476 0 -0.00334173484568183 -0.0042460345378131231 0 -0.0034387149490283046 -0.0039294642713940476 0 -0.003136216224877465 -0.0039788134103182441 0 -0.00334173484568183 -0.0042460345378131231 0 -0.0030652703513448371 -0.0042435183393537759 0 -0.003136216224877465 -0.0039788134103182441 0 -0.00334173484568183 -0.0042460345378131231 0 -0.001000636424025282 -0.033050957197275625 0 -0.0008295292976430753 -0.033111454366894104 0 -0.00086389510051406522 -0.033032257619433035 0 -0.00092974484864597894 -0.032949577403893558 0 -0.001000636424025282 -0.033050957197275625 0 -0.00086389510051406522 -0.033032257619433035 0 -0.0020839581147804099 -0.032044209707403681 0 -0.0030315413930984692 -0.031414990725908691 0 -0.0030864283450991415 -0.033502394993122887 0 -0.0016040915118814155 -0.019888053857650762 0 -0.0015865153492908982 -0.019888497683728731 0 -0.0015979133246958434 -0.019883809592954556 0 -0.00010804890825234456 -0.024144549716590667 0 0.00064630336863203688 -0.024302428673662446 0 0.00064630336863203688 -0.024302428673662446 0 -0.0028227095777727386 -0.015877997082741502 0 -0.0034222021303129107 -0.014206945707022651 0 -0.0028227095777727386 -0.015877997082741502 0 -0.0020839581147804099 -0.032044209707403681 0 -0.0025670313523232023 -0.033443943528233114 0 -0.0030864283450991415 -0.033502394993122887 0 -0.0020839581147804099 -0.032044209707403681 0 -0.001917229444759941 -0.032984879718892704 0 -0.0025670313523232023 -0.033443943528233114 0 -0.0028227095777727386 -0.015877997082741502 0 -0.0024396739143011004 -0.018613995599913502 0 -0.001917229444759941 -0.032984879718892704 0 -0.0015978297221928737 -0.033557270494544045 0 -0.0025670313523232023 -0.033443943528233114 0 -0.0019298461287268855 -0.03216617220872045 0 -0.0014018350080229789 -0.032790619721772239 0 -0.00079854771825775442 -0.03318170191174246 0 -0.001000636424025282 -0.033050957197275625 0 -0.0008295292976430753 -0.033111454366894104 0 -0.00079854771825775442 -0.03318170191174246 0 0.00064630336863203688 -0.024302428673662446 0 0.0013807895663881212 -0.027483192703240192 0 -0.0020839581147804099 -0.032044209707403681 0 -0.001917229444759941 -0.032984879718892704 0 -0.0014018350080229789 -0.032790619721772239 0 0.00064630336863203688 -0.024302428673662446 0 0.001050397285520638 -0.025565927450093669 0 -0.001917229444759941 -0.032984879718892704 0 -0.0014018350080229789 -0.032790619721772239 0 -0.0015978297221928737 -0.033557270494544045 0 -0.0014018350080229789 -0.032790619721772239 0 -0.0015978297221928737 -0.033557270494544045 0 -0.0010501106582348134 -0.033351408294421063 0 -0.0010537757467592799 -0.03459729837772299 0 -0.00099418497370875746 -0.035767747988572032 0 0.00043226373262536706 -0.034024225332898929 0 -0.0010462543260637361 -0.033723802228693055 0 -0.0019111572661898659 -0.034321506295312332 0 -0.0025670313523232023 -0.033443943528233114 0 -0.0010537757467592799 -0.03459729837772299 0 -0.0010462543260637361 -0.033723802228693055 0 0.00043226373262536706 -0.034024225332898929 0 -0.0016916836711703253 -0.040384477551693679 0 -0.0021357989064730168 -0.039645565479116941 0 -0.0010537757467592799 -0.03459729837772299 0 -0.0019111572661898659 -0.034321506295312332 0 -0.0017386307949007979 -0.035143629057005188 0 -0.0010537757467592799 -0.03459729837772299 0 -0.0010462543260637361 -0.033723802228693055 0 -0.0019111572661898659 -0.034321506295312332 0 -0.0019111572661898659 -0.034321506295312332 0 -0.0026163200606607929 -0.034901684519916813 0 -0.0017386307949007979 -0.035143629057005188 0 -0.0019111572661898659 -0.034321506295312332 0 -0.0025522009401804727 -0.034037741011565238 0 -0.0026163200606607929 -0.034901684519916813 0 -0.0019111572661898659 -0.034321506295312332 0 -0.0025670313523232023 -0.033443943528233114 0 -0.0025522009401804727 -0.034037741011565238 0 -0.0025670313523232023 -0.033443943528233114 0 -0.0025522009401804727 -0.034037741011565238 0 -0.0030864283450991415 -0.033502394993122887 0 -0.0025522009401804727 -0.034037741011565238 0 -0.0030864283450991415 -0.033502394993122887 0 -0.0026163200606607929 -0.034901684519916813 0 -0.0024396739143011004 -0.018613995599913502 0 -0.0011822511201739904 -0.02033684180295918 0 -0.0030864283450991415 -0.033502394993122887 0 -0.0026163200606607929 -0.034901684519916813 0 -0.0031986157096992075 -0.036251059391689738 0 -0.0026163200606607929 -0.034901684519916813 0 -0.002147017434392605 -0.035847398815112008 0 -0.0031986157096992075 -0.036251059391689738 0 -0.0026163200606607929 -0.034901684519916813 0 -0.002147017434392605 -0.035847398815112008 0 -0.0017386307949007979 -0.035143629057005188 0 -0.0010537757467592799 -0.03459729837772299 0 -0.0017386307949007979 -0.035143629057005188 0 -0.00099418497370875746 -0.035767747988572032 0 -0.002147017434392605 -0.035847398815112008 0 -0.0017386307949007979 -0.035143629057005188 0 -0.00099418497370875746 -0.035767747988572032 0 -0.002147017434392605 -0.035847398815112008 0 -0.00099418497370875746 -0.035767747988572032 0 -0.0019556264937479573 -0.036934160502725105 0 -0.0034387149490283046 -0.0039294642713940476 0 -0.0031418442063802553 -0.0036564199583662971 0 -0.0033227188621803298 -0.0033793037982963519 0 -0.0034387149490283046 -0.0039294642713940476 0 -0.003136216224877465 -0.0039788134103182441 0 -0.0031418442063802553 -0.0036564199583662971 0 -0.0034387149490283046 -0.0039294642713940476 0 -0.0038603602736986728 -0.0038944506529078973 0 -0.0033227188621803298 -0.0033793037982963519 0 -0.0038603602736986728 -0.0038944506529078973 0 -0.0033227188621803298 -0.0033793037982963519 0 -0.0037821877504005635 -0.0032294855275608924 0 -0.002858331655044555 -0.0033524236706792476 0 -0.0031418442063802553 -0.0036564199583662971 0 -0.0033227188621803298 -0.0033793037982963519 0 -0.0033227188621803298 -0.0033793037982963519 0 -0.0031753505481845359 -0.0026826440988794165 0 -0.0037821877504005635 -0.0032294855275608924 0 -0.0033227188621803298 -0.0033793037982963519 0 -0.0031753505481845359 -0.0026826440988794165 0 -0.002914635700479248 -0.0030345155023141375 0 -0.0037323208646579346 -0.0026199932072032534 0 -0.0031753505481845359 -0.0026826440988794165 0 -0.0037821877504005635 -0.0032294855275608924 0 0.0018857632311934005 -0.024881950389700862 0 -0.0025350481110662645 -0.012379411733875958 0 0.0050803706140891891 -0.011315368927552062 0 -0.00062473236594710641 -0.01006484617911137 0 0.0012219691228568946 -0.012094438142688096 0 -0.0019556264937479573 -0.036934160502725105 0 -0.00067217810094586967 -0.038221639309308539 0 0.00083757379587582996 -0.03715903994210449 0 -0.00099418497370875746 -0.035767747988572032 0 -0.0019556264937479573 -0.036934160502725105 0 0.00049652767081076845 -0.037117796852449446 0 -0.00050555936873721875 -0.044842605521399986 0 0.0019669543697515986 -0.047880914988197534 0 -0.0019556264937479573 -0.036934160502725105 0 -0.0031986157096992075 -0.036251059391689738 0 -0.0020401954340196426 -0.038269670363411695 0 0.0018857632311934005 -0.024881950389700862 0 -0.0011822511201739904 -0.02033684180295918 0 -0.002147017434392605 -0.035847398815112008 0 -0.0019556264937479573 -0.036934160502725105 0 -0.0031986157096992075 -0.036251059391689738 0 -0.0032724867865870757 -0.039101238861415061 0 -0.0031986157096992075 -0.036251059391689738 0 -0.0020401954340196426 -0.038269670363411695 0 -0.0032724867865870757 -0.039101238861415061 0 -0.0020401954340196426 -0.038269670363411695 0 -0.0012384682807759831 -0.039585626582469995 0 -0.0019556264937479573 -0.036934160502725105 0 -0.0020401954340196426 -0.038269670363411695 0 -0.00067217810094586967 -0.038221639309308539 0 -0.0020401954340196426 -0.038269670363411695 0 -0.00067217810094586967 -0.038221639309308539 0 -0.0012384682807759831 -0.039585626582469995 0 0.0081469739724174418 -0.038590243213944143 0 0.008345793506915054 -0.0396082949594877 0 0.0092842203056022667 -0.038866384049551936 0 -0.00067217810094586967 -0.038221639309308539 0 -0.0012384682807759831 -0.039585626582469995 0 0.0008305186478561236 -0.040061772046774628 0 0.0070001614721062599 -0.038313653158634227 0 0.0081469739724174418 -0.038590243213944143 0 0.0069736131252442898 -0.039714507746654852 0 0.0018857632311934005 -0.024881950389700862 0 0.0041141804924017603 -0.038223495422846247 0 0.008345793506915054 -0.0396082949594877 0 0.0069736131252442898 -0.039714507746654852 0 0.0081984463373944612 -0.040718051889672147 0 0.0081469739724174418 -0.038590243213944143 0 0.008345793506915054 -0.0396082949594877 0 0.0069736131252442898 -0.039714507746654852 0 -0.00062473236594710641 -0.01006484617911137 0 0.00015831129262746033 -0.012860718521741346 0 -0.0034696352126646884 -0.012267669947925147 0 0.00011220697503556279 -0.014159951007130734 0 0.00015831129262746033 -0.012860718521741346 0 -0.0034696352126646884 -0.012267669947925147 0 0.00011220697503556279 -0.014159951007130734 0 -0.0006884435772282505 -0.015680695120280648 0 -0.0034696352126646884 -0.012267669947925147 0 0.0014782015645378971 -0.013880919801595875 0 9.5199178946893444e-05 -0.014248921190198679 0 0.0019646893352836025 -0.01589929390024428 0 0.0014782015645378971 -0.013880919801595875 0 9.5199178946893444e-05 -0.014248921190198679 0 0.0012219691228568946 -0.012094438142688096 0 -0.0013639605109188396 -0.0087135204128296669 0 -0.0013482310523347538 -0.008978362617983281 0 -0.00062473236594710641 -0.01006484617911137 0 0.0012219691228568946 -0.012094438142688096 0 0.00015831129262746033 -0.012860718521741346 0 -0.0013639605109188396 -0.0087135204128296669 0 -0.0014087717379266263 -0.0091949826352900037 0 0.00010222297788355434 -0.014152982718799988 0 0.0012219691228568946 -0.012094438142688096 0 0.00015831129262746033 -0.012860718521741346 0 0.0018857632311934005 -0.024881950389700862 0 0.0046074087623925704 -0.027310326145471506 0 0.0050803706140891891 -0.011315368927552062 0 0.0028675136552741929 -0.013920894142545092 0 0.0049384830397117838 -0.016954070795756469 0 0.0050803706140891891 -0.011315368927552062 0 0.0012219691228568946 -0.012094438142688096 0 0.0028675136552741929 -0.013920894142545092 0 0.0014782015645378971 -0.013880919801595875 0 0.0028675136552741929 -0.013920894142545092 0 0.0019646893352836025 -0.01589929390024428 0 0.0014782015645378971 -0.013880919801595875 0 0.0012219691228568946 -0.012094438142688096 0 0.0028675136552741929 -0.013920894142545092 0 0.0019646893352836025 -0.01589929390024428 0 0.0049384830397117838 -0.016954070795756469 0 0.0023965276363623815 -0.019671912409012969 0 0.0028675136552741929 -0.013920894142545092 0 0.0019646893352836025 -0.01589929390024428 0 0.0049384830397117838 -0.016954070795756469 0 -0.00038783007497746258 -0.0069695298323963371 0 -0.00065227488383293121 -0.0066405488486815075 0 0.00047885976973038831 -0.0053322260156454899 0 0.0019646893352836025 -0.01589929390024428 0 1.2967090528343539e-05 -0.016726159174084328 0 0.0023965276363623815 -0.019671912409012969 0 -0.00025942357054367394 -0.0094782026764243382 0 0.0030549461213582106 -0.017859636669010189 0 9.5199178946893444e-05 -0.014248921190198679 0 0.0019646893352836025 -0.01589929390024428 0 1.2967090528343539e-05 -0.016726159174084328 0 -0.0012653847720796884 -0.0084658731325690205 0 -5.7599477267542492e-05 -0.0061709654732372467 0 -0.0011302491239246809 -0.0048432653514360498 0 -0.0013639605109188396 -0.0087135204128296669 0 -0.00025942357054367394 -0.0094782026764243382 0 -0.0013639605109188396 -0.0087135204128296669 0 -0.0016488975562414406 -0.0061913672550212989 0 -0.0016488975562414406 -0.0061913672550212989 0 -0.00025942357054367394 -0.0094782026764243382 0 -0.0094688385730020055 0.0093552390057212356 0 -0.0081339139736684909 0.0094919773372531043 0 -0.0086359990747533096 0.0109236399372044 0 -0.0016488975562414406 -0.0061913672550212989 0 -0.0012698454224531568 -0.00013120498957849098 0 -0.0094688385730020055 0.0093552390057212356 0 -0.0081339139736684909 0.0094919773372531043 0 -0.008531190588505733 0.0081581629189806226 0 -0.0016488975562414406 -0.0061913672550212989 0 -0.0047069772795103344 -0.0037257033049506558 0 -0.0081339139736684909 0.0094919773372531043 0 -0.008531190588505733 0.0081581629189806226 0 -0.0070253960280458301 0.0087604482372476509 0 -0.008531190588505733 0.0081581629189806226 0 -0.0070253960280458301 0.0087604482372476509 0 -0.0070762360810817694 0.0076662851314234235 0 -0.0081339139736684909 0.0094919773372531043 0 -0.0070253960280458301 0.0087604482372476509 0 -0.0070063820957649674 0.010271562969270662 0 -0.0081339139736684909 0.0094919773372531043 0 -0.0070063820957649674 0.010271562969270662 0 -0.0086359990747533096 0.0109236399372044 0 -0.0070063820957649674 0.010271562969270662 0 -0.0059377212717914608 0.0093518602469305958 0 -0.0053319530969166739 0.01060179621224858 0 -0.0070253960280458301 0.0087604482372476509 0 -0.0070063820957649674 0.010271562969270662 0 -0.0059377212717914608 0.0093518602469305958 0 -0.0041853763122754999 0.010115964043772773 0 -0.0046852649319950425 0.0090340308133834181 0 -0.0053319530969166739 0.01060179621224858 0 -0.0059377212717914608 0.0093518602469305958 0 -0.0046852649319950425 0.0090340308133834181 0 -0.0053319530969166739 0.01060179621224858 0 -0.0059377212717914608 0.0093518602469305958 0 -0.0046852649319950425 0.0090340308133834181 0 -0.005866628083483599 0.00788460609118765 0 -0.0041937825740806078 0.0074150965044654229 0 -0.0046852649319950425 0.0090340308133834181 0 -0.005866628083483599 0.00788460609118765 0 -0.0070253960280458301 0.0087604482372476509 0 -0.0059377212717914608 0.0093518602469305958 0 -0.005866628083483599 0.00788460609118765 0 -0.0070253960280458301 0.0087604482372476509 0 -0.005866628083483599 0.00788460609118765 0 -0.0070762360810817694 0.0076662851314234235 0 -0.005866628083483599 0.00788460609118765 0 -0.0069593892032821722 0.0067144233347899169 0 -0.0070762360810817694 0.0076662851314234235 0 -0.005866628083483599 0.00788460609118765 0 -0.0069593892032821722 0.0067144233347899169 0 -0.005417446925292585 0.0062446963334514332 0 -0.0041937825740806078 0.0074150965044654229 0 -0.005866628083483599 0.00788460609118765 0 -0.005417446925292585 0.0062446963334514332 0 -0.003581540121130954 0.0053515452448153113 0 -0.0041937825740806078 0.0074150965044654229 0 -0.005417446925292585 0.0062446963334514332 0 -0.003581540121130954 0.0053515452448153113 0 -0.0051404529269969464 0.0048321525849306735 0 -0.005417446925292585 0.0062446963334514332 0 -0.0065022909405327029 0.0049469935823227458 0 -0.0051404529269969464 0.0048321525849306735 0 -0.005417446925292585 0.0062446963334514332 0 -0.0065022909405327029 0.0049469935823227458 0 -0.0069593892032821722 0.0067144233347899169 0 -0.005417446925292585 0.0062446963334514332 0 -0.0021742050482747013 -0.0031700050440135233 0 -0.0025799700013353958 -0.0031364948095935594 0 -0.0025883271673565107 -0.002755686422038215 0 -0.0065022909405327029 0.0049469935823227458 0 -0.0069593892032821722 0.0067144233347899169 0 -0.0077928963712889003 0.0069152762418896816 0 -0.0052074071648288527 -0.0010609672944110102 0 -0.0054489816596983882 -0.0041456657694096564 0 -0.0025799700013353958 -0.0031364948095935594 0 -0.002914635700479248 -0.0030345155023141375 0 -0.0025883271673565107 -0.002755686422038215 0 -0.00062473236594710641 -0.01006484617911137 0 -0.0034696352126646884 -0.012267669947925147 0 -0.0062457310948207641 -0.0088366110534822493 0 -0.0025350481110662645 -0.012379411733875958 0 -0.0054489816596983882 -0.0041456657694096564 0 -0.0047069772795103344 -0.0037257033049506558 0 -0.0054489816596983882 -0.0041456657694096564 0 -0.0031753505481845359 -0.0026826440988794165 0 -0.002914635700479248 -0.0030345155023141375 0 -0.0025883271673565107 -0.002755686422038215 0 -0.008531190588505733 0.0081581629189806226 0 -0.0070762360810817694 0.0076662851314234235 0 -0.007629931066864124 0.0069249420442080659 0 -0.0069593892032821722 0.0067144233347899169 0 -0.0070762360810817694 0.0076662851314234235 0 -0.007629931066864124 0.0069249420442080659 0 -0.005937255509288062 -0.0036220199928150504 0 -0.0054489816596983882 -0.0041456657694096564 0 0.0066878987264599723 -0.059349223782096436 0 0.0063059050432885365 -0.05910827405252967 0 0.0062635872218707424 -0.059693661488590559 0 0.0066878987264599723 -0.059349223782096436 0 0.0070872353009061714 -0.059564009038969613 0 0.0062635872218707424 -0.059693661488590559 0 0.0066878987264599723 -0.059349223782096436 0 0.0063059050432885365 -0.05910827405252967 0 0.0071198213886402963 -0.058985851003045868 0 0.0060060952527471005 -0.059349182463421135 0 0.0063059050432885365 -0.05910827405252967 0 0.0058116801848436955 -0.059171890885845027 0 0.0060060952527471005 -0.059349182463421135 0 0.0062635872218707424 -0.059693661488590559 0 0.0057211442867545446 -0.0594124718225712 0 0.0060060952527471005 -0.059349182463421135 0 0.0063059050432885365 -0.05910827405252967 0 0.0062635872218707424 -0.059693661488590559 0 0.0037445924906419218 -0.057689150945090417 0 0.0049644297036692802 -0.058893832751046628 0 0.0023793608053564023 -0.058650761936090291 0 0.0055408364751303148 -0.057089642314573301 0 0.0043443193824428362 -0.055812241450333352 0 0.0037445924906419218 -0.057689150945090417 0 0.0053154460626267551 -0.057805408892085776 0 0.0049644297036692802 -0.058893832751046628 0 0.0055408364751303148 -0.057089642314573301 0 0.0061893303513463746 -0.057473646729150091 0 0.0063030675412336958 -0.058360524466468978 0 0.0071127342007230396 -0.057836258106971884 0 0.0057363284041013034 -0.057307284186015488 0 0.0049644297036692802 -0.058893832751046628 0 0.0063030675412336958 -0.058360524466468978 0 0.0071198213886402963 -0.058985851003045868 0 0.0053154460626267551 -0.057805408892085776 0 0.0049644297036692802 -0.058893832751046628 0 0.0063030675412336958 -0.058360524466468978 0 0.0053154460626267551 -0.057805408892085776 0 0.0063030675412336958 -0.058360524466468978 0 0.0055332928081856161 -0.056603380271434946 0 0.0021183303900080826 -0.06066948481997473 0 0.0017713762463956392 -0.061270371880147549 0 0.0071127342007230396 -0.057836258106971884 0 0.0082657481278620281 -0.058415688199383357 0 0.0071198213886402963 -0.058985851003045868 0 0.0063030675412336958 -0.058360524466468978 0 0.0071127342007230396 -0.057836258106971884 0 0.0071198213886402963 -0.058985851003045868 0 0.00063749151465703955 -0.065204669394098483 0 -0.00066046303019825939 -0.06946310574136362 0 0.0082657481278620281 -0.058415688199383357 0 0.0079979412394015539 -0.059419462163028264 0 0.0071198213886402963 -0.058985851003045868 0 0.0079979412394015539 -0.059419462163028264 0 0.0071198213886402963 -0.058985851003045868 0 0.0070872353009061714 -0.059564009038969613 0 0.0079979412394015539 -0.059419462163028264 0 0.0070872353009061714 -0.059564009038969613 0 0.0073928317745715379 -0.060130002582261713 0 0.0066878987264599723 -0.059349223782096436 0 0.0071198213886402963 -0.058985851003045868 0 0.0070872353009061714 -0.059564009038969613 0 0.0070872353009061714 -0.059564009038969613 0 0.0073928317745715379 -0.060130002582261713 0 0.0062635872218707424 -0.059693661488590559 0 0.013610199259604891 -0.085562580965111684 0 0.012464497442672135 -0.084153156738856871 0 0.01093028100019384 -0.085121952180330016 0 0.0079979412394015539 -0.059419462163028264 0 0.0073928317745715379 -0.060130002582261713 0 0.0089252619597294299 -0.06049625653442401 0 0.0099558843802573412 -0.073971929827505126 0 0.0066859669395945374 -0.076566515777404434 0 0.013610199259604891 -0.085562580965111684 0 0.012464497442672135 -0.084153156738856871 0 0.01381354341006703 -0.083274701412451357 0 0.013610199259604891 -0.085562580965111684 0 0.015577825763623713 -0.08407973425349885 0 0.01381354341006703 -0.083274701412451357 0 0.0099558843802573412 -0.073971929827505126 0 0.011294018857125247 -0.071952099752507423 0 0.013610199259604891 -0.085562580965111684 0 0.015577825763623713 -0.08407973425349885 0 0.01631821873359612 -0.085876176193346712 0 0.01631821873359612 -0.085876176193346712 0 0.017296799326195985 -0.084310345889002408 0 0.018212579615817164 -0.08529115965696521 0 0.015577825763623713 -0.08407973425349885 0 0.01631821873359612 -0.085876176193346712 0 0.017296799326195985 -0.084310345889002408 0 0.011294018857125247 -0.071952099752507423 0 0.011908617302394425 -0.069187093891136878 0 0.015577825763623713 -0.08407973425349885 0 0.017296799326195985 -0.084310345889002408 0 0.016925248471089158 -0.082963719262227856 0 0.017296799326195985 -0.084310345889002408 0 0.018191343834001998 -0.083283846066783268 0 0.016925248471089158 -0.082963719262227856 0 0.018228076472552798 -0.084119287569786122 0 0.018960594687728261 -0.083692123891499007 0 0.018212579615817164 -0.08529115965696521 0 0.017296799326195985 -0.084310345889002408 0 0.018191343834001998 -0.083283846066783268 0 0.018228076472552798 -0.084119287569786122 0 0.018191343834001998 -0.083283846066783268 0 0.018228076472552798 -0.084119287569786122 0 0.018960594687728261 -0.083692123891499007 0 0.018960594687728261 -0.083692123891499007 0 0.020304345546660271 -0.083509433737081959 0 0.018212579615817164 -0.08529115965696521 0 0.017296799326195985 -0.084310345889002408 0 0.018228076472552798 -0.084119287569786122 0 0.018212579615817164 -0.08529115965696521 0 0.020094631958406758 -0.083155617620738628 0 0.019455544011343903 -0.085082102930423342 0 0.020200896974410909 -0.084715249939946252 0 0.020094631958406758 -0.083155617620738628 0 0.020200896974410909 -0.084715249939946252 0 0.020784112293185848 -0.084125958265462472 0 0.015609159215113546 -0.077062563084374744 0 0.015684405865033488 -0.080027963625524945 0 0.019455544011343903 -0.085082102930423342 0 0.020722240078281776 -0.08564557239202239 0 0.01881258059157228 -0.086119777095112995 0 0.020094631958406758 -0.083155617620738628 0 0.019455544011343903 -0.085082102930423342 0 0.018212579615817164 -0.08529115965696521 0 0.019455544011343903 -0.085082102930423342 0 0.020200896974410909 -0.084715249939946252 0 0.020722240078281776 -0.08564557239202239 0 0.019455544011343903 -0.085082102930423342 0 0.018212579615817164 -0.08529115965696521 0 0.01881258059157228 -0.086119777095112995 0 0.01631821873359612 -0.085876176193346712 0 0.018212579615817164 -0.08529115965696521 0 0.01881258059157228 -0.086119777095112995 0 0.008345793506915054 -0.0396082949594877 0 0.0092815506940208889 -0.040047447813683752 0 0.0092842203056022667 -0.038866384049551936 0 0.010802854781291548 -0.052912249539485388 0 0.0073212017556647246 -0.051374280286443523 0 0.011573008170534837 -0.059815283476128953 0 0.012346742437294144 -0.059726645333634767 0 0.011566388418087067 -0.057143702179226166 0 0.021377443045998278 -0.084365627926599934 0 0.021984537319764887 -0.083016790051768985 0 0.021643697290464035 -0.084932883722285232 0 0.012744965561710989 -0.066078423502929931 0 0.010185684913639682 -0.058489796321055436 0 0.020094631958406758 -0.083155617620738628 0 0.021984537319764887 -0.083016790051768985 0 0.020784112293185848 -0.084125958265462472 0 0.021377443045998278 -0.084365627926599934 0 0.021984537319764887 -0.083016790051768985 0 0.020784112293185848 -0.084125958265462472 0 0.020722240078281776 -0.08564557239202239 0 0.021643697290464035 -0.084932883722285232 0 0.021358247174652116 -0.086487144785980033 0 0.012346742437294144 -0.059726645333634767 0 0.012665441472337535 -0.057384845811534073 0 0.011566388418087067 -0.057143702179226166 0 0.010185684913639682 -0.058489796321055436 0 0.0082837492731728801 -0.063060320244037071 0 0.0056187289580090713 -0.058938249007913147 0 0.0056928225366591426 -0.058954702266625622 0 0.0056212215591631108 -0.059088072228712915 0 0.020200896974410909 -0.084715249939946252 0 0.020887082567230843 -0.084816061974823512 0 0.020722240078281776 -0.08564557239202239 0 0.021377443045998278 -0.084365627926599934 0 0.020887082567230843 -0.084816061974823512 0 0.021643697290464035 -0.084932883722285232 0 0.020200896974410909 -0.084715249939946252 0 0.020784112293185848 -0.084125958265462472 0 0.020887082567230843 -0.084816061974823512 0 0.021377443045998278 -0.084365627926599934 0 0.020784112293185848 -0.084125958265462472 0 0.020887082567230843 -0.084816061974823512 0 0.020887082567230843 -0.084816061974823512 0 0.020722240078281776 -0.08564557239202239 0 0.021643697290464035 -0.084932883722285232 0 0.0041141804924017603 -0.038223495422846247 0 0.0073212017556647246 -0.051374280286443523 0 0.010185684913639682 -0.058489796321055436 0 0.0073212017556647246 -0.051374280286443523 0 0.0073212017556647246 -0.051374280286443523 0 0.0019669543697515986 -0.047880914988197534 0 -0.00067217810094586967 -0.038221639309308539 0 0.0008305186478561236 -0.040061772046774628 0 0.00083757379587582996 -0.03715903994210449 0 0.0056928225366591426 -0.058954702266625622 0 0.0056212215591631108 -0.059088072228712915 0 0.0056284830998010347 -0.05918192472231646 0 0.0056187289580090713 -0.058938249007913147 0 0.0056212215591631108 -0.059088072228712915 0 0.0055845012436203205 -0.059081195492616187 0 0.0082837492731728801 -0.063060320244037071 0 0.0082092844389548055 -0.062389567102549948 0 0.0056212215591631108 -0.059088072228712915 0 0.0055829132807287303 -0.059084821297623914 0 0.0055838534658774587 -0.059188359069537851 0 0.0081440808669961604 -0.062995385035024401 0 0.0082837492731728801 -0.063060320244037071 0 0.0055276154410439943 -0.059268307216486751 0 0.0055838534658774587 -0.059188359069537851 0 0.0056014819857576822 -0.059253578514197623 0 0.0019669543697515986 -0.047880914988197534 0 0.0031356721768363398 -0.053129652130758681 0 0.0055838534658774587 -0.059188359069537851 0 0.0056284830998010347 -0.05918192472231646 0 0.0055698154580326158 -0.05920135603104109 0 -0.0025722353125435843 -0.058161038090518827 0 -0.00011707943834638807 -0.058384848292873243 0 -0.0012996586932519042 -0.057166242275664136 0 0.0055838534658774587 -0.059188359069537851 0 0.0056014819857576822 -0.059253578514197623 0 0.0055698154580326158 -0.05920135603104109 0 -0.00011707943834638807 -0.058384848292873243 0 -8.2623185651084334e-05 -0.056852180357335261 0 -0.0012996586932519042 -0.057166242275664136 0 0.0056212215591631108 -0.059088072228712915 0 0.0055838534658774587 -0.059188359069537851 0 0.0056284830998010347 -0.05918192472231646 0 -0.0025722353125435843 -0.058161038090518827 0 -0.0025691219365347913 -0.056353853669624851 0 -0.0012996586932519042 -0.057166242275664136 0 0.0019669543697515986 -0.047880914988197534 0 0.00045223623928375992 -0.045805075140383851 0 0.0060060952527471005 -0.059349182463421135 0 0.0057211442867545446 -0.0594124718225712 0 0.0058116801848436955 -0.059171890885845027 0 0.0057211442867545446 -0.0594124718225712 0 0.00567950266792412 -0.059252828490790124 0 0.0058116801848436955 -0.059171890885845027 0 0.020722240078281776 -0.08564557239202239 0 0.021358247174652116 -0.086487144785980033 0 0.01881258059157228 -0.086119777095112995 0 0.0082837492731728801 -0.063060320244037071 0 0.011908617302394425 -0.069187093891136878 0 0.0055276154410439943 -0.059268307216486751 0 0.0057211442867545446 -0.0594124718225712 0 0.0056014819857576822 -0.059253578514197623 0 0.0056014819857576822 -0.059253578514197623 0 0.00567950266792412 -0.059252828490790124 0 0.0055698154580326158 -0.05920135603104109 0 0.0057211442867545446 -0.0594124718225712 0 0.0056014819857576822 -0.059253578514197623 0 0.00567950266792412 -0.059252828490790124 0 0.0031356721768363398 -0.053129652130758681 0 0.0043443193824428362 -0.055812241450333352 0 -0.00011707943834638807 -0.058384848292873243 0 0.00088774042133481007 -0.057683232840428991 0 0.0023793608053564023 -0.058650761936090291 0 0.00567950266792412 -0.059252828490790124 0 0.0055698154580326158 -0.05920135603104109 0 0.0058116801848436955 -0.059171890885845027 0 -0.00011707943834638807 -0.058384848292873243 0 0.00088774042133481007 -0.057683232840428991 0 -8.2623185651084334e-05 -0.056852180357335261 0 0.0023793608053564023 -0.058650761936090291 0 0.0027351962319673104 -0.056959016422478165 0 0.0013859691939600901 -0.05685760377877741 0 0.00088774042133481007 -0.057683232840428991 0 0.0023793608053564023 -0.058650761936090291 0 0.0013859691939600901 -0.05685760377877741 0 0.0037445924906419218 -0.057689150945090417 0 0.0023793608053564023 -0.058650761936090291 0 0.0027351962319673104 -0.056959016422478165 0 0.0026585489592678281 -0.055576434642110137 0 0.0013859691939600901 -0.05685760377877741 0 4.5099493556276025e-05 -0.055060356456969405 0 0.0027351962319673104 -0.056959016422478165 0 0.0026585489592678281 -0.055576434642110137 0 0.0013859691939600901 -0.05685760377877741 0 0.0013859691939600901 -0.05685760377877741 0 -8.2623185651084334e-05 -0.056852180357335261 0 4.5099493556276025e-05 -0.055060356456969405 0 0.00088774042133481007 -0.057683232840428991 0 0.0013859691939600901 -0.05685760377877741 0 -8.2623185651084334e-05 -0.056852180357335261 0 0.0026585489592678281 -0.055576434642110137 0 0.0017472446423901929 -0.053406465842903837 0 0.0042157179437352175 -0.053920519912066554 0 0.0026585489592678281 -0.055576434642110137 0 -0.00016503581182443318 -0.054979355466087829 0 0.0017472446423901929 -0.053406465842903837 0 0.0018341030667545684 -0.050189914718685377 0 0.00079443553125392997 -0.048613742879002081 0 -0.00099418497370875746 -0.035767747988572032 0 0.00049652767081076845 -0.037117796852449446 0 0.00047908722120687725 -0.035683831662842135 0 -0.0025691219365347913 -0.056353853669624851 0 -0.0012941064376909221 -0.05599266152273024 0 -0.00256139633851551 -0.054529112856475243 0 -0.00099418497370875746 -0.035767747988572032 0 0.00047908722120687725 -0.035683831662842135 0 0.00027297886168205752 -0.034280560012515983 0 0.00076299209483531602 -0.03952183547551507 0 -0.00061586358828712715 -0.04269542144694128 0 -8.2623185651084334e-05 -0.056852180357335261 0 4.5099493556276025e-05 -0.055060356456969405 0 -0.0012941064376909221 -0.05599266152273024 0 -0.0025691219365347913 -0.056353853669624851 0 -0.0012941064376909221 -0.05599266152273024 0 -0.0012996586932519042 -0.057166242275664136 0 -8.2623185651084334e-05 -0.056852180357335261 0 -0.0012941064376909221 -0.05599266152273024 0 -0.0012996586932519042 -0.057166242275664136 0 -0.00016503581182443318 -0.054979355466087829 0 -0.0029393780285999799 -0.053995610591464606 0 -0.0029409995126754053 -0.054404850726196191 0 4.5099493556276025e-05 -0.055060356456969405 0 -0.0012941064376909221 -0.05599266152273024 0 -0.00256139633851551 -0.054529112856475243 0 0.00079443553125392997 -0.048613742879002081 0 -0.00071176062507146321 -0.043485860396167926 0 0.00045223623928375992 -0.045805075140383851 0 -0.00071176062507146321 -0.043485860396167926 0 0.00047908722120687725 -0.035683831662842135 0 0.00047488553947873944 -0.03432192054594177 0 0.00027297886168205752 -0.034280560012515983 0 -0.0015978297221928737 -0.033557270494544045 0 -0.00080820327458951298 -0.033668981190317922 0 -0.0010501106582348134 -0.033351408294421063 0 -0.0016916836711703253 -0.040384477551693679 0 -0.00061586358828712715 -0.04269542144694128 0 -0.0023493825879982856 -0.043074812232387932 0 -0.0023435985046073439 -0.042071304412646796 0 -0.0016439196475883534 -0.042207506209492172 0 -0.00080706806857181509 -0.042925369664554715 0 -0.00061586358828712715 -0.04269542144694128 0 -0.00080706806857181509 -0.042925369664554715 0 -0.00071176062507146321 -0.043485860396167926 0 -0.00071176062507146321 -0.043485860396167926 0 -0.00061586358828712715 -0.04269542144694128 0 -0.00069771733482187079 -0.033511880169388782 0 -0.00080820327458951298 -0.033668981190317922 0 -0.0010501106582348134 -0.033351408294421063 0 -0.00016503581182443318 -0.054979355466087829 0 -0.0029393780285999799 -0.053995610591464606 0 -0.000765365618275557 -0.051319327828845386 0 -0.0014018350080229789 -0.032790619721772239 0 -0.0010501106582348134 -0.033351408294421063 0 -0.00079854771825775442 -0.03318170191174246 0 -0.00080706806857181509 -0.042925369664554715 0 -0.0008013590224577508 -0.041872727848162407 0 -0.0008295292976430753 -0.033111454366894104 0 -0.00079854771825775442 -0.03318170191174246 0 -0.00076670542986831836 -0.033163388424805353 0 -0.00069771733482187079 -0.033511880169388782 0 -0.00079854771825775442 -0.03318170191174246 0 -0.00076670542986831836 -0.033163388424805353 0 -0.00069771733482187079 -0.033511880169388782 0 -0.0010501106582348134 -0.033351408294421063 0 -0.00079854771825775442 -0.03318170191174246 0 -0.0008295292976430753 -0.033111454366894104 0 -0.00076670542986831836 -0.033163388424805353 0 -0.00078107180195155718 -0.033069004034304891 0 -0.00076670542986831836 -0.033163388424805353 0 -0.00068275301062348226 -0.033085037162259121 0 -0.00078107180195155718 -0.033069004034304891 0 -0.00080706806857181509 -0.042925369664554715 0 -0.00086139613158056215 -0.043336283977930684 0 -0.00076384408515297946 -0.03321717385014053 0 -0.00076670542986831836 -0.033163388424805353 0 -0.00068275301062348226 -0.033085037162259121 0 -0.00068275301062348226 -0.033085037162259121 0 -0.00078107180195155718 -0.033069004034304891 0 -0.00078960017985219564 -0.03298289432148916 0 -0.00092974484864597894 -0.032949577403893558 0 -0.00086389510051406522 -0.033032257619433035 0 -0.00078960017985219564 -0.03298289432148916 0 -0.00078107180195155718 -0.033069004034304891 0 -0.00086389510051406522 -0.033032257619433035 0 -0.00078960017985219564 -0.03298289432148916 0 -0.0008295292976430753 -0.033111454366894104 0 -0.00078107180195155718 -0.033069004034304891 0 -0.00086389510051406522 -0.033032257619433035 0 -0.00016503581182443318 -0.054979355466087829 0 -0.000765365618275557 -0.051319327828845386 0 0.0017472446423901929 -0.053406465842903837 0 0.0017472446423901929 -0.053406465842903837 0 0.0028104702001779769 -0.051261228998703355 0 0.0042157179437352175 -0.053920519912066554 0 -0.000765365618275557 -0.051319327828845386 0 0.0017472446423901929 -0.053406465842903837 0 0.0028104702001779769 -0.051261228998703355 0 -0.000765365618275557 -0.051319327828845386 0 0.0028104702001779769 -0.051261228998703355 0 0.0014106943502992175 -0.048626389672338649 0 -0.0094691362562947558 -0.065081171861912451 0 -0.0084151012163354647 -0.064253050318314742 0 -0.0093720966033628006 -0.063528789590056547 0 -0.0094691362562947558 -0.065081171861912451 0 -0.0084151012163354647 -0.064253050318314742 0 -0.007953251748843539 -0.065876066042613701 0 -0.0084151012163354647 -0.064253050318314742 0 -0.0062551786473837813 -0.066012231146476932 0 -0.007953251748843539 -0.065876066042613701 0 -0.0071335995312667936 -0.065380201607937255 0 -0.0061287708085488359 -0.066222337433242726 0 -0.0070949100030277389 -0.064226328841633054 0 -0.0064389731885902282 -0.066022558868266121 0 -0.0057396514279498684 -0.064195069671969335 0 -0.0084151012163354647 -0.064253050318314742 0 -0.0070949100030277389 -0.064226328841633054 0 -0.0064389731885902282 -0.066022558868266121 0 -0.0072132498341072448 -0.066700141236158611 0 -0.0081844887175876423 -0.067496994750916778 0 -0.0065006335965687705 -0.067519181931327471 0 -0.0062551786473837813 -0.066012231146476932 0 -0.0072132498341072448 -0.066700141236158611 0 -0.007953251748843539 -0.065876066042613701 0 -0.0062551786473837813 -0.066012231146476932 0 -0.0072132498341072448 -0.066700141236158611 0 -0.0065006335965687705 -0.067519181931327471 0 -0.0094691362562947558 -0.065081171861912451 0 -0.007953251748843539 -0.065876066042613701 0 -0.0081844887175876423 -0.067496994750916778 0 -0.0017764041343167176 -0.055948202304578129 0 -0.00027838850720394775 -0.059398312573000475 0 -0.0072132498341072448 -0.066700141236158611 0 -0.007953251748843539 -0.065876066042613701 0 -0.0081844887175876423 -0.067496994750916778 0 0.0026585489592678281 -0.055576434642110137 0 0.0042157179437352175 -0.053920519912066554 0 0.0043050714695197622 -0.056101944540795964 0 -0.00027838850720394775 -0.059398312573000475 0 0.0017713762463956392 -0.061270371880147549 0 -0.0081844887175876423 -0.067496994750916778 0 -0.0065006335965687705 -0.067519181931327471 0 -0.006905189688035049 -0.069857092274029878 0 -0.0065006335965687705 -0.067519181931327471 0 -0.006905189688035049 -0.069857092274029878 0 -0.0047456583242017087 -0.06939047943662581 0 0.0017713762463956392 -0.061270371880147549 0 0.0020658070732575851 -0.06105027674415224 0 0.0053154460626267551 -0.057805408892085776 0 0.0055332928081856161 -0.056603380271434946 0 0.0043050714695197622 -0.056101944540795964 0 0.0037445924906419218 -0.057689150945090417 0 0.0053154460626267551 -0.057805408892085776 0 0.0043050714695197622 -0.056101944540795964 0 0.0042157179437352175 -0.053920519912066554 0 0.0055924407866083468 -0.056584340177539813 0 0.0043050714695197622 -0.056101944540795964 0 0.0037445924906419218 -0.057689150945090417 0 0.0027351962319673104 -0.056959016422478165 0 0.0043050714695197622 -0.056101944540795964 0 0.0027351962319673104 -0.056959016422478165 0 0.0026585489592678281 -0.055576434642110137 0 0.0043050714695197622 -0.056101944540795964 0 -0.00066046303019825939 -0.06946310574136362 0 -0.0032032240025812709 -0.068567908621474299 0 -0.0030519579981374261 -0.071376762996989196 0 -0.0047631004469075987 -0.069488480524406801 0 -0.0021008898425403846 -0.069615797014501574 0 -0.0049531556362509069 -0.070568510764015949 0 -0.0029940898185018055 -0.071278233053652898 0 -0.0047456583242017087 -0.06939047943662581 0 0.00063749151465703955 -0.065204669394098483 0 0.0017713762463956392 -0.061270371880147549 0 -0.0049531556362509069 -0.070568510764015949 0 -0.006905189688035049 -0.069857092274029878 0 -0.0047456583242017087 -0.06939047943662581 0 -0.0043087878917999955 -0.067893313343081296 0 -0.0032032240025812709 -0.068567908621474299 0 -0.0065006335965687705 -0.067519181931327471 0 -0.0047631004469075987 -0.069488480524406801 0 -0.0041507587427458666 -0.067815573056452971 0 -0.0044303629576717286 -0.067647105519048067 0 -0.0034189000620272274 -0.068490384595732728 0 -0.0047631004469075987 -0.069488480524406801 0 -0.0041507587427458666 -0.067815573056452971 0 -0.0021008898425403846 -0.069615797014501574 0 -0.0043098654881393835 -0.067890261704239036 0 -0.0030765453442455522 -0.066724773825041481 0 -0.0022855230549396121 -0.068134303864676934 0 -0.0043098654881393835 -0.067890261704239036 0 -0.0021008898425403846 -0.069615797014501574 0 -0.0022855230549396121 -0.068134303864676934 0 -0.0043098654881393835 -0.067890261704239036 0 -0.0030765453442455522 -0.066724773825041481 0 -0.0047757920381035048 -0.066158500158053746 0 -0.0030765453442455522 -0.066724773825041481 0 -0.0047757920381035048 -0.066158500158053746 0 -0.0035695009657190323 -0.065343469924401154 0 -0.0030765453442455522 -0.066724773825041481 0 -0.0035695009657190323 -0.065343469924401154 0 -0.0018977984142206177 -0.065506519839491989 0 -0.0061287708085488359 -0.066222337433242726 0 -0.0044303629576717286 -0.067647105519048067 0 -0.0064389731885902282 -0.066022558868266121 0 -0.0043098654881393835 -0.067890261704239036 0 -0.0047757920381035048 -0.066158500158053746 0 -0.0062551786473837813 -0.066012231146476932 0 -0.0065006335965687705 -0.067519181931327471 0 -0.0041507587427458666 -0.067815573056452971 0 -0.0047757920381035048 -0.066158500158053746 0 -0.0057396514279498684 -0.064195069671969335 0 -0.0035695009657190323 -0.065343469924401154 0 -0.0064389731885902282 -0.066022558868266121 0 -0.0047757920381035048 -0.066158500158053746 0 -0.0057396514279498684 -0.064195069671969335 0 -0.0049873768820995366 -0.06025249341193626 0 -0.0040359114757489373 -0.061598445241184109 0 -0.0067999798183047125 -0.063582966926207851 0 -0.0035695009657190323 -0.065343469924401154 0 -0.0046406524182891901 -0.062310522007577224 0 -0.0035695009657190323 -0.065343469924401154 0 -0.0046406524182891901 -0.062310522007577224 0 -0.0024713988800323145 -0.063542362936216915 0 -0.0046406524182891901 -0.062310522007577224 0 -0.0026379683745588584 -0.0607383005437011 0 -0.0024713988800323145 -0.063542362936216915 0 -0.0026379683745588584 -0.0607383005437011 0 -0.0061662710354619867 -0.058895107702178331 0 -0.003115825087364904 -0.056008923729932346 0 -0.0026379683745588584 -0.0607383005437011 0 -0.003115825087364904 -0.056008923729932346 0 -0.0010852201107976521 -0.057794223034021229 0 -0.0046406524182891901 -0.062310522007577224 0 -0.0026379683745588584 -0.0607383005437011 0 -0.0061662710354619867 -0.058895107702178331 0 -0.0061662710354619867 -0.058895107702178331 0 -0.0079072552400729461 -0.059272971252323621 0 -0.008117642284472603 -0.056877445487052897 0 -0.0061662710354619867 -0.058895107702178331 0 -0.0067505264754721406 -0.061321490583517907 0 -0.0079072552400729461 -0.059272971252323621 0 -0.0046406524182891901 -0.062310522007577224 0 -0.0061662710354619867 -0.058895107702178331 0 -0.0067505264754721406 -0.061321490583517907 0 -0.0067999798183047125 -0.063582966926207851 0 -0.0046406524182891901 -0.062310522007577224 0 -0.0067505264754721406 -0.061321490583517907 0 -0.0049873768820995366 -0.06025249341193626 0 -0.0063097125096108339 -0.056613948599024147 0 -0.0070949100030277389 -0.064226328841633054 0 -0.0057396514279498684 -0.064195069671969335 0 -0.0078545737752261889 -0.063034711453685749 0 -0.0067999798183047125 -0.063582966926207851 0 -0.0089200767286209629 -0.061240799358388547 0 -0.01023890910492321 -0.061651347557867088 0 -0.0067999798183047125 -0.063582966926207851 0 -0.0067505264754721406 -0.061321490583517907 0 -0.0089200767286209629 -0.061240799358388547 0 -0.0089200767286209629 -0.061240799358388547 0 -0.01023890910492321 -0.061651347557867088 0 -0.010002192257713023 -0.060002259717333417 0 -0.0078545737752261889 -0.063034711453685749 0 -0.0092014322700084538 -0.063049894232400719 0 -0.010011304605881481 -0.061851641131391008 0 -0.0063097125096108339 -0.056613948599024147 0 -0.0065878306696235895 -0.050018173244350699 0 -0.008533397899419308 -0.063448784212848414 0 -0.0092014322700084538 -0.063049894232400719 0 -0.0093720966033628006 -0.063528789590056547 0 -0.008533397899419308 -0.063448784212848414 0 -0.0078545737752261889 -0.063034711453685749 0 -0.0092014322700084538 -0.063049894232400719 0 -0.0084151012163354647 -0.064253050318314742 0 -0.008533397899419308 -0.063448784212848414 0 -0.0093720966033628006 -0.063528789590056547 0 -0.0084151012163354647 -0.064253050318314742 0 -0.0070949100030277389 -0.064226328841633054 0 -0.0078545737752261889 -0.063034711453685749 0 -0.0084151012163354647 -0.064253050318314742 0 -0.008533397899419308 -0.063448784212848414 0 -0.0078545737752261889 -0.063034711453685749 0 -0.01023890910492321 -0.061651347557867088 0 -0.012670422774897447 -0.059136557520049218 0 -0.014240741512807695 -0.059465241258600449 0 -0.012670422774897447 -0.059136557520049218 0 -0.011085282068771594 -0.059175172766427697 0 -0.012010347431613666 -0.058355419026293653 0 -0.01023890910492321 -0.061651347557867088 0 -0.012670422774897447 -0.059136557520049218 0 -0.011085282068771594 -0.059175172766427697 0 -0.01023890910492321 -0.061651347557867088 0 -0.011085282068771594 -0.059175172766427697 0 -0.010002192257713023 -0.060002259717333417 0 -0.011085282068771594 -0.059175172766427697 0 -0.010441141226238094 -0.058460532608450071 0 -0.010002192257713023 -0.060002259717333417 0 -0.011085282068771594 -0.059175172766427697 0 -0.0113444060361959 -0.057387145242966689 0 -0.010441141226238094 -0.058460532608450071 0 -0.0113444060361959 -0.057387145242966689 0 -0.010441141226238094 -0.058460532608450071 0 -0.0093344054769697003 -0.05726651279035036 0 -0.011085282068771594 -0.059175172766427697 0 -0.0113444060361959 -0.057387145242966689 0 -0.012010347431613666 -0.058355419026293653 0 -0.0113444060361959 -0.057387145242966689 0 -0.012010347431613666 -0.058355419026293653 0 -0.012938666949014221 -0.057717354240085575 0 -0.012670422774897447 -0.059136557520049218 0 -0.012010347431613666 -0.058355419026293653 0 -0.012938666949014221 -0.057717354240085575 0 -0.0066791061372922528 -0.057072453922638107 0 -0.0065381303710681698 -0.055000490490812202 0 -0.0089200767286209629 -0.061240799358388547 0 -0.0079072552400729461 -0.059272971252323621 0 -0.0095184089496894927 -0.058062275301835116 0 -0.0089200767286209629 -0.061240799358388547 0 -0.010002192257713023 -0.060002259717333417 0 -0.0093344054769697003 -0.05726651279035036 0 -0.0067505264754721406 -0.061321490583517907 0 -0.0089200767286209629 -0.061240799358388547 0 -0.0079072552400729461 -0.059272971252323621 0 -0.010441141226238094 -0.058460532608450071 0 -0.010002192257713023 -0.060002259717333417 0 -0.0093344054769697003 -0.05726651279035036 0 -0.008117642284472603 -0.056877445487052897 0 -0.0095184089496894927 -0.058062275301835116 0 -0.010079866256307897 -0.054825603467855775 0 -0.0065381303710681698 -0.055000490490812202 0 -0.005865801380089508 -0.049335500386808 0 -0.0079072552400729461 -0.059272971252323621 0 -0.008117642284472603 -0.056877445487052897 0 -0.0095184089496894927 -0.058062275301835116 0 -0.0055396663441190947 -0.052330539534724413 0 -0.005865801380089508 -0.049335500386808 0 -0.0093344054769697003 -0.05726651279035036 0 -0.011287743861545454 -0.055332073229220395 0 -0.0099855165096850787 -0.053335598689367686 0 -0.0113444060361959 -0.057387145242966689 0 -0.011287743861545454 -0.055332073229220395 0 -0.013142032618913337 -0.055686546368893863 0 -0.0113444060361959 -0.057387145242966689 0 -0.012938666949014221 -0.057717354240085575 0 -0.013142032618913337 -0.055686546368893863 0 -0.0113444060361959 -0.057387145242966689 0 -0.0093344054769697003 -0.05726651279035036 0 -0.011287743861545454 -0.055332073229220395 0 -0.011287743861545454 -0.055332073229220395 0 -0.012733776060073587 -0.053476357265008163 0 -0.013142032618913337 -0.055686546368893863 0 -0.005865801380089508 -0.049335500386808 0 -0.0068423276078834264 -0.042487111258836113 0 -0.012733776060073587 -0.053476357265008163 0 -0.0099855165096850787 -0.053335598689367686 0 -0.013302195226491816 -0.049864289932503435 0 -0.011287743861545454 -0.055332073229220395 0 -0.012733776060073587 -0.053476357265008163 0 -0.0099855165096850787 -0.053335598689367686 0 -0.011300991942142251 -0.05347495193304759 0 -0.0076675858789809655 -0.052246558021395398 0 -0.012153836483094128 -0.048511818698417787 0 -0.0087341746052441785 -0.056169085650022488 0 -0.011300991942142251 -0.05347495193304759 0 -0.0076675858789809655 -0.052246558021395398 0 -0.0037346295264118947 -0.051269932814636106 0 -0.0023974446669973379 -0.052299462909746609 0 -0.003115825087364904 -0.056008923729932346 0 -0.0031506558613574299 -0.048549552007317642 0 -0.0019402634278463326 -0.051254539391967224 0 -0.0023974446669973379 -0.052299462909746609 0 -0.003115825087364904 -0.056008923729932346 0 -0.00036590678268165456 -0.053987761520783245 0 -0.0023974446669973379 -0.052299462909746609 0 -0.0010655386224006872 -0.050615284405997718 0 -0.00036590678268165456 -0.053987761520783245 0 -0.0076675858789809655 -0.052246558021395398 0 -0.003115825087364904 -0.056008923729932346 0 -0.0064228004002376557 -0.055826356843193981 0 -0.0087341746052441785 -0.056169085650022488 0 -0.0076675858789809655 -0.052246558021395398 0 -0.0064228004002376557 -0.055826356843193981 0 -0.0061662710354619867 -0.058895107702178331 0 -0.003115825087364904 -0.056008923729932346 0 -0.0064228004002376557 -0.055826356843193981 0 -0.0051224345943031435 -0.053579202460560256 0 -0.0055396663441190947 -0.052330539534724413 0 -0.0061662710354619867 -0.058895107702178331 0 -0.0087341746052441785 -0.056169085650022488 0 -0.0064228004002376557 -0.055826356843193981 0 -0.00084800306112397996 -0.032862096144888622 0 -0.00076331934485097594 -0.032822228484352067 0 -0.00083082465567214296 -0.032704915737046716 0 -0.00096052983955135748 -0.032741798318251768 0 -0.00084800306112397996 -0.032862096144888622 0 -0.00083082465567214296 -0.032704915737046716 0 -0.00084800306112397996 -0.032862096144888622 0 -0.00078960017985219564 -0.03298289432148916 0 -0.00071805869905808154 -0.032929730405634683 0 -0.00092974484864597894 -0.032949577403893558 0 -0.00084800306112397996 -0.032862096144888622 0 -0.00078960017985219564 -0.03298289432148916 0 -0.00068275301062348226 -0.033085037162259121 0 -0.00078960017985219564 -0.03298289432148916 0 -0.00071805869905808154 -0.032929730405634683 0 -0.00084800306112397996 -0.032862096144888622 0 -0.00071805869905808154 -0.032929730405634683 0 -0.00076331934485097594 -0.032822228484352067 0 -0.00071805869905808154 -0.032929730405634683 0 -0.00076331934485097594 -0.032822228484352067 0 -0.00067595747309407914 -0.032860578171794393 0 -0.00076331934485097594 -0.032822228484352067 0 -0.00067595747309407914 -0.032860578171794393 0 -0.0006783688232619554 -0.03278389395551868 0 -0.00061823180872391272 -0.032830700186100806 0 -0.00067595747309407914 -0.032860578171794393 0 -0.0005652312524996009 -0.03295199425649506 0 -0.0055145309696408434 -0.045433983167002312 0 -0.0039386912510430121 -0.048257588126113235 0 -0.00061823180872391272 -0.032830700186100806 0 -0.00067595747309407914 -0.032860578171794393 0 -0.0006783688232619554 -0.03278389395551868 0 -0.0055145309696408434 -0.045433983167002312 0 -0.0054619888711135243 -0.04483266948786141 0 -0.00071805869905808154 -0.032929730405634683 0 -0.00067595747309407914 -0.032860578171794393 0 -0.0005652312524996009 -0.03295199425649506 0 -0.00086139613158056215 -0.043336283977930684 0 -0.0039386912510430121 -0.048257588126113235 0 -0.00068275301062348226 -0.033085037162259121 0 -0.00071805869905808154 -0.032929730405634683 0 -0.0005652312524996009 -0.03295199425649506 0 -0.0094691362562947558 -0.065081171861912451 0 -0.010702606318124874 -0.062697822827671765 0 -0.0093720966033628006 -0.063528789590056547 0 -0.0017764041343167176 -0.055948202304578129 0 -0.0039386912510430121 -0.048257588126113235 0 -0.010702606318124874 -0.062697822827671765 0 -0.0099175939265898003 -0.062642788890987428 0 -0.010011304605881481 -0.061851641131391008 0 -0.0092014322700084538 -0.063049894232400719 0 -0.0099175939265898003 -0.062642788890987428 0 -0.010011304605881481 -0.061851641131391008 0 -0.010702606318124874 -0.062697822827671765 0 -0.0093720966033628006 -0.063528789590056547 0 -0.0099175939265898003 -0.062642788890987428 0 -0.0092014322700084538 -0.063049894232400719 0 -0.0093720966033628006 -0.063528789590056547 0 -0.0099175939265898003 -0.062642788890987428 0 -0.0049696794743317504 -0.046886006908174974 0 -0.0036851048076149244 -0.049321807801371 0 -0.0026771301120011165 -0.048080057997102396 0 -0.012670422774897447 -0.059136557520049218 0 -0.013497692391867473 -0.059176880899332776 0 -0.014240741512807695 -0.059465241258600449 0 -0.012670422774897447 -0.059136557520049218 0 -0.013497692391867473 -0.059176880899332776 0 -0.013629423505935927 -0.05848282213647419 0 -0.013497692391867473 -0.059176880899332776 0 -0.014240741512807695 -0.059465241258600449 0 -0.013629423505935927 -0.05848282213647419 0 -0.0039386912510430121 -0.048257588126113235 0 -0.0065878306696235895 -0.050018173244350699 0 -0.017136957963354609 -0.057912145387222759 0 -0.014240741512807695 -0.059465241258600449 0 -0.014850136370495507 -0.057436912214623465 0 -0.0055145309696408434 -0.045433983167002312 0 -0.0065878306696235895 -0.050018173244350699 0 -0.014850136370495507 -0.057436912214623465 0 -0.012938666949014221 -0.057717354240085575 0 -0.013629423505935927 -0.05848282213647419 0 -0.014240741512807695 -0.059465241258600449 0 -0.014850136370495507 -0.057436912214623465 0 -0.013629423505935927 -0.05848282213647419 0 -0.012670422774897447 -0.059136557520049218 0 -0.012938666949014221 -0.057717354240085575 0 -0.013629423505935927 -0.05848282213647419 0 -0.012733776060073587 -0.053476357265008163 0 -0.013142032618913337 -0.055686546368893863 0 -0.016167784924892434 -0.054131068069893533 0 -0.014850136370495507 -0.057436912214623465 0 -0.013142032618913337 -0.055686546368893863 0 -0.016167784924892434 -0.054131068069893533 0 -0.014850136370495507 -0.057436912214623465 0 -0.012938666949014221 -0.057717354240085575 0 -0.013142032618913337 -0.055686546368893863 0 -0.016167784924892434 -0.054131068069893533 0 -0.017219593690846916 -0.050435254765893348 0 -0.013302195226491816 -0.049864289932503435 0 -0.012733776060073587 -0.053476357265008163 0 -0.016167784924892434 -0.054131068069893533 0 -0.013302195226491816 -0.049864289932503435 0 -0.016167784924892434 -0.054131068069893533 0 -0.019464411002434959 -0.053377813153969646 0 -0.017219593690846916 -0.050435254765893348 0 -0.00060586617610070904 -0.032838697018502179 0 -0.0006783688232619554 -0.03278389395551868 0 -0.00070226702608107026 -0.032619156235032434 0 -0.0055145309696408434 -0.045433983167002312 0 -0.0058369398372358173 -0.040116212355986607 0 -0.017136957963354609 -0.057912145387222759 0 -0.016167784924892434 -0.054131068069893533 0 -0.019464411002434959 -0.053377813153969646 0 -0.017136957963354609 -0.057912145387222759 0 -0.014850136370495507 -0.057436912214623465 0 -0.016167784924892434 -0.054131068069893533 0 -0.00074437616056112813 -0.032734750589708407 0 -0.00070226702608107026 -0.032619156235032434 0 -0.00083082465567214296 -0.032704915737046716 0 -0.0006783688232619554 -0.03278389395551868 0 -0.00074437616056112813 -0.032734750589708407 0 -0.00070226702608107026 -0.032619156235032434 0 -0.00076331934485097594 -0.032822228484352067 0 -0.0006783688232619554 -0.03278389395551868 0 -0.00074437616056112813 -0.032734750589708407 0 -0.00076331934485097594 -0.032822228484352067 0 -0.00074437616056112813 -0.032734750589708407 0 -0.00083082465567214296 -0.032704915737046716 0 -0.00070226702608107026 -0.032619156235032434 0 -0.0008391313227328087 -0.03256589570787085 0 -0.00080171445655374601 -0.032424538693472803 0 -0.00070226702608107026 -0.032619156235032434 0 -0.0008391313227328087 -0.03256589570787085 0 -0.00083082465567214296 -0.032704915737046716 0 -0.00096646127626162507 -0.032627919572593117 0 -0.0008391313227328087 -0.03256589570787085 0 -0.00083082465567214296 -0.032704915737046716 0 -0.0003085497783727182 -0.017529877544560955 0 -0.001150257546283778 -0.017252513412279912 0 -0.00071018244158679487 -0.018120506952998251 0 -0.0043778716898060614 -0.031579265450081904 0 -0.0024160241020612801 -0.022740940714677207 0 3.9219350071405737e-06 -0.023009055239390362 0 2.2483469133728658e-05 -0.022822604259090155 0 -0.00018863879954821668 -0.022826016245753714 0 -0.00095285280083394345 -0.032491854291607933 0 -0.0008391313227328087 -0.03256589570787085 0 -0.00080171445655374601 -0.032424538693472803 0 -0.00038950331018416674 -0.016895151464036834 0 -0.0003085497783727182 -0.017529877544560955 0 -0.001150257546283778 -0.017252513412279912 0 -0.0016358706049948721 -0.025203837961165002 0 -0.0043778716898060614 -0.031579265450081904 0 -0.019464411002434959 -0.053377813153969646 0 -0.021780939708609642 -0.048865685031433993 0 -0.017219593690846916 -0.050435254765893348 0 -0.0058369398372358173 -0.040116212355986607 0 -0.0043778716898060614 -0.031579265450081904 0 -0.0043778716898060614 -0.031579265450081904 0 -0.0068889060516660284 -0.033372264964419938 0 3.9219350071405737e-06 -0.023009055239390362 0 0.00013604220842202319 -0.022888683040905387 0 2.2483469133728658e-05 -0.022822604259090155 0 -0.021780939708609642 -0.048865685031433993 0 -0.016600130650488681 -0.046406786867059881 0 -0.017219593690846916 -0.050435254765893348 0 -0.016600130650488681 -0.046406786867059881 0 -0.017219593690846916 -0.050435254765893348 0 -0.013302195226491816 -0.049864289932503435 0 -0.0068889060516660284 -0.033372264964419938 0 -0.0068423276078834264 -0.042487111258836113 0 0.00029531530049539797 -0.030585555756482679 0 -0.00086572301286287742 -0.031137336833245894 0 -0.0030189963952511677 -0.027805494751806232 0 -0.0059643661851871994 -0.041470802493306334 0 -0.0068889124931477141 -0.038603241081213553 0 -0.004301134796148757 -0.040754209567572489 0 -0.008143990483531479 -0.039198207959948293 0 -0.0059643661851871994 -0.041470802493306334 0 -0.0068889124931477141 -0.038603241081213553 0 -0.0068889060516660284 -0.033372264964419938 0 -0.0044050754519956601 -0.031877053162894228 0 -0.0044050754519956601 -0.031877053162894228 0 -0.0040998921323730248 -0.031756288626815808 0 -0.00022124734115269371 -0.031223875480763389 0 -0.00015274181874852329 -0.031094066370817949 0 -0.00055729813238460731 -0.032113454968122554 0 -0.00022124734115269371 -0.031223875480763389 0 -0.00086572301286287742 -0.031137336833245894 0 -0.00055729813238460731 -0.032113454968122554 0 -0.00015274181874852329 -0.031094066370817949 0 -0.00055729813238460731 -0.032113454968122554 0 -0.00036585479217647441 -0.032021735304817514 0 -0.00036585479217647441 -0.032021735304817514 0 1.3509581907533668e-06 -0.0280382417879151 0 -4.0856632448425451e-06 -0.032685716867145817 0 -0.00015274181874852329 -0.031094066370817949 0 -0.00036585479217647441 -0.032021735304817514 0 1.3509581907533668e-06 -0.0280382417879151 0 -0.00055729813238460731 -0.032113454968122554 0 -0.00036585479217647441 -0.032021735304817514 0 -0.0020900166564940311 -0.034427529294788095 0 -0.00015274181874852329 -0.031094066370817949 0 1.3509581907533668e-06 -0.0280382417879151 0 -0.00037549539276629106 -0.029717877391367539 0 -0.00022124734115269371 -0.031223875480763389 0 -0.00015274181874852329 -0.031094066370817949 0 -0.00037549539276629106 -0.029717877391367539 0 -0.00013952499318560204 -0.022653197773029304 0 -0.00021322065507067993 -0.022692586011400572 0 -5.542539331579758e-05 -0.022783322948142358 0 -0.00013952499318560204 -0.022653197773029304 0 -5.542539331579758e-05 -0.022783322948142358 0 2.8410553146737958e-05 -0.022748566356223746 0 -0.0044050754519956601 -0.031877053162894228 0 -0.0012121095829153532 -0.027665182110171466 0 -0.0068889060516660284 -0.033372264964419938 0 -0.0064240788297509283 -0.031046995115475106 0 0.00013604220842202319 -0.022888683040905387 0 2.2483469133728658e-05 -0.022822604259090155 0 2.8410553146737958e-05 -0.022748566356223746 0 -5.542539331579758e-05 -0.022783322948142358 0 2.8410553146737958e-05 -0.022748566356223746 0 0.00019199731785691661 -0.022708164443774242 0 2.2483469133728658e-05 -0.022822604259090155 0 2.8410553146737958e-05 -0.022748566356223746 0 0.00019199731785691661 -0.022708164443774242 0 -5.542539331579758e-05 -0.022783322948142358 0 1.8543174575241735e-07 -0.023379346228486537 0 0.00019199731785691661 -0.022708164443774242 0 1.3509581907533668e-06 -0.0280382417879151 0 -0.00037549539276629106 -0.029717877391367539 0 -3.0864111398525167e-06 -0.02339521143844003 0 -0.0012121095829153532 -0.027665182110171466 0 -2.3968628922926799e-06 -0.023398349741057409 0 -2.4501658442856527e-07 -0.019449775804180981 0 1.8543174575241735e-07 -0.023379346228486537 0 0.00019199731785691661 -0.022708164443774242 0 -2.4501658442856527e-07 -0.019449775804180981 0 0.00019199731785691661 -0.022708164443774242 0 -0.00018863879954821668 -0.022826016245753714 0 2.2483469133728658e-05 -0.022822604259090155 0 0.00019199731785691661 -0.022708164443774242 0 -0.00018863879954821668 -0.022826016245753714 0 -0.0013787840410402384 -0.044374944145852316 0 -0.0022482166104852695 -0.048155923494623845 0 -0.002875244478352342 -0.043679451365516667 0 -0.0013787840410402384 -0.044374944145852316 0 -0.00054292884579584767 -0.047177764776408747 0 -0.0022482166104852695 -0.048155923494623845 0 -0.00054292884579584767 -0.047177764776408747 0 -0.0010655386224006872 -0.050615284405997718 0 -0.0022482166104852695 -0.048155923494623845 0 -0.0023974446669973379 -0.052299462909746609 0 -0.0010655386224006872 -0.050615284405997718 0 -0.0022482166104852695 -0.048155923494623845 0 -0.00054292884579584767 -0.047177764776408747 0 -0.0010655386224006872 -0.050615284405997718 0 0.00028194014328575539 -0.050223040225462479 0 -0.0037346295264118947 -0.051269932814636106 0 -0.0023974446669973379 -0.052299462909746609 0 -0.0022482166104852695 -0.048155923494623845 0 -0.0037346295264118947 -0.051269932814636106 0 -0.0022482166104852695 -0.048155923494623845 0 -0.0055134108775420233 -0.047071434742380895 0 -0.0031506558613574299 -0.048549552007317642 0 -0.0045662807933670585 -0.041975774641259157 0 -0.0037774143293051714 -0.043755116269347298 0 -0.0059643661851871994 -0.041470802493306334 0 -0.004301134796148757 -0.040754209567572489 0 -0.005865801380089508 -0.049335500386808 0 -0.0045662807933670585 -0.041975774641259157 0 -0.0044050754519956601 -0.031877053162894228 0 -0.0045662807933670585 -0.041975774641259157 0 -0.0045662807933670585 -0.041975774641259157 0 -0.0044311181698254007 -0.039140337845405111 0 -0.00086572301286287742 -0.031137336833245894 0 -0.0030189963952511677 -0.027805494751806232 0 -0.0024983122036057537 -0.030656069630857544 0 -0.0055134108775420233 -0.047071434742380895 0 -0.0053101871521370912 -0.042510456248543951 0 -0.002875244478352342 -0.043679451365516667 0 -0.0022482166104852695 -0.048155923494623845 0 -0.0055134108775420233 -0.047071434742380895 0 -0.002875244478352342 -0.043679451365516667 0 -0.0013787840410402384 -0.044374944145852316 0 -0.002875244478352342 -0.043679451365516667 0 -0.0011425579986184093 -0.040160835563784462 0 -0.002875244478352342 -0.043679451365516667 0 -0.0022443009547014297 -0.039118348590475784 0 -0.0011425579986184093 -0.040160835563784462 0 -0.0022443009547014297 -0.039118348590475784 0 -0.0011425579986184093 -0.040160835563784462 0 -0.001118036835115333 -0.036503916689234812 0 -0.0053101871521370912 -0.042510456248543951 0 -0.0022443009547014297 -0.039118348590475784 0 -0.0020900166564940311 -0.034427529294788095 0 -0.00055729813238460731 -0.032113454968122554 0 -0.0024983122036057537 -0.030656069630857544 0 -0.0020900166564940311 -0.034427529294788095 0 -0.0044311181698254007 -0.039140337845405111 0 -0.004278875556314103 -0.038343750458981016 0 -0.00086572301286287742 -0.031137336833245894 0 -0.00055729813238460731 -0.032113454968122554 0 -0.0024983122036057537 -0.030656069630857544 0 -0.0053101871521370912 -0.042510456248543951 0 -0.002875244478352342 -0.043679451365516667 0 -0.0022443009547014297 -0.039118348590475784 0 -0.0022443009547014297 -0.039118348590475784 0 -0.0020900166564940311 -0.034427529294788095 0 -0.001118036835115333 -0.036503916689234812 0 -0.00036585479217647441 -0.032021735304817514 0 -0.0020900166564940311 -0.034427529294788095 0 -4.0856632448425451e-06 -0.032685716867145817 0 -0.0020900166564940311 -0.034427529294788095 0 -4.0856632448425451e-06 -0.032685716867145817 0 -0.001118036835115333 -0.036503916689234812 0 -4.0856632448425451e-06 -0.032685716867145817 0 -0.001118036835115333 -0.036503916689234812 0 -1.0379328708682154e-06 -0.03733105660428019 0 -0.0011425579986184093 -0.040160835563784462 0 -0.001118036835115333 -0.036503916689234812 0 -1.0379328708682154e-06 -0.03733105660428019 0 -1.0379328708682154e-06 -0.03733105660428019 0 -0.00033027151237353442 -0.042860299888832658 0 -4.63396642629005e-07 -0.04197989961115195 0 -0.0011425579986184093 -0.040160835563784462 0 -1.0379328708682154e-06 -0.03733105660428019 0 -0.00033027151237353442 -0.042860299888832658 0 -0.0013787840410402384 -0.044374944145852316 0 -0.00054292884579584767 -0.047177764776408747 0 -0.00033027151237353442 -0.042860299888832658 0 -0.0013787840410402384 -0.044374944145852316 0 -0.0011425579986184093 -0.040160835563784462 0 -0.00033027151237353442 -0.042860299888832658 0 -0.00054292884579584767 -0.047177764776408747 0 -0.00033027151237353442 -0.042860299888832658 0 0.00048773755976008894 -0.046622998997661882 0 -0.00033027151237353442 -0.042860299888832658 0 -4.63396642629005e-07 -0.04197989961115195 0 0.00048773755976008894 -0.046622998997661882 0 -4.63396642629005e-07 -0.04197989961115195 0 4.4732760655022887e-06 -0.046615772754154114 0 0.00048773755976008894 -0.046622998997661882 0 4.4732760655022887e-06 -0.046615772754154114 0 0.0012371002830147029 -0.048599189449908195 0 0.00048773755976008894 -0.046622998997661882 0 0.0012371002830147029 -0.048599189449908195 0 0.00048773755976008894 -0.046622998997661882 0 0.001434736369691159 -0.050552302637224669 0 -0.00054292884579584767 -0.047177764776408747 0 0.00048773755976008894 -0.046622998997661882 0 0.00028194014328575539 -0.050223040225462479 0 0.00048773755976008894 -0.046622998997661882 0 0.001434736369691159 -0.050552302637224669 0 0.00028194014328575539 -0.050223040225462479 0 0.001434736369691159 -0.050552302637224669 0 0.0013131639580379125 -0.052624632951247134 0 0.00028194014328575539 -0.050223040225462479 0 -0.0010655386224006872 -0.050615284405997718 0 0.00028194014328575539 -0.050223040225462479 0 -0.00036590678268165456 -0.053987761520783245 0 0.0013131639580379125 -0.052624632951247134 0 0.00028194014328575539 -0.050223040225462479 0 -0.00036590678268165456 -0.053987761520783245 0 0.0025549540890560749 -0.053268512872533418 0 0.0040559683523629436 -0.055166009130191207 0 0.0034032532669488564 -0.055235646887714374 0 0.0040559683523629436 -0.055166009130191207 0 0.0042110307615571864 -0.056093405103202168 0 0.0034032532669488564 -0.055235646887714374 0 0.001434736369691159 -0.050552302637224669 0 0.0013131639580379125 -0.052624632951247134 0 0.0025549540890560749 -0.053268512872533418 0 0.0013131639580379125 -0.052624632951247134 0 0.0025549540890560749 -0.053268512872533418 0 0.0020420678147032721 -0.055742464540992298 0 0.0012371002830147029 -0.048599189449908195 0 0.001434736369691159 -0.050552302637224669 0 0.0027516427545999371 -0.051565718217404709 0 0.001434736369691159 -0.050552302637224669 0 0.0025549540890560749 -0.053268512872533418 0 0.0027516427545999371 -0.051565718217404709 0 0.0025549540890560749 -0.053268512872533418 0 0.0027516427545999371 -0.051565718217404709 0 0.0040559683523629436 -0.055166009130191207 0 0.0027516427545999371 -0.051565718217404709 0 0.0045388072378781215 -0.052572579168176162 0 0.0040559683523629436 -0.055166009130191207 0 0.0016892870230026818 -0.050165632070647045 0 0.0023904474650494095 -0.05262763229255446 0 -2.9421752007479659e-06 -0.046626581742577632 0 -0.00050332785595535719 -0.052625780265295199 0 9.4381385620820148e-07 -0.052217877885789049 0 0.0027516427545999371 -0.051565718217404709 0 0.0026079833918865045 -0.048348683390859064 0 0.0045388072378781215 -0.052572579168176162 0 0.0012371002830147029 -0.048599189449908195 0 0.0027516427545999371 -0.051565718217404709 0 0.0026079833918865045 -0.048348683390859064 0 4.4732760655022887e-06 -0.046615772754154114 0 0.0012371002830147029 -0.048599189449908195 0 0.0026079833918865045 -0.048348683390859064 0 1.516425720805819e-06 -0.046628491475580569 0 0.0016892870230026818 -0.050165632070647045 0 -0.00050332785595535719 -0.052625780265295199 0 9.4381385620820148e-07 -0.052217877885789049 0 0.00052433400262160454 -0.056897914513691653 0 9.4381385620820148e-07 -0.052217877885789049 0 0.0015876401462700533 -0.058288415150322806 0 3.630788355618026e-06 -0.059904221464844115 0 9.4381385620820148e-07 -0.052217877885789049 0 0.0015876401462700533 -0.058288415150322806 0 0.00052433400262160454 -0.056897914513691653 0 0.0015876401462700533 -0.058288415150322806 0 3.630788355618026e-06 -0.059904221464844115 0 0.0005373120793773805 -0.061351832845351194 0 3.630788355618026e-06 -0.059904221464844115 0 0.0005373120793773805 -0.061351832845351194 0 -0.00010148687094602672 -0.065523740413897066 0 0.0016971003192820303 -0.06343405668439947 0 0.00049392086557775543 -0.060851623356805641 0 -0.00098339868477241555 -0.06393870194800895 0 0.0016971003192820303 -0.06343405668439947 0 0.0025632615531869032 -0.059825055435417773 0 0.0027564014621792574 -0.058313936408798797 0 0.0015876401462700533 -0.058288415150322806 0 0.0005373120793773805 -0.061351832845351194 0 0.0027564014621792574 -0.058313936408798797 0 0.0006926638981171535 -0.063758819179578194 0 0.0016150687028879871 -0.062704103112465798 0 0.0025632615531869032 -0.059825055435417773 0 0.00049392086557775543 -0.060851623356805641 0 0.0025939510945003782 -0.05836422431960845 0 0.0030492291951594724 -0.058581171241458736 0 0.0025632615531869032 -0.059825055435417773 0 0.002961136735456458 -0.058469470625556741 0 0.0025632615531869032 -0.059825055435417773 0 0.0027564014621792574 -0.058313936408798797 0 0.002961136735456458 -0.058469470625556741 0 0.0030492291951594724 -0.058581171241458736 0 0.0025632615531869032 -0.059825055435417773 0 0.0025939510945003782 -0.05836422431960845 0 0.0030492291951594724 -0.058581171241458736 0 0.0036501220767409174 -0.057585710000201483 0 0.0025939510945003782 -0.05836422431960845 0 0.0016971003192820303 -0.06343405668439947 0 0.0025632615531869032 -0.059825055435417773 0 0.00049392086557775543 -0.060851623356805641 0 0.0045388072378781215 -0.052572579168176162 0 0.0039805471542819389 -0.055639393074004631 0 0.0040559683523629436 -0.055166009130191207 0 0.0045388072378781215 -0.052572579168176162 0 0.0039805471542819389 -0.055639393074004631 0 0.0028591727631169222 -0.05811630934615146 0 0.0023904474650494095 -0.05262763229255446 0 0.0026157631059519951 -0.053670001704976551 0 0.0039805471542819389 -0.055639393074004631 0 0.0035507913146620301 -0.056995855987936321 0 0.0040824349242495868 -0.056283828304243201 0 0.0015876401462700533 -0.058288415150322806 0 0.0027564014621792574 -0.058313936408798797 0 0.0028591727631169222 -0.05811630934615146 0 0.0015876401462700533 -0.058288415150322806 0 0.00052433400262160454 -0.056897914513691653 0 0.0028591727631169222 -0.05811630934615146 0 0.0027564014621792574 -0.058313936408798797 0 0.0030860277884100806 -0.057839354706550598 0 0.002961136735456458 -0.058469470625556741 0 0.0027564014621792574 -0.058313936408798797 0 0.0028591727631169222 -0.05811630934615146 0 0.0030860277884100806 -0.057839354706550598 0 0.0039805471542819389 -0.055639393074004631 0 0.0028591727631169222 -0.05811630934615146 0 0.0035507913146620301 -0.056995855987936321 0 0.0030860277884100806 -0.057839354706550598 0 0.0035507913146620301 -0.056995855987936321 0 0.0033178880529826397 -0.057614785759909755 0 0.0028591727631169222 -0.05811630934615146 0 0.0030860277884100806 -0.057839354706550598 0 0.0035507913146620301 -0.056995855987936321 0 0.0035507913146620301 -0.056995855987936321 0 0.0036929893591256002 -0.057209698022736476 0 0.0040824349242495868 -0.056283828304243201 0 0.0035507913146620301 -0.056995855987936321 0 0.0036929893591256002 -0.057209698022736476 0 0.0033178880529826397 -0.057614785759909755 0 0.0030860277884100806 -0.057839354706550598 0 0.002961136735456458 -0.058469470625556741 0 0.0033178880529826397 -0.057614785759909755 0 0.002961136735456458 -0.058469470625556741 0 0.0033178880529826397 -0.057614785759909755 0 0.0033568619851620982 -0.057846995960831191 0 0.0036929893591256002 -0.057209698022736476 0 0.0033178880529826397 -0.057614785759909755 0 0.0033568619851620982 -0.057846995960831191 0 0.0030492291951594724 -0.058581171241458736 0 0.002961136735456458 -0.058469470625556741 0 0.0033568619851620982 -0.057846995960831191 0 0.0030492291951594724 -0.058581171241458736 0 0.0033568619851620982 -0.057846995960831191 0 0.0036501220767409174 -0.057585710000201483 0 0.0036929893591256002 -0.057209698022736476 0 0.0033568619851620982 -0.057846995960831191 0 0.0036501220767409174 -0.057585710000201483 0 0.0036929893591256002 -0.057209698022736476 0 0.0036501220767409174 -0.057585710000201483 0 0.0041786271196968261 -0.056773695730449568 0 0.0036929893591256002 -0.057209698022736476 0 0.0041786271196968261 -0.056773695730449568 0 0.0040824349242495868 -0.056283828304243201 0 0.0041786271196968261 -0.056773695730449568 0 0.0040824349242495868 -0.056283828304243201 0 0.0042110307615571864 -0.056093405103202168 0 0.0039805471542819389 -0.055639393074004631 0 0.0040824349242495868 -0.056283828304243201 0 0.0040559683523629436 -0.055166009130191207 0 0.0040824349242495868 -0.056283828304243201 0 0.0040559683523629436 -0.055166009130191207 0 0.0042110307615571864 -0.056093405103202168 0 0.0041786271196968261 -0.056773695730449568 0 0.0040558451340332704 -0.057025982691115695 0 0.0048770208428530661 -0.057170456837310688 0 0.0041786271196968261 -0.056773695730449568 0 0.0042110307615571864 -0.056093405103202168 0 0.0048770208428530661 -0.057170456837310688 0 0.0036501220767409174 -0.057585710000201483 0 0.0041786271196968261 -0.056773695730449568 0 0.0040558451340332704 -0.057025982691115695 0 0.0036501220767409174 -0.057585710000201483 0 0.0040558451340332704 -0.057025982691115695 0 0.0025939510945003782 -0.05836422431960845 0 0.0082310170339206339 -0.058068153220017425 0 0.0048770208428530661 -0.057170456837310688 0 0.0075639661696989243 -0.060275104564168833 0 0.0025448315627988579 -0.066315434590721575 0 0.0030715453424472457 -0.064719306646838809 0 0.0040558451340332704 -0.057025982691115695 0 0.0037770307923263207 -0.056202595233922972 0 0.0048770208428530661 -0.057170456837310688 0 0.0040558451340332704 -0.057025982691115695 0 0.0037770307923263207 -0.056202595233922972 0 0.0025729846389791608 -0.056814490861656679 0 0.0025939510945003782 -0.05836422431960845 0 0.0025729846389791608 -0.056814490861656679 0 -0.00024776728026663014 -0.057583445182372517 0 0.00049392086557775543 -0.060851623356805641 0 0.0025939510945003782 -0.05836422431960845 0 -0.00024776728026663014 -0.057583445182372517 0 0.0040558451340332704 -0.057025982691115695 0 0.0025939510945003782 -0.05836422431960845 0 0.0025729846389791608 -0.056814490861656679 0 0.0037770307923263207 -0.056202595233922972 0 0.0025729846389791608 -0.056814490861656679 0 0.0016401916613992859 -0.055410663144078394 0 0.0025448315627988579 -0.066315434590721575 0 -0.000970040305914412 -0.071443165569702996 0 -0.011317134128944218 -0.083411280774002908 0 -0.009219693472982262 -0.080617801998513636 0 -0.0079193835005731249 -0.084236133283866366 0 -0.000970040305914412 -0.071443165569702996 0 -0.0026906774601558386 -0.070496860294956054 0 0.0025729846389791608 -0.056814490861656679 0 0.0016401916613992859 -0.055410663144078394 0 -0.00024776728026663014 -0.057583445182372517 0 -0.0074749857010202947 -0.084062637895369052 0 -0.0072891936614162458 -0.084895213703768055 0 -0.0060949864616689081 -0.084405887968848015 0 -0.000970040305914412 -0.071443165569702996 0 -0.004050478438797871 -0.076142356716415491 0 -0.0072891936614162458 -0.084895213703768055 0 -0.0071053649813310376 -0.085773346938662523 0 -0.0060949864616689081 -0.084405887968848015 0 0.011460482536011108 -0.05890780349318759 0 0.0090980386952818817 -0.061937678986124511 0 0.0075639661696989243 -0.060275104564168833 0 -0.0074749857010202947 -0.084062637895369052 0 -0.0072891936614162458 -0.084895213703768055 0 -0.0084585579127177332 -0.085330240698682697 0 -0.000970040305914412 -0.071443165569702996 0 0.0027131307028333707 -0.071530019317367105 0 0.0082310170339206339 -0.058068153220017425 0 0.011460482536011108 -0.05890780349318759 0 0.0075639661696989243 -0.060275104564168833 0 0.0027131307028333707 -0.071530019317367105 0 -0.00058251549629043174 -0.074458101614706382 0 0.0024203571474171082 -0.068308979777939344 0 0.0027175546084700001 -0.067473498286901606 0 0.0024413585290952861 -0.068198125312011873 0 -0.0072891936614162458 -0.084895213703768055 0 -0.0084585579127177332 -0.085330240698682697 0 -0.0071053649813310376 -0.085773346938662523 0 0.0026211240374959793 -0.067642483898271377 0 0.0024203571474171082 -0.068308979777939344 0 0.0022040915040265449 -0.069048704537672048 0 0.0027131307028333707 -0.071530019317367105 0 0.0027335176689878321 -0.071489697710808542 0 0.0026211240374959793 -0.067642483898271377 0 0.0024203571474171082 -0.068308979777939344 0 0.0027175546084700001 -0.067473498286901606 0 0.0048770208428530661 -0.057170456837310688 0 0.0053876994422114169 -0.060886337113297335 0 0.0075639661696989243 -0.060275104564168833 0 0.0090980386952818817 -0.061937678986124511 0 0.0053876994422114169 -0.060886337113297335 0 0.0075639661696989243 -0.060275104564168833 0 0.0027131307028333707 -0.071530019317367105 0 0.0022250090179372077 -0.067111005000988197 0 0.0027175546084700001 -0.067473498286901606 0 0.0027664270890939281 -0.066566961963995017 0 0.0024413585290952861 -0.068198125312011873 0 0.0027390281619870502 -0.06748610354276452 0 0.003032328046165119 -0.064719814893134484 0 0.0027175546084700001 -0.067473498286901606 0 0.003032328046165119 -0.064719814893134484 0 0.0027175546084700001 -0.067473498286901606 0 0.0027664270890939281 -0.066566961963995017 0 0.003032328046165119 -0.064719814893134484 0 0.0027664270890939281 -0.066566961963995017 0 0.0024198369364923917 -0.065159669681411236 0 0.0048770208428530661 -0.057170456837310688 0 0.0053876994422114169 -0.060886337113297335 0 0.0023911280193059364 -0.060497299922034051 0 0.003032328046165119 -0.064719814893134484 0 0.0024198369364923917 -0.065159669681411236 0 0.0023911280193059364 -0.060497299922034051 0 0.0022250090179372077 -0.067111005000988197 0 0.0014492800424401214 -0.0655132729717188 0 0.0023911280193059364 -0.060497299922034051 0 0.0012336495382997811 -0.063039612191477218 0 0.00011952993699177701 -0.060506647106212418 0 0.0012336495382997811 -0.063039612191477218 0 -0.00051569839923134892 -0.063531112493524056 0 0.0010674875145482896 -0.065324986387294198 0 0.0024198369364923917 -0.065159669681411236 0 0.0023911280193059364 -0.060497299922034051 0 0.0012336495382997811 -0.063039612191477218 0 0.0024198369364923917 -0.065159669681411236 0 0.0012336495382997811 -0.063039612191477218 0 0.0010674875145482896 -0.065324986387294198 0 0.0012336495382997811 -0.063039612191477218 0 -0.00051569839923134892 -0.063531112493524056 0 0.00011952993699177701 -0.060506647106212418 0 -0.0026379683745588584 -0.0607383005437011 0 -0.00051569839923134892 -0.063531112493524056 0 0.00011952993699177701 -0.060506647106212418 0 -0.0026379683745588584 -0.0607383005437011 0 -0.00051569839923134892 -0.063531112493524056 0 -0.0024713988800323145 -0.063542362936216915 0 -0.0026379683745588584 -0.0607383005437011 0 0.00011952993699177701 -0.060506647106212418 0 -0.0010852201107976521 -0.057794223034021229 0 0.0023911280193059364 -0.060497299922034051 0 0.00011952993699177701 -0.060506647106212418 0 0.00060573208081004409 -0.057441156899825326 0 0.00011952993699177701 -0.060506647106212418 0 0.00060573208081004409 -0.057441156899825326 0 -0.0010852201107976521 -0.057794223034021229 0 -0.003115825087364904 -0.056008923729932346 0 -0.0010852201107976521 -0.057794223034021229 0 -0.00036590678268165456 -0.053987761520783245 0 0.00060573208081004409 -0.057441156899825326 0 -0.0010852201107976521 -0.057794223034021229 0 -0.00036590678268165456 -0.053987761520783245 0 0.00060573208081004409 -0.057441156899825326 0 -0.00036590678268165456 -0.053987761520783245 0 0.0020420678147032721 -0.055742464540992298 0 0.0013131639580379125 -0.052624632951247134 0 -0.00036590678268165456 -0.053987761520783245 0 0.0020420678147032721 -0.055742464540992298 0 0.0025549540890560749 -0.053268512872533418 0 0.0020420678147032721 -0.055742464540992298 0 0.0034032532669488564 -0.055235646887714374 0 0.0042110307615571864 -0.056093405103202168 0 0.0048770208428530661 -0.057170456837310688 0 0.0034495655835139762 -0.056785818924062835 0 0.0020420678147032721 -0.055742464540992298 0 0.0034032532669488564 -0.055235646887714374 0 0.0034495655835139762 -0.056785818924062835 0 0.0042110307615571864 -0.056093405103202168 0 0.0034032532669488564 -0.055235646887714374 0 0.0034495655835139762 -0.056785818924062835 0 0.0048770208428530661 -0.057170456837310688 0 0.0023911280193059364 -0.060497299922034051 0 0.0034495655835139762 -0.056785818924062835 0 0.0023911280193059364 -0.060497299922034051 0 0.00060573208081004409 -0.057441156899825326 0 0.0020420678147032721 -0.055742464540992298 0 0.0023911280193059364 -0.060497299922034051 0 0.0020420678147032721 -0.055742464540992298 0 0.0034495655835139762 -0.056785818924062835 0 5.3070401317580011e-07 -0.084991637962528468 0 0.0003249440230169929 -0.077574128689317207 0 -2.0790036616631552e-06 -0.070473284445864162 0 5.3070401317580011e-07 -0.084991637962528468 0 -6.2897106469846326e-06 -0.08432489393145455 0 7.8300563801190026e-07 -0.084998164864751327 0 0.00018944539281584655 -0.083491037721732941 0 -6.2897106469846326e-06 -0.08432489393145455 0 7.8300563801190026e-07 -0.084998164864751327 0 0.00018944539281584655 -0.083491037721732941 0 0.00019939826137892015 -0.083732321443027391 0 -6.2897106469846326e-06 -0.08432489393145455 0 5.3070401317580011e-07 -0.084991637962528468 0 -6.2897106469846326e-06 -0.08432489393145455 0 0.0003249440230169929 -0.077574128689317207 0 0.00010081091925051068 -0.078023218934102703 0 -6.2897106469846326e-06 -0.08432489393145455 0 0.0003249440230169929 -0.077574128689317207 0 0.00059828811847641356 -0.080550005434762484 0 0.0005396825093247628 -0.081127338451041905 0 0.0003249440230169929 -0.077574128689317207 0 0.0013419342670884333 -0.075314709459521789 0 0.0002166568161984768 -0.07318181896736016 0 0.00059828811847641356 -0.080550005434762484 0 0.00019998455312471338 -0.079986137632598972 0 0.00010081091925051068 -0.078023218934102703 0 0.0003249440230169929 -0.077574128689317207 0 0.0013419342670884333 -0.075314709459521789 0 0.00018944539281584655 -0.083491037721732941 0 0.00019939826137892015 -0.083732321443027391 0 0.00047705710780467569 -0.082277122910517211 0 0.00018944539281584655 -0.083491037721732941 0 0.00047705710780467569 -0.082277122910517211 0 0.00047652171530035902 -0.082061121349968832 0 0.00047705710780467569 -0.082277122910517211 0 0.00011230213704537641 -0.080722827494267388 0 0.00047652171530035902 -0.082061121349968832 0 0.00019998455312471338 -0.079986137632598972 0 -0.00043363401370503723 -0.079974669167340459 0 0.00047705710780467569 -0.082277122910517211 0 -0.00041031700605358059 -0.078502027074481492 0 0.00011230213704537641 -0.080722827494267388 0 0.0013419342670884333 -0.075314709459521789 0 -0.00041031700605358059 -0.078502027074481492 0 -0.00038964328352296098 -0.07392602844109529 0 -0.00041031700605358059 -0.078502027074481492 0 -0.0026642910277508733 -0.07497979548308073 0 -0.00038964328352296098 -0.07392602844109529 0 -0.00041031700605358059 -0.078502027074481492 0 -0.0026642910277508733 -0.07497979548308073 0 -0.003837185736222997 -0.077989385369988659 0 -0.00041031700605358059 -0.078502027074481492 0 -0.003837185736222997 -0.077989385369988659 0 -0.0014564060285952229 -0.08035447691291342 0 -0.0026642910277508733 -0.07497979548308073 0 -0.00038964328352296098 -0.07392602844109529 0 -0.0034681453089611992 -0.070539287308358456 0 -0.00038964328352296098 -0.07392602844109529 0 -0.0010962674682530283 -0.070573893165940718 0 -0.0034681453089611992 -0.070539287308358456 0 -0.00038964328352296098 -0.07392602844109529 0 0.0002166568161984768 -0.07318181896736016 0 -0.0010962674682530283 -0.070573893165940718 0 0.0013419342670884333 -0.075314709459521789 0 -0.00038964328352296098 -0.07392602844109529 0 0.0002166568161984768 -0.07318181896736016 0 -2.0790036616631552e-06 -0.070473284445864162 0 -0.0010962674682530283 -0.070573893165940718 0 -0.00010148687094602672 -0.065523740413897066 0 0.0003249440230169929 -0.077574128689317207 0 0.0002166568161984768 -0.07318181896736016 0 -2.0790036616631552e-06 -0.070473284445864162 0 0.0002166568161984768 -0.07318181896736016 0 -2.0790036616631552e-06 -0.070473284445864162 0 -0.0010962674682530283 -0.070573893165940718 0 3.630788355618026e-06 -0.059904221464844115 0 -2.0790036616631552e-06 -0.070473284445864162 0 -0.00010148687094602672 -0.065523740413897066 0 -0.00099388692421755018 -0.066525036346586769 0 -0.00070417525306464121 -0.065623228200306388 0 0.0016971003192820303 -0.06343405668439947 0 -0.00098339868477241555 -0.06393870194800895 0 -0.003194900452864166 -0.068795774700434631 0 -0.00098339868477241555 -0.06393870194800895 0 -0.003194900452864166 -0.068795774700434631 0 -0.0031470943602897191 -0.062191679554652372 0 0.0006926638981171535 -0.063758819179578194 0 -0.00070417525306464121 -0.065623228200306388 0 -0.0010962674682530283 -0.070573893165940718 0 -0.003194900452864166 -0.068795774700434631 0 -0.0034681453089611992 -0.070539287308358456 0 -0.003194900452864166 -0.068795774700434631 0 -0.0034681453089611992 -0.070539287308358456 0 -0.0031470943602897191 -0.062191679554652372 0 -0.0029956921033396466 -0.069503095378532567 0 -0.0031600344647067504 -0.069857286638054281 0 -0.0026642910277508733 -0.07497979548308073 0 -0.003837185736222997 -0.077989385369988659 0 -0.0074382325574605434 -0.077343064165010467 0 -0.0026642910277508733 -0.07497979548308073 0 -0.0034681453089611992 -0.070539287308358456 0 -0.0074382325574605434 -0.077343064165010467 0 0.00049392086557775543 -0.060851623356805641 0 -0.0031470943602897191 -0.062191679554652372 0 -0.00024776728026663014 -0.057583445182372517 0 0.00049392086557775543 -0.060851623356805641 0 -0.00098339868477241555 -0.06393870194800895 0 -0.0031470943602897191 -0.062191679554652372 0 -0.0074382325574605434 -0.077343064165010467 0 -0.009219693472982262 -0.080617801998513636 0 -0.0061479287786241231 -0.080607245013428031 0 -0.0031600344647067504 -0.069857286638054281 0 -0.0026906774601558386 -0.070496860294956054 0 -0.003837185736222997 -0.077989385369988659 0 -0.0074382325574605434 -0.077343064165010467 0 -0.0061479287786241231 -0.080607245013428031 0 -0.003837185736222997 -0.077989385369988659 0 -0.0061479287786241231 -0.080607245013428031 0 -0.0040183213805707425 -0.082623043304553667 0 -0.0063225663757145454 -0.082626282189759606 0 -0.004574083183590461 -0.084688805584072574 0 -0.0040183213805707425 -0.082623043304553667 0 -0.0061479287786241231 -0.080607245013428031 0 -0.0063225663757145454 -0.082626282189759606 0 -0.0040183213805707425 -0.082623043304553667 0 -0.009219693472982262 -0.080617801998513636 0 -0.0063225663757145454 -0.082626282189759606 0 -0.0079193835005731249 -0.084236133283866366 0 -0.009219693472982262 -0.080617801998513636 0 -0.0061479287786241231 -0.080607245013428031 0 -0.0063225663757145454 -0.082626282189759606 0 0.0022040915040265449 -0.069048704537672048 0 0.0022817038074694558 -0.069950984364333363 0 0.002269416174942127 -0.069913920825719608 0 -0.0071053649813310376 -0.085773346938662523 0 -0.0055332578918657659 -0.085295703963323227 0 -0.0056870435999787396 -0.086284920850442287 0 -0.00058251549629043174 -0.074458101614706382 0 -0.00069902743062555644 -0.076751174524722118 0 -0.0071053649813310376 -0.085773346938662523 0 -0.0060949864616689081 -0.084405887968848015 0 -0.0055332578918657659 -0.085295703963323227 0 -0.00055397692486146245 -0.080078002340982932 0 -0.00069902743062555644 -0.076751174524722118 0 -0.0055332578918657659 -0.085295703963323227 0 -0.004574083183590461 -0.084688805584072574 0 -0.003915420829892895 -0.085754224247453631 0 0.00066015059240811234 -0.076927544682352217 0 0.00074688676913169994 -0.077656005103059159 0 -0.00025182685905340482 -0.077373321668633976 0 -0.0055332578918657659 -0.085295703963323227 0 -0.003915420829892895 -0.085754224247453631 0 -0.0056870435999787396 -0.086284920850442287 0 -0.0060949864616689081 -0.084405887968848015 0 -0.0055332578918657659 -0.085295703963323227 0 -0.004574083183590461 -0.084688805584072574 0 -0.0063225663757145454 -0.082626282189759606 0 -0.0079193835005731249 -0.084236133283866366 0 -0.004574083183590461 -0.084688805584072574 0 -0.004050478438797871 -0.076142356716415491 0 -0.0040950741269918925 -0.077701654993817357 0 -0.00055397692486146245 -0.080078002340982932 0 -0.0019119129875146378 -0.081380132632760241 0 -0.004574083183590461 -0.084688805584072574 0 -0.003915420829892895 -0.085754224247453631 0 -0.0040183213805707425 -0.082623043304553667 0 -0.0014166052355897832 -0.08380576269801103 0 -0.0021255636784948532 -0.085173861436091111 0 -0.002680710890681321 -0.082820502444282088 0 -0.00055397692486146245 -0.080078002340982932 0 0.001093993349598994 -0.077261097083411071 0 0.0069070499265213624 -0.080725350677310348 0 0.004291740738206512 -0.079661403697670483 0 0.006668887778461698 -0.078054327413499699 0 0.0069070499265213624 -0.080725350677310348 0 0.004291740738206512 -0.079661403697670483 0 0.0035404361070617749 -0.082205980952239882 0 0.004291740738206512 -0.079661403697670483 0 0.0035404361070617749 -0.082205980952239882 0 0.0026075989549852602 -0.080634397310411818 0 -0.00055397692486146245 -0.080078002340982932 0 0.00056554575341444724 -0.081258969817764648 0 -0.0014166052355897832 -0.08380576269801103 0 -0.0021255636784948532 -0.085173861436091111 0 -0.00014316955986467308 -0.083988841188506719 0 -0.0014166052355897832 -0.08380576269801103 0 -0.00014316955986467308 -0.083988841188506719 0 -0.0005919497213726241 -0.083035284327221445 0 -0.00014316955986467308 -0.083988841188506719 0 -0.0005919497213726241 -0.083035284327221445 0 0.00024853371520728272 -0.082760637588179906 0 -0.0005919497213726241 -0.083035284327221445 0 -0.00043180670261226158 -0.081746421181503603 0 0.00024853371520728272 -0.082760637588179906 0 -0.0014166052355897832 -0.08380576269801103 0 -0.0005919497213726241 -0.083035284327221445 0 -0.002680710890681321 -0.082820502444282088 0 -0.0005919497213726241 -0.083035284327221445 0 -0.002680710890681321 -0.082820502444282088 0 -0.00043180670261226158 -0.081746421181503603 0 -0.003837185736222997 -0.077989385369988659 0 -0.002680710890681321 -0.082820502444282088 0 -0.0014564060285952229 -0.08035447691291342 0 -0.0024903930950433877 -0.079868321644009921 0 -0.0019119129875146378 -0.081380132632760241 0 -0.002680710890681321 -0.082820502444282088 0 -0.0014564060285952229 -0.08035447691291342 0 -0.00043180670261226158 -0.081746421181503603 0 0.00011230213704537641 -0.080722827494267388 0 -0.00043180670261226158 -0.081746421181503603 0 0.00047652171530035902 -0.082061121349968832 0 -0.00041031700605358059 -0.078502027074481492 0 -0.0014564060285952229 -0.08035447691291342 0 0.00011230213704537641 -0.080722827494267388 0 -0.0014564060285952229 -0.08035447691291342 0 0.00011230213704537641 -0.080722827494267388 0 -0.00043180670261226158 -0.081746421181503603 0 -0.00043180670261226158 -0.081746421181503603 0 0.00047652171530035902 -0.082061121349968832 0 0.00024853371520728272 -0.082760637588179906 0 0.00018944539281584655 -0.083491037721732941 0 0.00039199924970640694 -0.08304913318261202 0 0.00016669608628813588 -0.083614121595864038 0 0.00018944539281584655 -0.083491037721732941 0 0.00047652171530035902 -0.082061121349968832 0 0.00039199924970640694 -0.08304913318261202 0 0.00047652171530035902 -0.082061121349968832 0 0.00039199924970640694 -0.08304913318261202 0 0.00058660407855820758 -0.082916526170040805 0 0.00058660407855820758 -0.082916526170040805 0 0.00016669608628813588 -0.083614121595864038 0 0.0008669257293885224 -0.082943104338315823 0 0.00039199924970640694 -0.08304913318261202 0 0.00058660407855820758 -0.082916526170040805 0 0.00016669608628813588 -0.083614121595864038 0 0.00016669608628813588 -0.083614121595864038 0 0.0008669257293885224 -0.082943104338315823 0 0.00041898560100010355 -0.081493358321894208 0 0.00047652171530035902 -0.082061121349968832 0 0.00058660407855820758 -0.082916526170040805 0 0.00024853371520728272 -0.082760637588179906 0 0.00058660407855820758 -0.082916526170040805 0 0.0008669257293885224 -0.082943104338315823 0 0.00024853371520728272 -0.082760637588179906 0 -0.00014316955986467308 -0.083988841188506719 0 0.0008669257293885224 -0.082943104338315823 0 0.00024853371520728272 -0.082760637588179906 0 0.0035404361070617749 -0.082205980952239882 0 0.0015921831443400992 -0.081595121027054449 0 0.0026075989549852602 -0.080634397310411818 0 0.0035404361070617749 -0.082205980952239882 0 0.0008669257293885224 -0.082943104338315823 0 0.0015921831443400992 -0.081595121027054449 0 0.00056554575341444724 -0.081258969817764648 0 0.00060854944168047193 -0.081676560316609581 0 0.0015921831443400992 -0.081595121027054449 0 0.0026075989549852602 -0.080634397310411818 0 0.0011129379675296981 -0.080570254874911082 0 0.0026075989549852602 -0.080634397310411818 0 0.0011129379675296981 -0.080570254874911082 0 0.0026783262801358737 -0.078737331146132294 0 0.004291740738206512 -0.079661403697670483 0 0.0026075989549852602 -0.080634397310411818 0 0.0026783262801358737 -0.078737331146132294 0 0.0011129379675296981 -0.080570254874911082 0 0.00041898560100010355 -0.081493358321894208 0 0.0015300405977732672 -0.081186818988742887 0 0.0015921831443400992 -0.081595121027054449 0 0.0011129379675296981 -0.080570254874911082 0 0.00041898560100010355 -0.081493358321894208 0 0.00050135870704354441 -0.083421383375155658 0 0.00065422667097724387 -0.083468708023283586 0 0.0008669257293885224 -0.082943104338315823 0 0.0015921831443400992 -0.081595121027054449 0 0.00041898560100010355 -0.081493358321894208 0 0.00044211215225677662 -0.08350005415432446 0 0.00050135870704354441 -0.083421383375155658 0 0.00016669608628813588 -0.083614121595864038 0 -3.7564203376022323e-05 -0.084680666551559536 0 7.8300563801190026e-07 -0.084998164864751327 0 -3.7564203376022323e-05 -0.084680666551559536 0 7.8300563801190026e-07 -0.084998164864751327 0 0.00012293327367395433 -0.08494953336969864 0 0.00018944539281584655 -0.083491037721732941 0 0.00016669608628813588 -0.083614121595864038 0 7.8300563801190026e-07 -0.084998164864751327 0 7.8300563801190026e-07 -0.084998164864751327 0 -5.4859210633114428e-08 -0.084999505818696822 0 0.00021148957098684066 -0.084999367478970897 0 -5.4859210633114428e-08 -0.084999505818696822 0 0.00021148957098684066 -0.084999367478970897 0 0.00042316797343550555 -0.084287097491895502 0 0.00021148957098684066 -0.084999367478970897 0 0.00084379835711214464 -0.084462172300226027 0 0.00042316797343550555 -0.084287097491895502 0 0.00021148957098684066 -0.084999367478970897 0 0.00037335941993567979 -0.08497734068223442 0 0.00084379835711214464 -0.084462172300226027 0 7.8300563801190026e-07 -0.084998164864751327 0 0.00021148957098684066 -0.084999367478970897 0 0.00012293327367395433 -0.08494953336969864 0 0.00021148957098684066 -0.084999367478970897 0 0.00037335941993567979 -0.08497734068223442 0 0.00012293327367395433 -0.08494953336969864 0 0.0016535018232512254 -0.083324962630618102 0 0.0015300405977732672 -0.081186818988742887 0 0.00043057788200953449 -0.08292482966654087 0 0.0016535018232512254 -0.083324962630618102 0 0.00043057788200953449 -0.08292482966654087 0 0.0010897611081333151 -0.083947663219349114 0 0.0011129379675296981 -0.080570254874911082 0 0.0015300405977732672 -0.081186818988742887 0 0.00043057788200953449 -0.08292482966654087 0 0.00076447862449759206 -0.083758863478432102 0 0.00065422667097724387 -0.083468708023283586 0 0.0031579577582798416 -0.076864386975522031 0 0.0026783262801358737 -0.078737331146132294 0 0.0023467664959438642 -0.075946872018277156 0 0.0016513776409091579 -0.080366034962711885 0 0.0018540669152790929 -0.080082046613704438 0 0.004291740738206512 -0.079661403697670483 0 0.0031579577582798416 -0.076864386975522031 0 0.0026783262801358737 -0.078737331146132294 0 0.0011129379675296981 -0.080570254874911082 0 0.0026783262801358737 -0.078737331146132294 0 0.0023467664959438642 -0.075946872018277156 0 0.0031579577582798416 -0.076864386975522031 0 0.0023467664959438642 -0.075946872018277156 0 0.0033506539410471945 -0.075561849276586684 0 0.0042395890653776714 -0.075954221494470023 0 0.0033802760949047197 -0.075862727087920134 0 0.0033506539410471945 -0.075561849276586684 0 0.00043057788200953449 -0.08292482966654087 0 0.0010897611081333151 -0.083947663219349114 0 0.0013664481914376287 -0.084558665452948781 0 0.0023467664959438642 -0.075946872018277156 0 0.0042395890653776714 -0.075954221494470023 0 0.0033506539410471945 -0.075561849276586684 0 0.0018540669152790929 -0.080082046613704438 0 0.0022455123803839065 -0.080185806305054425 0 0.00076447862449759206 -0.083758863478432102 0 0.0007895107983649604 -0.083891010532770469 0 0.0016535018232512254 -0.083324962630618102 0 0.0010897611081333151 -0.083947663219349114 0 0.00084379835711214464 -0.084462172300226027 0 0.0010897611081333151 -0.083947663219349114 0 0.00084379835711214464 -0.084462172300226027 0 0.0013664481914376287 -0.084558665452948781 0 0.00084379835711214464 -0.084462172300226027 0 0.0011121120454291862 -0.083567601400802077 0 0.00042316797343550555 -0.084287097491895502 0 0.00084379835711214464 -0.084462172300226027 0 0.0013664481914376287 -0.084558665452948781 0 0.0011121120454291862 -0.083567601400802077 0 0.0042395890653776714 -0.075954221494470023 0 0.0032240811938981976 -0.077077509940703212 0 0.0028451103076092476 -0.078885778790993108 0 0.0042395890653776714 -0.075954221494470023 0 0.0033802760949047197 -0.075862727087920134 0 0.0032240811938981976 -0.077077509940703212 0 0.0033802760949047197 -0.075862727087920134 0 0.0029636234159546608 -0.07591962110503736 0 0.0028140669681292379 -0.077620002410108774 0 0.0033802760949047197 -0.075862727087920134 0 0.0032240811938981976 -0.077077509940703212 0 0.0028140669681292379 -0.077620002410108774 0 0.0032240811938981976 -0.077077509940703212 0 0.0028140669681292379 -0.077620002410108774 0 0.0028451103076092476 -0.078885778790993108 0 0.0029636234159546608 -0.07591962110503736 0 0.0024732900660806695 -0.077227873044801554 0 0.0028140669681292379 -0.077620002410108774 0 0.0029636234159546608 -0.07591962110503736 0 0.0022143141942191007 -0.075719332154691524 0 0.0024732900660806695 -0.077227873044801554 0 0.0022143141942191007 -0.075719332154691524 0 0.0019294357224122255 -0.076997912058086218 0 0.0024732900660806695 -0.077227873044801554 0 0.0029636234159546608 -0.07591962110503736 0 0.0028670265558330826 -0.074599350817612584 0 0.0022143141942191007 -0.075719332154691524 0 0.0033802760949047197 -0.075862727087920134 0 0.0029636234159546608 -0.07591962110503736 0 0.0037902521919627153 -0.074717856022529172 0 0.0029636234159546608 -0.07591962110503736 0 0.0028670265558330826 -0.074599350817612584 0 0.0037902521919627153 -0.074717856022529172 0 0.0028670265558330826 -0.074599350817612584 0 0.0037902521919627153 -0.074717856022529172 0 0.0029391943515286456 -0.072998567018106489 0 0.0033802760949047197 -0.075862727087920134 0 0.0037902521919627153 -0.074717856022529172 0 0.0033506539410471945 -0.075561849276586684 0 0.0037902521919627153 -0.074717856022529172 0 0.0033506539410471945 -0.075561849276586684 0 0.0037005283714866559 -0.076022570174217943 0 0.0031579577582798416 -0.076864386975522031 0 0.0033506539410471945 -0.075561849276586684 0 0.0037005283714866559 -0.076022570174217943 0 0.004291740738206512 -0.079661403697670483 0 0.0031579577582798416 -0.076864386975522031 0 0.006668887778461698 -0.078054327413499699 0 0.0031579577582798416 -0.076864386975522031 0 0.0037005283714866559 -0.076022570174217943 0 0.0045686778237218522 -0.077086059849789515 0 0.0027213733856030825 -0.07750227790666675 0 0.001093993349598994 -0.077261097083411071 0 0.0037902521919627153 -0.074717856022529172 0 0.0037005283714866559 -0.076022570174217943 0 0.0045686778237218522 -0.077086059849789515 0 0.0037902521919627153 -0.074717856022529172 0 0.0041783364450937227 -0.070452593152330142 0 0.0029391943515286456 -0.072998567018106489 0 0.0017888314764488832 -0.075281335639971247 0 0.001093993349598994 -0.077261097083411071 0 0.0041783364450937227 -0.070452593152330142 0 0.0029391943515286456 -0.072998567018106489 0 0.0026256241203577303 -0.071589269932480964 0 0.0029391943515286456 -0.072998567018106489 0 0.0024803709755053401 -0.072457227139801683 0 0.0026256241203577303 -0.071589269932480964 0 0.0024803709755053401 -0.072457227139801683 0 0.0021069210767558164 -0.071810897674854685 0 0.0023113303287826299 -0.073427919571169675 0 0.0024803709755053401 -0.072457227139801683 0 0.0026256241203577303 -0.071589269932480964 0 0.0021069210767558164 -0.071810897674854685 0 0.0041783364450937227 -0.070452593152330142 0 0.0026256241203577303 -0.071589269932480964 0 0.0024416772422896781 -0.070411949895126252 0 0.001093993349598994 -0.077261097083411071 0 -0.00069902743062555644 -0.076751174524722118 0 0.0041783364450937227 -0.070452593152330142 0 0.0024416772422896781 -0.070411949895126252 0 0.0023070224400821857 -0.069863036237639994 0 0.0026256241203577303 -0.071589269932480964 0 0.0024416772422896781 -0.070411949895126252 0 0.0021909561115172347 -0.070802001132932668 0 0.0022040915040265449 -0.069048704537672048 0 0.002120946377644864 -0.06979178407680936 0 0.002269416174942127 -0.069913920825719608 0 0.002120946377644864 -0.06979178407680936 0 0.002269416174942127 -0.069913920825719608 0 0.0022002013632631818 -0.070240721717507684 0 0.0024416772422896781 -0.070411949895126252 0 0.002269416174942127 -0.069913920825719608 0 0.0022002013632631818 -0.070240721717507684 0 0.0024416772422896781 -0.070411949895126252 0 0.0023070224400821857 -0.069863036237639994 0 0.002269416174942127 -0.069913920825719608 0 -0.00069902743062555644 -0.076751174524722118 0 -0.00066567176635355576 -0.076725229162031172 0 0.0024416772422896781 -0.070411949895126252 0 0.0022002013632631818 -0.070240721717507684 0 0.0021909561115172347 -0.070802001132932668 0 0.0022002013632631818 -0.070240721717507684 0 0.0021045601801856599 -0.070358982420897817 0 0.0021909561115172347 -0.070802001132932668 0 0.002120946377644864 -0.06979178407680936 0 0.0022002013632631818 -0.070240721717507684 0 0.0021045601801856599 -0.070358982420897817 0 0.002120946377644864 -0.06979178407680936 0 0.0021045601801856599 -0.070358982420897817 0 0.0019633296026546855 -0.070590931793616765 0 0.0021045601801856599 -0.070358982420897817 0 0.0021909561115172347 -0.070802001132932668 0 0.0019633296026546855 -0.070590931793616765 0 0.0021909561115172347 -0.070802001132932668 0 0.0021069210767558164 -0.071810897674854685 0 0.0019633296026546855 -0.070590931793616765 0 0.0026256241203577303 -0.071589269932480964 0 0.0021909561115172347 -0.070802001132932668 0 0.0021069210767558164 -0.071810897674854685 0 0.0021069210767558164 -0.071810897674854685 0 0.0018325856461667762 -0.071300150333498902 0 0.0019633296026546855 -0.070590931793616765 0 0.0021069210767558164 -0.071810897674854685 0 0.0016336811293432135 -0.072548029687991691 0 0.0018325856461667762 -0.071300150333498902 0 0.0021069210767558164 -0.071810897674854685 0 0.0016336811293432135 -0.072548029687991691 0 0.0023113303287826299 -0.073427919571169675 0 0.0016336811293432135 -0.072548029687991691 0 0.0023113303287826299 -0.073427919571169675 0 0.0022143141942191007 -0.075719332154691524 0 0.0028670265558330826 -0.074599350817612584 0 0.0023113303287826299 -0.073427919571169675 0 0.0022143141942191007 -0.075719332154691524 0 0.0028670265558330826 -0.074599350817612584 0 0.0029391943515286456 -0.072998567018106489 0 0.0023113303287826299 -0.073427919571169675 0 0.0029391943515286456 -0.072998567018106489 0 0.0024803709755053401 -0.072457227139801683 0 0.0023113303287826299 -0.073427919571169675 0 0.0016512083262547729 -0.07233964592137665 0 0.0022143141942191007 -0.075719332154691524 0 0.0014785962371911562 -0.075829564348546846 0 0.0022143141942191007 -0.075719332154691524 0 0.0014785962371911562 -0.075829564348546846 0 0.0019294357224122255 -0.076997912058086218 0 0.0020917017757773075 -0.072031929646170209 0 0.0024897632365877735 -0.072969292884266512 0 0.0014785962371911562 -0.075829564348546846 0 -0.000261920033188508 -0.077217318212122493 0 -0.0012244560538623409 -0.076187975923686063 0 0.0016512083262547729 -0.07233964592137665 0 0.0014785962371911562 -0.075829564348546846 0 0.0016538014586890755 -0.07211875662728591 0 0.0018554844277074033 -0.074540680464119921 0 0.0010932392729647291 -0.074070373586555965 0 -0.000261920033188508 -0.077217318212122493 0 0.001224153050407565 -0.078036100369857531 0 0.00018509860747380845 -0.078854360357834885 0 0.0014785962371911562 -0.075829564348546846 0 -0.000261920033188508 -0.077217318212122493 0 0.001224153050407565 -0.078036100369857531 0 0.0014785962371911562 -0.075829564348546846 0 0.0019294357224122255 -0.076997912058086218 0 0.001224153050407565 -0.078036100369857531 0 0.0019294357224122255 -0.076997912058086218 0 0.001224153050407565 -0.078036100369857531 0 0.0020944648203093451 -0.078461870441557696 0 2.3556106161203312e-05 -0.079061666949339512 0 0.0013801150268867881 -0.079837826544724433 0 0.001224153050407565 -0.078036100369857531 0 0.0021711293579820168 -0.080187436088020467 0 0.0020944648203093451 -0.078461870441557696 0 0.001224153050407565 -0.078036100369857531 0 0.00018509860747380845 -0.078854360357834885 0 0.0021711293579820168 -0.080187436088020467 0 6.6713999424500891e-05 -0.079235838938720521 0 -5.3535210106787418e-05 -0.080511367303777254 0 0.00080149667946120557 -0.08076036050548191 0 6.6713999424500891e-05 -0.079235838938720521 0 -5.3535210106787418e-05 -0.080511367303777254 0 -0.00098918182585085212 -0.079834030824663879 0 -5.3535210106787418e-05 -0.080511367303777254 0 -0.00090646370011303367 -0.081271814654347491 0 0.00062258402869761755 -0.081448280558340316 0 -5.3535210106787418e-05 -0.080511367303777254 0 0.00080149667946120557 -0.08076036050548191 0 0.00062258402869761755 -0.081448280558340316 0 6.6713999424500891e-05 -0.079235838938720521 0 0.00080149667946120557 -0.08076036050548191 0 0.0011420268732734702 -0.08006364275112543 0 0.00080149667946120557 -0.08076036050548191 0 0.0013641328809540746 -0.080914416286230043 0 0.00093978955800284891 -0.081515735398637615 0 0.00080149667946120557 -0.08076036050548191 0 0.0011420268732734702 -0.08006364275112543 0 0.0013641328809540746 -0.080914416286230043 0 0.0013641328809540746 -0.080914416286230043 0 0.0020542002260803636 -0.080628484350268509 0 0.0017080053241708287 -0.080941075168689494 0 0.0021711293579820168 -0.080187436088020467 0 0.0020542002260803636 -0.080628484350268509 0 0.0023304589550480824 -0.080434292308437558 0 0.0013801150268867881 -0.079837826544724433 0 0.0018668340258410406 -0.080145592090012457 0 0.0011420268732734702 -0.08006364275112543 0 0.0013641328809540746 -0.080914416286230043 0 0.0020542002260803636 -0.080628484350268509 0 0.0020542002260803636 -0.080628484350268509 0 0.0023304589550480824 -0.080434292308437558 0 0.0022215307522428134 -0.080758416544068706 0 0.0023304589550480824 -0.080434292308437558 0 0.0024684984591005761 -0.080543036782520089 0 0.0022215307522428134 -0.080758416544068706 0 0.0024684984591005761 -0.080543036782520089 0 0.0021835744989590249 -0.081319285022399851 0 0.0022215307522428134 -0.080758416544068706 0 0.0024684984591005761 -0.080543036782520089 0 0.0025374785781025122 -0.080593468040690522 0 0.0025462073959954656 -0.079591816894607453 0 0.0024684984591005761 -0.080543036782520089 0 0.0025374785781025122 -0.080593468040690522 0 0.0021835744989590249 -0.081319285022399851 0 0.0024684984591005761 -0.080543036782520089 0 0.0024096155579626396 -0.079726363406736375 0 0.0025462073959954656 -0.079591816894607453 0 0.0023304589550480824 -0.080434292308437558 0 0.0024684984591005761 -0.080543036782520089 0 0.0024096155579626396 -0.079726363406736375 0 0.0021711293579820168 -0.080187436088020467 0 0.0023304589550480824 -0.080434292308437558 0 0.0024096155579626396 -0.079726363406736375 0 0.0021711293579820168 -0.080187436088020467 0 0.0024096155579626396 -0.079726363406736375 0 0.0020944648203093451 -0.078461870441557696 0 0.0024096155579626396 -0.079726363406736375 0 0.0025103416455878615 -0.078467338341585605 0 0.0020944648203093451 -0.078461870441557696 0 0.0025103416455878615 -0.078467338341585605 0 0.0020944648203093451 -0.078461870441557696 0 0.0024732900660806695 -0.077227873044801554 0 0.0019294357224122255 -0.076997912058086218 0 0.0020944648203093451 -0.078461870441557696 0 0.0024732900660806695 -0.077227873044801554 0 0.0025103416455878615 -0.078467338341585605 0 0.0024732900660806695 -0.077227873044801554 0 0.0028140669681292379 -0.077620002410108774 0 0.0025103416455878615 -0.078467338341585605 0 0.0028140669681292379 -0.077620002410108774 0 0.0025462073959954656 -0.079591816894607453 0 0.0028140669681292379 -0.077620002410108774 0 0.0028451103076092476 -0.078885778790993108 0 0.0025462073959954656 -0.079591816894607453 0 0.0025374785781025122 -0.080593468040690522 0 0.0028451103076092476 -0.078885778790993108 0 0.0025462073959954656 -0.079591816894607453 0 0.0024096155579626396 -0.079726363406736375 0 0.0025103416455878615 -0.078467338341585605 0 0.0025462073959954656 -0.079591816894607453 0 0.0013664481914376287 -0.084558665452948781 0 0.0011121120454291862 -0.083567601400802077 0 0.0027348393557973714 -0.081389497518192813 0 0.0022455123803839065 -0.080185806305054425 0 0.0023806227258606188 -0.08044260022511121 0 0.0042395890653776714 -0.075954221494470023 0 0.0028451103076092476 -0.078885778790993108 0 0.0027348393557973714 -0.081389497518192813 0 0.0011121120454291862 -0.083567601400802077 0 0.0015290819422169191 -0.082650356252649451 0 0.0027348393557973714 -0.081389497518192813 0 0.0025374785781025122 -0.080593468040690522 0 0.0028451103076092476 -0.078885778790993108 0 0.0027348393557973714 -0.081389497518192813 0 0.0011121120454291862 -0.083567601400802077 0 0.00096220242740162288 -0.083355436824219364 0 0.00042316797343550555 -0.084287097491895502 0 0.0011121120454291862 -0.083567601400802077 0 0.00096220242740162288 -0.083355436824219364 0 0.0015290819422169191 -0.082650356252649451 0 0.0016463642881055297 -0.082334677664269551 0 0.0013495233644501585 -0.082938138963146751 0 0.0008542272198874438 -0.083718935636170957 0 0.00096220242740162288 -0.083355436824219364 0 0.0016463642881055297 -0.082334677664269551 0 0.0008542272198874438 -0.083718935636170957 0 0.00096220242740162288 -0.083355436824219364 0 0.0015290819422169191 -0.082650356252649451 0 0.0016463642881055297 -0.082334677664269551 0 0.0016463642881055297 -0.082334677664269551 0 0.0021835744989590249 -0.081319285022399851 0 0.0013495233644501585 -0.082938138963146751 0 0.0015290819422169191 -0.082650356252649451 0 0.0016463642881055297 -0.082334677664269551 0 0.0027348393557973714 -0.081389497518192813 0 0.0016463642881055297 -0.082334677664269551 0 0.0027348393557973714 -0.081389497518192813 0 0.0021835744989590249 -0.081319285022399851 0 0.0025374785781025122 -0.080593468040690522 0 0.0027348393557973714 -0.081389497518192813 0 0.0021835744989590249 -0.081319285022399851 0 0.0016205619574354759 -0.082201858159934874 0 0.0015133505219797811 -0.082400764362881879 0 0.0020542002260803636 -0.080628484350268509 0 0.0022215307522428134 -0.080758416544068706 0 0.0019664065459493851 -0.080585845389888486 0 0.0021835744989590249 -0.081319285022399851 0 0.00067915915797785013 -0.083918075872846623 0 0.0013495233644501585 -0.082938138963146751 0 0.0021835744989590249 -0.081319285022399851 0 0.0022215307522428134 -0.080758416544068706 0 0.0019664065459493851 -0.080585845389888486 0 0.0020542002260803636 -0.080628484350268509 0 0.0019664065459493851 -0.080585845389888486 0 0.0017080053241708287 -0.080941075168689494 0 0.00067915915797785013 -0.083918075872846623 0 0.00093409777172342079 -0.083957126108503297 0 0.00094982827837369053 -0.084495101613639101 0 0.00067915915797785013 -0.083918075872846623 0 0.00093409777172342079 -0.083957126108503297 0 0.0013495233644501585 -0.082938138963146751 0 0.00093409777172342079 -0.083957126108503297 0 0.0013495233644501585 -0.082938138963146751 0 0.0008542272198874438 -0.083718935636170957 0 0.0008542272198874438 -0.083718935636170957 0 0.00068396629285349194 -0.084429124949952167 0 1.4173094236975477e-06 -0.084997825266164589 0 0.00093409777172342079 -0.083957126108503297 0 0.0008542272198874438 -0.083718935636170957 0 0.00068396629285349194 -0.084429124949952167 0 -5.4859210633114428e-08 -0.084999505818696822 0 1.4173094236975477e-06 -0.084997825266164589 0 0.00042316797343550555 -0.084287097491895502 0 0.0008542272198874438 -0.083718935636170957 0 1.4173094236975477e-06 -0.084997825266164589 0 0.00042316797343550555 -0.084287097491895502 0 0.00096220242740162288 -0.083355436824219364 0 0.0008542272198874438 -0.083718935636170957 0 0.00042316797343550555 -0.084287097491895502 0 0.00063406544074623883 -0.06802615868926136 0 0.00013559966355719842 -0.067958486379267227 0 0.0002409996211577161 -0.067284092553486372 0 -0.0023885939182232648 -0.071679453280581146 0 -0.0022516500614861556 -0.071634394875385796 0 -0.0023885939182232648 -0.071679453280581146 0 -0.0012057144734342637 -0.072481198510608746 0 0.00058221174425776687 -0.068327816402074373 0 0.0019525642385031358 -0.069094140736735102 0 0.0015238332696690573 -0.06807893460717282 0 -0.0063710983806190037 -0.075333168727669389 0 -0.0044736833903777648 -0.075758966369656136 0 -0.0056278726062840793 -0.076309558941155764 0 -0.0044736833903777648 -0.075758966369656136 0 -0.0056278726062840793 -0.076309558941155764 0 -0.0050312319727987311 -0.077293051995119696 0 -0.0058360556004997182 -0.077058318327872785 0 -0.0056278726062840793 -0.076309558941155764 0 -0.0050312319727987311 -0.077293051995119696 0 -0.0058360556004997182 -0.077058318327872785 0 -0.0056278726062840793 -0.076309558941155764 0 -0.0066468535073333284 -0.076865442892795663 0 -0.0063710983806190037 -0.075333168727669389 0 -0.0056278726062840793 -0.076309558941155764 0 -0.0066468535073333284 -0.076865442892795663 0 -0.0023885939182232648 -0.071679453280581146 0 -0.0022908530480996521 -0.073552990403332144 0 0.00080011369979563699 -0.068103023610987232 0 0.00043873610921982335 -0.070313390371142023 0 4.9489774170647104e-05 -0.069006734154053673 0 0.00043873610921982335 -0.070313390371142023 0 -0.00057272873126770535 -0.070613430022472209 0 -0.00033268519994664132 -0.069806401292146825 0 -0.00057272873126770535 -0.070613430022472209 0 -0.0010555887866055154 -0.069873048732432039 0 -0.0016079876084138063 -0.070833694998040667 0 -0.00057272873126770535 -0.070613430022472209 0 -0.0010555887866055154 -0.069873048732432039 0 -0.00033268519994664132 -0.069806401292146825 0 -0.0010555887866055154 -0.069873048732432039 0 -0.000522047316213895 -0.069231595179687314 0 -0.00033268519994664132 -0.069806401292146825 0 -0.0010555887866055154 -0.069873048732432039 0 -0.000522047316213895 -0.069231595179687314 0 -0.0013063671576410037 -0.069000808667666946 0 -0.000522047316213895 -0.069231595179687314 0 -0.00033268519994664132 -0.069806401292146825 0 4.9489774170647104e-05 -0.069006734154053673 0 0.00043873610921982335 -0.070313390371142023 0 -0.00033268519994664132 -0.069806401292146825 0 4.9489774170647104e-05 -0.069006734154053673 0 -0.0030519579981374261 -0.071376762996989196 0 -0.0021008898425403846 -0.069615797014501574 0 -0.0016079876084138063 -0.070833694998040667 0 -0.0010555887866055154 -0.069873048732432039 0 -0.0021008898425403846 -0.069615797014501574 0 -0.0016079876084138063 -0.070833694998040667 0 -0.0010555887866055154 -0.069873048732432039 0 -0.0021008898425403846 -0.069615797014501574 0 -0.0013063671576410037 -0.069000808667666946 0 -0.0021008898425403846 -0.069615797014501574 0 -0.0013063671576410037 -0.069000808667666946 0 -0.0022855230549396121 -0.068134303864676934 0 -0.0013063671576410037 -0.069000808667666946 0 -0.0022855230549396121 -0.068134303864676934 0 -0.0011247739093519064 -0.068143354101687634 0 -0.0022855230549396121 -0.068134303864676934 0 -0.0011247739093519064 -0.068143354101687634 0 -0.0015501386683960954 -0.067213938026050177 0 4.9489774170647104e-05 -0.069006734154053673 0 -0.00044842050163567548 -0.068474895702392458 0 0.00013559966355719842 -0.067958486379267227 0 0.00080011369979563699 -0.068103023610987232 0 4.9489774170647104e-05 -0.069006734154053673 0 0.00013559966355719842 -0.067958486379267227 0 -0.000522047316213895 -0.069231595179687314 0 4.9489774170647104e-05 -0.069006734154053673 0 -0.00044842050163567548 -0.068474895702392458 0 -0.000522047316213895 -0.069231595179687314 0 -0.0013063671576410037 -0.069000808667666946 0 -0.00044842050163567548 -0.068474895702392458 0 -0.0013063671576410037 -0.069000808667666946 0 -0.00044842050163567548 -0.068474895702392458 0 -0.0011247739093519064 -0.068143354101687634 0 -0.00048353913909018561 -0.067537646479566019 0 -0.0011247739093519064 -0.068143354101687634 0 -0.0015501386683960954 -0.067213938026050177 0 -0.00044842050163567548 -0.068474895702392458 0 -0.00048353913909018561 -0.067537646479566019 0 -0.0011247739093519064 -0.068143354101687634 0 -0.00044842050163567548 -0.068474895702392458 0 -0.00048353913909018561 -0.067537646479566019 0 0.00013559966355719842 -0.067958486379267227 0 -0.00048353913909018561 -0.067537646479566019 0 0.00013559966355719842 -0.067958486379267227 0 0.0002409996211577161 -0.067284092553486372 0 -0.00048353913909018561 -0.067537646479566019 0 0.0002409996211577161 -0.067284092553486372 0 -0.0003042110341817305 -0.066217874793853035 0 -0.00048353913909018561 -0.067537646479566019 0 -0.0003042110341817305 -0.066217874793853035 0 -0.0015501386683960954 -0.067213938026050177 0 0.0002409996211577161 -0.067284092553486372 0 -0.0003042110341817305 -0.066217874793853035 0 0.00085026470554503287 -0.066924796114079838 0 -0.0030765453442455522 -0.066724773825041481 0 -0.0022855230549396121 -0.068134303864676934 0 -0.0015501386683960954 -0.067213938026050177 0 -0.0003042110341817305 -0.066217874793853035 0 -0.0015501386683960954 -0.067213938026050177 0 -0.0018977984142206177 -0.065506519839491989 0 -0.0030765453442455522 -0.066724773825041481 0 -0.0015501386683960954 -0.067213938026050177 0 -0.0018977984142206177 -0.065506519839491989 0 -0.00051569839923134892 -0.063531112493524056 0 -0.0024713988800323145 -0.063542362936216915 0 -0.0018977984142206177 -0.065506519839491989 0 -0.0035695009657190323 -0.065343469924401154 0 -0.0024713988800323145 -0.063542362936216915 0 -0.0018977984142206177 -0.065506519839491989 0 -0.00051569839923134892 -0.063531112493524056 0 -0.0003042110341817305 -0.066217874793853035 0 -0.0018977984142206177 -0.065506519839491989 0 -0.00051569839923134892 -0.063531112493524056 0 -0.0003042110341817305 -0.066217874793853035 0 0.0010674875145482896 -0.065324986387294198 0 0.0010674875145482896 -0.065324986387294198 0 0.00085026470554503287 -0.066924796114079838 0 0.0017837766315088929 -0.066705165264661179 0 -0.0003042110341817305 -0.066217874793853035 0 0.0010674875145482896 -0.065324986387294198 0 0.00085026470554503287 -0.066924796114079838 0 -0.0023885939182232648 -0.071679453280581146 0 -0.0018800216707080103 -0.070136667274980594 0 0.00063406544074623883 -0.06802615868926136 0 0.0002409996211577161 -0.067284092553486372 0 0.00085026470554503287 -0.066924796114079838 0 0.00058221174425776687 -0.068327816402074373 0 0.0015238332696690573 -0.06807893460717282 0 0.00085026470554503287 -0.066924796114079838 0 0.0015238332696690573 -0.06807893460717282 0 0.0017837766315088929 -0.066705165264661179 0 0.002504526552660809 -0.067805495993721154 0 0.0015238332696690573 -0.06807893460717282 0 0.00085026470554503287 -0.066924796114079838 0 0.0017837766315088929 -0.066705165264661179 0 0.0024198369364923917 -0.065159669681411236 0 0.0010674875145482896 -0.065324986387294198 0 0.0017837766315088929 -0.066705165264661179 0 0.0024198369364923917 -0.065159669681411236 0 0.0017837766315088929 -0.066705165264661179 0 0.002504526552660809 -0.067805495993721154 0 0.0027664270890939281 -0.066566961963995017 0 0.0024198369364923917 -0.065159669681411236 0 0.002504526552660809 -0.067805495993721154 0 0.0027664270890939281 -0.066566961963995017 0 0.002504526552660809 -0.067805495993721154 0 0.0024413585290952861 -0.068198125312011873 0 0.0017935270432476761 -0.069955862951817757 0 0.0018717953507942666 -0.070662098668036646 0 0.002504526552660809 -0.067805495993721154 0 0.0023438067112256647 -0.070085040846194158 0 0.0023635549284621556 -0.069349877642389091 0 0.002504526552660809 -0.067805495993721154 0 0.0024413585290952861 -0.068198125312011873 0 0.0018627476192750224 -0.069815667860522873 0 0.0019525642385031358 -0.069094140736735102 0 0.0015238332696690573 -0.06807893460717282 0 0.002504526552660809 -0.067805495993721154 0 0.0019525642385031358 -0.069094140736735102 0 0.002504526552660809 -0.067805495993721154 0 0.0023635549284621556 -0.069349877642389091 0 0.0024203571474171082 -0.068308979777939344 0 0.0022040915040265449 -0.069048704537672048 0 0.0021420575284248245 -0.069231576582862858 0 0.002120946377644864 -0.06979178407680936 0 0.0021420575284248245 -0.069231576582862858 0 0.0019633296026546855 -0.070590931793616765 0 0.0022040915040265449 -0.069048704537672048 0 0.002120946377644864 -0.06979178407680936 0 0.0021420575284248245 -0.069231576582862858 0 0.0024413585290952861 -0.068198125312011873 0 0.0021420575284248245 -0.069231576582862858 0 0.0018627476192750224 -0.069815667860522873 0 0.0024203571474171082 -0.068308979777939344 0 0.0024413585290952861 -0.068198125312011873 0 0.0021420575284248245 -0.069231576582862858 0 0.0021420575284248245 -0.069231576582862858 0 0.0018627476192750224 -0.069815667860522873 0 0.0019633296026546855 -0.070590931793616765 0 0.0018627476192750224 -0.069815667860522873 0 0.0018325856461667762 -0.071300150333498902 0 0.0019633296026546855 -0.070590931793616765 0 0.0016512083262547729 -0.07233964592137665 0 0.0020575402447122145 -0.070914493037726498 0 0.0016538014586890755 -0.07211875662728591 0 0.0020917017757773075 -0.072031929646170209 0 0.0018717953507942666 -0.070662098668036646 0 0.0016336811293432135 -0.072548029687991691 0 0.0018627476192750224 -0.069815667860522873 0 0.0018325856461667762 -0.071300150333498902 0 0.0016512083262547729 -0.07233964592137665 0 0.0023438067112256647 -0.070085040846194158 0 0.0020575402447122145 -0.070914493037726498 0 0.0023438067112256647 -0.070085040846194158 0 0.0020575402447122145 -0.070914493037726498 0 0.0023635549284621556 -0.069349877642389091 0 0.0020575402447122145 -0.070914493037726498 0 0.0016538014586890755 -0.07211875662728591 0 0.0022628216573373793 -0.070164903012142163 0 0.0010932392729647291 -0.074070373586555965 0 -4.0236309340829344e-06 -0.073284884288196142 0 -0.0021289270676288575 -0.076700903083327568 0 -0.0012244560538623409 -0.076187975923686063 0 -0.0027616910009205992 -0.076164218713636794 0 -0.0012057144734342637 -0.072481198510608746 0 -4.0236309340829344e-06 -0.073284884288196142 0 0.0019525642385031358 -0.069094140736735102 0 0.0023635549284621556 -0.069349877642389091 0 0.0022628216573373793 -0.070164903012142163 0 0.0020575402447122145 -0.070914493037726498 0 0.0023635549284621556 -0.069349877642389091 0 0.0022628216573373793 -0.070164903012142163 0 -0.0021289270676288575 -0.076700903083327568 0 -0.0027616910009205992 -0.076164218713636794 0 -0.0033829968186860791 -0.077174498607765693 0 -0.0044736833903777648 -0.075758966369656136 0 -0.0027616910009205992 -0.076164218713636794 0 -0.0033829968186860791 -0.077174498607765693 0 -0.0044736833903777648 -0.075758966369656136 0 -0.0033829968186860791 -0.077174498607765693 0 -0.0050312319727987311 -0.077293051995119696 0 -0.0033829968186860791 -0.077174498607765693 0 -0.0042601451404884706 -0.078291131578874837 0 -0.0050312319727987311 -0.077293051995119696 0 -0.0033829968186860791 -0.077174498607765693 0 -0.0030374981199013822 -0.078688714276342012 0 -0.0042601451404884706 -0.078291131578874837 0 -0.0033829968186860791 -0.077174498607765693 0 -0.0030374981199013822 -0.078688714276342012 0 -0.0014039327400651063 -0.078275668549358551 0 -0.0025647666514309556 -0.077744028087157621 0 -0.0016112782639108631 -0.078203425092359058 0 -0.0030374981199013822 -0.078688714276342012 0 -0.0019664174013353797 -0.079398422126908855 0 -0.0026476449059600997 -0.080040061509175198 0 -0.0030374981199013822 -0.078688714276342012 0 -0.0042601451404884706 -0.078291131578874837 0 -0.0041869433443138962 -0.079496963029354953 0 -0.0030374981199013822 -0.078688714276342012 0 -0.0041869433443138962 -0.079496963029354953 0 -0.0026476449059600997 -0.080040061509175198 0 -0.000261920033188508 -0.077217318212122493 0 0.00018509860747380845 -0.078854360357834885 0 -0.0019453863927986622 -0.077675527706922015 0 -0.000261920033188508 -0.077217318212122493 0 -0.0012244560538623409 -0.076187975923686063 0 -0.0019453863927986622 -0.077675527706922015 0 -0.0021289270676288575 -0.076700903083327568 0 -0.0012244560538623409 -0.076187975923686063 0 -0.0019453863927986622 -0.077675527706922015 0 -0.0021289270676288575 -0.076700903083327568 0 -0.0033829968186860791 -0.077174498607765693 0 -0.0019453863927986622 -0.077675527706922015 0 -0.0014039327400651063 -0.078275668549358551 0 -0.0019664174013353797 -0.079398422126908855 0 -0.00098918182585085212 -0.079834030824663879 0 -0.0030374981199013822 -0.078688714276342012 0 -0.0014039327400651063 -0.078275668549358551 0 -0.0019664174013353797 -0.079398422126908855 0 6.6713999424500891e-05 -0.079235838938720521 0 -0.0014039327400651063 -0.078275668549358551 0 -0.00098918182585085212 -0.079834030824663879 0 2.3556106161203312e-05 -0.079061666949339512 0 -0.0016112782639108631 -0.078203425092359058 0 -0.0019664174013353797 -0.079398422126908855 0 -0.00098918182585085212 -0.079834030824663879 0 -0.0018003904951669554 -0.080295795629469702 0 -0.0019664174013353797 -0.079398422126908855 0 -0.0018003904951669554 -0.080295795629469702 0 -0.0026476449059600997 -0.080040061509175198 0 -0.0018003904951669554 -0.080295795629469702 0 -0.002421383106949566 -0.080860257271514246 0 -0.00090646370011303367 -0.081271814654347491 0 0.00097722235699137312 -0.081231415447377581 0 0.00073203220537151567 -0.081430438899610033 0 -5.3535210106787418e-05 -0.080511367303777254 0 -0.00098918182585085212 -0.079834030824663879 0 -0.00090646370011303367 -0.081271814654347491 0 -0.00098918182585085212 -0.079834030824663879 0 -0.0018003904951669554 -0.080295795629469702 0 -0.00090646370011303367 -0.081271814654347491 0 -0.0029758517476334949 -0.077879477497806021 0 -0.0027669037899713169 -0.078266391093491552 0 -0.0031426219359470373 -0.079929872822479084 0 -0.0026476449059600997 -0.080040061509175198 0 -0.0032582040221829632 -0.080426248595017943 0 -0.0018003904951669554 -0.080295795629469702 0 -0.0026476449059600997 -0.080040061509175198 0 -0.002421383106949566 -0.080860257271514246 0 -0.0026476449059600997 -0.080040061509175198 0 -0.002421383106949566 -0.080860257271514246 0 -0.0032582040221829632 -0.080426248595017943 0 0.0035323427716378165 -0.082870106945304306 0 0.0054550912245414137 -0.08351988306406162 0 0.0044481747254381141 -0.082004669226188223 0 0.00097722235699137312 -0.081231415447377581 0 0.0016736232830129633 -0.080675894424914782 0 -0.0032582040221829632 -0.080426248595017943 0 -0.0036175031332383156 -0.080193461314670991 0 -0.0034822583997018179 -0.08006635136953856 0 0.0054550912245414137 -0.08351988306406162 0 0.0076552789733496168 -0.084138651373963133 0 0.006894263474098529 -0.082763304359354153 0 0.0016736232830129633 -0.080675894424914782 0 0.0031019005467795343 -0.079368389888670163 0 0.0076552789733496168 -0.084138651373963133 0 0.0084717003584695322 -0.082835889218659323 0 0.006894263474098529 -0.082763304359354153 0 -0.0036175031332383156 -0.080193461314670991 0 -0.0036538161858057174 -0.080054952295336462 0 -0.0037701311302219829 -0.080036284268503746 0 -0.0036175031332383156 -0.080193461314670991 0 -0.0036538161858057174 -0.080054952295336462 0 -0.0034822583997018179 -0.08006635136953856 0 -0.003616182123028154 -0.079943841681536287 0 -0.0034822583997018179 -0.08006635136953856 0 -0.0034778993331092507 -0.079848811770027978 0 -0.0036538161858057174 -0.080054952295336462 0 -0.003616182123028154 -0.079943841681536287 0 -0.0034822583997018179 -0.08006635136953856 0 -0.0036538161858057174 -0.080054952295336462 0 -0.003616182123028154 -0.079943841681536287 0 -0.0036941312954868184 -0.079948752451078728 0 -0.0031426219359470373 -0.079929872822479084 0 -0.0032582040221829632 -0.080426248595017943 0 -0.0034822583997018179 -0.08006635136953856 0 -0.0031426219359470373 -0.079929872822479084 0 -0.0034822583997018179 -0.08006635136953856 0 -0.0034778993331092507 -0.079848811770027978 0 -0.0029758517476334949 -0.077879477497806021 0 -0.0029944099528071495 -0.076823405304469614 0 -0.0042601451404884706 -0.078291131578874837 0 -0.0041869433443138962 -0.079496963029354953 0 -0.0055762632641770254 -0.078929227328102911 0 -0.0055762632641770254 -0.078929227328102911 0 -0.0060408513057024675 -0.077768528088431918 0 -0.0069221375946698733 -0.078406033927571978 0 -0.003616182123028154 -0.079943841681536287 0 -0.0034778993331092507 -0.079848811770027978 0 -0.0037318115889116293 -0.079768056017439692 0 -0.0029944099528071495 -0.076823405304469614 0 -0.0017997450164629126 -0.075099303695035466 0 -0.003616182123028154 -0.079943841681536287 0 -0.0037318115889116293 -0.079768056017439692 0 -0.0036941312954868184 -0.079948752451078728 0 -0.0066468535073333284 -0.076865442892795663 0 -0.0060408513057024675 -0.077768528088431918 0 -0.0069221375946698733 -0.078406033927571978 0 -0.0058360556004997182 -0.077058318327872785 0 -0.0066468535073333284 -0.076865442892795663 0 -0.0060408513057024675 -0.077768528088431918 0 -0.0058360556004997182 -0.077058318327872785 0 -0.0060408513057024675 -0.077768528088431918 0 -0.0050312319727987311 -0.077293051995119696 0 -0.0055762632641770254 -0.078929227328102911 0 -0.0060408513057024675 -0.077768528088431918 0 -0.0050312319727987311 -0.077293051995119696 0 -0.0042601451404884706 -0.078291131578874837 0 -0.0055762632641770254 -0.078929227328102911 0 -0.0050312319727987311 -0.077293051995119696 0 -0.0030519579981374261 -0.071376762996989196 0 -0.0016079876084138063 -0.070833694998040667 0 -0.00096576318656210888 -0.07213864144391291 0 -0.00066046303019825939 -0.06946310574136362 0 -0.00074167344189199835 -0.073231216840294502 0 -0.00057272873126770535 -0.070613430022472209 0 -0.00098463671302730701 -0.072178959221406949 0 5.4677757065025787e-05 -0.072559726533774918 0 -0.0006263284495404783 -0.072608065700704882 0 -0.00074167344189199835 -0.073231216840294502 0 -0.00057272873126770535 -0.070613430022472209 0 -0.0016079876084138063 -0.070833694998040667 0 -0.00096576318656210888 -0.07213864144391291 0 -0.0022908530480996521 -0.073552990403332144 0 -0.0017997450164629126 -0.075099303695035466 0 0.00043873610921982335 -0.070313390371142023 0 -0.00057272873126770535 -0.070613430022472209 0 5.4677757065025787e-05 -0.072559726533774918 0 -0.00074167344189199835 -0.073231216840294502 0 0.0013015634822208498 -0.072619531188304082 0 -0.00074167344189199835 -0.073231216840294502 0 -0.0017997450164629126 -0.075099303695035466 0 -0.0037318115889116293 -0.079768056017439692 0 -0.0036941312954868184 -0.079948752451078728 0 -0.0037701311302219829 -0.080036284268503746 0 -0.0036271563761045645 -0.079355129435852115 0 -0.0040535739793669924 -0.079604186518862238 0 -0.0037844111277586887 -0.079912957139460714 0 -0.0039535305957336996 -0.079225386299789327 0 -0.0036271563761045645 -0.079355129435852115 0 -0.0040535739793669924 -0.079604186518862238 0 -0.0017997450164629126 -0.075099303695035466 0 -0.0024175717490940566 -0.07757649192661184 0 0.0013015634822208498 -0.072619531188304082 0 0.0011777002862322105 -0.073288794915741695 0 -0.00066046303019825939 -0.06946310574136362 0 0.0013015634822208498 -0.072619531188304082 0 -0.00020979751049790023 -0.070442126039464439 0 0.0015765096931934898 -0.071100385160505861 0 0.0013153324564273464 -0.072108764693405908 0 0.0082657481278620281 -0.058415688199383357 0 0.0079979412394015539 -0.059419462163028264 0 0.0091900619728729014 -0.059532354788638088 0 0.0013015634822208498 -0.072619531188304082 0 0.0066859669395945374 -0.076566515777404434 0 0.0079979412394015539 -0.059419462163028264 0 0.0091900619728729014 -0.059532354788638088 0 0.0089252619597294299 -0.06049625653442401 0 -0.0036175031332383156 -0.080193461314670991 0 -0.0039696422060105582 -0.080067122617191608 0 -0.0037701311302219829 -0.080036284268503746 0 -0.0039081480850669632 -0.079758348514119615 0 -0.0039696422060105582 -0.080067122617191608 0 -0.0037844111277586887 -0.079912957139460714 0 0.0031019005467795343 -0.079368389888670163 0 0.0066859669395945374 -0.076566515777404434 0 -0.0036271563761045645 -0.079355129435852115 0 -0.0037844111277586887 -0.079912957139460714 0 -0.0037701311302219829 -0.080036284268503746 0 -0.0036538161858057174 -0.080054952295336462 0 -0.0036941312954868184 -0.079948752451078728 0 -0.0037701311302219829 -0.080036284268503746 0 -0.0039696422060105582 -0.080067122617191608 0 -0.0037844111277586887 -0.079912957139460714 0 -0.0037701311302219829 -0.080036284268503746 0 0.0076552789733496168 -0.084138651373963133 0 0.0099481663988668992 -0.084615430373660108 0 0.0084717003584695322 -0.082835889218659323 0 0.0066859669395945374 -0.076566515777404434 0 0.0085548735233172812 -0.080748338230004726 0 0.0099481663988668992 -0.084615430373660108 0 0.010656735653567831 -0.082378200946039273 0 0.0084717003584695322 -0.082835889218659323 0 0.012464497442672135 -0.084153156738856871 0 0.01093028100019384 -0.085121952180330016 0 0.011517580468338055 -0.082628298000035585 0 0.010656735653567831 -0.082378200946039273 0 0.0084717003584695322 -0.082835889218659323 0 0.0085101194698572937 -0.081444877919359324 0 0.0085101194698572937 -0.081444877919359324 0 0.0093591264753352006 -0.080252226877158384 0 0.0075259351120481816 -0.080144345968352348 0 0.010656735653567831 -0.082378200946039273 0 0.0085101194698572937 -0.081444877919359324 0 0.0093591264753352006 -0.080252226877158384 0 0.010656735653567831 -0.082378200946039273 0 0.0093591264753352006 -0.080252226877158384 0 0.011806355587500724 -0.080063825804688085 0 0.0093591264753352006 -0.080252226877158384 0 0.0096202892456387894 -0.07814355419626505 0 0.011806355587500724 -0.080063825804688085 0 0.0093591264753352006 -0.080252226877158384 0 0.0082313372561378072 -0.078933447079140323 0 0.0096202892456387894 -0.07814355419626505 0 0.0093591264753352006 -0.080252226877158384 0 0.0082313372561378072 -0.078933447079140323 0 0.0075259351120481816 -0.080144345968352348 0 0.0082313372561378072 -0.078933447079140323 0 0.0096202892456387894 -0.07814355419626505 0 0.0074966878037061478 -0.077277710907733277 0 0.0096202892456387894 -0.07814355419626505 0 0.011806355587500724 -0.080063825804688085 0 0.012000709096766458 -0.078384280327395542 0 0.0096202892456387894 -0.07814355419626505 0 0.012000709096766458 -0.078384280327395542 0 0.01124762422964588 -0.076296950482466888 0 0.0060391786093433233 -0.078055185680116143 0 0.007036255650722867 -0.078833916511796095 0 0.0060983970736350965 -0.080049336983240599 0 0.0082313372561378072 -0.078933447079140323 0 0.007036255650722867 -0.078833916511796095 0 0.0074966878037061478 -0.077277710907733277 0 0.0060391786093433233 -0.078055185680116143 0 0.007036255650722867 -0.078833916511796095 0 0.0074966878037061478 -0.077277710907733277 0 0.007036255650722867 -0.078833916511796095 0 0.0075259351120481816 -0.080144345968352348 0 0.0060983970736350965 -0.080049336983240599 0 0.0082313372561378072 -0.078933447079140323 0 0.007036255650722867 -0.078833916511796095 0 0.0075259351120481816 -0.080144345968352348 0 0.0060391786093433233 -0.078055185680116143 0 0.0060983970736350965 -0.080049336983240599 0 0.0047393410164635998 -0.079274258831912955 0 0.0060983970736350965 -0.080049336983240599 0 0.0072287706636730703 -0.081546201157659329 0 0.0057587648536242169 -0.081788735270465568 0 0.0060983970736350965 -0.080049336983240599 0 0.0057587648536242169 -0.081788735270465568 0 0.0046525165396487283 -0.080700778222489861 0 0.0075259351120481816 -0.080144345968352348 0 0.0060983970736350965 -0.080049336983240599 0 0.0072287706636730703 -0.081546201157659329 0 0.0085101194698572937 -0.081444877919359324 0 0.0075259351120481816 -0.080144345968352348 0 0.0072287706636730703 -0.081546201157659329 0 0.0084717003584695322 -0.082835889218659323 0 0.0072287706636730703 -0.081546201157659329 0 0.006894263474098529 -0.082763304359354153 0 0.0084717003584695322 -0.082835889218659323 0 0.0085101194698572937 -0.081444877919359324 0 0.0072287706636730703 -0.081546201157659329 0 0.0072287706636730703 -0.081546201157659329 0 0.006894263474098529 -0.082763304359354153 0 0.0057587648536242169 -0.081788735270465568 0 0.0054550912245414137 -0.08351988306406162 0 0.006894263474098529 -0.082763304359354153 0 0.0057587648536242169 -0.081788735270465568 0 0.0054550912245414137 -0.08351988306406162 0 0.0057587648536242169 -0.081788735270465568 0 0.0044481747254381141 -0.082004669226188223 0 0.0035323427716378165 -0.082870106945304306 0 0.0044481747254381141 -0.082004669226188223 0 0.0030134217467209104 -0.081234706154076353 0 0.0044481747254381141 -0.082004669226188223 0 0.0046525165396487283 -0.080700778222489861 0 0.0030134217467209104 -0.081234706154076353 0 0.0046525165396487283 -0.080700778222489861 0 0.0030134217467209104 -0.081234706154076353 0 0.0036707531048265629 -0.080039582588373959 0 0.0057587648536242169 -0.081788735270465568 0 0.0044481747254381141 -0.082004669226188223 0 0.0046525165396487283 -0.080700778222489861 0 0.0018667684210290202 -0.082236350087326993 0 0.0030134217467209104 -0.081234706154076353 0 0.0016144036731630721 -0.081119950454047532 0 0.0035323427716378165 -0.082870106945304306 0 0.0018667684210290202 -0.082236350087326993 0 0.0030134217467209104 -0.081234706154076353 0 0.0016144036731630721 -0.081119950454047532 0 0.0018798646947617628 -0.079857183505631341 0 0.00079655123899964988 -0.08090010863492185 0 0.0030134217467209104 -0.081234706154076353 0 0.0016144036731630721 -0.081119950454047532 0 0.0018798646947617628 -0.079857183505631341 0 0.0030134217467209104 -0.081234706154076353 0 0.0018798646947617628 -0.079857183505631341 0 0.0036707531048265629 -0.080039582588373959 0 0.0018798646947617628 -0.079857183505631341 0 0.0036707531048265629 -0.080039582588373959 0 0.0033920138051375154 -0.078968410684064072 0 0.0020798346609194858 -0.080716172581038123 0 0.0033920138051375154 -0.078968410684064072 0 0.0022776949349332123 -0.078741136098562342 0 0.0019821902114620931 -0.080343891584121335 0 0.0025514754189449197 -0.079926836166107282 0 0.0020798346609194858 -0.080716172581038123 0 0.0016779169583189212 -0.080048651871292884 0 0.0022776949349332123 -0.078741136098562342 0 0.0046525165396487283 -0.080700778222489861 0 0.0047393410164635998 -0.079274258831912955 0 0.0036707531048265629 -0.080039582588373959 0 0.0060983970736350965 -0.080049336983240599 0 0.0046525165396487283 -0.080700778222489861 0 0.0047393410164635998 -0.079274258831912955 0 0.0047393410164635998 -0.079274258831912955 0 0.0036707531048265629 -0.080039582588373959 0 0.0033920138051375154 -0.078968410684064072 0 0.0047393410164635998 -0.079274258831912955 0 0.0033920138051375154 -0.078968410684064072 0 0.0048148050245215577 -0.077693497562843508 0 0.0060391786093433233 -0.078055185680116143 0 0.0047393410164635998 -0.079274258831912955 0 0.0048148050245215577 -0.077693497562843508 0 0.0048148050245215577 -0.077693497562843508 0 0.0038011831206022115 -0.077339259068327823 0 0.0044091537912066096 -0.075617199405077232 0 0.0033920138051375154 -0.078968410684064072 0 0.0048148050245215577 -0.077693497562843508 0 0.0038011831206022115 -0.077339259068327823 0 0.0053603513698327419 -0.075442941491890445 0 0.0043917192659317355 -0.075959451880417472 0 0.0038011831206022115 -0.077339259068327823 0 0.0044091537912066096 -0.075617199405077232 0 0.0029368332490361444 -0.076631007764359368 0 0.0048148050245215577 -0.077693497562843508 0 0.0044091537912066096 -0.075617199405077232 0 0.0061950952383125462 -0.076378984221334517 0 0.0027719175035442853 -0.07705262852743007 0 0.0026217216385367977 -0.076958431216668635 0 0.0026478228611737523 -0.076943077552119543 0 0.0027719175035442853 -0.07705262852743007 0 0.0029368332490361444 -0.076631007764359368 0 0.0026478228611737523 -0.076943077552119543 0 0.00301310173562876 -0.078441359574137851 0 0.0023671804694395844 -0.079021793165500204 0 0.0016779169583189212 -0.080048651871292884 0 0.0022776949349332123 -0.078741136098562342 0 0.0012403554123660402 -0.080076956843498276 0 0.0038011831206022115 -0.077339259068327823 0 0.0027719175035442853 -0.07705262852743007 0 0.0029368332490361444 -0.076631007764359368 0 0.0035103973177970709 -0.078192712205181494 0 0.00301310173562876 -0.078441359574137851 0 0.0033920138051375154 -0.078968410684064072 0 0.0038011831206022115 -0.077339259068327823 0 0.0022776949349332123 -0.078741136098562342 0 0.0057721508986717891 -0.075543031864172022 0 0.0048189935805863634 -0.075365917271099273 0 0.0053350905341632707 -0.074758677839403695 0 0.0043917192659317355 -0.075959451880417472 0 0.0035120996223453145 -0.076401957738709739 0 0.0057721508986717891 -0.075543031864172022 0 0.0048189935805863634 -0.075365917271099273 0 0.0042631710335864492 -0.076335074541858658 0 0.0048189935805863634 -0.075365917271099273 0 0.004498955144413154 -0.074585625306751141 0 0.0053350905341632707 -0.074758677839403695 0 0.0057721508986717891 -0.075543031864172022 0 0.0053350905341632707 -0.074758677839403695 0 0.0061399338379954675 -0.074535293302729663 0 0.0053350905341632707 -0.074758677839403695 0 0.0061399338379954675 -0.074535293302729663 0 0.0050823237807116877 -0.073170673873867956 0 0.005110366244318802 -0.075022339064818616 0 0.0047976456420733673 -0.07525203976165934 0 0.0061399338379954675 -0.074535293302729663 0 0.0062645401611745163 -0.074386237505934108 0 0.0064298203767707467 -0.074319055517573895 0 0.0040731976531744474 -0.07373691212505204 0 0.0040916536802725586 -0.073015687100738039 0 0.0050823237807116877 -0.073170673873867956 0 0.004498955144413154 -0.074585625306751141 0 0.0053350905341632707 -0.074758677839403695 0 0.0050823237807116877 -0.073170673873867956 0 0.004498955144413154 -0.074585625306751141 0 0.0040731976531744474 -0.07373691212505204 0 0.0050823237807116877 -0.073170673873867956 0 0.0064938890972069726 -0.074808072025214278 0 0.0064168020881151247 -0.074495911764183617 0 0.0064767398092787235 -0.074608370239521382 0 0.0053603513698327419 -0.075442941491890445 0 0.0058989544019712147 -0.075170918534682774 0 0.0064938890972069726 -0.074808072025214278 0 0.0061399338379954675 -0.074535293302729663 0 0.0064168020881151247 -0.074495911764183617 0 0.0064938890972069726 -0.074808072025214278 0 0.0057721508986717891 -0.075543031864172022 0 0.0061399338379954675 -0.074535293302729663 0 0.0064168020881151247 -0.074495911764183617 0 0.006488264471816471 -0.07431853989145723 0 0.0064298203767707467 -0.074319055517573895 0 0.0061399338379954675 -0.074535293302729663 0 0.0064168020881151247 -0.074495911764183617 0 0.0064298203767707467 -0.074319055517573895 0 0.0064168020881151247 -0.074495911764183617 0 0.0064767398092787235 -0.074608370239521382 0 0.006488264471816471 -0.07431853989145723 0 0.0064767398092787235 -0.074608370239521382 0 0.0070200713096113827 -0.074238960221277045 0 0.0066528786244596958 -0.074150301563384799 0 0.0064767398092787235 -0.074608370239521382 0 0.0066528786244596958 -0.074150301563384799 0 0.006488264471816471 -0.07431853989145723 0 0.0064767398092787235 -0.074608370239521382 0 0.0075718383958975535 -0.07447336611689645 0 0.0075341415778441122 -0.075422078123588782 0 0.0064767398092787235 -0.074608370239521382 0 0.0070200713096113827 -0.074238960221277045 0 0.0075718383958975535 -0.07447336611689645 0 0.0073554685750262284 -0.07417981095006726 0 0.0070200713096113827 -0.074238960221277045 0 0.0075718383958975535 -0.07447336611689645 0 0.0073554685750262284 -0.07417981095006726 0 0.0070200713096113827 -0.074238960221277045 0 0.0069537367280859165 -0.07400816226131085 0 0.0034101770531108884 -0.065955967615974304 0 0.0028197822174306528 -0.066520744668392098 0 -0.0021442046471041179 -0.059627137384093871 0 0.0073554685750262284 -0.07417981095006726 0 0.0078663898320262982 -0.074121528312913187 0 0.0069537367280859165 -0.07400816226131085 0 0.0053745073785410784 -0.069954053089913412 0 0.0029987825379791757 -0.066722015158703976 0 0.0067282672568487857 -0.06269757985712214 0 0.0097108246038532988 -0.060004500549176699 0 0.0034101770531108884 -0.065955967615974304 0 0.0095647855671113884 -0.060849779818416327 0 0.010203301988612157 -0.067242874853235421 0 0.0034101770531108884 -0.065955967615974304 0 0.009038918546439673 -0.0736428544062986 0 0.010203301988612157 -0.067242874853235421 0 0.0034101770531108884 -0.065955967615974304 0 0.0028197822174306528 -0.066520744668392098 0 0.009038918546439673 -0.0736428544062986 0 0.0053745073785410784 -0.069954053089913412 0 0.0068340985777909933 -0.071786490772871345 0 0.0078663898320262982 -0.074121528312913187 0 0.0075718383958975535 -0.07447336611689645 0 0.009038918546439673 -0.0736428544062986 0 0.0073554685750262284 -0.07417981095006726 0 0.0078663898320262982 -0.074121528312913187 0 0.0075718383958975535 -0.07447336611689645 0 0.0075718383958975535 -0.07447336611689645 0 0.009038918546439673 -0.0736428544062986 0 0.0075341415778441122 -0.075422078123588782 0 0.009038918546439673 -0.0736428544062986 0 0.008787377321841313 -0.076085906630784433 0 0.0075341415778441122 -0.075422078123588782 0 0.009038918546439673 -0.0736428544062986 0 0.008787377321841313 -0.076085906630784433 0 0.01124762422964588 -0.076296950482466888 0 0.0096202892456387894 -0.07814355419626505 0 0.008787377321841313 -0.076085906630784433 0 0.01124762422964588 -0.076296950482466888 0 0.0096202892456387894 -0.07814355419626505 0 0.008787377321841313 -0.076085906630784433 0 0.0074966878037061478 -0.077277710907733277 0 0.008787377321841313 -0.076085906630784433 0 0.0074966878037061478 -0.077277710907733277 0 0.0075341415778441122 -0.075422078123588782 0 0.0074966878037061478 -0.077277710907733277 0 0.0061950952383125462 -0.076378984221334517 0 0.0075341415778441122 -0.075422078123588782 0 0.0060391786093433233 -0.078055185680116143 0 0.0048148050245215577 -0.077693497562843508 0 0.0061950952383125462 -0.076378984221334517 0 0.0060391786093433233 -0.078055185680116143 0 0.0074966878037061478 -0.077277710907733277 0 0.0061950952383125462 -0.076378984221334517 0 0.0064767398092787235 -0.074608370239521382 0 0.0061950952383125462 -0.076378984221334517 0 0.0075341415778441122 -0.075422078123588782 0 0.0044091537912066096 -0.075617199405077232 0 0.0064767398092787235 -0.074608370239521382 0 0.0061950952383125462 -0.076378984221334517 0 1.4173094236975477e-06 -0.084997825266164589 0 8.0552397047650603e-09 -0.084996778555286659 0 0.00045829106008524005 -0.084506164924219238 0 7.6150701038915081e-07 -0.084997848217984784 0 0.00054120024183058055 -0.08400299198097308 0 -1.3132397049147122e-08 -0.085000237229432105 0 0.00014185672824018896 -0.085168863790495972 0 4.4923391951357069e-05 -0.085037278304823272 0 0.00059588323941364664 -0.083737963330348511 0 0.00045829106008524005 -0.084506164924219238 0 0.0012335365098688083 -0.083232424994465801 0 8.0552397047650603e-09 -0.084996778555286659 0 0.00059588323941364664 -0.083737963330348511 0 0.00045829106008524005 -0.084506164924219238 0 0.00068396629285349194 -0.084429124949952167 0 1.4173094236975477e-06 -0.084997825266164589 0 0.00045829106008524005 -0.084506164924219238 0 0.00068396629285349194 -0.084429124949952167 0 0.00045829106008524005 -0.084506164924219238 0 0.00094982827837369053 -0.084495101613639101 0 0.00045829106008524005 -0.084506164924219238 0 0.00094982827837369053 -0.084495101613639101 0 0.0012335365098688083 -0.083232424994465801 0 0.0014184585782839015 -0.082669513451282872 0 0.0013758226736532053 -0.082772328015348479 0 0.00093409777172342079 -0.083957126108503297 0 0.00068396629285349194 -0.084429124949952167 0 0.00094982827837369053 -0.084495101613639101 0 0.0019664065459493851 -0.080585845389888486 0 0.0017080053241708287 -0.080941075168689494 0 0.0018474978404873013 -0.08156400891037302 0 0.0015133505219797811 -0.082400764362881879 0 0.0014184585782839015 -0.082669513451282872 0 0.0017080053241708287 -0.080941075168689494 0 0.0018474978404873013 -0.08156400891037302 0 0.0013795453258607054 -0.081282573161881838 0 0.0018474978404873013 -0.08156400891037302 0 0.0012727594295927056 -0.08236433760131924 0 0.0011984264889051378 -0.081721066536898743 0 0.0018474978404873013 -0.08156400891037302 0 0.0011984264889051378 -0.081721066536898743 0 0.0013795453258607054 -0.081282573161881838 0 0.0011853314622696197 -0.082262480871504215 0 0.0012727594295927056 -0.08236433760131924 0 0.0011278234859973338 -0.082006700575413621 0 0.0011853314622696197 -0.082262480871504215 0 0.0012306859176857952 -0.082499713395174715 0 0.0011356431938261235 -0.082169565360882102 0 0.0011853314622696197 -0.082262480871504215 0 0.0012727594295927056 -0.08236433760131924 0 0.0012306859176857952 -0.082499713395174715 0 0.0012727594295927056 -0.08236433760131924 0 0.0012306859176857952 -0.082499713395174715 0 0.0012715825880296209 -0.082779835465012386 0 0.0012727594295927056 -0.08236433760131924 0 0.0012335365098688083 -0.083232424994465801 0 0.0012715825880296209 -0.082779835465012386 0 0.0018474978404873013 -0.08156400891037302 0 0.0012727594295927056 -0.08236433760131924 0 0.0012335365098688083 -0.083232424994465801 0 0.00059588323941364664 -0.083737963330348511 0 0.0012335365098688083 -0.083232424994465801 0 0.0012741467296426548 -0.082792879044397347 0 0.00054120024183058055 -0.08400299198097308 0 0.0008070540399458424 -0.082860710756579983 0 0.00014185672824018896 -0.085168863790495972 0 0.00040743604983416691 -0.085193891260387164 0 0.00047340866163656664 -0.085247748424239211 0 0.0012335365098688083 -0.083232424994465801 0 0.0012741467296426548 -0.082792879044397347 0 0.0012715825880296209 -0.082779835465012386 0 0.00040743604983416691 -0.085193891260387164 0 0.00047340866163656664 -0.085247748424239211 0 0.00047232403602547225 -0.085179599745894272 0 0.00047340866163656664 -0.085247748424239211 0 0.00047232403602547225 -0.085179599745894272 0 0.00057941921332896817 -0.085194025242067067 0 0.0012741467296426548 -0.082792879044397347 0 0.0012198546065475709 -0.08248743652564644 0 0.0011351793985747564 -0.082182965166713431 0 0.0008070540399458424 -0.082860710756579983 0 0.00085250169759838398 -0.081265906721286751 0 0.00047340866163656664 -0.085247748424239211 0 0.00057941921332896817 -0.085194025242067067 0 0.00080276754990099585 -0.085238857212410452 0 0.0011592264825815767 -0.082271835975661053 0 0.0012198546065475709 -0.08248743652564644 0 0.0011374772754869341 -0.082204370574738436 0 0.0012198546065475709 -0.08248743652564644 0 0.0011374772754869341 -0.082204370574738436 0 0.0011351793985747564 -0.082182965166713431 0 0.0011592264825815767 -0.082271835975661053 0 0.0011845701836098567 -0.082344832615224933 0 0.0012198546065475709 -0.08248743652564644 0 0.0011845701836098567 -0.082344832615224933 0 0.0012306859176857952 -0.082499713395174715 0 0.0012198546065475709 -0.08248743652564644 0 0.0011845701836098567 -0.082344832615224933 0 0.0012306859176857952 -0.082499713395174715 0 0.0011356431938261235 -0.082169565360882102 0 0.0011592264825815767 -0.082271835975661053 0 0.0011845701836098567 -0.082344832615224933 0 0.0011224517091553553 -0.08216099683069096 0 0.0012306859176857952 -0.082499713395174715 0 0.0012715825880296209 -0.082779835465012386 0 0.0012198546065475709 -0.08248743652564644 0 0.0012741467296426548 -0.082792879044397347 0 0.0012715825880296209 -0.082779835465012386 0 0.0012198546065475709 -0.08248743652564644 0 0.0010993593156113756 -0.082150443478318 0 0.0010058882111530884 -0.081751483171680947 0 0.00090367268838871832 -0.08123098928045093 0 0.00085250169759838398 -0.081265906721286751 0 0.0017953216293541639 -0.079894699995314566 0 0.0010344572748192905 -0.081883110752830071 0 0.0010058882111530884 -0.081751483171680947 0 0.00098147906525648939 -0.081680965118074864 0 0.0010344572748192905 -0.081883110752830071 0 0.00098147906525648939 -0.081680965118074864 0 0.0010415940082603326 -0.081906808422504376 0 0.0010344572748192905 -0.081883110752830071 0 0.0010810861389943366 -0.082034684943752864 0 0.0010415940082603326 -0.081906808422504376 0 0.0011356431938261235 -0.082169565360882102 0 0.0010810861389943366 -0.082034684943752864 0 0.0010415940082603326 -0.081906808422504376 0 0.0011845701836098567 -0.082344832615224933 0 0.0011356431938261235 -0.082169565360882102 0 0.0011224517091553553 -0.08216099683069096 0 0.0011356431938261235 -0.082169565360882102 0 0.0011224517091553553 -0.08216099683069096 0 0.0010810861389943366 -0.082034684943752864 0 0.0011224517091553553 -0.08216099683069096 0 0.0010810861389943366 -0.082034684943752864 0 0.0010787086220525395 -0.082052576774616151 0 0.0010344572748192905 -0.081883110752830071 0 0.0010810861389943366 -0.082034684943752864 0 0.0010787086220525395 -0.082052576774616151 0 0.0010787086220525395 -0.082052576774616151 0 0.0010993593156113756 -0.082150443478318 0 0.0010058882111530884 -0.081751483171680947 0 0.0011592264825815767 -0.082271835975661053 0 0.0011224517091553553 -0.08216099683069096 0 0.0011187712705620885 -0.082161213408204786 0 0.0011592264825815767 -0.082271835975661053 0 0.0011187712705620885 -0.082161213408204786 0 0.0011374772754869341 -0.082204370574738436 0 0.0011224517091553553 -0.08216099683069096 0 0.0010787086220525395 -0.082052576774616151 0 0.0011187712705620885 -0.082161213408204786 0 0.0010787086220525395 -0.082052576774616151 0 0.0011056636477434043 -0.082142218887058707 0 0.0010993593156113756 -0.082150443478318 0 0.0011187712705620885 -0.082161213408204786 0 0.0011056636477434043 -0.082142218887058707 0 0.0011374772754869341 -0.082204370574738436 0 0.0010787086220525395 -0.082052576774616151 0 0.0011187712705620885 -0.082161213408204786 0 0.0011056636477434043 -0.082142218887058707 0 0.00085173583680982017 -0.081269611013039686 0 0.00085250169759838398 -0.081265906721286751 0 0.0011056636477434043 -0.082142218887058707 0 0.0011374772754869341 -0.082204370574738436 0 0.0010993593156113756 -0.082150443478318 0 0.0010344572748192905 -0.081883110752830071 0 0.0010787086220525395 -0.082052576774616151 0 0.0010058882111530884 -0.081751483171680947 0 0.0010058882111530884 -0.081751483171680947 0 0.00095536095749361634 -0.081506438464487227 0 0.00090367268838871832 -0.08123098928045093 0 0.0010058882111530884 -0.081751483171680947 0 0.00095536095749361634 -0.081506438464487227 0 0.00098147906525648939 -0.081680965118074864 0 0.00094304315130411156 -0.081384950740843967 0 0.00096900005782587194 -0.081142610676743374 0 0.00090367268838871832 -0.08123098928045093 0 0.00095536095749361634 -0.081506438464487227 0 0.00094304315130411156 -0.081384950740843967 0 0.00090367268838871832 -0.08123098928045093 0 0.00094304315130411156 -0.081384950740843967 0 0.00095340183771106663 -0.081573649718925292 0 0.00099159939723625465 -0.081268853729192125 0 0.00098147906525648939 -0.081680965118074864 0 0.00095340183771106663 -0.081573649718925292 0 0.0010415940082603326 -0.081906808422504376 0 0.00095536095749361634 -0.081506438464487227 0 0.00094304315130411156 -0.081384950740843967 0 0.00098147906525648939 -0.081680965118074864 0 0.00094304315130411156 -0.081384950740843967 0 0.00098147906525648939 -0.081680965118074864 0 0.00095340183771106663 -0.081573649718925292 0 0.00095340183771106663 -0.081573649718925292 0 0.00093943378828590621 -0.08163629155176598 0 0.0010415940082603326 -0.081906808422504376 0 0.00095340183771106663 -0.081573649718925292 0 0.00093943378828590621 -0.08163629155176598 0 0.00099159939723625465 -0.081268853729192125 0 0.00093943378828590621 -0.08163629155176598 0 0.0010415940082603326 -0.081906808422504376 0 0.0011278234859973338 -0.082006700575413621 0 0.00093943378828590621 -0.08163629155176598 0 0.0011278234859973338 -0.082006700575413621 0 0.0011984264889051378 -0.081721066536898743 0 0.0011853314622696197 -0.082262480871504215 0 0.0011356431938261235 -0.082169565360882102 0 0.0011278234859973338 -0.082006700575413621 0 0.0011356431938261235 -0.082169565360882102 0 0.0010415940082603326 -0.081906808422504376 0 0.0011278234859973338 -0.082006700575413621 0 0.0012727594295927056 -0.08236433760131924 0 0.0011278234859973338 -0.082006700575413621 0 0.0011984264889051378 -0.081721066536898743 0 0.0011984264889051378 -0.081721066536898743 0 0.0013795453258607054 -0.081282573161881838 0 0.00093978955800284891 -0.081515735398637615 0 0.0013641328809540746 -0.080914416286230043 0 0.0017080053241708287 -0.080941075168689494 0 0.0013795453258607054 -0.081282573161881838 0 0.0013641328809540746 -0.080914416286230043 0 0.0013795453258607054 -0.081282573161881838 0 0.00093978955800284891 -0.081515735398637615 0 0.00093943378828590621 -0.08163629155176598 0 0.0011984264889051378 -0.081721066536898743 0 0.00093978955800284891 -0.081515735398637615 0 0.00093978955800284891 -0.081515735398637615 0 0.00062258402869761755 -0.081448280558340316 0 0.00079655123899964988 -0.08090010863492185 0 0.00093943378828590621 -0.08163629155176598 0 0.00093978955800284891 -0.081515735398637615 0 0.0011533420338803056 -0.081477118466314252 0 0.0011087379333809162 -0.08106747566441784 0 0.0013084011082257583 -0.08087631713591964 0 0.00080149667946120557 -0.08076036050548191 0 0.00093978955800284891 -0.081515735398637615 0 0.00062258402869761755 -0.081448280558340316 0 0.00073203220537151567 -0.081430438899610033 0 0.0007099301101041786 -0.081461856651905418 0 0.0018667684210290202 -0.082236350087326993 0 0.0016144036731630721 -0.081119950454047532 0 0.00062258402869761755 -0.081448280558340316 0 0.0016144036731630721 -0.081119950454047532 0 0.00062258402869761755 -0.081448280558340316 0 0.00079655123899964988 -0.08090010863492185 0 0.0020798346609194858 -0.080716172581038123 0 0.0011533420338803056 -0.081477118466314252 0 0.0012912897040517767 -0.080695818139192688 0 0.0019821902114620931 -0.080343891584121335 0 0.0013084011082257583 -0.08087631713591964 0 0.00093943378828590621 -0.08163629155176598 0 0.0011533420338803056 -0.081477118466314252 0 0.00099159939723625465 -0.081268853729192125 0 0.0011533420338803056 -0.081477118466314252 0 0.00099159939723625465 -0.081268853729192125 0 0.0012912897040517767 -0.080695818139192688 0 0.00099159939723625465 -0.081268853729192125 0 0.0010613983565742184 -0.080801559189898953 0 0.0012912897040517767 -0.080695818139192688 0 0.00094304315130411156 -0.081384950740843967 0 0.00099159939723625465 -0.081268853729192125 0 0.00096900005782587194 -0.081142610676743374 0 0.00099159939723625465 -0.081268853729192125 0 0.00096900005782587194 -0.081142610676743374 0 0.0010613983565742184 -0.080801559189898953 0 0.00096900005782587194 -0.081142610676743374 0 0.0010613983565742184 -0.080801559189898953 0 0.00090367268838871832 -0.08123098928045093 0 0.0020798346609194858 -0.080716172581038123 0 0.0016779169583189212 -0.080048651871292884 0 0.0012912897040517767 -0.080695818139192688 0 0.0016779169583189212 -0.080048651871292884 0 0.0012912897040517767 -0.080695818139192688 0 0.0012403554123660402 -0.080076956843498276 0 0.0010613983565742184 -0.080801559189898953 0 0.0012912897040517767 -0.080695818139192688 0 0.0012403554123660402 -0.080076956843498276 0 0.0035120996223453145 -0.076401957738709739 0 0.0030410321105430729 -0.076604171227542053 0 0.0026217216385367977 -0.076958431216668635 0 0.0026478228611737523 -0.076943077552119543 0 0.0024685662885734301 -0.076897958591937682 0 0.0042631710335864492 -0.076335074541858658 0 0.0024685662885734301 -0.076897958591937682 0 0.0032377586612584376 -0.076053942305761957 0 0.0010613983565742184 -0.080801559189898953 0 0.0012403554123660402 -0.080076956843498276 0 0.00090367268838871832 -0.08123098928045093 0 0.0023671804694395844 -0.079021793165500204 0 0.0017953216293541639 -0.079894699995314566 0 0.0026217216385367977 -0.076958431216668635 0 0.0024685662885734301 -0.076897958591937682 0 0.0022998030276249193 -0.076943057778935439 0 0.0024685662885734301 -0.076897958591937682 0 0.0032377586612584376 -0.076053942305761957 0 0.0024835740061620267 -0.07616385630901816 0 0.0024685662885734301 -0.076897958591937682 0 0.0024835740061620267 -0.07616385630901816 0 0.0023268504014733729 -0.076767011737005272 0 0.0032377586612584376 -0.076053942305761957 0 0.0024835740061620267 -0.07616385630901816 0 0.0030672143088949278 -0.075436198874251834 0 0.0024835740061620267 -0.07616385630901816 0 0.0030672143088949278 -0.075436198874251834 0 0.0022838278067577587 -0.074607128471438536 0 0.0032377586612584376 -0.076053942305761957 0 0.0030672143088949278 -0.075436198874251834 0 0.0038876536790298979 -0.075373212471817802 0 0.0042631710335864492 -0.076335074541858658 0 0.0032377586612584376 -0.076053942305761957 0 0.0038876536790298979 -0.075373212471817802 0 0.0048189935805863634 -0.075365917271099273 0 0.0042631710335864492 -0.076335074541858658 0 0.0038876536790298979 -0.075373212471817802 0 0.0048189935805863634 -0.075365917271099273 0 0.004498955144413154 -0.074585625306751141 0 0.0038876536790298979 -0.075373212471817802 0 0.004498955144413154 -0.074585625306751141 0 0.0038876536790298979 -0.075373212471817802 0 0.0034509872113777963 -0.074550134331057921 0 0.004498955144413154 -0.074585625306751141 0 0.0034509872113777963 -0.074550134331057921 0 0.0040731976531744474 -0.07373691212505204 0 0.0030672143088949278 -0.075436198874251834 0 0.0038876536790298979 -0.075373212471817802 0 0.0034509872113777963 -0.074550134331057921 0 0.0034509872113777963 -0.074550134331057921 0 0.0040731976531744474 -0.07373691212505204 0 0.0031648803842569692 -0.073212895633643707 0 0.0040731976531744474 -0.07373691212505204 0 0.0031648803842569692 -0.073212895633643707 0 0.0040916536802725586 -0.073015687100738039 0 0.0034509872113777963 -0.074550134331057921 0 0.0022838278067577587 -0.074607128471438536 0 0.0031648803842569692 -0.073212895633643707 0 0.0034300173479804271 -0.084935396677846595 0 0.0033118913042284055 -0.083364591238688279 0 0.0042187639417028515 -0.083670924899223328 0 0.0028739351318274329 -0.079814261330557634 0 0.003984854543268134 -0.078729803222741063 0 0.0030672143088949278 -0.075436198874251834 0 0.0034509872113777963 -0.074550134331057921 0 0.0022838278067577587 -0.074607128471438536 0 0.0034300173479804271 -0.084935396677846595 0 0.0024875079112771244 -0.084000290400063807 0 0.0033118913042284055 -0.083364591238688279 0 0.0024875079112771244 -0.084000290400063807 0 0.0019395276255413712 -0.085256596174747845 0 0.0012067245517692422 -0.084358451098874729 0 0.0034300173479804271 -0.084935396677846595 0 0.0024875079112771244 -0.084000290400063807 0 0.0019395276255413712 -0.085256596174747845 0 0.0034300173479804271 -0.084935396677846595 0 0.0019395276255413712 -0.085256596174747845 0 0.0026673373368472416 -0.086157935645387249 0 0.002007831971311584 -0.083208373865322649 0 0.0017091812393879335 -0.081022696471050176 0 0.00085258675211793327 -0.08473623324152206 0 0.00099328331363379035 -0.084951860790490219 0 0.0007671023170620553 -0.084922921863982342 0 0.00099328331363379035 -0.084951860790490219 0 0.00079388727476749799 -0.08506075651367577 0 0.0007671023170620553 -0.084922921863982342 0 0.0024835740061620267 -0.07616385630901816 0 0.0022838278067577587 -0.074607128471438536 0 0.0020263297911664378 -0.076076855044721572 0 0.0028739351318274329 -0.079814261330557634 0 0.0017091812393879335 -0.081022696471050176 0 0.0022838278067577587 -0.074607128471438536 0 0.0014729509870188093 -0.076021341768722078 0 0.0020263297911664378 -0.076076855044721572 0 0.0017091812393879335 -0.081022696471050176 0 0.0013223656671787817 -0.080173301709167671 0 0.0011339154341203548 -0.077125856043434568 0 0.0020995973867744349 -0.076658022217938909 0 0.0022998030276249193 -0.076943057778935439 0 0.0014729509870188093 -0.076021341768722078 0 0.0020263297911664378 -0.076076855044721572 0 0.0020995973867744349 -0.076658022217938909 0 0.0024835740061620267 -0.07616385630901816 0 0.0020263297911664378 -0.076076855044721572 0 0.0020995973867744349 -0.076658022217938909 0 0.0024835740061620267 -0.07616385630901816 0 0.0020995973867744349 -0.076658022217938909 0 0.0023268504014733729 -0.076767011737005272 0 0.0024685662885734301 -0.076897958591937682 0 0.0023268504014733729 -0.076767011737005272 0 0.0022998030276249193 -0.076943057778935439 0 0.0020995973867744349 -0.076658022217938909 0 0.0023268504014733729 -0.076767011737005272 0 0.0022998030276249193 -0.076943057778935439 0 0.00085250169759838398 -0.081265906721286751 0 0.0017091812393879335 -0.081022696471050176 0 0.0011339154341203548 -0.077125856043434568 0 0.0017112051207649939 -0.076179206167457644 0 0.0020995973867744349 -0.076658022217938909 0 0.00080276754990099585 -0.085238857212410452 0 0.00099328331363379035 -0.084951860790490219 0 0.00079388727476749799 -0.08506075651367577 0 0.00080276754990099585 -0.085238857212410452 0 0.00079388727476749799 -0.08506075651367577 0 0.00072879680960650063 -0.085130735074550851 0 0.00057254024301516579 -0.085085485311510362 0 0.00068204453867582793 -0.085056680372481624 0 0.00064231975111171669 -0.085151815164952169 0 0.00057254024301516579 -0.085085485311510362 0 0.00048579564203648498 -0.085078204923588224 0 0.00057896676098953244 -0.08500075910392145 0 0.00057254024301516579 -0.085085485311510362 0 0.00068204453867582793 -0.085056680372481624 0 0.00057896676098953244 -0.08500075910392145 0 0.00079388727476749799 -0.08506075651367577 0 0.00068204453867582793 -0.085056680372481624 0 0.0007671023170620553 -0.084922921863982342 0 0.00079388727476749799 -0.08506075651367577 0 0.00068204453867582793 -0.085056680372481624 0 0.00072879680960650063 -0.085130735074550851 0 0.00080276754990099585 -0.085238857212410452 0 0.00072879680960650063 -0.085130735074550851 0 0.00064231975111171669 -0.085151815164952169 0 0.00057941921332896817 -0.085194025242067067 0 0.00080276754990099585 -0.085238857212410452 0 0.00064231975111171669 -0.085151815164952169 0 0.00068204453867582793 -0.085056680372481624 0 0.00072879680960650063 -0.085130735074550851 0 0.00064231975111171669 -0.085151815164952169 0 0.00057941921332896817 -0.085194025242067067 0 0.00064231975111171669 -0.085151815164952169 0 0.00051028033968226051 -0.085143649789966094 0 0.00057254024301516579 -0.085085485311510362 0 0.00064231975111171669 -0.085151815164952169 0 0.00051028033968226051 -0.085143649789966094 0 0.00040743604983416691 -0.085193891260387164 0 0.00047232403602547225 -0.085179599745894272 0 0.00039713556737140464 -0.085108984279015434 0 0.00047232403602547225 -0.085179599745894272 0 0.00057941921332896817 -0.085194025242067067 0 0.00051028033968226051 -0.085143649789966094 0 0.00040743604983416691 -0.085193891260387164 0 0.00039713556737140464 -0.085108984279015434 0 0.00015984470649366156 -0.085044831581343308 0 0.00047232403602547225 -0.085179599745894272 0 0.00051028033968226051 -0.085143649789966094 0 0.00039713556737140464 -0.085108984279015434 0 0.00051028033968226051 -0.085143649789966094 0 0.00039713556737140464 -0.085108984279015434 0 0.00048579564203648498 -0.085078204923588224 0 0.00057254024301516579 -0.085085485311510362 0 0.00051028033968226051 -0.085143649789966094 0 0.00048579564203648498 -0.085078204923588224 0 0.00039713556737140464 -0.085108984279015434 0 0.00048579564203648498 -0.085078204923588224 0 0.00037197888618202443 -0.085021075689976328 0 0.00048579564203648498 -0.085078204923588224 0 0.00037197888618202443 -0.085021075689976328 0 0.00057896676098953244 -0.08500075910392145 0 0.00037197888618202443 -0.085021075689976328 0 0.0006106510801049919 -0.084835189260292668 0 0.00037162007099536391 -0.084742615813846775 0 0.00037197888618202443 -0.085021075689976328 0 0.0006106510801049919 -0.084835189260292668 0 0.00057896676098953244 -0.08500075910392145 0 0.00085258675211793327 -0.08473623324152206 0 0.0006106510801049919 -0.084835189260292668 0 0.0007671023170620553 -0.084922921863982342 0 0.0006106510801049919 -0.084835189260292668 0 0.00057896676098953244 -0.08500075910392145 0 0.0007671023170620553 -0.084922921863982342 0 0.00068204453867582793 -0.085056680372481624 0 0.00057896676098953244 -0.08500075910392145 0 0.0007671023170620553 -0.084922921863982342 0 0.00085258675211793327 -0.08473623324152206 0 0.0006106510801049919 -0.084835189260292668 0 0.00078114376875148628 -0.084447367480244478 0 0.002007831971311584 -0.083208373865322649 0 0.0016254538232329066 -0.083577846361217567 0 0.0012067245517692422 -0.084358451098874729 0 0.00050795038033146452 -0.083653855320396556 0 0.0016639534740659895 -0.08360736451534459 0 0.0024875079112771244 -0.084000290400063807 0 0.0012067245517692422 -0.084358451098874729 0 0.0016639534740659895 -0.08360736451534459 0 0.0016254538232329066 -0.083577846361217567 0 0.0013707867511809284 -0.083500089587879758 0 0.00078114376875148628 -0.084447367480244478 0 0.00040163777210171496 -0.084408420566491005 0 0.00050795038033146452 -0.083653855320396556 0 0.00078114376875148628 -0.084447367480244478 0 0.00040163777210171496 -0.084408420566491005 0 0.00037162007099536391 -0.084742615813846775 0 0.0006106510801049919 -0.084835189260292668 0 0.00078114376875148628 -0.084447367480244478 0 0.00037162007099536391 -0.084742615813846775 0 0.00037162007099536391 -0.084742615813846775 0 0.00010092906698385749 -0.084897611333812559 0 8.1462629429364695e-05 -0.084663623977881089 0 0.00040163777210171496 -0.084408420566491005 0 0.00037162007099536391 -0.084742615813846775 0 8.1462629429364695e-05 -0.084663623977881089 0 0.00040163777210171496 -0.084408420566491005 0 8.1462629429364695e-05 -0.084663623977881089 0 -0.00014758550941835187 -0.083887120393097106 0 8.1462629429364695e-05 -0.084663623977881089 0 -8.9422738904144838e-07 -0.084998554460317927 0 -0.00014758550941835187 -0.083887120393097106 0 -8.668643412681752e-08 -0.084998835393907901 0 0.00012631748641138188 -0.084222074885744347 0 0.00010092906698385749 -0.084897611333812559 0 8.1462629429364695e-05 -0.084663623977881089 0 -8.9422738904144838e-07 -0.084998554460317927 0 0.00010092906698385749 -0.084897611333812559 0 -8.9422738904144838e-07 -0.084998554460317927 0 4.7555841405117225e-07 -0.085000456087735918 0 0.00010092906698385749 -0.084897611333812559 0 4.7555841405117225e-07 -0.085000456087735918 0 0.00015984470649366156 -0.085044831581343308 0 -1.0030318461360809e-08 -0.084999931708616958 0 9.2583964661338295e-05 -0.084955481279951839 0 4.8216732901632018e-08 -0.084999971206078967 0 1.4312309945643029e-07 -0.08500001615887709 0 0.00012403853777983453 -0.085057682539452312 0 0.00037197888618202443 -0.085021075689976328 0 0.00010092906698385749 -0.084897611333812559 0 0.00015984470649366156 -0.085044831581343308 0 0.00037197888618202443 -0.085021075689976328 0 0.00037162007099536391 -0.084742615813846775 0 0.00010092906698385749 -0.084897611333812559 0 0.00022230884952332341 -0.08512288459393233 0 0.00012403853777983453 -0.085057682539452312 0 0.00039713556737140464 -0.085108984279015434 0 0.00037197888618202443 -0.085021075689976328 0 0.00015984470649366156 -0.085044831581343308 0 0.00014185672824018896 -0.085168863790495972 0 0.00040743604983416691 -0.085193891260387164 0 9.2583964661338295e-05 -0.084955481279951839 0 0.00014185672824018896 -0.085168863790495972 0 9.2583964661338295e-05 -0.084955481279951839 0 4.4923391951357069e-05 -0.085037278304823272 0 -1.3132397049147122e-08 -0.085000237229432105 0 4.4923391951357069e-05 -0.085037278304823272 0 4.8216732901632018e-08 -0.084999971206078967 0 9.2583964661338295e-05 -0.084955481279951839 0 4.4923391951357069e-05 -0.085037278304823272 0 4.8216732901632018e-08 -0.084999971206078967 0 3.1094676109231885e-05 -0.084980798681838776 0 -4.9727643093332194e-08 -0.084999850377222103 0 4.1373086936190416e-05 -0.084852675499743291 0 -3.9208610804055041e-07 -0.084999009093972885 0 -0.00014796453008935852 -0.084472552760008632 0 3.1094676109231885e-05 -0.084980798681838776 0 9.0356316715288829e-05 -0.084814465701440828 0 4.1373086936190416e-05 -0.084852675499743291 0 2.7676626347099299e-05 -0.084907363682577397 0 9.547342105125949e-05 -0.084881168324822995 0 9.0356316715288829e-05 -0.084814465701440828 0 2.7676626347099299e-05 -0.084907363682577397 0 9.547342105125949e-05 -0.084881168324822995 0 6.9854151854832839e-05 -0.084934639911089502 0 3.4799812435113416e-05 -0.084946240022147984 0 5.689100848991974e-05 -0.08491293549935941 0 2.7676626347099299e-05 -0.084907363682577397 0 6.9854151854832839e-05 -0.084934639911089502 0 4.0273932168241955e-05 -0.084985344305060259 0 6.9854151854832839e-05 -0.084934639911089502 0 4.0273932168241955e-05 -0.084985344305060259 0 0.00011626801760115336 -0.085005322182562335 0 2.7676626347099299e-05 -0.084907363682577397 0 -1.3758853978392561e-08 -0.084999869695146654 0 4.0273932168241955e-05 -0.084985344305060259 0 3.4799812435113416e-05 -0.084946240022147984 0 3.7817290380883499e-08 -0.084999923144780776 0 3.1094676109231885e-05 -0.084980798681838776 0 -4.9727643093332194e-08 -0.084999850377222103 0 3.0381824033244227e-08 -0.085000090944053475 0 2.261039927546698e-08 -0.08500005441143775 0 3.2569871860780782e-05 -0.085016790017856003 0 4.0273932168241955e-05 -0.084985344305060259 0 -1.3758853978392561e-08 -0.084999869695146654 0 2.261039927546698e-08 -0.08500005441143775 0 4.0273932168241955e-05 -0.084985344305060259 0 -6.0874368932958712e-09 -0.085000001597822394 0 2.261039927546698e-08 -0.08500005441143775 0 3.2569871860780782e-05 -0.085016790017856003 0 3.2569871860780782e-05 -0.085016790017856003 0 4.0273932168241955e-05 -0.084985344305060259 0 0.00011626801760115336 -0.085005322182562335 0 0.00012631748641138188 -0.084222074885744347 0 0.00027039866033869842 -0.083377418332251499 0 0.00040807542124993336 -0.082393788996030393 0 0.00050795038033146452 -0.083653855320396556 0 0.0013497530180737007 -0.082737589252301083 0 -0.00014758550941835187 -0.083887120393097106 0 0.00040807542124993336 -0.082393788996030393 0 0.00050795038033146452 -0.083653855320396556 0 0.00040163777210171496 -0.084408420566491005 0 -0.00014758550941835187 -0.083887120393097106 0 0.00050795038033146452 -0.083653855320396556 0 0.00050795038033146452 -0.083653855320396556 0 0.0016639534740659895 -0.08360736451534459 0 0.0013497530180737007 -0.082737589252301083 0 0.00040807542124993336 -0.082393788996030393 0 0.0013497530180737007 -0.082737589252301083 0 0.0014220113247653886 -0.080927270197189649 0 0.00027039866033869842 -0.083377418332251499 0 0.00043168341307227878 -0.08230281128050515 0 6.9854151854832839e-05 -0.084934639911089502 0 0.00011626801760115336 -0.085005322182562335 0 0.00013273088462224336 -0.084917086958866794 0 0.00011626801760115336 -0.085005322182562335 0 0.0002502645891906026 -0.084932407005885835 0 0.00013273088462224336 -0.084917086958866794 0 9.547342105125949e-05 -0.084881168324822995 0 6.9854151854832839e-05 -0.084934639911089502 0 0.00013273088462224336 -0.084917086958866794 0 9.547342105125949e-05 -0.084881168324822995 0 0.00013273088462224336 -0.084917086958866794 0 0.00018044342120012818 -0.084828266483641238 0 9.547342105125949e-05 -0.084881168324822995 0 0.00018044342120012818 -0.084828266483641238 0 9.0356316715288829e-05 -0.084814465701440828 0 0.0002502645891906026 -0.084932407005885835 0 0.00013273088462224336 -0.084917086958866794 0 0.00018044342120012818 -0.084828266483641238 0 0.0002502645891906026 -0.084932407005885835 0 0.00018044342120012818 -0.084828266483641238 0 0.00040178900477050658 -0.084807596894424894 0 0.0014220113247653886 -0.080927270197189649 0 0.0024239136957059288 -0.079697393903022509 0 0.0027977492586766595 -0.080882625913715353 0 0.00043168341307227878 -0.08230281128050515 0 0.00043095244298631583 -0.080757478758160653 0 0.0024239136957059288 -0.079697393903022509 0 0.0027977492586766595 -0.080882625913715353 0 0.0032747438809007635 -0.079975153331783719 0 0.0014220113247653886 -0.080927270197189649 0 0.0027977492586766595 -0.080882625913715353 0 0.0024109067269878727 -0.082191867826799742 0 0.0020253140150087844 -0.081198833720167438 0 0.0025408493167290353 -0.08087552984677901 0 0.0013497530180737007 -0.082737589252301083 0 0.0014220113247653886 -0.080927270197189649 0 0.0024109067269878727 -0.082191867826799742 0 0.0016639534740659895 -0.08360736451534459 0 0.0013497530180737007 -0.082737589252301083 0 0.0025726837570915328 -0.08262317760908347 0 0.0024875079112771244 -0.084000290400063807 0 0.0016639534740659895 -0.08360736451534459 0 0.0025726837570915328 -0.08262317760908347 0 0.0024875079112771244 -0.084000290400063807 0 0.0025726837570915328 -0.08262317760908347 0 0.0033118913042284055 -0.083364591238688279 0 0.0025408493167290353 -0.08087552984677901 0 0.0036365092137621434 -0.079909365372437535 0 0.0025726837570915328 -0.08262317760908347 0 0.0033118913042284055 -0.083364591238688279 0 0.0037466020166183537 -0.082471330376144542 0 0.0027977492586766595 -0.080882625913715353 0 0.0024109067269878727 -0.082191867826799742 0 0.0033836725211018335 -0.08179261606286907 0 0.0037466020166183537 -0.082471330376144542 0 0.0043917725890770332 -0.082819154778249693 0 0.0049973965697145363 -0.082393645202232871 0 0.0033836725211018335 -0.08179261606286907 0 0.0046526150917524005 -0.081683311222683103 0 0.0037575599401360902 -0.080629132535329398 0 0.0036365092137621434 -0.079909365372437535 0 0.0051484462367559942 -0.078020520928474432 0 0.0033118913042284055 -0.083364591238688279 0 0.0037466020166183537 -0.082471330376144542 0 0.0043917725890770332 -0.082819154778249693 0 0.0033118913042284055 -0.083364591238688279 0 0.0043917725890770332 -0.082819154778249693 0 0.0042187639417028515 -0.083670924899223328 0 0.0031648803842569692 -0.073212895633643707 0 0.0040916536802725586 -0.073015687100738039 0 0.0040139294158068337 -0.071858177255501046 0 0.0043917725890770332 -0.082819154778249693 0 0.0042187639417028515 -0.083670924899223328 0 0.0049973965697145363 -0.082393645202232871 0 0.003984854543268134 -0.078729803222741063 0 0.0051484462367559942 -0.078020520928474432 0 0.0040916536802725586 -0.073015687100738039 0 0.0040139294158068337 -0.071858177255501046 0 0.0050823237807116877 -0.073170673873867956 0 0.0061810175673313464 -0.074254788898529975 0 0.0061858534912311016 -0.074244473861508439 0 0.0062623996669336768 -0.074294669370605526 0 0.0046019823436259594 -0.082044363113150443 0 0.0047029353294231096 -0.081923904764314104 0 0.0046024620341035541 -0.081255921711616719 0 0.0051484462367559942 -0.078020520928474432 0 0.0054440695024173241 -0.07768090433119991 0 0.0047029353294231096 -0.081923904764314104 0 0.0046024620341035541 -0.081255921711616719 0 0.0062130294348960273 -0.079892859938185554 0 0.0051484462367559942 -0.078020520928474432 0 0.0053371085643682684 -0.078999761977786354 0 0.0046019823436259594 -0.082044363113150443 0 0.0046024620341035541 -0.081255921711616719 0 0.0037575599401360902 -0.080629132535329398 0 0.0045800022635595124 -0.080434531688225328 0 0.0043836240806800876 -0.079763440760889537 0 0.0062130294348960273 -0.079892859938185554 0 0.0046024620341035541 -0.081255921711616719 0 0.0045800022635595124 -0.080434531688225328 0 0.0062130294348960273 -0.079892859938185554 0 0.0037575599401360902 -0.080629132535329398 0 0.0038371760573896871 -0.079930062981320313 0 0.0043836240806800876 -0.079763440760889537 0 0.0045800022635595124 -0.080434531688225328 0 0.0037575599401360902 -0.080629132535329398 0 0.0043836240806800876 -0.079763440760889537 0 0.0046024620341035541 -0.081255921711616719 0 0.0045800022635595124 -0.080434531688225328 0 0.0037575599401360902 -0.080629132535329398 0 0.0027977492586766595 -0.080882625913715353 0 0.0033836725211018335 -0.08179261606286907 0 0.0037575599401360902 -0.080629132535329398 0 0.0027977492586766595 -0.080882625913715353 0 0.0037575599401360902 -0.080629132535329398 0 0.0032747438809007635 -0.079975153331783719 0 0.0037575599401360902 -0.080629132535329398 0 0.0038371760573896871 -0.079930062981320313 0 0.0032747438809007635 -0.079975153331783719 0 0.0038371760573896871 -0.079930062981320313 0 0.0032747438809007635 -0.079975153331783719 0 0.003891172763663177 -0.079479619665109122 0 0.0023276370062273199 -0.079202242406329407 0 0.0017679575270558958 -0.078716137543564227 0 0.0043836240806800876 -0.079763440760889537 0 0.0026736618184697151 -0.077375484139121375 0 0.005583198587813666 -0.077348671859283999 0 0.0038371760573896871 -0.079930062981320313 0 0.0043836240806800876 -0.079763440760889537 0 0.003891172763663177 -0.079479619665109122 0 0.0049871494624257242 -0.075875376249015011 0 0.0036457496163785088 -0.075102536413326662 0 0.0060505308504529157 -0.074825647010130905 0 0.0049871494624257242 -0.075875376249015011 0 0.0026736618184697151 -0.077375484139121375 0 0.0036457496163785088 -0.075102536413326662 0 0.0049871494624257242 -0.075875376249015011 0 0.0026736618184697151 -0.077375484139121375 0 0.005583198587813666 -0.077348671859283999 0 0.0032747438809007635 -0.079975153331783719 0 0.003891172763663177 -0.079479619665109122 0 0.0033940016559022043 -0.078769648720849739 0 0.0026736618184697151 -0.077375484139121375 0 0.001194723369027678 -0.075252082278710081 0 0.0036457496163785088 -0.075102536413326662 0 0.0017679575270558958 -0.078716137543564227 0 0.00040282469361914604 -0.077760504990664198 0 0.00040282469361914604 -0.077760504990664198 0 0.00031338496965325341 -0.069826901596445057 0 -0.001549671986923399 -0.073779357333343135 0 0.00058083706263518194 -0.071804619560803737 0 -0.0013282365404780831 -0.071798681360687414 0 0.0036457496163785088 -0.075102536413326662 0 0.0040276599916716452 -0.072623697291701456 0 0.0060505308504529157 -0.074825647010130905 0 0.001194723369027678 -0.075252082278710081 0 0.0036457496163785088 -0.075102536413326662 0 0.0040276599916716452 -0.072623697291701456 0 0.00058083706263518194 -0.071804619560803737 0 0.00101176670330133 -0.070084147911533307 0 -0.00070988545470721193 -0.069982560752450365 0 0.0017884199279717579 -0.0685306597324149 0 0.00101176670330133 -0.070084147911533307 0 -0.00070988545470721193 -0.069982560752450365 0 -0.00036440458932190272 -0.065287105308922663 0 -0.0010651544392142242 -0.073926535127395304 0 0.00028037298904340119 -0.084708373227131359 0 0.0002657628846050947 -0.084738365868312515 0 0.0002627591166222134 -0.084759329882020923 0 0.00025058896600698983 -0.084758073578357365 0 0.0002627591166222134 -0.084759329882020923 0 0.00023792918273670525 -0.084783977982212141 0 0.0002657628846050947 -0.084738365868312515 0 0.00025058896600698983 -0.084758073578357365 0 0.0002627591166222134 -0.084759329882020923 0 -0.00070988545470721193 -0.069982560752450365 0 -0.0013282365404780831 -0.071798681360687414 0 -0.0031953934656648634 -0.071425044214986869 0 0.00058083706263518194 -0.071804619560803737 0 -0.00070988545470721193 -0.069982560752450365 0 -0.0013282365404780831 -0.071798681360687414 0 -0.0010651544392142242 -0.073926535127395304 0 0.00038562575715385405 -0.078800340096770824 0 0.0002627591166222134 -0.084759329882020923 0 0.00023130814187760185 -0.084800259853432147 0 0.00023792918273670525 -0.084783977982212141 0 0.00023130814187760185 -0.084800259853432147 0 0.00023792918273670525 -0.084783977982212141 0 0.00021142055910103379 -0.084813622806404629 0 0.00022127959112580117 -0.08475201039312695 0 0.00023792918273670525 -0.084783977982212141 0 0.00021142055910103379 -0.084813622806404629 0 0.00038562575715385405 -0.078800340096770824 0 -0.0004282470582532021 -0.082206175880754476 0 0.00026316610794538007 -0.084887403370260323 0 0.00015880196602192201 -0.084955926315287866 0 0.0001567969558370135 -0.084884916811486827 0 0.00026316610794538007 -0.084887403370260323 0 0.00021142055910103379 -0.084813622806404629 0 0.0001567969558370135 -0.084884916811486827 0 0.00038562575715385405 -0.078800340096770824 0 0.0010667959077353202 -0.08047065439645755 0 0.00043928648063234555 -0.084482627541737562 0 0.00040326040265077862 -0.084645955507526099 0 0.00028015536350428909 -0.084593882945060372 0 0.00040326040265077862 -0.084645955507526099 0 0.00028071780984154315 -0.084717486762920832 0 0.00028015536350428909 -0.084593882945060372 0 0.00040282469361914604 -0.077760504990664198 0 0.00038562575715385405 -0.078800340096770824 0 -0.001549671986923399 -0.073779357333343135 0 -0.0013282365404780831 -0.071798681360687414 0 -0.0031953934656648634 -0.071425044214986869 0 0.00056222485867095991 -0.084657240894558311 0 0.00043928648063234555 -0.084482627541737562 0 0.00040326040265077862 -0.084645955507526099 0 0.0024239136957059288 -0.079697393903022509 0 0.0032747438809007635 -0.079975153331783719 0 0.0033940016559022043 -0.078769648720849739 0 0.00043095244298631583 -0.080757478758160653 0 0.00040282469361914604 -0.077760504990664198 0 0.00040178900477050658 -0.084807596894424894 0 0.00056222485867095991 -0.084657240894558311 0 0.00040326040265077862 -0.084645955507526099 0 0.00040178900477050658 -0.084807596894424894 0 0.00040326040265077862 -0.084645955507526099 0 0.00028071780984154315 -0.084717486762920832 0 0.00018044342120012818 -0.084828266483641238 0 0.00040178900477050658 -0.084807596894424894 0 0.00028071780984154315 -0.084717486762920832 0 0.00018044342120012818 -0.084828266483641238 0 0.00028071780984154315 -0.084717486762920832 0 0.00014122605303332423 -0.084716210451917115 0 0.00018044342120012818 -0.084828266483641238 0 0.00014122605303332423 -0.084716210451917115 0 9.0356316715288829e-05 -0.084814465701440828 0 7.2718776253250973e-05 -0.085000909616998632 0 8.9022417445395338e-05 -0.084921162723202298 0 2.3663697778030333e-05 -0.084972888140406669 0 -0.00033013445228074784 -0.083698046338445506 0 -0.0004282470582532021 -0.082206175880754476 0 0.00028071780984154315 -0.084717486762920832 0 0.00014122605303332423 -0.084716210451917115 0 0.00028015536350428909 -0.084593882945060372 0 7.2718776253250973e-05 -0.085000909616998632 0 0.00015880196602192201 -0.084955926315287866 0 8.9022417445395338e-05 -0.084921162723202298 0 0.00015880196602192201 -0.084955926315287866 0 0.0001567969558370135 -0.084884916811486827 0 8.9022417445395338e-05 -0.084921162723202298 0 0.00012386244235716983 -0.084801915589800089 0 0.00021142055910103379 -0.084813622806404629 0 0.0001567969558370135 -0.084884916811486827 0 0.00012386244235716983 -0.084801915589800089 0 0.0001567969558370135 -0.084884916811486827 0 8.9022417445395338e-05 -0.084921162723202298 0 9.8048605332000597e-05 -0.084876875432442642 0 4.7212333829132436e-05 -0.084914628698938663 0 0.00012386244235716983 -0.084801915589800089 0 8.9022417445395338e-05 -0.084921162723202298 0 3.3852143800899886e-05 -0.084892893645346065 0 8.9022417445395338e-05 -0.084921162723202298 0 3.3852143800899886e-05 -0.084892893645346065 0 2.3663697778030333e-05 -0.084972888140406669 0 3.3852143800899886e-05 -0.084892893645346065 0 -1.3785660555514714e-06 -0.084995043240720047 0 2.3663697778030333e-05 -0.084972888140406669 0 -1.441224124480852e-08 -0.084999954863759317 0 -6.2275191819641991e-07 -0.084989697289347216 0 -5.5983598497740296e-09 -0.084999927171124423 0 7.6043650932663138e-06 -0.084985822443375325 0 -6.2275191819641991e-07 -0.084989697289347216 0 -1.3785660555514714e-06 -0.084995043240720047 0 4.7212333829132436e-05 -0.084914628698938663 0 2.7292995882980034e-05 -0.084932119779254717 0 -6.2275191819641991e-07 -0.084989697289347216 0 -1.3785660555514714e-06 -0.084995043240720047 0 -5.5983598497740296e-09 -0.084999927171124423 0 -1.3785660555514714e-06 -0.084995043240720047 0 -5.5983598497740296e-09 -0.084999927171124423 0 3.2061337881706666e-09 -0.084999984556124147 0 -1.3785660555514714e-06 -0.084995043240720047 0 3.2061337881706666e-09 -0.084999984556124147 0 2.3663697778030333e-05 -0.084972888140406669 0 3.2061337881706666e-09 -0.084999984556124147 0 2.3663697778030333e-05 -0.084972888140406669 0 1.8905847591115173e-05 -0.085011606260482389 0 7.2718776253250973e-05 -0.085000909616998632 0 2.3663697778030333e-05 -0.084972888140406669 0 1.8905847591115173e-05 -0.085011606260482389 0 0.00014122605303332423 -0.084716210451917115 0 9.0356316715288829e-05 -0.084814465701440828 0 4.1373086936190416e-05 -0.084852675499743291 0 -0.00033013445228074784 -0.083698046338445506 0 -0.00014796453008935852 -0.084472552760008632 0 1.0172908888209899e-08 -0.085000036052145178 0 3.2061337881706666e-09 -0.084999984556124147 0 1.8905847591115173e-05 -0.085011606260482389 0 -0.0021334337974194383 -0.048134420613211513 0 -0.0063942661994392169 -0.047262909411988366 0 -0.0065835448465372702 -0.053141946334497731 0 -0.0021334337974194383 -0.048134420613211513 0 0.00080340835004117175 -0.053108969083637304 0 -0.0065835448465372702 -0.053141946334497731 0 -0.0063942661994392169 -0.047262909411988366 0 -0.0065835448465372702 -0.053141946334497731 0 -0.010760846260195229 -0.046982647972311428 0 0.00090960900151074956 -0.063332551451223254 0 -0.00058256040687134389 -0.059685486525245364 0 -0.0063942661994392169 -0.047262909411988366 0 -0.010760846260195229 -0.046982647972311428 0 -0.0084968515708027971 -0.042668990340045627 0 -0.0063942661994392169 -0.047262909411988366 0 -0.004725153955231761 -0.045527617871296333 0 -0.0084968515708027971 -0.042668990340045627 0 -0.004725153955231761 -0.045527617871296333 0 -0.0018377543865791858 -0.044096027226982741 0 -0.0084968515708027971 -0.042668990340045627 0 -0.0021334337974194383 -0.048134420613211513 0 -0.0063942661994392169 -0.047262909411988366 0 -0.004725153955231761 -0.045527617871296333 0 -0.0021334337974194383 -0.048134420613211513 0 -0.004725153955231761 -0.045527617871296333 0 -0.0018377543865791858 -0.044096027226982741 0 -0.0022832441790177006 -0.046849613038432582 0 0.00041221787559499195 -0.046846193672377259 0 -0.0021334337974194383 -0.048134420613211513 0 -0.0018377543865791858 -0.044096027226982741 0 0.0049485970161656468 -0.045475495253536738 0 0.0049485970161656468 -0.045475495253536738 0 0.00080340835004117175 -0.053108969083637304 0 0.0076170617563616231 -0.053350587784706083 0 -0.0021334337974194383 -0.048134420613211513 0 0.0049485970161656468 -0.045475495253536738 0 0.00080340835004117175 -0.053108969083637304 0 0.00080340835004117175 -0.053108969083637304 0 0.0036958050866095389 -0.058787574454276931 0 -0.0021442046471041179 -0.059627137384093871 0 0.00080340835004117175 -0.053108969083637304 0 0.0076170617563616231 -0.053350587784706083 0 0.0036958050866095389 -0.058787574454276931 0 0.0034101770531108884 -0.065955967615974304 0 0.0036958050866095389 -0.058787574454276931 0 0.0090425870380378744 -0.060322916079086873 0 0.0076170617563616231 -0.053350587784706083 0 0.0036958050866095389 -0.058787574454276931 0 0.0090425870380378744 -0.060322916079086873 0 0.0034101770531108884 -0.065955967615974304 0 0.0036958050866095389 -0.058787574454276931 0 -0.0021442046471041179 -0.059627137384093871 0 0.0070200713096113827 -0.074238960221277045 0 0.0069537367280859165 -0.07400816226131085 0 0.0066528786244596958 -0.074150301563384799 0 0.0069537367280859165 -0.07400816226131085 0 0.0064207446875538801 -0.074206660727335338 0 0.0066528786244596958 -0.074150301563384799 0 0.0029987825379791757 -0.066722015158703976 0 0.00090960900151074956 -0.063332551451223254 0 0.00080340835004117175 -0.053108969083637304 0 -0.0021442046471041179 -0.059627137384093871 0 -0.0065835448465372702 -0.053141946334497731 0 0.0064207446875538801 -0.074206660727335338 0 0.0066528786244596958 -0.074150301563384799 0 0.0065440880481537796 -0.074218584468253301 0 0.0066528786244596958 -0.074150301563384799 0 0.006488264471816471 -0.07431853989145723 0 0.0065440880481537796 -0.074218584468253301 0 0.006488264471816471 -0.07431853989145723 0 0.0065440880481537796 -0.074218584468253301 0 0.0064298203767707467 -0.074319055517573895 0 0.0066989367040333116 -0.074281521239088238 0 0.0065440880481537796 -0.074218584468253301 0 0.0064298203767707467 -0.074319055517573895 0 0.0066989367040333116 -0.074281521239088238 0 0.0065440880481537796 -0.074218584468253301 0 0.0065577013745716211 -0.074551593502360861 0 0.0064207446875538801 -0.074206660727335338 0 0.0065440880481537796 -0.074218584468253301 0 0.0065577013745716211 -0.074551593502360861 0 0.0051484462367559942 -0.078020520928474432 0 0.0047976456420733673 -0.07525203976165934 0 0.0061810175673313464 -0.074254788898529975 0 0.0062645401611745163 -0.074386237505934108 0 0.0062623996669336768 -0.074294669370605526 0 0.0062645401611745163 -0.074386237505934108 0 0.0064298203767707467 -0.074319055517573895 0 0.0062623996669336768 -0.074294669370605526 0 0.0064298203767707467 -0.074319055517573895 0 0.0063524124612796135 -0.074223521127809361 0 0.0062623996669336768 -0.074294669370605526 0 0.0066989367040333116 -0.074281521239088238 0 0.0064298203767707467 -0.074319055517573895 0 0.0063524124612796135 -0.074223521127809361 0 0.0068912052413353797 -0.075893946837080825 0 0.0067766057395684184 -0.076266763925613587 0 0.0054440695024173241 -0.07768090433119991 0 0.0067766057395684184 -0.076266763925613587 0 0.0061858534912311016 -0.074244473861508439 0 0.0063524124612796135 -0.074223521127809361 0 0.0062623996669336768 -0.074294669370605526 0 0.0090159614247755197 -0.073936627666801688 0 0.0078969950025913494 -0.074067117200600885 0 0.0083922730410835138 -0.074996512448565866 0 0.0054440695024173241 -0.07768090433119991 0 0.0064716301160248485 -0.077114025011738613 0 0.0066989367040333116 -0.074281521239088238 0 0.0078969950025913494 -0.074067117200600885 0 0.0073120078927587815 -0.074723094343285446 0 0.0083922730410835138 -0.074996512448565866 0 0.0073120078927587815 -0.074723094343285446 0 0.0076774543164479323 -0.075341474832891317 0 0.0078969950025913494 -0.074067117200600885 0 0.0083922730410835138 -0.074996512448565866 0 0.0073120078927587815 -0.074723094343285446 0 0.0083922730410835138 -0.074996512448565866 0 0.0076774543164479323 -0.075341474832891317 0 0.0076796391639167285 -0.076251199920553472 0 0.0073120078927587815 -0.074723094343285446 0 0.0076774543164479323 -0.075341474832891317 0 0.0070599144998089126 -0.075207871674597221 0 0.0074762194399735611 -0.075754724597651632 0 0.0076774543164479323 -0.075341474832891317 0 0.0070599144998089126 -0.075207871674597221 0 0.0074762194399735611 -0.075754724597651632 0 0.0076774543164479323 -0.075341474832891317 0 0.0076796391639167285 -0.076251199920553472 0 0.0064716301160248485 -0.077114025011738613 0 0.0068399264631729692 -0.076788190628097677 0 0.0043836240806800876 -0.079763440760889537 0 0.0062130294348960273 -0.079892859938185554 0 0.005583198587813666 -0.077348671859283999 0 0.0062130294348960273 -0.079892859938185554 0 0.005583198587813666 -0.077348671859283999 0 0.0076796391639167285 -0.076251199920553472 0 0.0064207446875538801 -0.074206660727335338 0 0.0065577013745716211 -0.074551593502360861 0 0.0062813193276620985 -0.074935650841519846 0 0.0066989367040333116 -0.074281521239088238 0 0.0073120078927587815 -0.074723094343285446 0 0.0065577013745716211 -0.074551593502360861 0 0.0073120078927587815 -0.074723094343285446 0 0.0065577013745716211 -0.074551593502360861 0 0.0070599144998089126 -0.075207871674597221 0 0.0070599144998089126 -0.075207871674597221 0 0.0062813193276620985 -0.074935650841519846 0 0.0068922223508224656 -0.076074571239288222 0 0.0074762194399735611 -0.075754724597651632 0 0.0070599144998089126 -0.075207871674597221 0 0.0072832179034164508 -0.07579010339616421 0 -0.00058256040687134389 -0.059685486525245364 0 -0.001598629854318128 -0.054453731150663924 0 0.0065577013745716211 -0.074551593502360861 0 0.0070599144998089126 -0.075207871674597221 0 0.0062813193276620985 -0.074935650841519846 0 -0.001598629854318128 -0.054453731150663924 0 -0.0053199181848008117 -0.048417153033466998 0 -0.0072071390330959448 -0.042254569730526929 0 -0.0058728580963944453 -0.041513951706915284 0 -0.0050413392104999948 -0.042798627580310243 0 -0.010760846260195229 -0.046982647972311428 0 -0.014866630475774708 -0.04118207937653804 0 -0.0084968515708027971 -0.042668990340045627 0 -0.001598629854318128 -0.054453731150663924 0 0.0012900927564040905 -0.056666745982881468 0 0.0070599144998089126 -0.075207871674597221 0 0.0072832179034164508 -0.07579010339616421 0 0.0068922223508224656 -0.076074571239288222 0 0.0072832179034164508 -0.07579010339616421 0 0.0068922223508224656 -0.076074571239288222 0 0.0075845898059122771 -0.076043851731990089 0 -0.0015603109386019322 -0.055731053009386432 0 -0.0014290419558214589 -0.05590999571193854 0 -0.0012457268141600759 -0.055805975352486437 0 -0.0072071390330959448 -0.042254569730526929 0 -0.0080006785465058187 -0.041163746854391121 0 -0.0058728580963944453 -0.041513951706915284 0 -0.0022647180541341084 -0.05429238201724735 0 -0.0024597929068474931 -0.047533625670444168 0 -0.0072794360468381551 -0.040967402280356731 0 -0.0057312276200251061 -0.040024409647494319 0 -0.0069596159298636693 -0.039712677786133757 0 -0.001598629854318128 -0.054453731150663924 0 -0.0022647180541341084 -0.05429238201724735 0 -0.0080006785465058187 -0.041163746854391121 0 -0.0058728580963944453 -0.041513951706915284 0 -0.0063105557274243133 -0.040126561166752332 0 -0.0058728580963944453 -0.041513951706915284 0 -0.0063105557274243133 -0.040126561166752332 0 -0.0049352528721612835 -0.040518936303369259 0 0.005583198587813666 -0.077348671859283999 0 0.0066355038849566835 -0.076076718617357403 0 0.0076796391639167285 -0.076251199920553472 0 0.0049871494624257242 -0.075875376249015011 0 0.0066355038849566835 -0.076076718617357403 0 0.0060505308504529157 -0.074825647010130905 0 0.0049871494624257242 -0.075875376249015011 0 0.005583198587813666 -0.077348671859283999 0 0.0066355038849566835 -0.076076718617357403 0 0.0066355038849566835 -0.076076718617357403 0 0.0075973498979992763 -0.075821823460722484 0 0.0060505308504529157 -0.074825647010130905 0 0.0068922223508224656 -0.076074571239288222 0 0.007624526382079176 -0.075972520059062049 0 0.0075845898059122771 -0.076043851731990089 0 0.0066355038849566835 -0.076076718617357403 0 0.0072682882844418055 -0.076054574664236332 0 0.0075973498979992763 -0.075821823460722484 0 0.0072682882844418055 -0.076054574664236332 0 0.0075973498979992763 -0.075821823460722484 0 0.0075845898059122771 -0.076043851731990089 0 0.0075973498979992763 -0.075821823460722484 0 0.007624526382079176 -0.075972520059062049 0 0.0075845898059122771 -0.076043851731990089 0 0.0012778663057880868 -0.056724940963626486 0 0.0012900927564040905 -0.056666745982881468 0 0.0066355038849566835 -0.076076718617357403 0 0.0072682882844418055 -0.076054574664236332 0 0.0076796391639167285 -0.076251199920553472 0 0.0072682882844418055 -0.076054574664236332 0 0.0076796391639167285 -0.076251199920553472 0 0.0075845898059122771 -0.076043851731990089 0 0.0074762194399735611 -0.075754724597651632 0 0.0076796391639167285 -0.076251199920553472 0 0.0075845898059122771 -0.076043851731990089 0 0.0074762194399735611 -0.075754724597651632 0 0.0072832179034164508 -0.07579010339616421 0 0.0075845898059122771 -0.076043851731990089 0 0.0075973498979992763 -0.075821823460722484 0 0.0078255727597659839 -0.075715612194482099 0 0.0060505308504529157 -0.074825647010130905 0 -0.0022647180541341084 -0.05429238201724735 0 0.0012900927564040905 -0.056666745982881468 0 0.0099101220804562948 -0.074304265638141853 0 0.0082958680414892023 -0.075266793662422615 0 0.0084440496709594307 -0.074203662657193081 0 0.0099101220804562948 -0.074304265638141853 0 0.0084440496709594307 -0.074203662657193081 0 0.0080391267083633703 -0.073117714838537004 0 0.0099101220804562948 -0.074304265638141853 0 0.0080391267083633703 -0.073117714838537004 0 0.0083995460647520066 -0.072188328557740891 0 -0.0022647180541341084 -0.05429238201724735 0 -0.0018598374242211079 -0.05483639530310002 0 0.0084440496709594307 -0.074203662657193081 0 0.0080391267083633703 -0.073117714838537004 0 0.0075296939981199041 -0.074116369691704681 0 0.0082958680414892023 -0.075266793662422615 0 0.0084440496709594307 -0.074203662657193081 0 0.0075296939981199041 -0.074116369691704681 0 0.0040276599916716452 -0.072623697291701456 0 0.0064294065558457786 -0.073327472133980429 0 0.0060505308504529157 -0.074825647010130905 0 0.0082958680414892023 -0.075266793662422615 0 0.0075296939981199041 -0.074116369691704681 0 0.0060505308504529157 -0.074825647010130905 0 0.0012900927564040905 -0.056666745982881468 0 0.0040252935489770011 -0.059100368341998374 0 0.0075296939981199041 -0.074116369691704681 0 0.0064294065558457786 -0.073327472133980429 0 0.0060505308504529157 -0.074825647010130905 0 0.0080391267083633703 -0.073117714838537004 0 0.0075296939981199041 -0.074116369691704681 0 0.0064294065558457786 -0.073327472133980429 0 0.00031338496965325341 -0.069826901596445057 0 -0.00074257861852486797 -0.060000284111960359 0 0.0040276599916716452 -0.072623697291701456 0 0.0064657368564504302 -0.071946381245526658 0 0.006844607752795529 -0.069987812295717336 0 0.0040276599916716452 -0.072623697291701456 0 0.0064294065558457786 -0.073327472133980429 0 0.0064657368564504302 -0.071946381245526658 0 0.00058083706263518194 -0.071804619560803737 0 0.00101176670330133 -0.070084147911533307 0 0.0027198689124639953 -0.06981719306282054 0 0.0080391267083633703 -0.073117714838537004 0 0.0064294065558457786 -0.073327472133980429 0 0.0064657368564504302 -0.071946381245526658 0 0.0064657368564504302 -0.071946381245526658 0 0.0084151314752615204 -0.072175305369444734 0 0.006844607752795529 -0.069987812295717336 0 -0.0018598374242211079 -0.05483639530310002 0 -0.0022826043723049045 -0.047169125336602481 0 -0.0082293165163248409 -0.039648626705858239 0 -0.0076152496955935343 -0.038090086304565784 0 -0.0069596159298636693 -0.039712677786133757 0 -0.0018598374242211079 -0.05483639530310002 0 -0.00074257861852486797 -0.060000284111960359 0 0.0080391267083633703 -0.073117714838537004 0 0.0064657368564504302 -0.071946381245526658 0 0.0084151314752615204 -0.072175305369444734 0 -0.0019337450384252963 -0.055885463970368192 0 -0.0018598374242211079 -0.05483639530310002 0 -0.0018840557818648523 -0.043123114293646868 0 -0.00074257861852486797 -0.060000284111960359 0 -0.0010751626698881889 -0.048149212315293469 0 -0.0017022824718287528 -0.05177475596258508 0 -0.0055474044638187245 -0.052282491153096862 0 -0.0032073057757827758 -0.055527361443248338 0 -0.0017022824718287528 -0.05177475596258508 0 -0.0055474044638187245 -0.052282491153096862 0 0.0017884199279717579 -0.0685306597324149 0 0.00101176670330133 -0.070084147911533307 0 0.0027198689124639953 -0.06981719306282054 0 -0.0030610538667762591 -0.051328695981562894 0 -0.0060197142362084285 -0.052461661153719655 0 -0.0040090988693787175 -0.055246077031782595 0 -0.00036440458932190272 -0.065287105308922663 0 -0.00074257861852486797 -0.060000284111960359 0 -0.0024597929068474931 -0.047533625670444168 0 -0.0021824169445764114 -0.044060259918911132 0 -0.0057312276200251061 -0.040024409647494319 0 -0.0052075366191339763 -0.03867986069737165 0 -0.0042020881205565097 -0.039075498426365214 0 -0.0057312276200251061 -0.040024409647494319 0 -0.006334293083615614 -0.038675439440607987 0 -0.0052075366191339763 -0.03867986069737165 0 -0.0057312276200251061 -0.040024409647494319 0 -0.0069596159298636693 -0.039712677786133757 0 -0.006334293083615614 -0.038675439440607987 0 -0.0076152496955935343 -0.038090086304565784 0 -0.0069596159298636693 -0.039712677786133757 0 -0.006334293083615614 -0.038675439440607987 0 -0.0072794360468381551 -0.040967402280356731 0 -0.0082293165163248409 -0.039648626705858239 0 -0.0069596159298636693 -0.039712677786133757 0 -0.0076152496955935343 -0.038090086304565784 0 -0.006334293083615614 -0.038675439440607987 0 -0.0066830142041766011 -0.037726020572791029 0 -0.0070009872612288295 -0.036550751099542748 0 -0.0076152496955935343 -0.038090086304565784 0 -0.0066830142041766011 -0.037726020572791029 0 -0.006334293083615614 -0.038675439440607987 0 -0.0066830142041766011 -0.037726020572791029 0 -0.0057090752821766623 -0.037576960937453323 0 -0.0057090752821766623 -0.037576960937453323 0 -0.0052075366191339763 -0.03867986069737165 0 -0.0038638417052580484 -0.037552726698617728 0 -0.006334293083615614 -0.038675439440607987 0 -0.0057090752821766623 -0.037576960937453323 0 -0.0052075366191339763 -0.03867986069737165 0 -0.0038638417052580484 -0.037552726698617728 0 -0.0027042396061402094 -0.038132112687981966 0 -0.0042020881205565097 -0.039075498426365214 0 -0.0052075366191339763 -0.03867986069737165 0 -0.0038638417052580484 -0.037552726698617728 0 -0.0042020881205565097 -0.039075498426365214 0 -0.0021759613865824376 -0.037167414036265778 0 -0.0038638417052580484 -0.037552726698617728 0 -0.0027042396061402094 -0.038132112687981966 0 -0.0018394856641999128 -0.042878864309438894 0 -0.0021824169445764114 -0.044060259918911132 0 -0.0027042396061402094 -0.038132112687981966 0 -0.0044949552759042215 -0.039089595219010904 0 -0.0018592010902688753 -0.040412344430640061 0 -0.0063105557274243133 -0.040126561166752332 0 -0.0044949552759042215 -0.039089595219010904 0 -0.0049352528721612835 -0.040518936303369259 0 -0.0044949552759042215 -0.039089595219010904 0 -0.0049352528721612835 -0.040518936303369259 0 -0.0035842535947358044 -0.041338676524156563 0 -0.0058728580963944453 -0.041513951706915284 0 -0.0049352528721612835 -0.040518936303369259 0 -0.0035842535947358044 -0.041338676524156563 0 -0.0044949552759042215 -0.039089595219010904 0 -0.0035842535947358044 -0.041338676524156563 0 -0.0018592010902688753 -0.040412344430640061 0 -0.0035842535947358044 -0.041338676524156563 0 -0.0027567891171193263 -0.04321112749439484 0 -0.0018592010902688753 -0.040412344430640061 0 -0.0022832441790177006 -0.046849613038432582 0 -0.0053199181848008117 -0.048417153033466998 0 -0.0017105683239888355 -0.040126062751521578 0 -0.00057130878109714137 -0.037113146289262086 0 -0.0022683619176655113 -0.043488429536428695 0 -0.0027567891171193263 -0.04321112749439484 0 -0.0050413392104999948 -0.042798627580310243 0 -0.0035842535947358044 -0.041338676524156563 0 -0.0027567891171193263 -0.04321112749439484 0 -0.0050413392104999948 -0.042798627580310243 0 -0.0058728580963944453 -0.041513951706915284 0 -0.0035842535947358044 -0.041338676524156563 0 -0.0050413392104999948 -0.042798627580310243 0 0.0049485970161656468 -0.045475495253536738 0 0.0020934107903626811 -0.039944704219523106 0 0.0083697730690423869 -0.038360225436756989 0 -0.0022683619176655113 -0.043488429536428695 0 0.0049485970161656468 -0.045475495253536738 0 0.0020934107903626811 -0.039944704219523106 0 -0.0027567891171193263 -0.04321112749439484 0 0.0020934107903626811 -0.039944704219523106 0 -0.00037834847096776243 -0.034582128804095121 0 -0.0022683619176655113 -0.043488429536428695 0 -0.0027567891171193263 -0.04321112749439484 0 0.0020934107903626811 -0.039944704219523106 0 0.0020934107903626811 -0.039944704219523106 0 -0.00037834847096776243 -0.034582128804095121 0 0.0048707813789076832 -0.034639650887049768 0 0.0020934107903626811 -0.039944704219523106 0 0.0048707813789076832 -0.034639650887049768 0 0.0083697730690423869 -0.038360225436756989 0 0.0048707813789076832 -0.034639650887049768 0 0.0088472060796110381 -0.031119576443922416 0 0.0083697730690423869 -0.038360225436756989 0 0.0048707813789076832 -0.034639650887049768 0 0.0025548324437604151 -0.025720470996419022 0 0.0088472060796110381 -0.031119576443922416 0 -0.0027042396061402094 -0.038132112687981966 0 -0.0018592010902688753 -0.040412344430640061 0 -0.00093622951771589469 -0.037830721613293414 0 -0.00037834847096776243 -0.034582128804095121 0 0.0048707813789076832 -0.034639650887049768 0 0.0025548324437604151 -0.025720470996419022 0 -0.00057130878109714137 -0.037113146289262086 0 0.0016745183902777329 -0.031902155236502271 0 -0.0021759613865824376 -0.037167414036265778 0 -0.0027042396061402094 -0.038132112687981966 0 -0.00093622951771589469 -0.037830721613293414 0 0.0025548324437604151 -0.025720470996419022 0 0.0097422702532442857 -0.025653253850508491 0 0.0088472060796110381 -0.031119576443922416 0 0.0082649584080869941 -0.021318728007824445 0 0.0025548324437604151 -0.025720470996419022 0 0.0097422702532442857 -0.025653253850508491 0 0.0097422702532442857 -0.025653253850508491 0 0.013756465470414746 -0.024926674424178705 0 0.013551551207042146 -0.029952371582901486 0 0.01172007423639768 -0.021182757063478958 0 0.0097422702532442857 -0.025653253850508491 0 0.013756465470414746 -0.024926674424178705 0 0.01712833655155924 -0.021546487255935148 0 0.013756465470414746 -0.024926674424178705 0 0.017797959171285044 -0.027711309717152386 0 0.013756465470414746 -0.024926674424178705 0 0.013551551207042146 -0.029952371582901486 0 0.017797959171285044 -0.027711309717152386 0 0.013551551207042146 -0.029952371582901486 0 0.017070413522812262 -0.032793807917736909 0 0.017797959171285044 -0.027711309717152386 0 0.013551551207042146 -0.029952371582901486 0 0.017070413522812262 -0.032793807917736909 0 0.01394028221205601 -0.036702210590206577 0 0.0097422702532442857 -0.025653253850508491 0 0.013551551207042146 -0.029952371582901486 0 0.0088472060796110381 -0.031119576443922416 0 0.013551551207042146 -0.029952371582901486 0 0.0088472060796110381 -0.031119576443922416 0 0.01394028221205601 -0.036702210590206577 0 0.01712833655155924 -0.021546487255935148 0 0.023109878208601387 -0.025108468672171622 0 0.017797959171285044 -0.027711309717152386 0 0.023109878208601387 -0.025108468672171622 0 0.017797959171285044 -0.027711309717152386 0 0.022126196151195744 -0.03180343986385991 0 0.017070413522812262 -0.032793807917736909 0 0.017797959171285044 -0.027711309717152386 0 0.022126196151195744 -0.03180343986385991 0 0.022126196151195744 -0.03180343986385991 0 0.026749233216034767 -0.034218108904173879 0 0.028280756253832879 -0.029780479332203305 0 0.023109878208601387 -0.025108468672171622 0 0.022126196151195744 -0.03180343986385991 0 0.028280756253832879 -0.029780479332203305 0 0.020892444340544103 -0.038962937151137821 0 0.028673400941144716 -0.039302055031291486 0 0.026749233216034767 -0.034218108904173879 0 0.022126196151195744 -0.03180343986385991 0 0.020892444340544103 -0.038962937151137821 0 0.026749233216034767 -0.034218108904173879 0 0.017070413522812262 -0.032793807917736909 0 0.022126196151195744 -0.03180343986385991 0 0.020892444340544103 -0.038962937151137821 0 0.017070413522812262 -0.032793807917736909 0 0.020892444340544103 -0.038962937151137821 0 0.01394028221205601 -0.036702210590206577 0 0.020892444340544103 -0.038962937151137821 0 0.014257170466158564 -0.042341571621392432 0 0.019388434623514621 -0.044371908379023758 0 0.020892444340544103 -0.038962937151137821 0 0.026459005730718566 -0.044555859351401814 0 0.028673400941144716 -0.039302055031291486 0 0.020892444340544103 -0.038962937151137821 0 0.019388434623514621 -0.044371908379023758 0 0.026459005730718566 -0.044555859351401814 0 0.0049485970161656468 -0.045475495253536738 0 0.0083697730690423869 -0.038360225436756989 0 0.014257170466158564 -0.042341571621392432 0 0.0088472060796110381 -0.031119576443922416 0 0.0083697730690423869 -0.038360225436756989 0 0.01394028221205601 -0.036702210590206577 0 0.020892444340544103 -0.038962937151137821 0 0.01394028221205601 -0.036702210590206577 0 0.014257170466158564 -0.042341571621392432 0 0.0083697730690423869 -0.038360225436756989 0 0.01394028221205601 -0.036702210590206577 0 0.014257170466158564 -0.042341571621392432 0 0.0049485970161656468 -0.045475495253536738 0 0.014257170466158564 -0.042341571621392432 0 0.012918809008212634 -0.048696362742399045 0 0.0049485970161656468 -0.045475495253536738 0 0.0076170617563616231 -0.053350587784706083 0 0.012918809008212634 -0.048696362742399045 0 0.0076170617563616231 -0.053350587784706083 0 0.012918809008212634 -0.048696362742399045 0 0.014778992052330631 -0.055033159139442636 0 0.012918809008212634 -0.048696362742399045 0 0.02064470181986661 -0.049752423425906793 0 0.014778992052330631 -0.055033159139442636 0 0.014257170466158564 -0.042341571621392432 0 0.012918809008212634 -0.048696362742399045 0 0.019388434623514621 -0.044371908379023758 0 0.012918809008212634 -0.048696362742399045 0 0.019388434623514621 -0.044371908379023758 0 0.02064470181986661 -0.049752423425906793 0 0.020077872737948785 -0.05054677223315196 0 0.023028043232603164 -0.047887616963576796 0 0.019388434623514621 -0.044371908379023758 0 0.02064470181986661 -0.049752423425906793 0 0.026459005730718566 -0.044555859351401814 0 0.025741092242167796 -0.052328842091312604 0 0.020398661996495645 -0.050131612184905937 0 0.026459005730718566 -0.044555859351401814 0 0.020077872737948785 -0.05054677223315196 0 0.014897791028853382 -0.055268927706630402 0 0.020398661996495645 -0.050131612184905937 0 0.021028019148419317 -0.056387974172457979 0 0.014830375973091201 -0.055623880183482445 0 0.025741092242167796 -0.052328842091312604 0 0.021028019148419317 -0.056387974172457979 0 0.028787844361280426 -0.058564280721511756 0 0.025741092242167796 -0.052328842091312604 0 0.020398661996495645 -0.050131612184905937 0 0.021028019148419317 -0.056387974172457979 0 0.021028019148419317 -0.056387974172457979 0 0.028787844361280426 -0.058564280721511756 0 0.022660038774952238 -0.062131223553809616 0 0.021028019148419317 -0.056387974172457979 0 0.016029203328313424 -0.063224571034249014 0 0.022660038774952238 -0.062131223553809616 0 0.021028019148419317 -0.056387974172457979 0 0.014830375973091201 -0.055623880183482445 0 0.016029203328313424 -0.063224571034249014 0 0.0095647855671113884 -0.060849779818416327 0 0.014830375973091201 -0.055623880183482445 0 0.016029203328313424 -0.063224571034249014 0 0.0097108246038532988 -0.060004500549176699 0 0.014897791028853382 -0.055268927706630402 0 0.0076170617563616231 -0.053350587784706083 0 0.0090425870380378744 -0.060322916079086873 0 0.014778992052330631 -0.055033159139442636 0 0.036582152456294814 -0.054302108766943795 0 0.037471134012743976 -0.059057559721889953 0 0.033955776175266655 -0.057446976614410727 0 0.036582152456294814 -0.054302108766943795 0 0.041585134212363414 -0.0541855199308479 0 0.037471134012743976 -0.059057559721889953 0 0.022402929716412282 -0.036199760545170247 0 0.023690264639928266 -0.041231842100780479 0 0.041010838245540894 -0.054308706366252221 0 0.040368066632348473 -0.055786711523916017 0 0.037471134012743976 -0.059057559721889953 0 0.014816735196214863 -0.031160641030494349 0 0.015249828827600289 -0.030597203212999042 0 0.015939859329362958 -0.0315861386884611 0 0.022402929716412282 -0.036199760545170247 0 0.020094059414763596 -0.028189476949964869 0 0.018550790143940184 -0.027375621011433825 0 0.019336543513472981 -0.026364936707412759 0 0.018859363065471813 -0.026277245960054416 0 0.014816735196214863 -0.031160641030494349 0 0.014804645353343322 -0.032023227290640006 0 0.015939859329362958 -0.0315861386884611 0 0.041010838245540894 -0.054308706366252221 0 0.040368066632348473 -0.055786711523916017 0 0.041010832087067746 -0.05693867782667679 0 0.022402929716412282 -0.036199760545170247 0 0.023562296272462629 -0.043072365952623509 0 0.023966735293693905 -0.043637472847069564 0 0.023562296272462629 -0.043072365952623509 0 0.041041726057129121 -0.056969816959620903 0 0.037471134012743976 -0.059057559721889953 0 0.040950360528474616 -0.064777542057552318 0 0.021525328855504903 -0.046412814698757791 0 0.022855071436108248 -0.048830556520033139 0 0.021480484337244705 -0.049891847654495003 0 0.040368066632348473 -0.055786711523916017 0 0.041041726057129121 -0.056969816959620903 0 0.037471134012743976 -0.059057559721889953 0 0.014804645353343322 -0.032023227290640006 0 0.015939859329362958 -0.0315861386884611 0 0.015771790141699726 -0.033805341089819488 0 0.023562296272462629 -0.043072365952623509 0 0.020955958371991337 -0.042168857439309204 0 0.023562296272462629 -0.043072365952623509 0 0.026013593245420262 -0.055989114414890288 0 0.037471134012743976 -0.059057559721889953 0 0.033955776175266655 -0.057446976614410727 0 0.035073951014882108 -0.063157795766197913 0 0.033955776175266655 -0.057446976614410727 0 0.028787844361280426 -0.058564280721511756 0 0.035073951014882108 -0.063157795766197913 0 0.025741092242167796 -0.052328842091312604 0 0.028787844361280426 -0.058564280721511756 0 0.032002564322842493 -0.051717929781837729 0 0.033955776175266655 -0.057446976614410727 0 0.028787844361280426 -0.058564280721511756 0 0.032002564322842493 -0.051717929781837729 0 0.036582152456294814 -0.054302108766943795 0 0.033955776175266655 -0.057446976614410727 0 0.032002564322842493 -0.051717929781837729 0 0.036582152456294814 -0.054302108766943795 0 0.032002564322842493 -0.051717929781837729 0 0.037051210048586906 -0.048430734415110165 0 0.032002564322842493 -0.051717929781837729 0 0.03289177358237505 -0.043960042746695044 0 0.037051210048586906 -0.048430734415110165 0 0.025741092242167796 -0.052328842091312604 0 0.032002564322842493 -0.051717929781837729 0 0.026459005730718566 -0.044555859351401814 0 0.032002564322842493 -0.051717929781837729 0 0.026459005730718566 -0.044555859351401814 0 0.03289177358237505 -0.043960042746695044 0 0.03289177358237505 -0.043960042746695044 0 0.037051210048586906 -0.048430734415110165 0 0.037385664792742197 -0.041180844543521278 0 0.037051210048586906 -0.048430734415110165 0 0.041868481101049793 -0.045177015529926846 0 0.037385664792742197 -0.041180844543521278 0 0.036582152456294814 -0.054302108766943795 0 0.041585134212363414 -0.0541855199308479 0 0.037051210048586906 -0.048430734415110165 0 0.041585134212363414 -0.0541855199308479 0 0.037051210048586906 -0.048430734415110165 0 0.041868481101049793 -0.045177015529926846 0 0.018550790143940184 -0.027375621011433825 0 0.018859363065471813 -0.026277245960054416 0 0.018592668844798783 -0.022381149057887139 0 0.022402929716412282 -0.036199760545170247 0 0.023606384365551611 -0.032042487398170061 0 0.018859363065471813 -0.026277245960054416 0 0.018592668844798783 -0.022381149057887139 0 0.021163051623665507 -0.023990542919738258 0 0.019336385758578208 -0.02636357170748125 0 0.018859363065471813 -0.026277245960054416 0 0.021163051623665507 -0.023990542919738258 0 0.020094059414763596 -0.028189476949964869 0 0.020076288932302521 -0.028180417917570064 0 0.018592668844798783 -0.022381149057887139 0 0.020801118052706413 -0.019534570510794897 0 0.020882167036072825 -0.02188382405120148 0 0.018592668844798783 -0.022381149057887139 0 0.018639833804326735 -0.017430937302075216 0 0.020801118052706413 -0.019534570510794897 0 0.041868481101049793 -0.045177015529926846 0 0.037385664792742197 -0.041180844543521278 0 0.04202809535745846 -0.036132803296964208 0 0.023606384365551611 -0.032042487398170061 0 0.019417095539939224 -0.018541659055985652 0 0.037385664792742197 -0.041180844543521278 0 0.036145458688185583 -0.035933778764279188 0 0.033652896230350234 -0.038521585806619504 0 0.037385664792742197 -0.041180844543521278 0 0.036145458688185583 -0.035933778764279188 0 0.04202809535745846 -0.036132803296964208 0 0.036145458688185583 -0.035933778764279188 0 0.04202809535745846 -0.036132803296964208 0 0.035897207185634085 -0.029991342743099687 0 0.0033200375456178639 0.0045842671632940939 0 0.0031782493275057072 0.0044696270269268491 0 0.0034886471021521514 0.0051724799558969968 0 0.019278484958403522 -0.017742716609151887 0 0.019417095539939224 -0.018541659055985652 0 0.0033200375456178639 0.0045842671632940939 0 0.0038432987835091744 0.0046597108151103335 0 0.0041630617178743945 0.0040495509565297624 0 0.0033200375456178639 0.0045842671632940939 0 0.0032944535144207145 0.0040189989618576614 0 0.0041630617178743945 0.0040495509565297624 0 0.019417095539939224 -0.018541659055985652 0 0.014081366028044728 -0.012916939989491586 0 0.0032944535144207145 0.0040189989618576614 0 0.0043251245064514299 0.0028451196832580019 0 0.0041630617178743945 0.0040495509565297624 0 0.026459005730718566 -0.044555859351401814 0 0.03289177358237505 -0.043960042746695044 0 0.028673400941144716 -0.039302055031291486 0 0.03289177358237505 -0.043960042746695044 0 0.028673400941144716 -0.039302055031291486 0 0.033652896230350234 -0.038521585806619504 0 0.03289177358237505 -0.043960042746695044 0 0.037385664792742197 -0.041180844543521278 0 0.033652896230350234 -0.038521585806619504 0 0.028673400941144716 -0.039302055031291486 0 0.033652896230350234 -0.038521585806619504 0 0.031770094701011387 -0.033850558410780315 0 0.036145458688185583 -0.035933778764279188 0 0.033652896230350234 -0.038521585806619504 0 0.031770094701011387 -0.033850558410780315 0 0.028673400941144716 -0.039302055031291486 0 0.031770094701011387 -0.033850558410780315 0 0.026749233216034767 -0.034218108904173879 0 0.031770094701011387 -0.033850558410780315 0 0.026749233216034767 -0.034218108904173879 0 0.028280756253832879 -0.029780479332203305 0 0.031770094701011387 -0.033850558410780315 0 0.028280756253832879 -0.029780479332203305 0 0.035897207185634085 -0.029991342743099687 0 0.036145458688185583 -0.035933778764279188 0 0.031770094701011387 -0.033850558410780315 0 0.035897207185634085 -0.029991342743099687 0 0.029863185402994593 -0.023683353511041002 0 0.028280756253832879 -0.029780479332203305 0 0.035897207185634085 -0.029991342743099687 0 0.018845536313596169 -0.011897448154084025 0 0.019326041511026723 -0.014306052389483367 0 0.009451413672976923 0.0019136251837574446 0 0.0042986918898075517 0.0056563078352167371 0 0.004706580725535931 0.0030930450161217103 0 0.029863185402994593 -0.023683353511041002 0 0.023109878208601387 -0.025108468672171622 0 0.028280756253832879 -0.029780479332203305 0 0.0036017915480832945 0.0050334106775368993 0 0.0034886471021521514 0.0051724799558969968 0 0.0026838475725284713 0.0051872614176961792 0 0.0036017915480832945 0.0050334106775368993 0 0.0035304457169871343 0.004892302788280161 0 0.0034886471021521514 0.0051724799558969968 0 0.0033200375456178639 0.0045842671632940939 0 0.0038432987835091744 0.0046597108151103335 0 0.0035304457169871343 0.004892302788280161 0 0.0036017915480832945 0.0050334106775368993 0 0.0038432987835091744 0.0046597108151103335 0 0.0035304457169871343 0.004892302788280161 0 0.0033200375456178639 0.0045842671632940939 0 0.0035304457169871343 0.004892302788280161 0 0.0034886471021521514 0.0051724799558969968 0 0.019417095539939224 -0.018541659055985652 0 0.019326041511026723 -0.014306052389483367 0 0.0042986918898075517 0.0056563078352167371 0 0.0034886471021521514 0.0051724799558969968 0 0.0026838475725284713 0.0051872614176961792 0 0.0031782493275057072 0.0044696270269268491 0 0.0042986918898075517 0.0056563078352167371 0 0.0034886471021521514 0.0051724799558969968 0 0.0042986918898075517 0.0056563078352167371 0 0.004706580725535931 0.0030930450161217103 0 0.0026838475725284713 0.0051872614176961792 0 0.0036017915480832945 0.0050334106775368993 0 0.0026838475725284713 0.0051872614176961792 0 0.0046936360519272751 0.0069016795264539412 0 0.0036017915480832945 0.0050334106775368993 0 0.0046936360519272751 0.0069016795264539412 0 0.0055128115797406004 0.0057406091707223605 0 0.0036017915480832945 0.0050334106775368993 0 0.0048161324064686815 0.0045980256058401892 0 0.0055128115797406004 0.0057406091707223605 0 0.0036017915480832945 0.0050334106775368993 0 0.0038432987835091744 0.0046597108151103335 0 0.0048161324064686815 0.0045980256058401892 0 0.0055128115797406004 0.0057406091707223605 0 0.0070526768039898269 0.0055229043172289397 0 0.0063322289268413099 0.0040345919824784924 0 0.0048161324064686815 0.0045980256058401892 0 0.0055128115797406004 0.0057406091707223605 0 0.0063322289268413099 0.0040345919824784924 0 0.0070526768039898269 0.0055229043172289397 0 0.0075466850839501333 0.0044293009046856308 0 0.0063322289268413099 0.0040345919824784924 0 0.0055128115797406004 0.0057406091707223605 0 0.0065656286186578164 0.0070436568899889269 0 0.0070526768039898269 0.0055229043172289397 0 0.0046936360519272751 0.0069016795264539412 0 0.0055128115797406004 0.0057406091707223605 0 0.0065656286186578164 0.0070436568899889269 0 0.0065656286186578164 0.0070436568899889269 0 0.0083125526936350183 0.0066148934000027637 0 0.0070526768039898269 0.0055229043172289397 0 0.0083125526936350183 0.0066148934000027637 0 0.0094267391502665301 0.0053283313467788942 0 0.0080847646508060388 0.0054689483191424854 0 0.0083125526936350183 0.0066148934000027637 0 0.0070526768039898269 0.0055229043172289397 0 0.0080847646508060388 0.0054689483191424854 0 0.0083125526936350183 0.0066148934000027637 0 0.0094267391502665301 0.0053283313467788942 0 0.01059100154368121 0.0073075989879134206 0 0.0094267391502665301 0.0053283313467788942 0 0.01059100154368121 0.0073075989879134206 0 0.010458543533986623 0.0041380242233200557 0 0.0094267391502665301 0.0053283313467788942 0 0.0084485057190363463 0.0032717956102220501 0 0.010458543533986623 0.0041380242233200557 0 0.011299879985242591 0.0014204594060735704 0 0.011164540934934217 -0.00068140683746361339 0 0.0094267391502665301 0.0053283313467788942 0 0.0075466850839501333 0.0044293009046856308 0 0.007689473316403914 0.0031984275832122743 0 0.0094267391502665301 0.0053283313467788942 0 0.0080847646508060388 0.0054689483191424854 0 0.0075466850839501333 0.0044293009046856308 0 0.0070526768039898269 0.0055229043172289397 0 0.0080847646508060388 0.0054689483191424854 0 0.0075466850839501333 0.0044293009046856308 0 0.0094267391502665301 0.0053283313467788942 0 0.0084485057190363463 0.0032717956102220501 0 0.0076058621247356781 0.0030068218114444466 0 0.0075466850839501333 0.0044293009046856308 0 0.007689473316403914 0.0031984275832122743 0 0.0069765062723309828 0.0035401139845740487 0 0.0084485057190363463 0.0032717956102220501 0 0.0076058621247356781 0.0030068218114444466 0 0.0083788997919944791 0.0016033047566534303 0 0.0082197271475152357 0.0063924692059733335 0 0.0087139689959040562 0.0097837345302569205 0 0.0084485057190363463 0.0032717956102220501 0 0.01032662924533804 0.00098059329317744161 0 0.010458543533986623 0.0041380242233200557 0 0.0093993807875060679 0.0042285459301657571 0 0.0082197271475152357 0.0063924692059733335 0 0.010587983513536708 0.00068034048813794454 0 0.0083788997919944791 0.0016033047566534303 0 0.0083147480902685863 0.00043847651405057845 0 0.0084485057190363463 0.0032717956102220501 0 0.010587983513536708 0.00068034048813794454 0 0.0083788997919944791 0.0016033047566534303 0 0.0076058621247356781 0.0030068218114444466 0 0.0083788997919944791 0.0016033047566534303 0 0.0072362717057122333 0.00036130183209805497 0 0.0083788997919944791 0.0016033047566534303 0 0.0083147480902685863 0.00043847651405057845 0 0.0072362717057122333 0.00036130183209805497 0 0.0059830328627865003 0.00096007203579206643 0 0.0064755797202949101 0.0028900952442081494 0 0.005388188541562468 0.0027303883046420358 0 0.011757941468866969 -0.0068932624603401703 0 0.0088170333987151617 -0.00046349336640249454 0 0.0076058621247356781 0.0030068218114444466 0 0.0072362717057122333 0.00036130183209805497 0 0.0056222709056282785 0.00045025775669560854 0 0.0057366873588874405 0.0021795532983548372 0 0.005113866630094061 0.0027443310694427216 0 0.0052489140409074427 0.003556509316136209 0 0.011164540934934217 -0.00068140683746361339 0 0.011757941468866969 -0.0068932624603401703 0 0.007689473316403914 0.0031984275832122743 0 0.0059830328627865003 0.00096007203579206643 0 0.0064755797202949101 0.0028900952442081494 0 0.0057366873588874405 0.0021795532983548372 0 0.005113866630094061 0.0027443310694427216 0 0.0053980412608478053 0.0017473528903026911 0 0.020801118052706413 -0.019534570510794897 0 0.020882167036072825 -0.02188382405120148 0 0.022967607221228405 -0.021634082434229117 0 0.014081366028044728 -0.012916939989491586 0 0.012363304992052598 -0.011675733404977587 0 0.0043251245064514299 0.0028451196832580019 0 0.005113866630094061 0.0027443310694427216 0 0.0053980412608478053 0.0017473528903026911 0 0.0043251245064514299 0.0028451196832580019 0 0.005113866630094061 0.0027443310694427216 0 0.0052489140409074427 0.003556509316136209 0 0.0048161324064686815 0.0045980256058401892 0 0.0041630617178743945 0.0040495509565297624 0 0.0052489140409074427 0.003556509316136209 0 0.0079667075465097385 0.0013444098989165525 0 0.0088170333987151617 -0.00046349336640249454 0 0.0043251245064514299 0.0028451196832580019 0 0.0041630617178743945 0.0040495509565297624 0 0.0052489140409074427 0.003556509316136209 0 0.0038432987835091744 0.0046597108151103335 0 0.0048161324064686815 0.0045980256058401892 0 0.0041630617178743945 0.0040495509565297624 0 0.0048161324064686815 0.0045980256058401892 0 0.0063322289268413099 0.0040345919824784924 0 0.005388188541562468 0.0027303883046420358 0 0.0069765062723309828 0.0035401139845740487 0 0.0063322289268413099 0.0040345919824784924 0 0.0064755797202949101 0.0028900952442081494 0 0.0075466850839501333 0.0044293009046856308 0 0.0069765062723309828 0.0035401139845740487 0 0.0063322289268413099 0.0040345919824784924 0 0.007689473316403914 0.0031984275832122743 0 0.0069765062723309828 0.0035401139845740487 0 0.0064755797202949101 0.0028900952442081494 0 0.0063322289268413099 0.0040345919824784924 0 0.0064755797202949101 0.0028900952442081494 0 0.005388188541562468 0.0027303883046420358 0 0.0045407193706683844 0.016009855894505882 0 0.0059728512610663365 0.01617108424470199 0 0.005560001196685896 0.014614393700109234 0 0.0059728512610663365 0.01617108424470199 0 0.005560001196685896 0.014614393700109234 0 0.0067636086184280648 0.015371475333197531 0 0.005560001196685896 0.014614393700109234 0 0.0066300800162002738 0.01429583402858744 0 0.0067636086184280648 0.015371475333197531 0 0.0059728512610663365 0.01617108424470199 0 0.0067636086184280648 0.015371475333197531 0 0.0069340799029188388 0.016733986740017078 0 0.0067636086184280648 0.015371475333197531 0 0.0081244592880562582 0.016167634304702996 0 0.0069340799029188388 0.016733986740017078 0 0.0067636086184280648 0.015371475333197531 0 0.0081244592880562582 0.016167634304702996 0 0.0081203064262738538 0.014761431175486742 0 0.0081244592880562582 0.016167634304702996 0 0.0081203064262738538 0.014761431175486742 0 0.0087809977424732587 0.015316159463525034 0 0.0067504265457575367 0.013367362814236809 0 0.0071826420664749865 0.01281415442908819 0 0.0068456797721486561 0.013567599208469186 0 0.0066300800162002738 0.01429583402858744 0 0.0071011370343862729 0.014487712958727838 0 0.0066300800162002738 0.01429583402858744 0 0.0067636086184280648 0.015371475333197531 0 0.0071011370343862729 0.014487712958727838 0 0.0081203064262738538 0.014761431175486742 0 0.0094294520206312394 0.014105039917051036 0 0.0087809977424732587 0.015316159463525034 0 0.0094294520206312394 0.014105039917051036 0 0.0087809977424732587 0.015316159463525034 0 0.0094466374082736969 0.016218592206169797 0 0.0071826420664749865 0.01281415442908819 0 0.0082175650437973785 0.011235690096004424 0 0.0082175650437973785 0.011235690096004424 0 0.0087139689959040562 0.0097837345302569205 0 0.0081244592880562582 0.016167634304702996 0 0.0087809977424732587 0.015316159463525034 0 0.0094466374082736969 0.016218592206169797 0 0.0081244592880562582 0.016167634304702996 0 0.0094466374082736969 0.016218592206169797 0 0.0085499862273374066 0.017227875166113602 0 0.00937011150985218 0.018123210706085361 0 0.0094466374082736969 0.016218592206169797 0 0.0085499862273374066 0.017227875166113602 0 0.00937011150985218 0.018123210706085361 0 0.0085499862273374066 0.017227875166113602 0 0.0079243414292759998 0.018235846049495328 0 0.0079243414292759998 0.018235846049495328 0 0.0076618078226380632 0.017351299200845195 0 0.0068981775609658095 0.017936238861602165 0 0.0085499862273374066 0.017227875166113602 0 0.0079243414292759998 0.018235846049495328 0 0.0076618078226380632 0.017351299200845195 0 0.0081244592880562582 0.016167634304702996 0 0.0085499862273374066 0.017227875166113602 0 0.0076618078226380632 0.017351299200845195 0 0.0081244592880562582 0.016167634304702996 0 0.0076618078226380632 0.017351299200845195 0 0.0069340799029188388 0.016733986740017078 0 0.0076618078226380632 0.017351299200845195 0 0.0069340799029188388 0.016733986740017078 0 0.0068981775609658095 0.017936238861602165 0 0.0069340799029188388 0.016733986740017078 0 0.0068981775609658095 0.017936238861602165 0 0.0063634221486150843 0.017247646192673317 0 0.0059728512610663365 0.01617108424470199 0 0.0069340799029188388 0.016733986740017078 0 0.0063634221486150843 0.017247646192673317 0 0.0079243414292759998 0.018235846049495328 0 0.0068981775609658095 0.017936238861602165 0 0.0071787341433579123 0.018956657655411515 0 0.0068981775609658095 0.017936238861602165 0 0.0062017061079532405 0.017977156514259643 0 0.0063634221486150843 0.017247646192673317 0 0.0068981775609658095 0.017936238861602165 0 0.0062017061079532405 0.017977156514259643 0 0.0064453141228252488 0.018652924064380183 0 0.0062017061079532405 0.017977156514259643 0 0.0055851410848921168 0.017215854283892818 0 0.0063634221486150843 0.017247646192673317 0 0.0045407193706683844 0.016009855894505882 0 0.0059728512610663365 0.01617108424470199 0 0.0055851410848921168 0.017215854283892818 0 0.0053300868784593334 0.017867957249620779 0 0.0062017061079532405 0.017977156514259643 0 0.0055851410848921168 0.017215854283892818 0 0.0059728512610663365 0.01617108424470199 0 0.0055851410848921168 0.017215854283892818 0 0.0063634221486150843 0.017247646192673317 0 0.0057277972617906505 0.019063616485549432 0 0.0064630484327999607 0.019353858268208367 0 0.0061853732573533878 0.020089770915206383 0 0.0050372851885236818 0.020657425160549334 0 0.0055927125855006728 0.019536683347625729 0 0.0057277972617906505 0.019063616485549432 0 0.0062017061079532405 0.017977156514259643 0 0.0064453141228252488 0.018652924064380183 0 0.0057277972617906505 0.019063616485549432 0 0.0064630484327999607 0.019353858268208367 0 0.0064453141228252488 0.018652924064380183 0 0.0064630484327999607 0.019353858268208367 0 0.0064453141228252488 0.018652924064380183 0 0.0071787341433579123 0.018956657655411515 0 0.0068981775609658095 0.017936238861602165 0 0.0064453141228252488 0.018652924064380183 0 0.0071787341433579123 0.018956657655411515 0 0.0064630484327999607 0.019353858268208367 0 0.0073685744682463672 0.020119335655364928 0 0.0061853732573533878 0.020089770915206383 0 0.0064630484327999607 0.019353858268208367 0 0.0071787341433579123 0.018956657655411515 0 0.0073685744682463672 0.020119335655364928 0 0.0059373162081296296 0.0029380430019182238 0 0.0058185650548219017 0.003945838945592227 0 0.0050633138680572336 0.0039451267611923359 0 0.0071787341433579123 0.018956657655411515 0 0.0082850628761727378 0.019224660879201442 0 0.0073685744682463672 0.020119335655364928 0 0.0067049062909127696 0.0099175607419448551 0 0.0059308731002772983 0.011587448887564794 0 0.0079243414292759998 0.018235846049495328 0 0.0071787341433579123 0.018956657655411515 0 0.0082850628761727378 0.019224660879201442 0 0.0082197271475152357 0.0063924692059733335 0 0.0067049062909127696 0.0099175607419448551 0 0.00937011150985218 0.018123210706085361 0 0.0079243414292759998 0.018235846049495328 0 0.0082850628761727378 0.019224660879201442 0 0.0067601982143829821 0.0019672530396061434 0 0.0059373162081296296 0.0029380430019182238 0 0.0067934541620290178 0.003131282162757076 0 0.0059373162081296296 0.0029380430019182238 0 0.0063818720463423434 0.0037516982801556248 0 0.0067934541620290178 0.003131282162757076 0 0.0059373162081296296 0.0029380430019182238 0 0.0063818720463423434 0.0037516982801556248 0 0.0058185650548219017 0.003945838945592227 0 0.0063818720463423434 0.0037516982801556248 0 0.0067934541620290178 0.003131282162757076 0 0.0068441531260370397 0.0043884377814010335 0 0.0063818720463423434 0.0037516982801556248 0 0.0062803080419406342 0.0044418068033685119 0 0.0058185650548219017 0.003945838945592227 0 0.0063818720463423434 0.0037516982801556248 0 0.0062803080419406342 0.0044418068033685119 0 0.0068441531260370397 0.0043884377814010335 0 0.0081650368630227718 -0.0049038961063426686 0 0.0086201887020467254 -0.0053872993720044567 0 0.0062803080419406342 0.0044418068033685119 0 0.0059452030471873318 0.0052990885931054931 0 0.0068722954182884703 0.0043833732398084737 0 0.0051534536755077597 0.0012484126359803087 0 0.0086201887020467254 -0.0053872993720044567 0 0.0062803080419406342 0.0044418068033685119 0 0.0059452030471873318 0.0052990885931054931 0 0.0055061674169889869 0.004638558680569161 0 0.0061120355682462331 0.0050173212420916167 0 0.0073205685024090141 0.0038211537695234483 0 0.0073659555179996913 0.0058554193273447708 0 0.0059452030471873318 0.0052990885931054931 0 0.0055061674169889869 0.004638558680569161 0 0.0050132989535979508 0.0053788962214688608 0 0.0055061674169889869 0.004638558680569161 0 0.0058185650548219017 0.003945838945592227 0 0.0050633138680572336 0.0039451267611923359 0 0.0062803080419406342 0.0044418068033685119 0 0.0055061674169889869 0.004638558680569161 0 0.0058185650548219017 0.003945838945592227 0 0.0059308731002772983 0.011587448887564794 0 0.00520960372059314 0.012734914217243513 0 0.0073685744682463672 0.020119335655364928 0 0.0065956096231374545 0.02094059039750034 0 0.0061853732573533878 0.020089770915206383 0 0.0055061674169889869 0.004638558680569161 0 0.0050633138680572336 0.0039451267611923359 0 0.0041659659770953983 0.0050080433335662235 0 0.0055061674169889869 0.004638558680569161 0 0.0050132989535979508 0.0053788962214688608 0 0.0041659659770953983 0.0050080433335662235 0 0.0050132989535979508 0.0053788962214688608 0 0.0041659659770953983 0.0050080433335662235 0 0.0044107224793666329 0.0057703512997533722 0 0.0056404745420569145 0.020980546972170427 0 0.0065956096231374545 0.02094059039750034 0 0.0061853732573533878 0.020089770915206383 0 0.0056404745420569145 0.020980546972170427 0 0.0058773615899403928 0.021759269528643654 0 0.0065956096231374545 0.02094059039750034 0 0.011783685062610927 -0.010215020247507128 0 0.012850592473219688 -0.013511434211400605 0 0.013965843414005686 -0.015270620955917797 0 0.013804708453979344 -0.016589917876162909 0 0.013058303500959748 -0.01423897663356203 0 0.014412225414022546 -0.015727320950894654 0 0.013965843414005686 -0.015270620955917797 0 0.013804708453979344 -0.016589917876162909 0 0.014412225414022546 -0.015727320950894654 0 0.013965843414005686 -0.015270620955917797 0 0.014583818212655702 -0.014532281486229389 0 0.01640130430493535 -0.014889698323260944 0 0.015455106514758527 -0.016075497161395436 0 0.014583818212655702 -0.014532281486229389 0 0.014412225414022546 -0.015727320950894654 0 0.015455106514758527 -0.016075497161395436 0 0.014583818212655702 -0.014532281486229389 0 0.020094059414763596 -0.028189476949964869 0 0.016672008501040676 -0.01969438294290066 0 0.016672008501040676 -0.01969438294290066 0 0.012363304992052598 -0.011675733404977587 0 0.014412225414022546 -0.015727320950894654 0 0.015455106514758527 -0.016075497161395436 0 0.014511493006217693 -0.017270039780359354 0 0.021163051623665507 -0.023990542919738258 0 0.020882167036072825 -0.02188382405120148 0 0.022967607221228405 -0.021634082434229117 0 0.018592668844798783 -0.022381149057887139 0 0.021163051623665507 -0.023990542919738258 0 0.020882167036072825 -0.02188382405120148 0 0.011757941468866969 -0.0068932624603401703 0 0.012363304992052598 -0.011675733404977587 0 0.011757941468866969 -0.0068932624603401703 0 0.011783685062610927 -0.010215020247507128 0 0.012363304992052598 -0.011675733404977587 0 0.011783685062610927 -0.010215020247507128 0 0.014412225414022546 -0.015727320950894654 0 0.014511493006217693 -0.017270039780359354 0 0.013804708453979344 -0.016589917876162909 0 0.011260502552094941 -0.01333164781721189 0 0.012351817597884705 -0.011932181391515603 0 0.01007285363144253 -0.0097369278343539065 0 0.0072362717057122333 0.00036130183209805497 0 0.0056222709056282785 0.00045025775669560854 0 0.0061475511597455521 -0.0011500309923642752 0 0.0072362717057122333 0.00036130183209805497 0 0.0061475511597455521 -0.0011500309923642752 0 0.0081983244171487356 -0.0012769612834155619 0 0.0083147480902685863 0.00043847651405057845 0 0.0072362717057122333 0.00036130183209805497 0 0.0081983244171487356 -0.0012769612834155619 0 0.0082197271475152357 0.0063924692059733335 0 0.0084586583720623488 0.00058910082439733637 0 0.010587983513536708 0.00068034048813794454 0 0.0081983244171487356 -0.0012769612834155619 0 0.010484685922121716 -0.0022185679604842805 0 0.010587983513536708 0.00068034048813794454 0 0.0083147480902685863 0.00043847651405057845 0 0.0081983244171487356 -0.0012769612834155619 0 0.0081983244171487356 -0.0012769612834155619 0 0.010484685922121716 -0.0022185679604842805 0 0.0081662305268366854 -0.0031107279064351771 0 0.010484685922121716 -0.0022185679604842805 0 0.0081662305268366854 -0.0031107279064351771 0 0.0101860546947239 -0.0050778827583467748 0 0.0061475511597455521 -0.0011500309923642752 0 0.0081983244171487356 -0.0012769612834155619 0 0.0081662305268366854 -0.0031107279064351771 0 0.011783685062610927 -0.010215020247507128 0 0.010601837233746693 -0.0087802331917144292 0 0.013524785515306561 -0.015801358482439576 0 0.012567200447324121 -0.014895250623348379 0 0.013058303500959748 -0.01423897663356203 0 0.012567200447324121 -0.014895250623348379 0 0.012832027055650834 -0.014142796801862969 0 0.011538757995043385 -0.013918672014550649 0 0.012567200447324121 -0.014895250623348379 0 0.013058303500959748 -0.01423897663356203 0 0.012832027055650834 -0.014142796801862969 0 0.0091483201508300634 -0.012301888290615274 0 0.0094341000438756661 -0.012495484960332206 0 0.0097740827011630841 -0.012391880959236067 0 0.010601837233746693 -0.0087802331917144292 0 0.0095636754748171359 -0.0072765392817331067 0 0.010484685922121716 -0.0022185679604842805 0 0.010370675170177784 -0.0052577018505207242 0 0.0101860546947239 -0.0050778827583467748 0 0.0084586583720623488 0.00058910082439733637 0 0.0086201887020467254 -0.0053872993720044567 0 0.01522475449479368 -0.01844674135307002 0 0.0095636754748171359 -0.0072765392817331067 0 0.0094341000438756661 -0.012495484960332206 0 0.0098186686945488048 -0.012434935772764416 0 0.0097740827011630841 -0.012391880959236067 0 0.0086201887020467254 -0.0053872993720044567 0 0.0095636754748171359 -0.0072765392817331067 0 0.0086201887020467254 -0.0053872993720044567 0 0.0080919299710240939 -0.0039532401504585035 0 0.0094341000438756661 -0.012495484960332206 0 0.0098186686945488048 -0.012434935772764416 0 0.0095035089397326761 -0.012930958889330478 0 0.0098186686945488048 -0.012434935772764416 0 0.0095035089397326761 -0.012930958889330478 0 0.0097706540808278064 -0.013288293273708845 0 0.0091483201508300634 -0.012301888290615274 0 0.0094341000438756661 -0.012495484960332206 0 0.0091114811731551025 -0.013061917396336711 0 0.01522475449479368 -0.01844674135307002 0 0.014084524573317743 -0.022728415932934561 0 0.0094341000438756661 -0.012495484960332206 0 0.0095035089397326761 -0.012930958889330478 0 0.0091114811731551025 -0.013061917396336711 0 0.019153731210197009 -0.031303480981020211 0 0.017486016302278012 -0.03263269933788359 0 0.019093491521760122 -0.033712069500999739 0 0.019153731210197009 -0.031303480981020211 0 0.017486016302278012 -0.03263269933788359 0 0.017198912662937816 -0.030932331098267245 0 0.01522475449479368 -0.01844674135307002 0 0.016809221768081972 -0.023083576237262971 0 0.013965843414005686 -0.015270620955917797 0 0.013058303500959748 -0.01423897663356203 0 0.014583818212655702 -0.014532281486229389 0 0.013058303500959748 -0.01423897663356203 0 0.012832027055650834 -0.014142796801862969 0 0.014583818212655702 -0.014532281486229389 0 0.015249828827600289 -0.030597203212999042 0 0.017198912662937816 -0.030932331098267245 0 0.015939859329362958 -0.0315861386884611 0 0.020094059414763596 -0.028189476949964869 0 0.016809221768081972 -0.023083576237262971 0 0.017486016302278012 -0.03263269933788359 0 0.017198912662937816 -0.030932331098267245 0 0.015939859329362958 -0.0315861386884611 0 0.017486016302278012 -0.03263269933788359 0 0.015939859329362958 -0.0315861386884611 0 0.015771790141699726 -0.033805341089819488 0 0.015771790141699726 -0.033805341089819488 0 0.016747692982170406 -0.03563785862383944 0 0.017716862410072372 -0.034609744041316767 0 0.020955958371991337 -0.042168857439309204 0 0.02028448023789799 -0.043844856542688368 0 0.017486016302278012 -0.03263269933788359 0 0.015771790141699726 -0.033805341089819488 0 0.017716862410072372 -0.034609744041316767 0 0.022855071436108248 -0.048830556520033139 0 0.024181661889874001 -0.051233833358241575 0 0.02240618145451119 -0.05142605633345769 0 0.024181661889874001 -0.051233833358241575 0 0.023525801081094175 -0.05297266250579951 0 0.02240618145451119 -0.05142605633345769 0 0.018047267481646274 -0.036067202945347203 0 0.017716862410072372 -0.034609744041316767 0 0.019056361927275795 -0.03615276814327438 0 0.016747692982170406 -0.03563785862383944 0 0.018047267481646274 -0.036067202945347203 0 0.017761624935533352 -0.037531096466312079 0 0.016747692982170406 -0.03563785862383944 0 0.018047267481646274 -0.036067202945347203 0 0.017716862410072372 -0.034609744041316767 0 0.017486016302278012 -0.03263269933788359 0 0.017716862410072372 -0.034609744041316767 0 0.019093491521760122 -0.033712069500999739 0 0.0091114811731551025 -0.013061917396336711 0 0.0093838595874926583 -0.013372698011264816 0 0.0090710747382081857 -0.013815687496017113 0 0.014084524573317743 -0.022728415932934561 0 0.012987876633471854 -0.024854728022668145 0 0.017716862410072372 -0.034609744041316767 0 0.019093491521760122 -0.033712069500999739 0 0.019056361927275795 -0.03615276814327438 0 0.0095035089397326761 -0.012930958889330478 0 0.0091114811731551025 -0.013061917396336711 0 0.0093838595874926583 -0.013372698011264816 0 0.0095035089397326761 -0.012930958889330478 0 0.0093838595874926583 -0.013372698011264816 0 0.0097706540808278064 -0.013288293273708845 0 0.0080919299710240939 -0.0039532401504585035 0 0.0071784045934199106 -0.0036742845696687738 0 0.0097706540808278064 -0.013288293273708845 0 0.0094350618113585479 -0.013768940965423753 0 0.0097049117151565539 -0.014125776654595095 0 0.0073659555179996913 0.0058554193273447708 0 0.0073722422173171836 0.0078363128040146775 0 0.0070488404464741777 0.0075575584826103647 0 0.0093838595874926583 -0.013372698011264816 0 0.0097706540808278064 -0.013288293273708845 0 0.0094350618113585479 -0.013768940965423753 0 0.0093838595874926583 -0.013372698011264816 0 0.0094350618113585479 -0.013768940965423753 0 0.0090710747382081857 -0.013815687496017113 0 0.018047267481646274 -0.036067202945347203 0 0.019056361927275795 -0.03615276814327438 0 0.018948970413809697 -0.036563300228686653 0 0.019056361927275795 -0.03615276814327438 0 0.018948970413809697 -0.036563300228686653 0 0.018919311804593081 -0.039757010487876762 0 0.012987876633471854 -0.024854728022668145 0 0.011295010160642816 -0.026326567141751279 0 0.018948970413809697 -0.036563300228686653 0 0.01851525986855742 -0.038369310908135321 0 0.018919311804593081 -0.039757010487876762 0 0.0090710747382081857 -0.013815687496017113 0 0.0093328925810352431 -0.014168091633066968 0 0.0090308231777327108 -0.014550306430658532 0 0.0094350618113585479 -0.013768940965423753 0 0.0090710747382081857 -0.013815687496017113 0 0.0093328925810352431 -0.014168091633066968 0 0.0094350618113585479 -0.013768940965423753 0 0.0093328925810352431 -0.014168091633066968 0 0.0097049117151565539 -0.014125776654595095 0 0.0093328925810352431 -0.014168091633066968 0 0.0097049117151565539 -0.014125776654595095 0 0.0093831421754233708 -0.014532892767979417 0 0.0073722422173171836 0.0078363128040146775 0 0.00670214933902347 0.0083745264672824265 0 0.0073959985075389076 0.0095919861822151148 0 0.0071784045934199106 -0.0036742845696687738 0 0.0051736171103770445 -0.005999303610888386 0 0.0097049117151565539 -0.014125776654595095 0 0.0093831421754233708 -0.014532892767979417 0 0.0096442572138914166 -0.01493503531181686 0 0.0093831421754233708 -0.014532892767979417 0 0.0092974121894405723 -0.0148726124861793 0 0.0096442572138914166 -0.01493503531181686 0 0.01851525986855742 -0.038369310908135321 0 0.018919311804593081 -0.039757010487876762 0 0.018360593092018526 -0.039043211912110534 0 0.018919311804593081 -0.039757010487876762 0 0.018116339884311716 -0.039740933668003499 0 0.018360593092018526 -0.039043211912110534 0 0.0093328925810352431 -0.014168091633066968 0 0.0093831421754233708 -0.014532892767979417 0 0.0090308231777327108 -0.014550306430658532 0 0.0093831421754233708 -0.014532892767979417 0 0.009192785877503426 -0.014740144511447487 0 0.0092974121894405723 -0.0148726124861793 0 0.0093831421754233708 -0.014532892767979417 0 0.0090308231777327108 -0.014550306430658532 0 0.009192785877503426 -0.014740144511447487 0 0.017938048653596848 -0.040615650807655973 0 0.016775779752423569 -0.040782035293419602 0 0.018019843304078947 -0.041881675062062071 0 0.018116339884311716 -0.039740933668003499 0 0.016775779752423569 -0.040782035293419602 0 0.01707515129516507 -0.037899036740057929 0 0.016775779752423569 -0.040782035293419602 0 0.014524455482082137 -0.040025688476388439 0 0.01707515129516507 -0.037899036740057929 0 0.017938048653596848 -0.040615650807655973 0 0.018116339884311716 -0.039740933668003499 0 0.016775779752423569 -0.040782035293419602 0 0.018919311804593081 -0.039757010487876762 0 0.017938048653596848 -0.040615650807655973 0 0.018019843304078947 -0.041881675062062071 0 0.018919311804593081 -0.039757010487876762 0 0.017938048653596848 -0.040615650807655973 0 0.018116339884311716 -0.039740933668003499 0 0.018116339884311716 -0.039740933668003499 0 0.018360593092018526 -0.039043211912110534 0 0.017187340317006368 -0.03804003035595889 0 0.018983497086598827 -0.044457816030794683 0 0.019741899289373643 -0.046050602425433788 0 0.016775779752423569 -0.040782035293419602 0 0.014524455482082137 -0.040025688476388439 0 0.015905895705861189 -0.041917919119769019 0 0.020583653899617634 -0.052243237773555183 0 0.019741899289373643 -0.046050602425433788 0 0.023469139300124175 -0.055386552071192099 0 0.023525801081094175 -0.05297266250579951 0 0.025521162599314015 -0.053625237158089971 0 0.024181661889874001 -0.051233833358241575 0 0.023525801081094175 -0.05297266250579951 0 0.025521162599314015 -0.053625237158089971 0 0.023469139300124175 -0.055386552071192099 0 0.023525801081094175 -0.05297266250579951 0 0.0220494497048811 -0.053194841624807962 0 0.02028448023789799 -0.043844856542688368 0 0.019741899289373643 -0.046050602425433788 0 0.018948970413809697 -0.036563300228686653 0 0.01851525986855742 -0.038369310908135321 0 0.017187340317006368 -0.03804003035595889 0 0.018047267481646274 -0.036067202945347203 0 0.018948970413809697 -0.036563300228686653 0 0.017761624935533352 -0.037531096466312079 0 0.020470185962767885 -0.044445587750655227 0 0.019741899289373643 -0.046050602425433788 0 0.01851525986855742 -0.038369310908135321 0 0.018360593092018526 -0.039043211912110534 0 0.017187340317006368 -0.03804003035595889 0 0.0044895183640592763 0.013620695945628283 0 0.0041202106634132991 0.010395834163395398 0 0.0030212239594074922 0.0066989070372029296 0 0.0043431503463856845 0.0075605467907713508 0 0.0036660610198343537 0.0076407737023087069 0 0.0037523898605581079 0.01487156754747768 0 0.0031558972327269674 0.010791263910176924 0 0.0032862968928625245 0.0067349276622133726 0 0.0045787519247475665 0.0068459563824092001 0 0.0044475514717965499 0.0075042989196095191 0 0.0032862968928625245 0.0067349276622133726 0 0.0034896593887392569 0.0064847135788443132 0 0.0045787519247475665 0.0068459563824092001 0 0.0044895183640592763 0.013620695945628283 0 0.00520960372059314 0.012734914217243513 0 0.003279023107534404 0.0060982133744328796 0 0.0041659659770953983 0.0050080433335662235 0 0.0044107224793666329 0.0057703512997533722 0 0.003279023107534404 0.0060982133744328796 0 0.0044107224793666329 0.0057703512997533722 0 0.0044086609927791133 0.0065014471851698201 0 0.0044107224793666329 0.0057703512997533722 0 0.0050148242527829458 0.0062030227104175632 0 0.0044086609927791133 0.0065014471851698201 0 0.0050132989535979508 0.0053788962214688608 0 0.0044107224793666329 0.0057703512997533722 0 0.0050148242527829458 0.0062030227104175632 0 0.0045787519247475665 0.0068459563824092001 0 0.0057534841449311596 0.0072053610198134091 0 0.0044475514717965499 0.0075042989196095191 0 0.0050148242527829458 0.0062030227104175632 0 0.0044086609927791133 0.0065014471851698201 0 0.0056592424141644494 0.0070020504186545348 0 0.0041202106634132991 0.010395834163395398 0 0.0050043859530706763 0.0092620353721508883 0 0.0056592424141644494 0.0070020504186545348 0 0.0059800363729263662 0.0060382226540826572 0 0.0065438635439614016 0.0066031947582701903 0 0.0050148242527829458 0.0062030227104175632 0 0.0056592424141644494 0.0070020504186545348 0 0.0059800363729263662 0.0060382226540826572 0 0.0061120355682462331 0.0050173212420916167 0 0.0050148242527829458 0.0062030227104175632 0 0.0059800363729263662 0.0060382226540826572 0 0.0059452030471873318 0.0052990885931054931 0 0.0050132989535979508 0.0053788962214688608 0 0.0050148242527829458 0.0062030227104175632 0 0.0051534536755077597 0.0012484126359803087 0 0.0043917092650094715 0.0029308392329148664 0 0.0061120355682462331 0.0050173212420916167 0 0.0073659555179996913 0.0058554193273447708 0 0.0059800363729263662 0.0060382226540826572 0 0.0073659555179996913 0.0058554193273447708 0 0.0059800363729263662 0.0060382226540826572 0 0.0065438635439614016 0.0066031947582701903 0 0.0073659555179996913 0.0058554193273447708 0 0.0065438635439614016 0.0066031947582701903 0 0.0070488404464741777 0.0075575584826103647 0 0.0056592424141644494 0.0070020504186545348 0 0.0065438635439614016 0.0066031947582701903 0 0.0070488404464741777 0.0075575584826103647 0 0.0057534841449311596 0.0072053610198134091 0 0.0070488404464741777 0.0075575584826103647 0 0.0062970258977895896 0.0078755806426365309 0 0.0062970258977895896 0.0078755806426365309 0 0.00670214933902347 0.0083745264672824265 0 0.0057040735837457605 0.008370313363247615 0 0.0050043859530706763 0.0092620353721508883 0 0.0055881030815070464 0.0090464580271738659 0 0.0073722422173171836 0.0078363128040146775 0 0.0070488404464741777 0.0075575584826103647 0 0.00670214933902347 0.0083745264672824265 0 0.0070488404464741777 0.0075575584826103647 0 0.0062970258977895896 0.0078755806426365309 0 0.00670214933902347 0.0083745264672824265 0 0.00670214933902347 0.0083745264672824265 0 0.0063274876352331115 0.0090849869814548304 0 0.0057040735837457605 0.008370313363247615 0 0.00670214933902347 0.0083745264672824265 0 0.0063274876352331115 0.0090849869814548304 0 0.0073959985075389076 0.0095919861822151148 0 0.0057040735837457605 0.008370313363247615 0 0.0052137927566052083 0.0088969449620564037 0 0.0046573142733564495 0.0086337153208069142 0 0.0063274876352331115 0.0090849869814548304 0 0.0057040735837457605 0.008370313363247615 0 0.0055601718368372879 0.009245810118253945 0 0.0057040735837457605 0.008370313363247615 0 0.0055601718368372879 0.009245810118253945 0 0.0052137927566052083 0.0088969449620564037 0 0.0055601718368372879 0.009245810118253945 0 0.0052137927566052083 0.0088969449620564037 0 0.005095053672292761 0.0092193692574786702 0 0.0057534841449311596 0.0072053610198134091 0 0.0057040735837457605 0.008370313363247615 0 0.0044475514717965499 0.0075042989196095191 0 0.0057534841449311596 0.0072053610198134091 0 0.0062970258977895896 0.0078755806426365309 0 0.0057040735837457605 0.008370313363247615 0 0.0037729429845054447 0.010193774819521812 0 0.0031558972327269674 0.010791263910176924 0 0.0057040735837457605 0.008370313363247615 0 0.0044725475468432238 0.0081083952948148835 0 0.0046573142733564495 0.0086337153208069142 0 0.0057040735837457605 0.008370313363247615 0 0.0043431503463856845 0.0075605467907713508 0 0.0044725475468432238 0.0081083952948148835 0 0.0044725475468432238 0.0081083952948148835 0 0.0046573142733564495 0.0086337153208069142 0 0.003898942439378062 0.0082979703871772035 0 0.0052137927566052083 0.0088969449620564037 0 0.004575608021494316 0.0091332522334181109 0 0.0046573142733564495 0.0086337153208069142 0 0.0052137927566052083 0.0088969449620564037 0 0.005095053672292761 0.0092193692574786702 0 0.004575608021494316 0.0091332522334181109 0 0.004575608021494316 0.0091332522334181109 0 0.0046573142733564495 0.0086337153208069142 0 0.0039966196450221883 0.0088203753273169497 0 0.0046573142733564495 0.0086337153208069142 0 0.0039966196450221883 0.0088203753273169497 0 0.003898942439378062 0.0082979703871772035 0 0.0039966196450221883 0.0088203753273169497 0 0.003431754739331576 0.0086185728344214223 0 0.003898942439378062 0.0082979703871772035 0 0.004575608021494316 0.0091332522334181109 0 0.0039966196450221883 0.0088203753273169497 0 0.0034203042503499468 0.0094197722566821268 0 0.0039966196450221883 0.0088203753273169497 0 0.003431754739331576 0.0086185728344214223 0 0.0034203042503499468 0.0094197722566821268 0 0.0032177765414706364 0.0079010135522081734 0 0.003431754739331576 0.0086185728344214223 0 0.003898942439378062 0.0082979703871772035 0 0.0044725475468432238 0.0081083952948148835 0 0.003898942439378062 0.0082979703871772035 0 0.0036660610198343537 0.0076407737023087069 0 0.0043431503463856845 0.0075605467907713508 0 0.0044725475468432238 0.0081083952948148835 0 0.0036660610198343537 0.0076407737023087069 0 0.0032177765414706364 0.0079010135522081734 0 0.003898942439378062 0.0082979703871772035 0 0.0036660610198343537 0.0076407737023087069 0 0.0032177765414706364 0.0079010135522081734 0 0.0031190130253479567 0.0074174745494660901 0 0.0036660610198343537 0.0076407737023087069 0 -0.0038423304720841397 0.013182747894345946 0 -0.004791799776137631 0.013524254342183038 0 -0.004695616453553539 0.012658620583295291 0 -0.004791799776137631 0.013524254342183038 0 -0.004695616453553539 0.012658620583295291 0 -0.0060695017993723354 0.012522585008613068 0 -0.0028227348268674715 0.013140246553215117 0 -0.002888227955667491 0.012907208485388219 0 -0.0024428370771209683 0.012926241433863415 0 -0.0028227348268674715 0.013140246553215117 0 -0.0024428370771209683 0.012926241433863415 0 -0.0023907770044072712 0.01301745950793135 0 0.00057779007665122693 0.010308580248330758 0 0.0016193622469966606 0.0032275158171057488 0 -0.0038187909693703959 0.0084692466969030489 0 0.00032713921430380398 0.0027103709830687325 0 0.004575608021494316 0.0091332522334181109 0 0.0034203042503499468 0.0094197722566821268 0 0.005148289477535534 0.0096643875416239228 0 0.005095053672292761 0.0092193692574786702 0 0.004575608021494316 0.0091332522334181109 0 0.005148289477535534 0.0096643875416239228 0 -0.004791799776137631 0.013524254342183038 0 -0.0069462781877433809 0.014007678554487009 0 -0.0060695017993723354 0.012522585008613068 0 0.00032713921430380398 0.0027103709830687325 0 -0.00075043741439844835 0.0023355519388294395 0 -0.0069462781877433809 0.014007678554487009 0 -0.007785220441832324 0.012471602412646273 0 -0.0060695017993723354 0.012522585008613068 0 0.0021846688007272634 -0.0020766969976006018 0 0.0009960483473643205 -0.0018355188002333006 0 0.0013348546259940464 -0.0037029055485274793 0 0.0016193622469966606 0.0032275158171057488 0 0.0032057409682696722 -0.0020419886566365284 0 0.0055601718368372879 0.009245810118253945 0 0.005148289477535534 0.0096643875416239228 0 0.0062740317214111732 0.0098376503112440929 0 0.001106890178303831 -0.00029345513506388334 0 0.0012611564846553875 -2.0398188533128453e-06 0 0.0019640130446689826 -0.00015752454581895319 0 0.0016193622469966606 0.0032275158171057488 0 0.00032713921430380398 0.0027103709830687325 0 0.0055601718368372879 0.009245810118253945 0 0.005095053672292761 0.0092193692574786702 0 0.005148289477535534 0.0096643875416239228 0 0.0063274876352331115 0.0090849869814548304 0 0.0055601718368372879 0.009245810118253945 0 0.0062740317214111732 0.0098376503112440929 0 0.00032713921430380398 0.0027103709830687325 0 0.0032057409682696722 -0.0020419886566365284 0 0.0027319690912126111 -0.0046258674807991181 0 0.007633335432179908 -0.0056618702868028196 0 0.007698902513135028 -0.0037791546669232062 0 0.0009960483473643205 -0.0018355188002333006 0 0.00032967857551534222 -0.0029995190826025784 0 -0.00045897714156297175 -0.002100021873234621 0 0.0032057409682696722 -0.0020419886566365284 0 0.0048225946112393277 -0.0097968304249327048 0 0.0032057409682696722 -0.0020419886566365284 0 0.0051736171103770445 -0.005999303610888386 0 0.0063274876352331115 0.0090849869814548304 0 0.0062740317214111732 0.0098376503112440929 0 0.0073959985075389076 0.0095919861822151148 0 0.0009960483473643205 -0.0018355188002333006 0 0.00032967857551534222 -0.0029995190826025784 0 0.0013348546259940464 -0.0037029055485274793 0 0.00047885976973038831 -0.0053322260156454899 0 0.0013348546259940464 -0.0037029055485274793 0 -0.00055264579839055998 -0.0043614187178237871 0 0.00032967857551534222 -0.0029995190826025784 0 0.0013348546259940464 -0.0037029055485274793 0 -0.00055264579839055998 -0.0043614187178237871 0 -0.0012698454224531568 -0.00013120498957849098 0 -0.00075043741439844835 0.0023355519388294395 0 -0.0070063820957649674 0.010271562969270662 0 -0.0086359990747533096 0.0109236399372044 0 -0.0072389153117772779 0.0114586088278248 0 -0.0070063820957649674 0.010271562969270662 0 -0.0072389153117772779 0.0114586088278248 0 -0.0061706019372555774 0.011315670326466536 0 -0.007785220441832324 0.012471602412646273 0 -0.0072389153117772779 0.0114586088278248 0 -0.0060695017993723354 0.012522585008613068 0 -0.0086359990747533096 0.0109236399372044 0 -0.007785220441832324 0.012471602412646273 0 -0.0072389153117772779 0.0114586088278248 0 -0.0060695017993723354 0.012522585008613068 0 -0.0061706019372555774 0.011315670326466536 0 -0.0049658136396171669 0.011812046043006095 0 -0.0072389153117772779 0.0114586088278248 0 -0.0060695017993723354 0.012522585008613068 0 -0.0061706019372555774 0.011315670326466536 0 -0.0070063820957649674 0.010271562969270662 0 -0.0061706019372555774 0.011315670326466536 0 -0.0053319530969166739 0.01060179621224858 0 -0.0037791980126648697 0.011248685866201461 0 -0.0053319530969166739 0.01060179621224858 0 -0.0049658136396171669 0.011812046043006095 0 -0.0061706019372555774 0.011315670326466536 0 -0.0053319530969166739 0.01060179621224858 0 -0.0049658136396171669 0.011812046043006095 0 -0.004695616453553539 0.012658620583295291 0 -0.0060695017993723354 0.012522585008613068 0 -0.0049658136396171669 0.011812046043006095 0 -0.0039432961911727354 0.012192380120220963 0 -0.004695616453553539 0.012658620583295291 0 -0.0049658136396171669 0.011812046043006095 0 0.013411583106195977 -0.037706762986509566 0 0.0081255613514760721 -0.025310294985250583 0 0.013411583106195977 -0.037706762986509566 0 0.0066205416465479321 -0.026437481289919365 0 0.0081539090533864177 -0.031118692470013001 0 0.0067135721624880596 -0.031295663140845871 0 0.0067623588534197667 -0.029405714934889637 0 0.0086766736953531754 -0.04178719836549482 0 0.0080135195720209256 -0.042401063833101396 0 0.0079753055483199452 -0.041662137271212811 0 0.01368946760508289 -0.046300782146653834 0 0.013622134880902362 -0.044819600748768722 0 0.015802975924554687 -0.044280223519037404 0 0.013947936756459249 -0.048919411573504712 0 0.013411583106195977 -0.037706762986509566 0 0.013622134880902362 -0.044819600748768722 0 0.01576914780855727 -0.044293077162932161 0 0.014483756057686174 -0.042712016064379403 0 0.013359491077016551 -0.038205737209349458 0 0.013411583106195977 -0.037706762986509566 0 0.014524455482082137 -0.040025688476388439 0 0.014483756057686174 -0.042712016064379403 0 0.011847596801426703 -0.042243482215379588 0 0.013411583106195977 -0.037706762986509566 0 0.013986893198939273 -0.038629736351633782 0 0.014524455482082137 -0.040025688476388439 0 0.014483756057686174 -0.042712016064379403 0 0.015905895705861189 -0.041917919119769019 0 0.015687147108691086 -0.044159350884337228 0 0.014483756057686174 -0.042712016064379403 0 0.015905895705861189 -0.041917919119769019 0 0.01574723977112355 -0.043981483178198263 0 0.018019843304078947 -0.041881675062062071 0 0.018786451708859002 -0.043598746600862694 0 0.016775779752423569 -0.040782035293419602 0 0.015905895705861189 -0.041917919119769019 0 0.018019843304078947 -0.041881675062062071 0 0.015687147108691086 -0.044159350884337228 0 0.015905895705861189 -0.041917919119769019 0 0.018019843304078947 -0.041881675062062071 0 0.013411583106195977 -0.037706762986509566 0 0.013869954824710306 -0.038597481016361873 0 0.009192785877503426 -0.014740144511447487 0 0.0092974121894405723 -0.0148726124861793 0 0.0090050021044418265 -0.015251208605296107 0 0.018919311804593081 -0.039757010487876762 0 0.018019843304078947 -0.041881675062062071 0 0.018786451708859002 -0.043598746600862694 0 0.011295010160642816 -0.026326567141751279 0 0.0081255613514760721 -0.025310294985250583 0 0.0090308231777327108 -0.014550306430658532 0 0.009192785877503426 -0.014740144511447487 0 0.0090050021044418265 -0.015251208605296107 0 0.0048225946112393277 -0.0097968304249327048 0 0.0081255613514760721 -0.025310294985250583 0 0.0092974121894405723 -0.0148726124861793 0 0.0096009337921365342 -0.015117510439639464 0 0.0090050021044418265 -0.015251208605296107 0 0.0092974121894405723 -0.0148726124861793 0 0.0096045680879228833 -0.014934469476641591 0 0.0096009337921365342 -0.015117510439639464 0 0.0063429329768481865 -0.0067320038698285949 0 0.0051736171103770445 -0.005999303610888386 0 0.0051736171103770445 -0.005999303610888386 0 0.0048225946112393277 -0.0097968304249327048 0 0.0048225946112393277 -0.0097968304249327048 0 0.0018799422427496491 -0.010332096176121092 0 0.0022392411315686851 -0.018392474418300945 0 0.0029623431353286824 -0.01744413205223733 0 0.002276131426262977 -0.016831256715206275 0 0.00032967857551534222 -0.0029995190826025784 0 -0.00045897714156297175 -0.002100021873234621 0 -0.00055264579839055998 -0.0043614187178237871 0 0.0022392411315686851 -0.018392474418300945 0 0.003484498405870777 -0.018195608282389825 0 0.0029623431353286824 -0.01744413205223733 0 0.003484498405870777 -0.018195608282389825 0 0.0029623431353286824 -0.01744413205223733 0 0.0035245151307482458 -0.016737070363341405 0 0.0081255613514760721 -0.025310294985250583 0 0.0066205416465479321 -0.026437481289919365 0 0.0029623431353286824 -0.01744413205223733 0 0.0035245151307482458 -0.016737070363341405 0 0.002276131426262977 -0.016831256715206275 0 -0.00065227488383293121 -0.0066405488486815075 0 0.00047885976973038831 -0.0053322260156454899 0 -0.00055264579839055998 -0.0043614187178237871 0 -0.00025942357054367394 -0.0094782026764243382 0 0.0018799422427496491 -0.010332096176121092 0 0.0023050700006368185 -0.015231568520961416 0 0.002276131426262977 -0.016831256715206275 0 0.0029201724518106448 -0.015985387406997065 0 0.0046074087623925704 -0.027310326145471506 0 0.0066205416465479321 -0.026437481289919365 0 0.0035245151307482458 -0.016737070363341405 0 0.002276131426262977 -0.016831256715206275 0 0.0029201724518106448 -0.015985387406997065 0 0.0049384830397117838 -0.016954070795756469 0 0.0047892956050252398 -0.022620266716207222 0 0.0023965276363623815 -0.019671912409012969 0 0.0066205416465479321 -0.026437481289919365 0 0.0030549461213582106 -0.017859636669010189 0 0.0069736131252442898 -0.039714507746654852 0 0.0069479638356037899 -0.041095123645349604 0 0.0081984463373944612 -0.040718051889672147 0 0.0080135195720209256 -0.042401063833101396 0 0.0069479638356037899 -0.041095123645349604 0 0.0079753055483199452 -0.041662137271212811 0 0.0069479638356037899 -0.041095123645349604 0 0.0079753055483199452 -0.041662137271212811 0 0.0081984463373944612 -0.040718051889672147 0 0.0086766736953531754 -0.04178719836549482 0 0.0079753055483199452 -0.041662137271212811 0 0.0081984463373944612 -0.040718051889672147 0 0.0086766736953531754 -0.04178719836549482 0 0.0081984463373944612 -0.040718051889672147 0 0.0092826988256913823 -0.041231115945880782 0 0.008345793506915054 -0.0396082949594877 0 0.0092815506940208889 -0.040047447813683752 0 0.0081984463373944612 -0.040718051889672147 0 0.011573008170534837 -0.059815283476128953 0 0.012346742437294144 -0.059726645333634767 0 0.012040599134195328 -0.062099561923368692 0 0.0092815506940208889 -0.040047447813683752 0 0.0081984463373944612 -0.040718051889672147 0 0.0092826988256913823 -0.041231115945880782 0 0.010802854781291548 -0.052912249539485388 0 0.01441268847689588 -0.060715400191500991 0 0.011573008170534837 -0.059815283476128953 0 0.012040599134195328 -0.062099561923368692 0 0.01159653280542524 -0.062523080367773057 0 0.012744965561710989 -0.066078423502929931 0 0.014687338812481243 -0.066443957962008526 0 0.015609159215113546 -0.077062563084374744 0 0.014687338812481243 -0.066443957962008526 0 0.020304345546660271 -0.083509433737081959 0 0.022329402251768288 -0.081567467983401115 0 0.020599993917996176 -0.081664639563576738 0 0.020094631958406758 -0.083155617620738628 0 0.021984537319764887 -0.083016790051768985 0 0.022260544141354251 -0.080994370400770677 0 0.021191378445622491 -0.081040530078626521 0 0.021704405936568388 -0.080402004802867549 0 0.020283682891444561 -0.080516758214506864 0 0.021191378445622491 -0.081040530078626521 0 0.022329402251768288 -0.081567467983401115 0 0.020599993917996176 -0.081664639563576738 0 0.021191378445622491 -0.081040530078626521 0 0.021704405936568388 -0.080402004802867549 0 0.022329402251768288 -0.081567467983401115 0 0.014687338812481243 -0.066443957962008526 0 0.015531130794631179 -0.073453101770272033 0 0.01441268847689588 -0.060715400191500991 0 0.017214492016274816 -0.061697030615356072 0 0.022257309160781974 -0.08087801244161974 0 0.022511979936341596 -0.080650954722683174 0 0.02259624495855481 -0.079522976621712427 0 0.01368946760508289 -0.046300782146653834 0 0.01175109029625237 -0.048147402797295812 0 0.011785891621744801 -0.045160705899255388 0 0.021704405936568388 -0.080402004802867549 0 0.022329402251768288 -0.081567467983401115 0 0.022570883761849382 -0.079368706989066187 0 0.014687338812481243 -0.066443957962008526 0 0.01441268847689588 -0.060715400191500991 0 0.013947936756459249 -0.048919411573504712 0 0.01441268847689588 -0.060715400191500991 0 0.022257309160781974 -0.08087801244161974 0 0.022570883761849382 -0.079368706989066187 0 0.02259624495855481 -0.079522976621712427 0 0.013622134880902362 -0.044819600748768722 0 0.011785891621744801 -0.045160705899255388 0 0.011847596801426703 -0.042243482215379588 0 0.01368946760508289 -0.046300782146653834 0 0.013622134880902362 -0.044819600748768722 0 0.011785891621744801 -0.045160705899255388 0 0.022570883761849382 -0.079368706989066187 0 0.02259624495855481 -0.079522976621712427 0 0.022629936465517902 -0.078072041772152739 0 0.021704405936568388 -0.080402004802867549 0 0.020878139041241774 -0.079561898888152863 0 0.020283682891444561 -0.080516758214506864 0 0.021704405936568388 -0.080402004802867549 0 0.022570883761849382 -0.079368706989066187 0 0.020878139041241774 -0.079561898888152863 0 0.022570883761849382 -0.079368706989066187 0 0.020878139041241774 -0.079561898888152863 0 0.022629936465517902 -0.078072041772152739 0 0.020878139041241774 -0.079561898888152863 0 0.020834386917089345 -0.077792223008635322 0 0.022598708990935717 -0.078101272064911298 0 0.017326230486691081 -0.068390266813302986 0 0.020025977520231161 -0.061945106771563091 0 0.013622134880902362 -0.044819600748768722 0 0.014483756057686174 -0.042712016064379403 0 0.011847596801426703 -0.042243482215379588 0 0.017214492016274816 -0.061697030615356072 0 0.020025977520231161 -0.061945106771563091 0 0.019008098407118361 -0.079228886031741538 0 0.017497184277932221 -0.078072923472591829 0 0.019231487217621801 -0.077455532588389775 0 0.020878139041241774 -0.079561898888152863 0 0.020834386917089345 -0.077792223008635322 0 0.019008098407118361 -0.079228886031741538 0 0.020834386917089345 -0.077792223008635322 0 0.019008098407118361 -0.079228886031741538 0 0.019231487217621801 -0.077455532588389775 0 0.020878139041241774 -0.079561898888152863 0 0.019008098407118361 -0.079228886031741538 0 0.020283682891444561 -0.080516758214506864 0 0.019008098407118361 -0.079228886031741538 0 0.019057587560286058 -0.081051429936728578 0 0.020283682891444561 -0.080516758214506864 0 0.019008098407118361 -0.079228886031741538 0 0.019057587560286058 -0.081051429936728578 0 0.017683733861443764 -0.08063770371324569 0 0.019057587560286058 -0.081051429936728578 0 0.018046304268154772 -0.082004950917902067 0 0.017683733861443764 -0.08063770371324569 0 0.019057587560286058 -0.081051429936728578 0 0.020283682891444561 -0.080516758214506864 0 0.020599993917996176 -0.081664639563576738 0 0.019057587560286058 -0.081051429936728578 0 0.020599993917996176 -0.081664639563576738 0 0.019370580680503551 -0.082426776029191143 0 0.021191378445622491 -0.081040530078626521 0 0.020283682891444561 -0.080516758214506864 0 0.020599993917996176 -0.081664639563576738 0 0.020304345546660271 -0.083509433737081959 0 0.020599993917996176 -0.081664639563576738 0 0.019370580680503551 -0.082426776029191143 0 0.018960594687728261 -0.083692123891499007 0 0.020304345546660271 -0.083509433737081959 0 0.019370580680503551 -0.082426776029191143 0 0.019057587560286058 -0.081051429936728578 0 0.019370580680503551 -0.082426776029191143 0 0.018046304268154772 -0.082004950917902067 0 0.018191343834001998 -0.083283846066783268 0 0.018960594687728261 -0.083692123891499007 0 0.019370580680503551 -0.082426776029191143 0 0.018191343834001998 -0.083283846066783268 0 0.019370580680503551 -0.082426776029191143 0 0.018046304268154772 -0.082004950917902067 0 0.018191343834001998 -0.083283846066783268 0 0.018046304268154772 -0.082004950917902067 0 0.016925248471089158 -0.082963719262227856 0 0.018046304268154772 -0.082004950917902067 0 0.016925248471089158 -0.082963719262227856 0 0.016843497222446182 -0.081691785230570968 0 0.016925248471089158 -0.082963719262227856 0 0.015571213023382324 -0.082376085617560782 0 0.016843497222446182 -0.081691785230570968 0 0.015577825763623713 -0.08407973425349885 0 0.016925248471089158 -0.082963719262227856 0 0.015571213023382324 -0.082376085617560782 0 0.015577825763623713 -0.08407973425349885 0 0.015571213023382324 -0.082376085617560782 0 0.01381354341006703 -0.083274701412451357 0 0.016049184578989451 -0.080746638649476163 0 0.014099957999840238 -0.081406507101156905 0 0.014961353615592698 -0.079874412333055145 0 0.015571213023382324 -0.082376085617560782 0 0.016049184578989451 -0.080746638649476163 0 0.016843497222446182 -0.081691785230570968 0 0.015571213023382324 -0.082376085617560782 0 0.016049184578989451 -0.080746638649476163 0 0.014099957999840238 -0.081406507101156905 0 0.016049184578989451 -0.080746638649476163 0 0.017683733861443764 -0.08063770371324569 0 0.016843497222446182 -0.081691785230570968 0 0.018046304268154772 -0.082004950917902067 0 0.017683733861443764 -0.08063770371324569 0 0.016843497222446182 -0.081691785230570968 0 0.011517580468338055 -0.082628298000035585 0 0.01381354341006703 -0.083274701412451357 0 0.014099957999840238 -0.081406507101156905 0 0.012464497442672135 -0.084153156738856871 0 0.011517580468338055 -0.082628298000035585 0 0.01381354341006703 -0.083274701412451357 0 0.015571213023382324 -0.082376085617560782 0 0.01381354341006703 -0.083274701412451357 0 0.014099957999840238 -0.081406507101156905 0 0.011517580468338055 -0.082628298000035585 0 0.014099957999840238 -0.081406507101156905 0 0.011806355587500724 -0.080063825804688085 0 0.0085548735233172812 -0.080748338230004726 0 0.0094536529432197383 -0.080387453368889528 0 0.011806355587500724 -0.080063825804688085 0 0.014314529606688409 -0.078887048635295776 0 0.012000709096766458 -0.078384280327395542 0 0.014099957999840238 -0.081406507101156905 0 0.011806355587500724 -0.080063825804688085 0 0.014961353615592698 -0.079874412333055145 0 0.011806355587500724 -0.080063825804688085 0 0.014961353615592698 -0.079874412333055145 0 0.014314529606688409 -0.078887048635295776 0 0.014314529606688409 -0.078887048635295776 0 0.012000709096766458 -0.078384280327395542 0 0.013590441654932771 -0.076850065982380741 0 0.014961353615592698 -0.079874412333055145 0 0.014314529606688409 -0.078887048635295776 0 0.016062980184902795 -0.078600065053506543 0 0.019008098407118361 -0.079228886031741538 0 0.017683733861443764 -0.08063770371324569 0 0.016917040971440572 -0.079338520776183835 0 0.016049184578989451 -0.080746638649476163 0 0.017683733861443764 -0.08063770371324569 0 0.016917040971440572 -0.079338520776183835 0 0.016049184578989451 -0.080746638649476163 0 0.014961353615592698 -0.079874412333055145 0 0.016917040971440572 -0.079338520776183835 0 0.014961353615592698 -0.079874412333055145 0 0.016917040971440572 -0.079338520776183835 0 0.016062980184902795 -0.078600065053506543 0 0.016062980184902795 -0.078600065053506543 0 0.017497184277932221 -0.078072923472591829 0 0.016155934574394955 -0.077227674769656279 0 0.014314529606688409 -0.078887048635295776 0 0.016062980184902795 -0.078600065053506543 0 0.016155934574394955 -0.077227674769656279 0 0.016917040971440572 -0.079338520776183835 0 0.016062980184902795 -0.078600065053506543 0 0.017497184277932221 -0.078072923472591829 0 0.019008098407118361 -0.079228886031741538 0 0.016917040971440572 -0.079338520776183835 0 0.017497184277932221 -0.078072923472591829 0 0.02472436691740304 -0.076624467001487048 0 0.016155934574394955 -0.077227674769656279 0 0.020590746066176471 -0.073823939629877114 0 0.017497184277932221 -0.078072923472591829 0 0.017926545649310687 -0.0768296293823688 0 0.016155934574394955 -0.077227674769656279 0 0.021236320528921365 -0.07375266139409653 0 0.01891050140695523 -0.074979636513048342 0 0.016155934574394955 -0.077227674769656279 0 0.016346466424477433 -0.075607630833809156 0 0.020590746066176471 -0.073823939629877114 0 0.016346466424477433 -0.075607630833809156 0 0.020590746066176471 -0.073823939629877114 0 0.01951374179394437 -0.068803487924456494 0 0.017184563877805047 -0.074289124433771989 0 0.019266002859662689 -0.069508381547364426 0 0.016761737159559406 -0.075504980944517464 0 0.016218891262949196 -0.072593949714140987 0 0.020022185279084854 -0.069575252233333384 0 0.020590746066176471 -0.073823939629877114 0 0.01951374179394437 -0.068803487924456494 0 0.026449311543222363 -0.069873138328645251 0 0.02472436691740304 -0.076624467001487048 0 0.020590746066176471 -0.073823939629877114 0 0.026449311543222363 -0.069873138328645251 0 0.012000709096766458 -0.078384280327395542 0 0.01124762422964588 -0.076296950482466888 0 0.013590441654932771 -0.076850065982380741 0 0.01124762422964588 -0.076296950482466888 0 0.013590441654932771 -0.076850065982380741 0 0.014075103794897995 -0.074533815611377716 0 0.016149735705678289 -0.076556321976982311 0 0.017184563877805047 -0.074289124433771989 0 0.014314529606688409 -0.078887048635295776 0 0.016761737159559406 -0.075504980944517464 0 0.013590441654932771 -0.076850065982380741 0 0.014314529606688409 -0.078887048635295776 0 0.016155934574394955 -0.077227674769656279 0 0.016346466424477433 -0.075607630833809156 0 0.016761737159559406 -0.075504980944517464 0 0.013590441654932771 -0.076850065982380741 0 0.014075103794897995 -0.074533815611377716 0 0.016218891262949196 -0.072593949714140987 0 0.014075103794897995 -0.074533815611377716 0 0.014170243914940048 -0.07055965194290903 0 0.016761737159559406 -0.075504980944517464 0 0.016218891262949196 -0.072593949714140987 0 0.014075103794897995 -0.074533815611377716 0 0.009038918546439673 -0.0736428544062986 0 0.01124762422964588 -0.076296950482466888 0 0.014075103794897995 -0.074533815611377716 0 0.009038918546439673 -0.0736428544062986 0 0.014075103794897995 -0.074533815611377716 0 0.014170243914940048 -0.07055965194290903 0 0.009038918546439673 -0.0736428544062986 0 0.010203301988612157 -0.067242874853235421 0 0.014170243914940048 -0.07055965194290903 0 0.010203301988612157 -0.067242874853235421 0 0.014170243914940048 -0.07055965194290903 0 0.016029203328313424 -0.063224571034249014 0 0.014170243914940048 -0.07055965194290903 0 0.016029203328313424 -0.063224571034249014 0 0.020022185279084854 -0.069575252233333384 0 0.016218891262949196 -0.072593949714140987 0 0.014170243914940048 -0.07055965194290903 0 0.020022185279084854 -0.069575252233333384 0 0.0095647855671113884 -0.060849779818416327 0 0.010203301988612157 -0.067242874853235421 0 0.016029203328313424 -0.063224571034249014 0 0.01951374179394437 -0.068803487924456494 0 0.022660038774952238 -0.062131223553809616 0 0.026449311543222363 -0.069873138328645251 0 0.019266002859662689 -0.069508381547364426 0 0.020567829858092974 -0.06635829018596677 0 0.016029203328313424 -0.063224571034249014 0 0.020022185279084854 -0.069575252233333384 0 0.022660038774952238 -0.062131223553809616 0 0.028787844361280426 -0.058564280721511756 0 0.022660038774952238 -0.062131223553809616 0 0.029835166638794784 -0.064823924465190128 0 0.022660038774952238 -0.062131223553809616 0 0.029835166638794784 -0.064823924465190128 0 0.026449311543222363 -0.069873138328645251 0 0.029835166638794784 -0.064823924465190128 0 0.026449311543222363 -0.069873138328645251 0 0.034533431429728305 -0.068648760868447456 0 0.028787844361280426 -0.058564280721511756 0 0.029835166638794784 -0.064823924465190128 0 0.035073951014882108 -0.063157795766197913 0 0.029835166638794784 -0.064823924465190128 0 0.034533431429728305 -0.068648760868447456 0 0.035073951014882108 -0.063157795766197913 0 0.034533431429728305 -0.068648760868447456 0 0.035073951014882108 -0.063157795766197913 0 0.040950360528474616 -0.064777542057552318 0 0.037471134012743976 -0.059057559721889953 0 0.035073951014882108 -0.063157795766197913 0 0.040950360528474616 -0.064777542057552318 0 0.022855071436108248 -0.048830556520033139 0 0.021480484337244705 -0.049891847654495003 0 0.02240618145451119 -0.05142605633345769 0 0.026013593245420262 -0.055989114414890288 0 0.024990012209519411 -0.063539627530603937 0 0.021480484337244705 -0.049891847654495003 0 0.02240618145451119 -0.05142605633345769 0 0.021443931028629171 -0.053353859644277281 0 0.034533431429728305 -0.068648760868447456 0 0.040950360528474616 -0.064777542057552318 0 0.040855268285537608 -0.072701885910849903 0 0.024990012209519411 -0.063539627530603937 0 0.024737759676981261 -0.070218303445667415 0 0.034533431429728305 -0.068648760868447456 0 0.040855268285537608 -0.072701885910849903 0 0.032963465039125603 -0.074713313762983943 0 0.023469139300124175 -0.055386552071192099 0 0.0220494497048811 -0.053194841624807962 0 0.021437227142554627 -0.053352957724624499 0 0.023525801081094175 -0.05297266250579951 0 0.02240618145451119 -0.05142605633345769 0 0.0220494497048811 -0.053194841624807962 0 0.02240618145451119 -0.05142605633345769 0 0.0220494497048811 -0.053194841624807962 0 0.021443931028629171 -0.053353859644277281 0 0.024943785281496753 -0.063440754438464572 0 0.024990012209519411 -0.063539627530603937 0 0.020025977520231161 -0.061945106771563091 0 0.024990012209519411 -0.063539627530603937 0 0.020583653899617634 -0.052243237773555183 0 0.020025977520231161 -0.061945106771563091 0 0.023469139300124175 -0.055386552071192099 0 0.021397590865134111 -0.057150556194078425 0 0.021437227142554627 -0.053352957724624499 0 0.020834386917089345 -0.077792223008635322 0 0.022626954112042151 -0.075454836443525936 0 0.020243488166343884 -0.076104483010210874 0 0.020834386917089345 -0.077792223008635322 0 0.022598708990935717 -0.078101272064911298 0 0.022626954112042151 -0.075454836443525936 0 0.020834386917089345 -0.077792223008635322 0 0.019231487217621801 -0.077455532588389775 0 0.020243488166343884 -0.076104483010210874 0 0.017926545649310687 -0.0768296293823688 0 0.019231487217621801 -0.077455532588389775 0 0.020243488166343884 -0.076104483010210874 0 0.021236320528921365 -0.07375266139409653 0 0.024737759676981261 -0.070218303445667415 0 0.017497184277932221 -0.078072923472591829 0 0.017926545649310687 -0.0768296293823688 0 0.019231487217621801 -0.077455532588389775 0 0.02472436691740304 -0.076624467001487048 0 0.026449311543222363 -0.069873138328645251 0 0.032963465039125603 -0.074713313762983943 0 0.026449311543222363 -0.069873138328645251 0 0.034533431429728305 -0.068648760868447456 0 0.032963465039125603 -0.074713313762983943 0 
</DataArray>
</PointData>
<CellData Scalars="region_id,cross_section_updated," Vectors="" Tensors="stress,">
<DataArray type="Float64" Name="region_id" format="ascii">
5 5 6 5 5 5 5 6 5 5 5 5 5 5 5 5 5 5 5 5 6 5 5 5 5 6 5 5 5 5 5 5 5 6 5 5 5 5 5 5 5 5 6 5 5 5 5 5 5 5 5 5 5 5 6 6 5 5 5 5 5 5 5 5 6 5 5 5 5 5 5 5 5 5 5 5 5 5 5 5 5 5 5 5 5 5 5 6 5 5 5 5 5 5 5 5 5 5 5 6 5 5 5 6 5 5 5 5 5 5 5 5 5 5 5 5 5 5 5 5 5 5 5 5 5 5 5 5 5 5 5 5 5 5 5 5 5 5 5 5 5 5 5 5 5 5 5 5 5 6 5 6 5 5 5 5 5 5 5 5 5 5 5 5 5 5 5 5 5 5 5 5 5 5 5 5 5 5 6 5 5 6 5 6 5 5 5 5 5 5 5 5 5 5 5 5 5 5 6 5 6 5 5 5 5 5 5 5 6 5 6 5 5 5 5 5 5 6 5 5 6 5 5 5 5 5 5 6 6 5 5 6 5 6 5 6 6 5 5 5 6 5 5 5 5 5 5 5 5 5 5 5 5 5 6 5 5 5 5 5 5 5 6 5 5 5 5 5 5 5 6 5 5 5 5 6 5 5 5 5 5 5 6 5 5 5 6 5 5 5 5 5 5 5 6 5 5 5 5 5 5 6 5 5 5 5 5 5 6 5 5 5 5 5 5 5 6 5 5 5 5 5 5 5 5 5 5 5 5 5 5 5 5 5 5 5 5 5 6 6 5 5 5 5 5 6 5 5 5 5 5 5 5 6 5 6 5 5 5 6 5 5 5 6 5 6 5 5 5 5 5 5 5 6 5 5 5 5 5 5 5 6 5 5 5 6 5 5 5 5 5 5 5 5 5 5 5 5 5 5 5 5 5 5 5 5 5 5 5 5 5 5 5 5 5 5 5 5 6 5 5 5 5 5 5 5 5 5 5 5 5 5 5 5 5 5 5 5 5 5 5 5 5 5 5 5 5 5 5 5 5 6 5 5 5 5 5 5 5 5 5 5 5 5 5 5 5 5 5 5 5 5 6 5 5 5 5 5 5 5 6 5 5 5 5 5 6 5 5 6 5 6 5 5 5 5 6 5 5 6 5 5 5 5 5 5 6 5 5 5 5 5 5 5 5 5 5 5 5 5 5 5 5 5 5 5 6 5 5 5 5 5 5 5 5 5 5 5 6 6 5 5 5 5 5 5 5 5 5 5 5 5 5 5 5 5 5 5 5 5 5 6 5 6 6 5 5 6 5 5 5 5 5 5 5 5 5 5 5 5 5 6 5 5 5 5 5 5 5 6 6 5 5 5 5 5 5 5 5 6 6 5 5 5 6 5 5 5 5 5 5 5 5 5 5 5 5 5 5 5 5 5 5 5 5 5 5 5 5 5 5 5 5 5 5 5 5 5 5 5 6 5 5 6 5 5 5 5 6 5 5 5 6 5 5 5 6 5 5 6 5 5 5 5 5 5 5 5 5 5 5 5 5 5 5 5 5 5 5 5 5 6 5 5 5 6 5 5 5 5 5 6 5 5 5 5 5 5 6 5 5 5 5 5 5 5 5 5 5 5 5 5 5 5 5 5 5 6 5 5 5 5 5 5 5 5 5 5 5 5 5 5 5 5 5 5 5 5 5 6 5 5 5 5 5 5 5 5 5 5 5 5 5 5 5 6 5 5 5 5 5 5 5 5 5 5 5 5 5 5 5 5 5 5 6 5 5 5 5 5 5 5 6 5 5 5 5 5 5 5 5 5 5 5 5 5 5 5 5 5 5 5 5 5 6 5 5 5 5 5 5 5 5 5 6 5 5 5 5 5 5 5 5 6 5 5 5 5 5 5 5 5 5 5 5 5 5 5 5 5 5 5 5 6 5 5 5 5 5 6 5 5 5 6 5 5 5 5 5 5 6 5 5 5 5 5 5 5 5 5 5 6 5 5 5 5 5 5 5 5 5 5 5 5 6 5 6 5 5 5 5 5 5 5 6 5 6 5 5 5 5 5 5 5 5 5 5 5 5 5 5 5 5 5 5 5 5 5 5 5 5 5 5 5 5 5 5 5 5 5 5 5 5 5 5 5 5 5 5 5 5 5 6 6 5 5 6 5 5 5 5 5 5 5 5 5 5 5 5 5 5 5 5 6 5 5 5 5 6 5 5 6 5 5 5 5 5 5 6 5 6 5 5 6 5 5 5 5 5 5 5 5 5 5 6 5 5 5 5 5 6 6 5 5 5 5 6 5 5 6 5 6 5 5 5 5 5 6 5 5 6 5 5 5 5 5 5 5 5 5 5 5 5 6 5 5 5 5 5 5 5 5 5 5 5 5 5 5 5 6 5 6 5 6 6 5 6 5 5 6 5 5 5 5 5 5 6 5 6 5 5 6 5 5 5 6 5 5 6 5 5 5 5 5 6 5 5 6 5 5 5 5 5 6 5 6 5 5 6 5 5 6 5 5 5 5 5 5 5 5 6 5 5 5 5 5 5 5 5 5 5 6 5 5 5 5 6 5 5 6 5 5 5 5 5 6 5 5 5 5 5 6 5 6 5 5 5 5 5 5 6 5 5 5 5 5 5 5 5 6 6 6 5 5 5 5 6 5 6 5 5 5 6 6 5 5 5 6 5 5 5 6 5 6 5 6 6 5 6 5 5 5 5 6 5 5 5 6 5 6 5 6 5 5 5 5 5 5 5 6 5 5 5 5 6 5 5 5 5 5 5 5 5 6 5 6 6 5 5 5 6 5 5 5 5 6 6 5 5 6 6 5 5 5 5 5 6 5 5 5 5 5 5 5 5 6 5 6 5 5 5 5 5 5 5 5 5 5 5 5 5 5 5 5 5 6 5 5 5 5 5 5 5 5 5 5 5 5 5 5 5 5 5 5 5 5 5 5 5 5 5 6 5 6 5 5 5 5 5 6 6 5 5 5 5 6 6 5 6 5 5 6 5 5 6 5 5 5 5 6 6 5 5 5 5 5 5 5 5 6 5 5 6 5 5 5 6 5 5 6 5 5 5 5 5 5 6 5 5 5 5 5 5 6 5 5 5 5 5 6 5 5 6 6 5 5 6 5 5 6 5 5 5 5 5 5 5 5 5 5 5 5 6 5 6 5 5 6 5 5 5 5 5 5 6 5 5 5 6 6 6 5 5 5 6 6 5 6 6 5 5 6 5 5 6 5 6 5 6 5 5 5 6 6 5 5 6 6 6 6 5 5 5 6 6 5 5 6 6 6 5 6 6 5 5 6 5 6 6 5 6 5 5 6 5 6 6 5 5 5 5 6 6 5 5 6 5 5 5 6 5 5 5 5 5 5 5 5 5 5 5 5 5 5 5 5 5 5 5 5 5 5 5 5 5 5 5 5 5 5 5 5 5 5 5 5 5 5 5 5 5 5 5 5 5 5 5 5 5 5 5 5 5 5 5 5 5 5 6 5 6 5 5 5 5 5 5 5 5 5 5 5 5 5 5 6 5 5 5 5 5 5 5 5 5 5 6 5 5 5 5 5 5 5 5 5 5 5 5 5 5 5 5 5 5 5 5 5 5 5 5 5 5 5 5 5 5 5 5 5 5 5 5 5 5 5 5 5 5 5 5 5 5 6 5 5 5 6 5 6 5 5 5 5 5 6 5 6 5 5 5 5 5 5 5 5 5 5 5 5 5 5 5 5 5 5 5 5 5 5 5 5 5 6 5 5 5 5 5 5 6 5 6 5 5 5 6 5 5 6 5 5 5 5 5 5 5 5 5 5 5 5 5 5 5 5 5 5 5 5 5 5 5 5 5 5 5 5 5 5 5 5 5 5 5 5 5 6 5 6 5 5 5 5 5 5 5 5 5 5 6 5 5 5 5 5 5 5 5 5 5 5 5 5 5 5 5 5 6 5 5 5 6 6 5 6 5 5 5 5 5 5 5 5 6 5 5 5 5 6 5 5 5 5 5 5 5 6 5 5 6 5 6 5 5 6 5 5 6 6 5 5 5 5 5 5 5 5 5 5 5 5 5 5 5 6 5 6 5 5 5 6 5 6 5 5 5 5 5 5 5 5 5 5 5 5 6 5 6 5 5 5 5 5 5 5 5 6 5 5 6 5 5 5 6 6 5 5 5 5 5 5 5 5 5 5 5 5 5 5 5 5 5 5 5 5 5 6 5 5 5 5 5 6 5 6 5 5 5 5 6 5 5 6 5 5 5 5 5 6 5 5 5 5 6 5 5 5 5 5 5 5 6 5 5 5 6 5 5 5 5 5 5 5 5 5 5 5 6 5 5 5 5 5 5 5 5 6 5 5 5 5 5 5 6 5 5 5 5 5 5 6 5 5 5 5 5 5 5 5 5 5 5 6 5 5 5 6 5 5 5 6 5 6 5 5 5 5 5 5 6 5 5 5 5 5 5 5 5 5 5 5 5 5 5 5 6 5 5 5 5 5 6 5 5 5 5 5 5 5 5 6 5 5 5 5 5 5 5 5 5 5 5 5 5 5 5 5 6 5 5 5 5 6 5 5 5 5 5 5 5 5 5 5 5 5 5 5 5 5 5 5 5 5 5 5 5 5 5 5 6 5 5 5 6 5 6 5 5 5 5 6 5 6 5 5 5 5 5 6 5 5 5 5 5 5 5 5 5 6 5 5 5 5 5 5 5 5 5 5 5 5 5 5 5 5 5 5 5 5 5 5 5 5 6 6 5 5 5 5 5 6 5 5 5 6 5 5 5 6 5 5 6 5 6 5 5 5 5 6 5 5 5 5 6 6 5 5 5 5 5 5 5 5 5 5 5 5 6 5 5 5 5 6 5 5 5 5 5 6 5 5 6 5 5 5 5 5 5 5 5 5 5 5 5 5 5 5 5 6 5 5 6 5 5 5 6 5 5 5 5 5 5 5 5 5 5 5 6 5 5 5 5 5 5 5 5 5 5 5 5 5 5 5 5 6 5 5 6 5 6 5 5 6 5 6 5 6 5 5 5 5 5 5 5 5 5 5 5 5 5 6 5 6 6 5 5 6 6 5 5 6 6 5 5 5 6 5 6 5 5 6 5 5 5 5 6 6 5 6 5 5 6 6 5 5 6 5 5 5 6 5 5 5 6 6 6 5 5 6 5 6 6 5 5 5 5 5 5 5 5 5 5 5 6 6 5 6 5 6 5 6 5 5 5 6 5 5 5 5 5 6 5 5 5 5 5 5 5 5 5 5 5 5 5 5 5 5 5 5 5 5 5 5 5 5 6 5 5 5 5 5 5 5 5 5 5 5 5 5 5 5 5 5 5 6 5 5 5 5 5 5 5 5 5 5 5 6 5 5 5 5 5 6 5 5 5 5 5 5 5 5 5 5 5 5 5 5 6 5 5 5 5 5 5 5 5 5 5 5 5 5 5 6 5 6 5 5 5 5 6 5 5 5 5 5 5 5 5 5 5 5 5 6 5 6 5 5 5 5 6 5 5 5 5 5 5 5 6 5 5 5 5 5 5 5 6 5 5 5 6 5 6 5 5 5 5 5 5 5 5 5 6 5 5 5 5 5 5 5 5 5 5 5 5 5 5 5 5 5 5 5 5 5 5 5 5 5 5 5 5 5 5 5 5 5 5 5 5 5 5 5 5 5 5 5 6 5 5 6 5 5 5 5 5 5 5 5 5 5 6 5 5 5 5 5 6 5 5 6 5 5 5 5 5 5 6 5 5 5 5 6 5 5 6 5 6 5 5 5 5 5 5 5 5 5 5 5 6 5 6 5 5 5 5 6 5 5 5 5 5 5 5 5 5 5 5 5 5 5 5 5 5 5 5 5 5 6 5 5 5 5 6 5 5 5 5 5 5 5 6 5 5 5 5 5 6 5 5 5 6 5 5 5 6 5 5 6 5 5 5 6 5 5 6 5 5 5 5 5 5 5 5 5 5 5 5 5 5 5 5 5 5 5 5 5 5 5 5 5 5 5 5 5 5 5 6 5 5 5 5 5 5 5 5 5 5 5 6 5 5 5 5 5 5 5 5 5 5 5 5 5 5 5 6 6 5 5 5 6 5 5 5 5 6 5 5 6 5 5 5 5 5 5 5 5 5 5 5 5 5 6 6 5 5 5 5 5 5 5 5 5 5 5 6 5 5 6 5 5 5 5 5 5 5 5 5 5 5 5 5 5 5 5 5 5 5 6 5 5 5 6 5 5 5 5 5 6 5 5 5 5 5 5 5 5 5 5 5 5 5 5 5 5 5 5 5 5 6 5 5 6 5 5 5 5 5 5 5 5 5 5 5 5 5 5 5 5 5 5 5 6 5 5 5 5 5 5 5 5 5 5 5 5 5 5 5 5 5 5 5 5 5 5 5 5 5 5 5 5 5 5 5 5 6 5 5 5 5 5 5 6 5 5 5 5 5 6 5 5 5 5 6 5 5 5 5 5 5 5 5 5 5 5 5 5 5 5 5 5 5 5 5 5 5 6 5 5 5 5 5 5 5 6 5 5 6 5 5 6 5 5 5 5 5 5 6 5 5 5 5 5 5 5 5 5 5 6 5 6 5 5 5 5 5 5 5 5 6 5 5 6 5 5 5 6 5 5 5 6 5 5 5 6 6 5 5 6 5 5 6 5 5 6 5 5 5 5 5 5 5 5 5 6 5 5 5 6 5 5 5 6 5 5 5 6 5 6 5 5 6 5 5 5 5 5 5 5 5 6 5 5 6 5 5 5 5 5 5 5 5 5 5 5 5 5 6 5 6 5 5 5 6 6 5 6 5 5 5 5 6 5 6 5 5 5 5 5 5 5 5 5 6 5 5 5 5 5 5 5 5 5 5 5 5 5 5 5 5 5 5 5 5 5 5 5 5 5 5 5 5 6 5 5 5 5 5 5 6 5 5 5 5 5 5 6 5 5 5 5 5 5 6 5 5 5 6 5 5 5 6 5 5 6 5 5 5 5 5 5 6 5 5 5 6 6 5 5 5 5 5 5 5 5 5 5 5 5 5 5 5 5 5 6 5 5 5 5 5 5 5 6 5 5 5 5 5 6 5 5 5 5 5 6 5 5 6 5 5 5 5 6 5 5 5 5 5 5 6 5 6 5 6 6 5 6 5 5 5 6 5 5 5 5 5 6 5 5 5 6 5 5 5 5 6 6 6 5 5 5 5 6 6 5 6 5 5 5 5 5 5 6 5 6 5 5 6 5 5 5 6 5 5 6 5 5 5 5 5 5 5 5 5 5 5 5 6 5 5 5 5 6 5 5 5 5 6 5 5 5 5 5 5 5 5 5 6 6 6 5 5 5 6 6 5 5 6 5 6 5 5 5 5 5 5 5 6 5 5 5 5 5 5 5 5 5 5 5 5 5 5 5 5 6 5 5 5 5 5 5 5 5 5 6 5 5 6 5 6 5 6 5 5 6 5 5 5 6 6 5 5 6 5 5 5 6 5 5 5 5 6 5 5 5 5 5 5 5 5 5 5 5 6 6 5 5 5 5 5 5 5 5 5 5 5 5 5 5 5 5 5 5 5 5 5 5 5 5 5 5 5 5 5 5 5 5 6 5 5 5 5 5 5 5 5 5 5 5 5 5 5 5 5 5 5 5 6 5 5 5 5 5 5 6 6 5 5 6 6 5 5 5 6 5 5 5 5 5 5 5 5 5 5 5 5 5 5 5 5 5 5 5 5 5 5 5 6 5 6 5 6 5 5 5 5 5 5 6 5 6 6 5 5 6 5 5 5 5 5 5 6 6 5 5 6 6 5 5 6 6 5 5 5 5 5 5 5 5 6 5 5 5 5 5 6 5 5 6 5 5 5 6 5 5 5 5 5 5 5 5 5 5 5 5 5 5 5 5 5 5 5 5 5 5 5 5 5 5 5 5 5 5 5 5 5 5 6 5 5 6 5 6 6 5 5 5 5 5 5 5 5 5 6 5 5 5 5 5 6 5 5 5 5 5 5 5 6 5 5 5 5 5 5 5 5 6 5 5 5 5 5 6 5 5 5 5 5 5 5 5 5 5 5 5 5 5 5 5 5 5 5 5 5 5 5 5 5 5 5 5 5 5 6 6 5 5 5 5 5 5 5 6 5 5 5 6 5 6 5 5 5 5 5 5 5 5 5 5 5 5 5 5 5 5 5 5 5 5 5 6 5 5 5 5 5 5 6 5 5 5 5 5 5 5 6 5 5 6 5 5 5 5 5 5 6 5 5 5 6 5 5 6 6 5 5 5 5 5 5 5 5 5 5 5 5 5 5 5 5 5 5 5 5 5 5 5 5 5 5 5 5 6 5 5 5 5 5 5 5 5 5 5 5 5 5 5 5 5 5 5 5 6 5 5 5 6 6 5 5 5 5 5 6 5 5 5 6 5 5 5 5 5 6 5 5 5 5 5 5 5 5 5 5 5 5 5 5 5 5 5 5 5 5 5 6 5 5 5 5 5 5 6 5 5 5 5 5 5 5 5 5 5 5 5 6 5 5 5 5 6 5 6 5 5 5 5 5 5 5 5 5 5 5 5 5 6 5 5 5 5 5 6 5 5 5 5 5 5 6 5 5 5 5 5 5 5 5 5 5 5 5 6 5 5 6 5 5 6 5 5 6 5 5 5 5 5 5 5 5 5 5 6 5 5 5 5 5 5 5 5 6 5 5 5 6 5 5 5 6 5 5 6 5 5 5 6 5 5 5 5 5 6 5 6 5 5 5 5 6 6 5 5 5 6 5 5 5 5 6 5 5 5 5 5 5 5 5 5 5 5 5 5 5 5 6 5 5 6 6 5 5 5 5 6 5 5 5 5 5 5 6 5 5 5 5 5 5 6 5 5 5 5 5 5 5 5 6 5 5 5 5 5 5 5 5 5 5 6 5 5 6 5 5 6 5 5 5 5 5 6 6 5 5 6 6 5 6 5 6 5 6 6 5 5 6 5 6 5 6 5 6 5 6 5 5 6 5 6 5 6 5 5 5 5 5 5 6 5 5 5 6 5 5 5 5 5 5 5 5 5 6 5 5 6 5 6 5 6 5 5 5 6 6 5 5 5 5 5 5 5 5 5 5 5 6 5 5 5 5 5 6 5 5 5 5 5 5 5 5 5 5 5 5 5 5 5 5 5 6 5 5 5 5 5 5 6 5 5 5 6 5 5 6 5 5 5 6 5 6 6 5 5 5 5 5 5 5 5 5 6 5 5 5 5 5 5 5 6 5 6 5 6 5 5 5 5 5 5 5 5 5 5 5 5 5 5 5 5 5 5 5 5 5 5 5 5 5 5 5 5 5 5 5 5 5 5 5 5 5 6 5 5 6 6 5 5 5 5 6 5 5 5 5 5 6 5 5 6 6 5 5 5 5 5 5 6 5 6 5 5 6 6 5 6 5 5 5 6 5 5 5 5 6 5 5 5 6 5 5 6 6 5 5 5 6 5 5 5 5 6 5 5 6 5 5 5 6 5 5 6 5 5 5 6 5 6 5 5 6 5 5 6 6 5 5 6 5 6 6 5 5 5 5 6 5 5 5 5 6 5 5 5 5 5 5 5 5 5 5 5 5 6 5 5 5 5 6 5 6 5 5 5 5 5 6 6 6 5 5 5 5 5 5 5 5 6 5 5 5 5 5 5 6 5 5 5 5 6 5 5 5 5 5 5 5 5 5 5 5 5 5 5 5 5 5 5 6 5 6 5 5 6 6 5 6 5 5 6 5 6 5 6 5 6 5 5 5 5 6 5 5 5 6 5 5 5 5 5 5 5 5 5 5 5 5 5 5 5 5 5 5 5 5 5 5 5 5 5 6 5 5 5 5 5 6 5 5 5 5 5 5 5 5 5 5 5 6 5 5 5 5 5 6 5 5 6 6 5 5 5 6 5 5 6 6 5 6 5 5 5 5 5 5 5 5 5 5 5 5 5 5 5 5 6 5 5 5 5 6 5 5 5 5 5 5 5 5 6 6 5 5 6 5 5 5 5 5 5 5 5 5 6 6 5 5 6 5 5 5 6 5 5 5 5 5 5 5 5 5 5 5 5 5 5 5 5 5 5 5 5 5 5 5 5 5 5 6 5 5 5 5 5 5 5 5 5 5 5 5 5 5 5 5 5 5 5 5 6 5 5 5 6 6 5 5 5 6 5 5 6 5 5 5 5 5 6 5 6 5 5 5 5 5 5 5 5 6 5 5 5 6 5 5 6 5 6 5 5 5 6 5 5 5 6 5 5 5 5 5 5 5 5 5 5 5 5 5 5 5 5 5 6 5 5 5 5 5 5 5 5 5 6 5 5 5 5 5 5 5 5 6 5 5 5 5 5 5 5 5 5 5 5 5 5 6 5 5 5 6 5 5 5 5 5 5 5 5 5 5 5 5 5 5 5 5 5 5 5 6 5 5 5 6 5 6 5 5 5 6 5 5 5 6 6 5 5 5 5 5 5 5 5 5 5 5 5 5 5 5 5 5 5 5 5 5 5 6 5 5 5 5 6 5 5 5 5 6 5 5 5 5 5 5 5 6 5 5 5 5 6 5 5 5 5 5 5 6 5 5 5 5 5 5 6 5 5 5 6 5 5 5 5 5 5 5 5 5 6 5 5 5 5 5 5 6 5 5 5 5 5 5 5 5 5 5 5 6 5 5 6 5 5 5 5 5 6 5 5 6 5 5 5 5 5 5 5 6 6 5 5 5 5 6 5 5 5 5 5 5 6 5 5 5 5 5 5 5 5 5 5 6 5 5 5 5 5 5 5 5 5 5 5 5 6 5 6 5 5 5 6 5 5 6 5 5 5 5 6 5 5 5 5 5 6 5 5 5 5 5 5 5 5 6 5 5 5 5 6 5 5 5 5 5 5 5 6 5 5 5 5 5 5 5 5 5 5 6 5 5 5 6 5 6 5 5 5 5 5 5 6 5 6 5 6 5 5 5 5 6 5 5 5 5 5 5 5 5 5 5 5 5 5 5 6 5 6 5 5 5 5 5 5 5 6 5 5 5 5 5 5 5 5 5 5 5 5 5 6 5 5 5 5 6 5 5 5 5 5 5 5 5 5 5 5 5 5 5 5 5 5 5 5 5 5 5 5 5 6 5 5 5 5 6 5 5 5 6 5 5 6 5 5 6 5 5 5 5 5 5 5 5 5 5 5 5 5 5 5 6 5 5 6 5 5 5 5 5 5 5 6 5 5 5 5 5 6 5 5 5 6 5 5 5 6 5 5 5 5 5 5 5 6 5 5 5 6 5 6 6 5 5 5 5 5 6 5 5 5 5 5 5 5 5 5 5 6 5 5 5 5 5 5 5 5 5 5 5 5 5 5 5 5 5 5 5 5 5 5 5 5 5 5 5 5 5 5 5 5 5 5 5 5 5 6 5 5 5 5 5 5 5 5 5 5 5 5 5 5 5 5 6 5 5 5 5 5 5 5 5 5 6 5 5 5 5 5 5 5 6 5 5 5 5 5 5 5 5 5 5 5 5 5 5 5 5 5 5 5 5 5 6 5 5 5 5 5 5 5 5 5 5 5 5 5 5 5 5 5 6 5 5 5 5 5 5 5 5 5 5 5 5 5 5 5 5 5 5 5 5 5 5 5 5 5 5 5 5 5 5 5 5 5 5 5 5 5 5 5 5 5 5 5 5 5 5 6 5 5 5 5 5 5 5 5 5 5 5 5 5 6 5 6 5 5 5 5 5 6 5 5 5 5 5 6 6 5 5 5 5 5 5 5 5 5 5 5 5 5 5 5 5 5 6 6 5 5 5 5 5 5 6 5 6 5 5 5 5 5 5 5 5 5 6 5 5 5 5 5 5 5 5 5 5 5 5 5 5 5 5 5 5 5 6 5 5 5 5 5 6 5 6 5 5 5 5 5 5 5 6 5 5 5 6 5 5 5 6 5 5 6 5 5 5 6 5 5 6 5 6 5 6 5 5 6 5 5 5 5 5 5 5 5 5 5 5 5 5 5 5 5 5 5 5 5 5 6 5 6 5 5 5 5 5 5 5 6 5 5 5 5 5 5 5 5 5 5 5 5 5 5 5 5 5 5 5 6 5 5 5 6 5 5 5 5 5 5 5 5 5 5 6 5 5 5 5 6 5 5 6 5 5 5 5 5 6 5 5 5 5 6 5 6 5 5 6 5 5 5 5 5 5 5 6 5 5 6 5 6 5 5 5 5 5 5 5 5 5 5 5 5 5 5 5 5 5 5 6 5 5 5 5 5 5 5 6 5 5 5 5 6 5 5 5 5 5 5 5 5 5 6 5 5 5 5 6 5 5 5 5 5 5 5 5 5 5 5 5 6 5 5 5 5 5 5 5 5 5 6 5 5 5 5 5 5 5 5 5 5 5 5 6 5 5 6 5 5 5 5 5 5 5 5 5 6 6 6 5 5 5 6 5 5 5 5 5 5 6 5 5 5 6 6 5 5 5 5 5 5 5 5 5 5 5 5 6 5 5 5 6 6 5 5 5 5 5 6 5 5 5 5 6 5 5 5 5 6 5 5 5 5 5 6 6 6 5 5 5 6 6 5 5 5 5 5 5 5 5 5 6 6 5 5 5 6 6 5 5 5 5 5 5 5 5 5 5 5 5 5 5 5 5 5 6 5 6 5 5 5 5 6 5 5 5 5 5 5 5 6 5 5 5 5 5 5 5 6 5 5 6 5 6 6 5 5 5 6 6 5 5 5 6 6 5 5 5 5 5 5 5 5 5 5 6 5 5 5 5 5 5 5 6 5 5 5 5 6 5 5 5 5 5 5 6 5 5 5 5 6 5 6 5 5 5 5 5 5 5 5 5 5 5 5 5 5 6 5 5 5 5 5 5 5 6 5 5 5 5 6 5 5 5 6 5 5 5 5 5 5 5 5 5 5 5 5 5 5 5 5 5 5 5 5 5 5 6 5 6 5 5 6 5 5 5 6 5 5 6 5 5 5 5 5 5 5 5 5 5 5 5 5 5 5 5 5 5 5 5 6 6 6 5 5 5 5 5 5 5 5 5 5 5 5 5 6 5 5 5 6 5 5 6 5 5 5 5 6 5 5 6 6 5 5 5 5 6 5 5 6 5 6 5 5 5 5 5 5 5 5 5 5 5 5 6 5 5 5 5 5 5 5 6 5 6 5 5 5 5 6 5 5 5 5 5 5 5 5 5 5 5 5 5 5 5 5 5 5 5 5 5 5 5 6 5 5 5 6 5 6 5 5 5 6 5 5 5 5 5 6 5 5 6 5 5 5 5 5 5 5 5 6 5 5 5 5 5 6 5 5 5 5 5 5 5 5 5 5 5 5 5 5 6 5 5 5 5 6 5 5 5 5 5 5 5 5 5 5 5 5 6 5 5 5 5 6 5 5 5 5 5 5 5 5 5 5 5 5 5 6 5 5 6 5 5 5 6 5 5 5 5 5 5 5 5 5 5 5 5 5 6 6 5 6 6 5 5 5 6 6 5 6 5 6 5 6 5 5 5 6 5 6 5 5 5 5 6 5 5 5 5 5 5 6 5 5 5 5 5 6 5 5 6 5 5 6 5 5 6 5 5 5 5 5 6 5 6 5 5 5 5 5 5 5 5 5 5 5 5 5 6 5 5 6 5 5 5 5 5 5 5 5 5 6 5 5 5 5 5 5 5 5 5 6 5 5 6 5 6 5 5 5 5 5 5 5 6 5 5 5 5 5 5 5 6 5 6 5 5 6 5 5 5 6 5 5 5 5 6 5 5 5 5 5 6 5 5 5 5 5 5 5 5 5 5 5 5 5 5 5 5 5 5 5 5 5 6 5 5 6 5 5 5 6 5 5 5 5 6 5 5 5 5 5 5 5 5 5 5 5 5 5 5 5 5 5 5 5 5 5 5 5 6 5 5 5 5 5 5 6 5 5 5 5 5 5 5 5 5 5 5 5 5 6 5 6 5 5 6 5 5 5 5 6 6 5 6 5 6 5 5 5 5 5 6 5 5 6 6 5 5 5 5 5 6 5 5 6 5 5 5 5 5 5 5 5 6 6 5 5 5 6 5 6 5 5 5 5 5 6 5 6 5 5 5 5 5 6 6 5 5 5 5 6 5 5 5 5 6 5 5 5 5 5 5 5 5 5 5 5 5 5 5 5 5 5 6 5 5 6 5 5 5 6 5 5 5 5 5 5 5 5 5 5 5 5 5 5 5 5 5 5 5 6 5 5 5 5 5 5 5 5 5 5 5 5 5 5 6 6 5 5 5 6 5 5 5 5 5 6 5 5 5 5 5 5 5 5 5 5 5 6 5 5 6 5 5 5 5 5 5 5 5 5 5 6 5 5 5 6 5 6 5 6 5 5 5 6 6 5 6 5 5 6 5 5 6 6 5 5 5 6 5 5 6 5 6 5 5 5 6 5 5 6 6 5 6 5 5 6 5 6 5 5 5 5 5 5 5 5 5 6 5 5 5 5 5 6 5 5 5 5 5 5 5 5 5 5 6 5 5 5 5 6 6 5 5 6 5 6 5 5 5 5 5 6 5 5 6 5 6 5 5 5 5 5 5 5 6 5 5 5 5 5 5 5 5 5 6 5 6 5 6 5 6 5 5 5 5 6 5 5 5 5 5 6 6 5 5 5 5 5 5 6 5 5 5 5 5 6 5 5 5 5 6 5 5 6 5 6 5 5 5 6 5 6 5 5 6 6 6 5 5 5 5 5 5 6 6 6 5 5 5 5 6 5 6 5 6 5 5 5 5 5 5 6 5 5 5 5 5 5 5 5 5 5 5 5 5 5 5 5 5 5 5 5 5 5 5 5 5 5 5 5 5 5 5 5 5 5 5 5 5 5 5 5 5 5 5 5 5 5 5 5 5 6 5 5 5 6 6 5 5 5 5 5 5 5 5 5 5 5 5 5 5 5 5 5 5 5 6 5 5 5 5 5 5 5 6 5 5 6 5 5 6 5 5 6 5 6 5 5 6 5 5 5 6 5 6 5 6 6 5 5 5 6 6 5 5 6 5 5 6 5 5 5 5 5 5 5 5 5 5 5 5 6 5 5 5 5 6 5 5 5 5 6 5 5 5 5 5 5 5 5 5 6 5 6 5 5 5 5 6 5 5 5 6 5 5 5 5 5 5 6 5 5 6 5 5 5 6 5 5 5 5 5 5 5 6 5 5 5 5 5 6 5 5 5 5 5 5 5 5 5 5 5 5 5 5 5 6 5 5 5 5 5 6 5 5 6 5 6 5 5 5 5 6 6 5 5 6 5 5 5 5 5 5 5 5 5 5 5 6 5 6 5 5 5 5 5 6 5 5 5 6 5 5 5 6 5 5 5 5 5 5 5 5 5 5 5 5 5 6 5 5 5 5 5 5 5 6 5 6 5 5 5 5 5 5 5 6 6 5 5 5 5 5 5 5 5 5 6 5 5 5 5 5 5 6 6 6 5 6 5 5 5 5 5 5 6 5 6 5 6 5 6 5 5 5 5 5 5 6 5 5 6 5 5 5 5 6 5 5 5 5 5 5 5 5 5 5 5 5 5 5 5 5 5 5 5 5 5 6 5 6 5 5 5 5 5 5 5 5 5 5 5 5 5 5 5 5 5 5 5 5 5 5 5 5 5 5 5 5 5 5 5 5 5 5 5 5 5 5 5 5 5 5 5 5 5 5 5 5 5 5 5 5 5 5 5 5 5 5 6 5 5 5 5 5 5 5 5 5 5 5 5 5 5 5 5 5 5 5 5 5 5 5 6 5 5 5 6 5 6 5 5 5 5 5 5 5 5 5 5 5 5 5 5 5 5 5 5 5 5 5 5 5 5 5 5 5 5 5 5 5 5 5 5 5 5 5 5 5 6 5 6 5 5 5 5 5 5 5 5 5 5 5 5 5 5 5 5 5 5 5 5 5 5 5 5 5 6 5 5 5 5 5 5 5 5 5 5 5 5 5 5 5 5 5 5 5 5 5 5 5 5 5 5 5 5 5 5 5 5 5 5 5 5 5 5 5 5 5 5 5 5 5 5 5 5 5 5 5 5 5 5 5 5 5 5 5 5 5 5 5 5 5 5 5 5 5 6 5 5 5 5 5 5 5 6 5 5 6 5 5 5 5 5 5 5 5 5 5 5 5 5 5 5 5 5 5 5 5 6 5 5 5 5 5 5 5 5 5 5 5 5 5 5 5 5 5 5 5 5 5 5 5 5 5 5 5 5 5 5 5 5 6 5 5 5 5 6 5 6 5 5 5 5 5 5 6 5 5 6 5 5 6 6 5 6 5 5 5 6 5 5 5 5 5 5 5 5 5 5 5 5 5 5 5 6 5 5 5 5 5 5 5 5 6 5 5 5 5 5 5 5 5 5 5 5 5 5 5 5 5 5 5 5 5 5 5 5 5 5 5 5 5 5 5 5 5 5 5 5 5 6 5 5 5 5 5 5 5 6 5 5 6 5 6 5 5 5 5 5 5 5 5 5 5 5 6 6 5 5 6 5 5 6 6 5 5 5 5 6 5 6 5 5 6 5 6 6 5 6 5 6 5 5 5 5 5 5 5 6 5 6 5 5 5 5 5 6 5 5 5 6 5 5 6 5 6 5 6 6 5 5 6 5 5 5 5 5 5 6 5 5 5 5 5 5 5 5 6 6 5 5 5 6 5 5 5 5 6 6 5 6 5 5 5 6 5 5 5 5 5 5 5 5 5 5 5 5 5 5 5 5 6 5 5 5 5 5 5 6 5 6 5 5 5 6 6 5 5 6 5 6 5 5 5 5 5 5 5 5 5 5 5 5 6 6 5 5 5 5 5 6 5 5 5 5 5 5 5 6 5 5 5 6 5 6 5 5 6 5 5 5 5 5 5 5 5 5 6 5 5 6 5 5 5 5 5 5 5 5 5 5 5 6 5 5 5 5 5 5 5 5 5 5 5 5 5 5 5 5 5 5 5 5 5 5 6 5 5 5 5 5 5 5 5 5 5 5 6 5 5 5 5 6 5 5 5 5 5 5 5 5 5 5 5 6 5 5 5 5 5 6 5 6 5 5 5 5 5 5 5 5 5 6 5 5 6 5 5 6 5 5 5 5 6 5 5 5 5 5 5 5 5 5 5 5 5 5 5 5 5 5 5 5 5 5 6 5 5 6 5 6 5 5 5 5 5 5 5 5 5 6 5 5 6 6 6 5 5 5 6 5 5 5 5 5 5 6 6 5 6 5 5 6 5 5 6 5 5 5 5 6 5 5 5 5 6 5 5 5 5 5 5 5 5 5 5 5 6 5 5 6 5 6 6 5 5 6 6 6 5 5 5 5 5 5 5 5 5 5 6 5 5 5 5 5 5 5 5 5 6 5 5 5 5 5 6 5 5 5 5 5 5 5 5 5 5 6 5 5 5 5 5 5 5 5 5 5 5 5 5 5 5 5 5 5 5 5 5 5 5 5 6 6 5 5 5 5 5 5 5 5 6 5 5 5 5 5 5 5 5 5 5 5 5 5 5 5 5 6 5 5 5 5 6 5 5 5 6 6 5 5 5 5 5 5 6 5 6 5 5 5 6 5 5 5 5 5 5 5 5 6 5 6 6 5 5 5 5 5 5 5 5 5 5 5 5 6 5 5 6 5 6 5 5 5 5 5 5 5 5 5 5 5 5 5 5 5 5 5 5 5 5 5 5 5 6 5 5 5 5 5 6 5 5 5 5 5 5 5 5 5 5 6 5 5 5 6 5 5 5 5 5 5 5 5 5 5 5 6 6 5 5 5 5 5 6 5 5 5 6 5 5 5 5 5 5 5 5 5 5 6 5 5 5 5 5 5 5 6 6 5 6 5 5 5 5 6 5 5 5 5 5 6 5 5 5 5 5 5 5 5 5 5 6 5 5 5 5 5 5 5 5 5 5 6 5 5 5 5 5 5 5 6 5 5 5 5 5 5 5 5 5 5 5 5 5 5 5 5 5 5 5 5 6 5 5 5 6 5 5 5 5 5 5 5 5 5 5 5 5 5 6 5 6 6 5 6 6 5 5 5 5 5 6 5 5 5 5 5 5 5 6 5 5 6 5 5 6 5 5 6 5 5 6 6 6 6 5 5 6 6 5 5 6 5 5 6 5 5 5 5 6 6 6 6 5 5 5 6 5 6 5 6 5 6 6 5 5 5 5 5 5 5 6 5 5 6 5 6 5 5 6 6 5 5 5 5 5 5 5 5 5 5 5 5 5 5 5 5 5 6 5 5 5 5 5 5 5 5 5 5 5 5 5 5 5 5 5 6 5 5 5 5 5 5 5 5 5 5 5 5 5 5 6 6 5 5 5 5 6 5 6 5 5 5 6 6 5 6 5 5 5 5 5 5 5 5 5 5 5 5 5 5 5 5 5 5 5 6 5 6 5 5 5 5 6 5 5 5 5 5 5 5 5 5 5 5 5 5 5 5 5 5 5 5 5 6 5 5 5 5 5 5 5 5 5 5 5 5 5 5 6 5 5 5 5 5 5 5 5 5 5 5 5 5 5 5 5 5 5 5 5 5 5 5 5 5 5 5 5 5 5 5 5 5 5 5 5 5 5 5 5 5 5 5 5 5 5 5 5 5 5 5 5 5 5 5 5 5 5 5 5 5 5 6 5 5 5 6 5 5 6 5 5 5 5 5 5 5 5 5 5 5 6 5 5 5 5 6 5 5 5 5 5 5 5 5 5 5 5 5 5 5 5 5 5 5 5 5 5 5 5 5 5 5 5 5 5 6 5 5 5 5 6 5 5 5 5 5 5 5 5 5 5 6 5 5 6 5 5 5 5 5 5 5 5 5 5 5 5 6 5 5 5 5 5 5 5 5 6 5 5 5 5 5 5 5 5 5 5 6 5 6 5 5 5 6 5 5 5 6 5 6 5 6 6 5 5 5 5 5 6 5 5 5 5 5 5 5 5 5 5 5 5 5 5 5 5 5 5 5 5 5 5 5 6 5 5 6 5 5 5 6 5 6 5 5 5 5 5 5 5 5 5 5 5 5 6 5 5 5 5 5 5 5 5 5 5 5 5 5 5 5 5 5 5 5 6 5 5 5 5 5 5 5 5 5 5 5 5 5 5 5 5 5 5 5 5 5 5 5 5 5 5 5 6 5 5 5 5 5 5 5 5 5 5 5 5 5 5 5 5 5 5 6 5 5 5 6 5 5 5 6 6 5 5 5 5 5 6 5 5 5 5 5 5 5 6 6 5 5 5 6 5 6 5 5 5 5 5 5 6 6 5 5 6 6 5 5 5 5 5 5 5 5 5 5 6 5 5 5 5 5 5 6 5 5 5 5 5 5 5 5 5 5 5 5 5 5 5 5 5 6 5 5 5 5 6 5 5 6 5 5 5 5 5 5 5 5 5 5 5 6 5 6 5 6 5 5 5 5 5 5 5 5 5 5 5 5 5 5 5 5 5 5 5 6 5 5 6 5 5 5 6 5 5 6 5 5 5 5 6 5 5 5 5 5 5 5 6 5 5 5 5 5 5 5 5 5 5 5 5 5 5 5 5 5 5 5 5 5 5 5 5 5 5 5 5 5 6 5 5 5 5 5 5 5 5 5 5 5 5 5 5 5 5 5 5 5 5 5 5 5 5 5 5 5 5 5 5 5 5 5 5 5 5 5 6 6 6 5 5 6 5 5 5 6 5 6 5 5 5 5 5 6 5 5 5 5 5 5 5 6 5 5 5 5 5 5 5 5 5 5 5 5 5 5 6 5 5 5 6 5 6 5 5 5 5 5 5 5 5 6 5 5 5 5 5 5 5 6 5 6 5 6 5 5 5 5 5 5 5 5 6 5 5 6 6 6 5 6 5 6 5 5 5 5 5 5 5 5 5 5 5 5 5 5 5 5 5 5 5 5 5 6 5 5 6 6 5 5 5 6 5 5 5 5 5 5 5 6 5 6 5 5 5 5 6 5 5 6 5 5 5 5 5 5 5 6 5 5 6 5 5 5 6 5 5 5 5 5 5 5 5 5 6 5 5 5 5 5 5 6 5 5 6 5 5 5 5 6 5 5 5 5 5 5 6 6 6 5 5 5 6 5 6 5 6 5 5 5 5 5 5 6 5 5 5 6 5 5 5 6 5 5 5 5 5 5 5 5 5 5 5 5 6 5 5 5 6 5 5 5 5 5 6 6 5 5 6 5 6 6 6 5 5 5 6 5 5 5 5 5 6 5 5 5 5 5 5 5 5 5 5 5 5 6 5 5 5 5 5 5 6 5 5 6 5 5 6 5 5 5 5 5 6 5 5 6 5 6 5 6 5 5 5 5 5 5 6 5 5 5 5 6 5 5 5 5 5 5 5 5 5 5 6 5 5 5 5 5 6 5 5 5 5 5 5 5 5 5 5 5 5 5 5 5 6 5 5 5 5 5 6 5 6 5 5 5 5 5 6 5 5 5 5 5 6 5 5 5 5 5 6 5 5 5 5 5 5 5 5 5 5 6 5 6 5 6 5 5 6 5 5 5 5 5 5 5 5 6 5 6 5 5 5 5 5 5 5 5 5 5 6 5 5 5 5 5 5 5 5 5 5 6 5 5 5 6 5 6 6 5 5 5 6 5 5 5 6 6 5 5 5 5 5 5 5 5 5 5 6 6 5 5 5 5 5 6 5 5 5 5 5 5 5 5 5 5 6 5 6 6 6 5 5 5 5 5 5 5 5 6 5 5 5 5 5 5 5 5 5 5 5 5 5 5 5 5 5 5 5 5 5 5 5 5 5 5 5 5 5 6 5 5 5 5 6 5 5 5 5 5 5 5 5 6 5 5 5 5 5 5 5 5 6 5 5 5 5 5 5 5 5 5 5 5 5 5 5 5 5 5 5 5 5 5 5 5 5 5 5 6 5 5 5 5 5 5 6 5 6 5 5 6 5 5 5 6 5 6 5 5 5 6 5 5 5 6 5 5 5 5 5 5 6 5 5 5 5 5 5 5 5 5 5 5 5 5 5 5 5 5 5 5 5 5 5 5 5 5 5 5 6 5 6 5 5 5 5 6 5 5 5 5 5 5 5 5 5 5 5 5 5 6 5 5 6 5 5 6 5 5 5 5 5 6 5 5 5 5 5 5 5 5 6 5 6 5 5 5 5 5 6 6 5 5 6 5 5 5 6 5 5 5 5 5 5 5 6 5 5 5 5 5 5 5 5 5 5 5 5 5 5 5 5 6 5 5 5 5 5 6 5 6 5 5 5 5 5 5 5 5 5 5 5 5 6 5 6 5 5 5 5 5 5 6 6 5 5 5 5 5 5 5 5 5 5 5 5 5 5 5 5 5 5 5 5 5 6 5 5 6 5 5 5 5 5 6 5 5 5 5 5 5 6 5 5 5 5 5 5 5 5 5 5 5 5 5 5 5 5 6 5 5 6 5 5 5 5 6 5 5 5 5 5 5 5 5 5 5 5 6 5 5 5 5 5 5 5 5 5 5 5 5 5 5 5 5 5 5 5 6 5 5 5 5 5 5 5 5 5 5 5 5 6 5 5 5 5 5 5 5 5 5 5 5 5 5 6 6 5 5 5 5 5 5 6 5 5 5 5 5 5 5 5 5 5 5 5 5 5 5 5 5 5 5 5 5 5 5 5 5 5 5 5 5 5 5 5 5 5 5 6 5 5 5 5 5 5 5 5 6 5 5 5 5 5 5 5 5 5 5 5 5 6 5 5 5 5 6 5 6 5 5 5 5 5 5 5 5 6 5 5 5 5 5 5 5 5 5 5 6 5 5 5 6 5 5 6 5 5 5 5 6 5 5 6 5 5 5 5 5 5 5 5 6 5 5 5 6 5 5 5 5 5 5 5 6 5 6 5 6 5 6 6 5 5 5 6 6 6 5 5 6 5 5 5 6 5 5 5 5 6 5 5 5 5 5 5 5 5 5 5 5 5 5 5 5 5 5 5 5 5 5 5 5 5 5 5 5 5 5 5 5 5 5 5 5 5 5 5 6 5 5 5 5 5 5 5 5 6 5 5 5 5 6 5 5 6 5 5 6 5 5 5 5 6 5 5 5 5 5 6 5 5 5 5 5 5 5 5 5 5 5 5 5 6 6 5 5 5 6 5 5 5 5 5 5 5 5 5 5 5 5 5 5 6 5 5 5 5 5 5 6 5 5 6 5 5 5 5 5 5 5 5 5 5 6 5 5 5 5 5 6 5 5 5 5 5 5 5 5 5 5 6 5 5 5 5 5 5 5 5 5 5 5 5 5 5 5 6 5 5 5 5 5 5 5 5 5 5 5 5 5 5 5 5 5 5 5 5 5 5 5 6 5 6 5 5 5 6 5 5 5 5 5 5 5 5 5 6 5 5 5 6 5 5 5 5 5 5 5 5 5 5 5 5 5 5 5 5 6 5 5 5 5 5 6 5 5 5 6 5 6 5 5 5 5 5 5 6 5 5 5 5 5 5 5 5 5 5 5 5 5 5 5 5 5 5 5 5 5 5 5 5 5 5 5 6 5 5 6 5 5 5 5 5 5 5 6 5 5 5 5 6 5 5 6 5 5 5 5 5 5 6 5 5 5 6 5 5 5 6 5 5 5 5 5 6 5 5 5 5 5 6 5 5 5 5 5 5 5 5 6 5 5 6 5 5 5 5 6 5 5 5 5 6 5 5 5 5 6 5 5 5 6 5 6 5 5 5 5 5 5 5 5 5 5 6 5 5 5 5 5 5 5 6 6 5 5 5 5 5 6 5 5 5 5 5 6 5 5 5 6 5 5 6 5 5 6 5 5 5 6 5 5 5 5 5 5 6 5 5 5 5 5 6 5 5 5 5 5 6 5 5 5 5 5 5 6 5 5 5 5 6 5 5 5 5 5 6 5 5 5 5 5 5 5 5 5 5 6 5 5 5 5 5 5 5 6 5 5 5 5 6 6 5 5 6 5 5 5 5 5 5 5 6 5 5 5 5 5 5 5 6 5 6 5 5 6 5 5 5 5 6 5 6 5 5 5 5 5 5 5 5 5 5 6 5 5 5 5 5 6 5 5 5 6 5 5 5 5 6 5 5 6 5 5 5 5 5 6 5 6 5 6 6 5 5 5 5 6 6 5 5 5 5 5 5 5 5 5 5 5 5 5 6 5 5 5 5 5 5 6 6 5 5 5 5 5 5 5 5 5 5 5 5 5 6 5 5 5 5 5 5 5 5 5 5 5 5 5 5 5 5 5 5 5 5 5 5 5 5 5 5 5 5 5 5 5 5 5 6 5 5 6 5 5 5 5 5 5 5 6 5 5 5 6 5 5 6 5 5 5 6 6 5 5 5 5 6 6 5 5 5 5 5 5 5 5 5 5 5 5 5 5 6 5 5 6 5 5 5 6 5 5 5 5 6 5 5 6 5 5 5 5 5 5 5 5 5 5 5 6 5 5 5 5 5 5 5 6 5 5 5 5 5 5 5 5 5 5 5 5 5 5 5 5 5 5 6 5 5 5 5 5 5 6 5 6 5 5 5 5 5 6 5 5 6 5 5 5 6 5 5 5 6 5 5 5 5 5 5 5 5 5 5 5 5 5 5 6 5 5 5 5 6 6 5 5 5 5 5 5 5 5 5 5 5 5 5 5 5 5 5 5 5 6 5 5 5 5 5 5 5 5 6 5 6 5 5 5 5 5 5 5 6 5 6 5 5 5 5 5 6 5 5 5 5 5 5 6 5 5 5 5 5 6 6 5 5 5 6 6 6 5 5 5 5 5 6 5 5 5 5 5 6 5 5 5 5 6 5 6 6 5 6 6 5 5 5 6 5 5 5 6 5 5 5 6 5 5 5 6 5 5 5 5 5 5 5 5 6 5 5 5 6 5 5 5 5 5 5 6 5 5 5 5 5 5 6 5 5 5 5 5 5 5 5 5 5 5 5 5 5 6 5 6 5 5 5 6 5 5 6 5 6 5 6 5 5 6 5 5 5 5 5 5 6 5 5 5 5 6 5 5 5 5 5 5 6 5 5 5 5 5 5 5 5 5 5 6 5 5 5 5 5 5 5 5 5 5 5 5 5 5 5 5 5 5 5 6 6 5 5 5 6 5 5 6 5 5 6 5 5 6 5 5 6 6 5 5 5 5 6 5 5 5 5 5 5 5 5 5 5 5 6 6 5 5 5 6 5 6 5 6 5 5 5 5 5 6 5 5 6 5 6 5 5 6 6 6 5 5 5 5 6 5 5 6 5 6 5 5 6 5 5 5 5 5 5 5 5 6 5 6 6 5 5 5 5 5 6 6 5 5 5 6 6 5 5 5 5 5 5 5 5 6 5 6 5 5 5 5 5 5 5 5 5 5 5 5 5 5 5 5 5 5 5 5 5 5 5 5 5 5 5 5 5 6 5 5 5 5 5 5 5 5 5 5 5 5 5 5 5 6 5 5 6 5 5 5 5 5 6 5 5 5 5 5 5 5 5 5 5 5 5 5 6 5 5 5 5 5 5 5 5 5 6 5 5 6 5 5 5 5 6 6 6 5 5 5 5 5 6 5 5 5 
</DataArray>
<DataArray type="Float64" Name="stress" NumberOfComponents="9" format="ascii">
315205.59644839657 -885934376.81135559 0 -885934376.81135559 5326084531.1107502 0 0 0 0 993064.75160345389 -1488174.4842758179 0 -1488174.4842758179 315576968.09744263 0 0 0 0 -118613.15927165924 -1438917.7718581446 0 -1438917.7718581446 2699379.2822984755 0 0 0 0 -758395734.25592208 592742223.20585632 0 592742223.20585632 1454579243.6510315 0 0 0 0 -817442220.02650106 -724627729.43843842 0 -724627729.43843842 5345865510.2341766 0 0 0 0 241817797.65441656 -1472360720.2822876 0 -1472360720.2822876 1737160876.8079376 0 0 0 0 395929674.3131038 -1531518740.9193268 0 -1531518740.9193268 1188677225.0448456 0 0 0 0 -66081.471511372394 -1622799.8668426238 0 -1622799.8668426238 2819191.9656040967 0 0 0 0 616172293.21994364 -2043574087.5010147 0 -2043574087.5010147 2146518067.822876 0 0 0 0 -340216.96774411201 -956102183.55532837 0 -956102183.55532837 3013074559.5777435 0 0 0 0 1063513.047451843 -793757197.20912433 0 -793757197.20912433 1411232310.1448669 0 0 0 0 -145923242.58929622 -533628696.88240814 0 -533628696.88240814 1859554461.9386673 0 0 0 0 160709477.49742973 -340217488.34095764 0 -340217488.34095764 1637599231.9521484 0 0 0 0 153423981.67704356 -310568838.19050598 0 -310568838.19050598 1778911255.1833496 0 0 0 0 3856820.1555270418 -266422057.40751648 0 -266422057.40751648 2075291968.5653687 0 0 0 0 -508541802.77939224 -1152406975.1990814 0 -1152406975.1990814 2402467275.9546356 0 0 0 0 -129968961.59609771 -532406068.36959839 0 -532406068.36959839 1567131372.15975 0 0 0 0 -390171590.84140944 -185894263.55194092 0 -185894263.55194092 1612901890.923357 0 0 0 0 -920935145.14285421 381351632.14823151 0 381351632.14823151 637410435.05654907 0 0 0 0 -2337662948.1331024 -376184973.14916611 0 -376184973.14916611 2142032087.2671661 0 0 0 0 -76084.861473526689 -2700483.371635153 0 -2700483.371635153 4907906.2650981247 0 0 0 0 615236103.65906978 -1249094175.5851135 0 -1249094175.5851135 -374103285.62288666 0 0 0 0 89868850.978677034 -1420007263.4671783 0 -1420007263.4671783 2213884586.5066833 0 0 0 0 -810305706.11739838 -1478723535.7757568 0 -1478723535.7757568 2210059813.7660923 0 0 0 0 -810070177.70587873 -2200427712.1842422 0 -2200427712.1842422 5343987365.1292114 0 0 0 0 -501087.92600651487 -3484223.1410712898 0 -3484223.1410712898 4668457.1272646487 0 0 0 0 -2221195078.3334842 1047002325.2591381 0 1047002325.2591381 3832159439.4391785 0 0 0 0 426192911.9837172 -2821132276.3607254 0 -2821132276.3607254 1876601480.866539 0 0 0 0 -1991364541.5920911 28507909.512077332 0 28507909.512077332 5342974490.9305267 0 0 0 0 -107637817.32235485 -258661264.51051331 0 -258661264.51051331 3037897951.8769073 0 0 0 0 -106945123.08526978 -889607099.11735475 0 -889607099.11735475 4156166184.3197937 0 0 0 0 -756469939.36572444 1199181197.4139328 0 1199181197.4139328 1226827402.2571259 0 0 0 0 2136630257.8787081 -2396943057.8668575 0 -2396943057.8668575 8311686806.37146 0 0 0 0 -511552.65571893845 1975474.14233483 0 1975474.14233483 7046426.5376960635 0 0 0 0 2262613474.8190503 -2355224069.9358215 0 -2355224069.9358215 3609451584.9731293 0 0 0 0 527403215.46157265 -1860216427.2275238 0 -1860216427.2275238 5358497497.0200768 0 0 0 0 1642969327.4531512 -1368994861.7012482 0 -1368994861.7012482 2216477597.80896 0 0 0 0 1691640681.7252183 -2030164706.2804489 0 -2030164706.2804489 2286291955.8338184 0 0 0 0 162502282.10855472 853774405.51852417 0 853774405.51852417 -1649677712.0474777 0 0 0 0 -541643316.61181962 3998733494.1707382 0 3998733494.1707382 -31046040.70602417 0 0 0 0 -308835952.91748214 280586560.6574173 0 280586560.6574173 289119256.23141479 0 0 0 0 -1593278269.6151175 -377136640.45786095 0 -377136640.45786095 354825050.35464478 0 0 0 0 -3331001.6642160392 3750904.3415445499 0 3750904.3415445499 17432066.684403479 0 0 0 0 -2044820213.5378098 1292927222.32901 0 1292927222.32901 -252119613.17880249 0 0 0 0 -1055290762.3630238 66671829.250701904 0 66671829.250701904 21136813.001079559 0 0 0 0 -619649377.44233966 147639720.43624878 0 147639720.43624878 8046343.3983612061 0 0 0 0 -1015442430.313098 86037269.687080383 0 86037269.687080383 113281366.61062622 0 0 0 0 -698525004.9020766 -5451356.2758712769 0 -5451356.2758712769 611881888.44543457 0 0 0 0 342048527.77243197 -820105955.55821228 0 -820105955.55821228 572459588.71028137 0 0 0 0 -324393232.39753652 -2460238206.6264954 0 -2460238206.6264954 1603281703.4026947 0 0 0 0 824599637.80010843 -1979391671.3742981 0 -1979391671.3742981 -393209499.52057648 0 0 0 0 1152687182.4395258 -2165155368.6515656 0 -2165155368.6515656 1561075617.4090841 0 0 0 0 1129305675.8588171 -1198866685.8851891 0 -1198866685.8851891 1557622766.5010071 0 0 0 0 -1335201067.846673 511475420.85078812 0 511475420.85078812 -154193397.97167969 0 0 0 0 -5315528.7735850792 3407249.7215613499 0 3407249.7215613499 21512633.492280699 0 0 0 0 -3519300.4333711527 -2459690.0385313109 0 -2459690.0385313109 3820390.6067694128 0 0 0 0 -864294055.3601011 -2521041661.168869 0 -2521041661.168869 2496797858.1844788 0 0 0 0 -979673815.35810947 -1123314333.9307098 0 -1123314333.9307098 2003597373.7272339 0 0 0 0 582025128.75381231 132082153.14073181 0 132082153.14073181 -72620807.235046387 0 0 0 0 30006181.192406178 -202320452.79611206 0 -202320452.79611206 404916580.99983215 0 0 0 0 -1488630748.284488 -83364623.425537109 0 -83364623.425537109 662233097.97561646 0 0 0 0 -1361348213.1666951 25409924.008767128 0 25409924.008767128 456318091.33877563 0 0 0 0 -1347630263.2695305 -809123054.05023193 0 -809123054.05023193 -558330854.34103394 0 0 0 0 -1229356923.3752594 -509673268.78094482 0 -509673268.78094482 170335317.43716431 0 0 0 0 -2612854.041067231 -6549784.9695428256 0 -6549784.9695428256 24318729.967502668 0 0 0 0 -945040253.25513983 -386841554.80201721 0 -386841554.80201721 -250671088.22937012 0 0 0 0 -673336602.14316559 160704159.32531738 0 160704159.32531738 -10843812.375022888 0 0 0 0 -643261654.32797885 271739867.44546127 0 271739867.44546127 208677350.21060181 0 0 0 0 -842337341.53462613 -82197394.675357819 0 -82197394.675357819 629988511.45431519 0 0 0 0 597556888.49549627 -531889570.66751862 0 -531889570.66751862 437654714.64929199 0 0 0 0 -38708021.416588306 -668837298.21453857 0 -668837298.21453857 660822150.38616943 0 0 0 0 -527407398.01346207 -13721860.370094299 0 -13721860.370094299 236890640.0435791 0 0 0 0 -1047038443.9696026 4112905.2141571045 0 4112905.2141571045 493503127.34030151 0 0 0 0 -289734165.14969254 -768731083.62957001 0 -768731083.62957001 264598366.63386536 0 0 0 0 -190487333.57438469 -578767237.05563354 0 -578767237.05563354 538043751.84313202 0 0 0 0 -622367450.49071074 20557264.472351074 0 20557264.472351074 -177933423.8102417 0 0 0 0 -161185817.61239213 -478127193.74529266 0 -478127193.74529266 855555797.85134888 0 0 0 0 784127491.59738469 -831691538.98295593 0 -831691538.98295593 242659837.65054321 0 0 0 0 703260747.18584824 -558280176.73776245 0 -558280176.73776245 -42881314.821166992 0 0 0 0 365043455.74007559 -904430403.52576447 0 -904430403.52576447 354926998.40222168 0 0 0 0 -19731186.805767059 -478519484.242836 0 -478519484.242836 -526746.13397216797 0 0 0 0 389880821.28481579 -365247387.33667755 0 -365247387.33667755 -220010510.62374115 0 0 0 0 353743900.70737171 -859329458.36408997 0 -859329458.36408997 272270320.73855591 0 0 0 0 371752835.06744266 -769000402.22148132 0 -769000402.22148132 11668652.605677128 0 0 0 0 371504635.90330869 -578839541.5278728 0 -578839541.5278728 -81849607.120910645 0 0 0 0 -1409343103.2319431 -85684568.066291809 0 -85684568.066291809 321515565.09214783 0 0 0 0 -1034386003.2138577 -295129383.20040894 0 -295129383.20040894 261349355.50997925 0 0 0 0 -1254271.7887861794 -5224731.7976254607 0 -5224731.7976254607 17557635.004690051 0 0 0 0 -478160662.51493263 452984815.21639252 0 452984815.21639252 108750803.68958282 0 0 0 0 -366181208.95163631 498417399.06837463 0 498417399.06837463 251290060.33699417 0 0 0 0 -529363868.87984592 212520030.4380703 0 212520030.4380703 323831227.67410278 0 0 0 0 -464657497.47866726 32171938.099227905 0 32171938.099227905 -181114328.18894958 0 0 0 0 -49970520.852308929 201298197.95959854 0 201298197.95959854 428808353.65966797 0 0 0 0 -149649372.94549608 376202680.03465271 0 376202680.03465271 234135541.18499756 0 0 0 0 48238997.366777658 410305208.59265137 0 410305208.59265137 789875440.80023193 0 0 0 0 115691660.34533906 405019649.45274353 0 405019649.45274353 285353088.74315643 0 0 0 0 203663256.62889385 253454812.34136963 0 253454812.34136963 163556861.13407898 0 0 0 0 408974791.689942 25332911.889984131 0 25332911.889984131 -9205893.2233581543 0 0 0 0 386986497.3674016 452132336.65867615 0 452132336.65867615 348271988.87207031 0 0 0 0 -773787.23426018213 -123508.79560713284 0 -123508.79560713284 5251298.2822460681 0 0 0 0 98915.27565355337 111112550.71208191 0 111112550.71208191 -375475047.72738647 0 0 0 0 -103066436.37015301 35609821.109699249 0 35609821.109699249 -10799302.187255859 0 0 0 0 44970358.364683867 73970324.800369263 0 73970324.800369263 111573761.78256226 0 0 0 0 -132484.49543091562 482637.81174935028 0 482637.81174935028 2105508.6967239082 0 0 0 0 904221495.00696445 456500260.67764282 0 456500260.67764282 77546797.586936951 0 0 0 0 -289104729.18248421 -162241441.47540283 0 -162241441.47540283 1225398605.0784912 0 0 0 0 1115070472.5743663 903194192.83779907 0 903194192.83779907 808268137.65420532 0 0 0 0 237217436.15654588 343735450.34046936 0 343735450.34046936 424178960.28918457 0 0 0 0 361525435.93209046 688164800.98545837 0 688164800.98545837 1142163864.1579285 0 0 0 0 54848421.623587489 311494380.56642914 0 311494380.56642914 1379413845.6605225 0 0 0 0 201110326.48855853 608359392.32023621 0 608359392.32023621 2467256852.5206604 0 0 0 0 127077139.76614714 240011720.38600159 0 240011720.38600159 1198373927.256094 0 0 0 0 427031457.61334461 -349445084.63699341 0 -349445084.63699341 1901197999.0325623 0 0 0 0 -787101.33591485885 531453573.24087524 0 531453573.24087524 2548427742.412323 0 0 0 0 647579311.18137372 -91271211.789955139 0 -91271211.789955139 1775301921.9326172 0 0 0 0 373239810.64656574 -56314410.393859863 0 -56314410.393859863 1842371693.1725159 0 0 0 0 -171221434.62045121 -448957169.35874939 0 -448957169.35874939 1709868870.0830841 0 0 0 0 62064963.214234054 -188874468.8192482 0 -188874468.8192482 1556674604.0279846 0 0 0 0 86367645.025267959 -292435238.83589172 0 -292435238.83589172 1957271052.5829315 0 0 0 0 -838793388.13534355 -624767496.99572754 0 -624767496.99572754 1636850770.5438843 0 0 0 0 -205156270.580055 -266940473.81341553 0 -266940473.81341553 1079253526.8468628 0 0 0 0 -203954522.35040951 -583472955.60116577 0 -583472955.60116577 1634793858.1234589 0 0 0 0 976794758.43614042 -1459825137.4881954 0 -1459825137.4881954 980701367.73114014 0 0 0 0 -258357248.63904476 -464088355.75279236 0 -464088355.75279236 756423165.29094696 0 0 0 0 -94658225.006100893 -582221161.18273926 0 -582221161.18273926 759414886.71932983 0 0 0 0 -329216090.42157125 -134681842.06819153 0 -134681842.06819153 504297279.46260834 0 0 0 0 -154340713.86887279 38405404.867096901 0 38405404.867096901 665977477.71957397 0 0 0 0 -137271992.4703556 -117970497.76205444 0 -117970497.76205444 1214047077.9179688 0 0 0 0 14723371.156458139 61319200.413314819 0 61319200.413314819 731467308.23478699 0 0 0 0 -205099417.71706605 -280288419.65023804 0 -280288419.65023804 1619851770.850708 0 0 0 0 262584887.8108837 -179141689.9391098 0 -179141689.9391098 -197085194.39971924 0 0 0 0 71069585.709723115 -454378936.28419495 0 -454378936.28419495 817520649.46346283 0 0 0 0 -92100563.524148464 -307258403.05208588 0 -307258403.05208588 969069601.349823 0 0 0 0 133679424.17827713 -184331959.57822037 0 -184331959.57822037 1168997632.3633347 0 0 0 0 48787003.403999299 -538238372.86505508 0 -538238372.86505508 1698614009.5028381 0 0 0 0 170193416.79999796 -1217605001.6163101 0 -1217605001.6163101 2383509837.4713745 0 0 0 0 -122829990.86331657 -868654298.85450745 0 -868654298.85450745 2404584168.1718597 0 0 0 0 685298906.5169692 -824526544.68740082 0 -824526544.68740082 826343825.92880249 0 0 0 0 -426805295.17665529 -1490073201.4027615 0 -1490073201.4027615 5357051319.8725662 0 0 0 0 -744341698.27521241 -851471400.88009644 0 -851471400.88009644 4202639818.5978394 0 0 0 0 -609908688.73196709 -845866736.87313461 0 -845866736.87313461 4200978628.5071411 0 0 0 0 -454247093.60948902 -826391817.93081284 0 -826391817.93081284 3283573696.6413269 0 0 0 0 -813688953.32097137 -266818411.4291687 0 -266818411.4291687 4315753791.1264648 0 0 0 0 -1021797392.114272 -702106974.58433914 0 -702106974.58433914 5354130656.7436523 0 0 0 0 -807073817.40434003 -457487911.47182 0 -457487911.47182 4273105368.1422729 0 0 0 0 -169911722.13239622 -229451375.22115898 0 -229451375.22115898 2208993111.329628 0 0 0 0 -365983560.27775598 99539291.971504211 0 99539291.971504211 2758675002.5192871 0 0 0 0 91134458.242986679 300099547.26444244 0 300099547.26444244 778573061.60063171 0 0 0 0 -152597825.47749949 496695500.71750641 0 496695500.71750641 2079658188.0785561 0 0 0 0 1078817.2636542027 1659642.906967558 0 1659642.906967558 1504678.5796624571 0 0 0 0 428679494.00711632 1092232477.0933304 0 1092232477.0933304 1993844511.5611496 0 0 0 0 1184802.2626188542 -1467107.4551061699 0 -1467107.4551061699 5718782.6039860845 0 0 0 0 -166726658.82935131 -421300080.83600998 0 -421300080.83600998 3954326156.5637817 0 0 0 0 -183472514.40884712 620215554.35998917 0 620215554.35998917 3599606085.0168304 0 0 0 0 -237370901.89922413 362453117.79700851 0 362453117.79700851 5353651290.1125031 0 0 0 0 -122583918.27711193 310789244.83543968 0 310789244.83543968 3974513450.3762665 0 0 0 0 376278122.45360529 1295791829.560318 0 1295791829.560318 5353784941.2180977 0 0 0 0 1863615771.4483993 187481033.26926422 0 187481033.26926422 3713818631.0714722 0 0 0 0 1661419661.7779334 1235570706.708725 0 1235570706.708725 2592075225.0012283 0 0 0 0 789091028.71846819 1903339170.5778198 0 1903339170.5778198 3895617478.6600952 0 0 0 0 236300831.20146924 2068552733.5287704 0 2068552733.5287704 3864333679.9160767 0 0 0 0 -211480327.31881258 1780883679.0035706 0 1780883679.0035706 6195666059.2560959 0 0 0 0 3440836602.3378949 1098640365.9258728 0 1098640365.9258728 5356689006.869277 0 0 0 0 -500107581.05766928 3581529907.0533752 0 3581529907.0533752 4157894276.8220673 0 0 0 0 275038606.97520852 1498672923.1570892 0 1498672923.1570892 1922702477.1759567 0 0 0 0 831452440.98329723 2111819107.2909698 0 2111819107.2909698 1432135059.0603943 0 0 0 0 49332538.827940226 -539945708.40442657 0 -539945708.40442657 1955284773.2020416 0 0 0 0 948666626.51890314 629550703.32395935 0 629550703.32395935 758772116.95809937 0 0 0 0 980636865.07651317 1064969478.4244614 0 1064969478.4244614 3334471666.2629395 0 0 0 0 1184417588.6370416 -1312631913.965065 0 -1312631913.965065 2871956713.1647663 0 0 0 0 2482615369.4370518 -1251416709.4517517 0 -1251416709.4517517 505891737.01071167 0 0 0 0 462757790.91088533 -633717925.92978668 0 -633717925.92978668 606744386.11955261 0 0 0 0 1104010095.9175959 -880765728.88389397 0 -880765728.88389397 619394781.60122681 0 0 0 0 579030153.98729277 -657897040.37925529 0 -657897040.37925529 1209109753.2536316 0 0 0 0 1656999776.1859794 -779401644.15560913 0 -779401644.15560913 357596507.39564514 0 0 0 0 1324441202.6911945 -1148993058.0235481 0 -1148993058.0235481 694381712.12788391 0 0 0 0 631181623.0529747 -79447434.119148254 0 -79447434.119148254 -47475530.460876465 0 0 0 0 -265404107.51467896 -135675142.68092346 0 -135675142.68092346 502204418.16869545 0 0 0 0 3512755.4270123476 -1710488.496142298 0 -1710488.496142298 12902451.874107135 0 0 0 0 288076653.42057419 17198817.708377838 0 17198817.708377838 -214516698.73623657 0 0 0 0 2405622299.5705643 -382330976.83664703 0 -382330976.83664703 62280992.172729492 0 0 0 0 445006.23657359276 239047.89023118466 0 239047.89023118466 314772.58329164982 0 0 0 0 2139929394.9240384 -1186988938.163147 0 -1186988938.163147 461100948.92697144 0 0 0 0 1192902.1123875361 -1312590.5711066984 0 -1312590.5711066984 961201.60776866972 0 0 0 0 790881281.58206487 -532870593.51134706 0 -532870593.51134706 478335278.855896 0 0 0 0 1049887357.9211578 -928631779.18075562 0 -928631779.18075562 352806672.23924255 0 0 0 0 242749135.32095909 272420987.20881653 0 272420987.20881653 120097865.56835938 0 0 0 0 1668204306.7441807 -186886553.05369568 0 -186886553.05369568 -346707063.76751709 0 0 0 0 1023076159.3922653 604160679.8586731 0 604160679.8586731 -252007019.97962952 0 0 0 0 672637042.52439022 -307195136.62808228 0 -307195136.62808228 -187416658.85655212 0 0 0 0 629802304.52670717 -327417849.93269348 0 -327417849.93269348 -141131470.11651611 0 0 0 0 587216794.64041615 -668495041.69488525 0 -668495041.69488525 -86263202.497283936 0 0 0 0 231531768.4802227 -343703760.99128723 0 -343703760.99128723 -90823153.77545166 0 0 0 0 384828354.70534039 -519727299.71876526 0 -519727299.71876526 26691424.135284424 0 0 0 0 340630129.87667179 -179987583.76354599 0 -179987583.76354599 -253753915.31036377 0 0 0 0 88231728.811349392 -206930483.75550461 0 -206930483.75550461 18639598.01965332 0 0 0 0 32019786.810076714 -16899108.96497345 0 -16899108.96497345 -8499691.1608886719 0 0 0 0 11318927.256946564 -13189610.168571472 0 -13189610.168571472 -1611332.0766601562 0 0 0 0 5478118.861882491 -7563230.6471731775 0 -7563230.6471731775 -7074332.873467356 0 0 0 0 -10303549.97319603 -27372603.825202942 0 -27372603.825202942 6262500.1366577148 0 0 0 0 5434991.9278737009 -11433863.026361164 0 -11433863.026361164 12426763.937357113 0 0 0 0 16755786.535022736 -35379228.412769318 0 -35379228.412769318 275257.98577880859 0 0 0 0 -10857074.216644287 16596259.077911377 0 16596259.077911377 32846056.17565155 0 0 0 0 19904784.958175659 -15359105.388145447 0 -15359105.388145447 3808736.970489502 0 0 0 0 18878641.329608917 -13541556.686496735 0 -13541556.686496735 30025084.1199646 0 0 0 0 -970121.38945102692 -949562.43675231934 0 -949562.43675231934 21400869.377487183 0 0 0 0 15244120.198368073 -4722381.4576644897 0 -4722381.4576644897 16830429.107391357 0 0 0 0 48674702.316069841 -13234175.144573212 0 -13234175.144573212 -34919140.565124512 0 0 0 0 11705557.775794799 -1637734.4456985667 0 -1637734.4456985667 16011057.453891654 0 0 0 0 94706811.825755119 -276408820.34902191 0 -276408820.34902191 419247299.42578125 0 0 0 0 3597388.047505572 -5717283.3115553446 0 -5717283.3115553446 14274867.523047894 0 0 0 0 -52524200.62242391 -62108246.566262245 0 -62108246.566262245 18573534.359405518 0 0 0 0 20437087.82967186 -5579761.5226287842 0 -5579761.5226287842 -4849811.1197662354 0 0 0 0 163033142.92516604 -111395428.06927109 0 -111395428.06927109 -2505334.9792404175 0 0 0 0 170735480.37524486 68261150.819286942 0 68261150.819286942 27921087.80909729 0 0 0 0 198656049.17536545 55814313.210281372 0 55814313.210281372 264327341.1424408 0 0 0 0 -46618786.398835421 -330983410.23329163 0 -330983410.23329163 218132800.28647614 0 0 0 0 7952329.477485504 5706794.5361767039 0 5706794.5361767039 -150937.67008505762 0 0 0 0 -102830028.3425169 -81825950.251419067 0 -81825950.251419067 541722695.80147552 0 0 0 0 44207666.829496145 31440742.301315308 0 31440742.301315308 -12762724.20489502 0 0 0 0 23572972.981216673 154768.08800275996 0 154768.08800275996 13674648.454969401 0 0 0 0 30475124.071090698 -6452599.9267272949 0 -6452599.9267272949 27862098.012706757 0 0 0 0 16598832.528251648 -69722.375387191772 0 -69722.375387191772 30417821.977157593 0 0 0 0 25121491.67857933 -20346413.828933716 0 -20346413.828933716 31581751.354980469 0 0 0 0 45631054.614334106 -20784236.221290588 0 -20784236.221290588 42051309.078830719 0 0 0 0 29830903.542354584 -9642885.2827301025 0 -9642885.2827301025 50915370.63848114 0 0 0 0 28278616.159994125 -7646663.1463031769 0 -7646663.1463031769 42546447.770690918 0 0 0 0 17258314.98961214 -3223860.8867244124 0 -3223860.8867244124 22096065.219842911 0 0 0 0 4040778.1850128248 4466248.7351121102 0 4466248.7351121102 47332258.727009617 0 0 0 0 -5548962.705039978 59577341.488926888 0 59577341.488926888 10638382.832054138 0 0 0 0 527046942.23338699 -371734197.95139122 0 -371734197.95139122 -167713804.5242691 0 0 0 0 -5872963.4244454317 4913450.5757748634 0 4913450.5757748634 13579438.726153105 0 0 0 0 28671284.941902161 525737772.24000549 0 525737772.24000549 491108121.06191444 0 0 0 0 10109659.743444137 7152878.0169355012 0 7152878.0169355012 20647773.262763809 0 0 0 0 580965211.89159203 -381978092.783041 0 -381978092.783041 -416778804.73803711 0 0 0 0 93733.542791550979 1742522.2185547072 0 1742522.2185547072 4241190.608790867 0 0 0 0 12233438.561473029 3872574.6936028227 0 3872574.6936028227 13725374.357522264 0 0 0 0 91726263.026035786 -87034688.368431091 0 -87034688.368431091 -164443955.71321487 0 0 0 0 3339830.7679662704 3109524.7900314331 0 3109524.7900314331 8461633.6585388184 0 0 0 0 270913236.34781533 125966892.04748917 0 125966892.04748917 37165167.08241272 0 0 0 0 10171093.34870619 10814596.768191667 0 10814596.768191667 23783075.423535351 0 0 0 0 -116879837.4856323 297092553.4329319 0 297092553.4329319 273548862.71902466 0 0 0 0 555055179.7783699 37707462.61195755 0 37707462.61195755 46846651.257476807 0 0 0 0 141313538.94570351 171094999.98412752 0 171094999.98412752 54935573.486618042 0 0 0 0 72630827.019828796 153735660.48861885 0 153735660.48861885 103085952.96539497 0 0 0 0 8509818.8559570312 138398553.3969574 0 138398553.3969574 101548772.14062309 0 0 0 0 6475824.2076072693 122079679.87960184 0 122079679.87960184 42993404.010913849 0 0 0 0 77729811.689781189 145841785.02556992 0 145841785.02556992 7202923.9719600677 0 0 0 0 127491055.52667618 137781469.14288902 0 137781469.14288902 1991585.1802787781 0 0 0 0 165274711.38090134 104387598.91302299 0 104387598.91302299 -67108987.611549377 0 0 0 0 243632114.04154396 120085194.99445629 0 120085194.99445629 -67491076.94789505 0 0 0 0 125918479.1547718 13899619.585701942 0 13899619.585701942 -9922061.6799621582 0 0 0 0 -94561529.531036377 119906782.83385277 0 119906782.83385277 3557378.1838054657 0 0 0 0 35510597.633981705 79763074.090918541 0 79763074.090918541 -15701946.046295166 0 0 0 0 -218100.02148408815 10864020.358800793 0 10864020.358800793 60482041.434276678 0 0 0 0 21153972.364593506 -37370473.724029541 0 -37370473.724029541 64770598.602714539 0 0 0 0 6370871.9501419067 -40437203.956840515 0 -40437203.956840515 64703377.491912842 0 0 0 0 21530882.195842743 -32499083.403991699 0 -32499083.403991699 38788572.667480469 0 0 0 0 37860524.301967621 -61224277.065551758 0 -61224277.065551758 49548316.707611084 0 0 0 0 -8607741.6439247131 -49212338.341796875 0 -49212338.341796875 79638395.376907349 0 0 0 0 15896655.39248085 -53459787.953338623 0 -53459787.953338623 80337783.900299072 0 0 0 0 -369165996.80030823 -78799497.959030151 0 -78799497.959030151 132866805.76538086 0 0 0 0 -424300.54279619455 17806813.128656216 0 17806813.128656216 71739200.181178153 0 0 0 0 13425866.253845215 -354942242.76399231 0 -354942242.76399231 -116065834.13972473 0 0 0 0 -131980573.30430984 87265126.016904831 0 87265126.016904831 60233582.481456757 0 0 0 0 -167923977.56621265 170944974.97583437 0 170944974.97583437 16735792.963470459 0 0 0 0 -108940968.76533127 99405717.063438416 0 99405717.063438416 87433142.665813446 0 0 0 0 -109744922.44702148 80828705.076255798 0 80828705.076255798 138282396.57905197 0 0 0 0 -233007958.07397461 124639392.53014755 0 124639392.53014755 103869002.06658173 0 0 0 0 -166544645.12265778 60742243.783792496 0 60742243.783792496 62891106.039916992 0 0 0 0 -149543.4703048747 24169212.599107474 0 24169212.599107474 81811408.021621615 0 0 0 0 -122677563.34589577 28866789.873260498 0 28866789.873260498 1005186638.5636292 0 0 0 0 -918423305.45256042 603305560.60296631 0 603305560.60296631 1332592788.7310028 0 0 0 0 682667634.05189419 -2988914.24036026 0 -2988914.24036026 -249194771.72259521 0 0 0 0 504741144.8489151 -219621940.00279236 0 -219621940.00279236 -260856023.60736084 0 0 0 0 1118430.4731936187 -3616190.7818487212 0 -3616190.7818487212 1730214.2127305418 0 0 0 0 -203253664.15130615 156227889.85202026 0 156227889.85202026 805169795.08257294 0 0 0 0 -54317908.4283638 137576762.77275085 0 137576762.77275085 363590918.32247162 0 0 0 0 -188614036.31362724 120573294.91298676 0 120573294.91298676 407461420.10214233 0 0 0 0 -52409291.157077789 42818488.0965271 0 42818488.0965271 444108238.28422546 0 0 0 0 289225881.79951668 110499215.29070663 0 110499215.29070663 -484207422.77716064 0 0 0 0 -767931344.55077934 -112169160.8768158 0 -112169160.8768158 717011168.36083984 0 0 0 0 1761217.2842386789 -2550006.455055818 0 -2550006.455055818 -1585838.6040339619 0 0 0 0 -338939615.2822094 -55945885.408828735 0 -55945885.408828735 372402066.99060059 0 0 0 0 282050463.90921402 16098372.630050659 0 16098372.630050659 95022932.239593506 0 0 0 0 -1929525.2442092896 -159340788.33403015 0 -159340788.33403015 77974645.554740906 0 0 0 0 2503547.2179145878 -7664450.6287861951 0 -7664450.6287861951 5612818.3221080601 0 0 0 0 167796730.05174255 -90560265.4998703 0 -90560265.4998703 23289221.259353638 0 0 0 0 9022363.1054534912 -25294514.754981995 0 -25294514.754981995 26099215.803359985 0 0 0 0 33313707.23014164 -41097435.113307953 0 -41097435.113307953 13450355.090606689 0 0 0 0 15289994.909200668 -20874947.469612122 0 -20874947.469612122 24152575.094726562 0 0 0 0 25600650.699768066 -32892096.166091919 0 -32892096.166091919 28485254.378751755 0 0 0 0 -89325884.703590393 -91601865.982337952 0 -91601865.982337952 8301977.557434082 0 0 0 0 131652011.48624802 -124783659.03614807 0 -124783659.03614807 -134278566.56480408 0 0 0 0 3607765.7158563104 -9495187.6795039363 0 -9495187.6795039363 9276960.195376575 0 0 0 0 174227419.63802719 10354882.663635254 0 10354882.663635254 -90751926.11177063 0 0 0 0 -193965052.18076229 22894562.539827347 0 22894562.539827347 246306841.67880249 0 0 0 0 282787180.39765453 -391607002.6124649 0 -391607002.6124649 -270746228.74255371 0 0 0 0 -573835243.56800842 224735875.21122742 0 224735875.21122742 796870945.41845703 0 0 0 0 -47809428.827402115 -22794383.415618896 0 -22794383.415618896 -133792994.76066589 0 0 0 0 -424905779.64149284 -410828531.47047424 0 -410828531.47047424 -66010596.611999512 0 0 0 0 3816228.2362251198 -5456538.8111517988 0 -5456538.8111517988 -3962205.7008898556 0 0 0 0 18806261.525094032 -232167377.49458313 0 -232167377.49458313 44271230.099673271 0 0 0 0 142571501.65170026 -167731730.19589996 0 -167731730.19589996 -185901441.34815979 0 0 0 0 308474309.8924551 49803191.487167358 0 49803191.487167358 -113982809.412323 0 0 0 0 10337301.271443516 273804801.07329559 0 273804801.07329559 -245133505.97062683 0 0 0 0 533085798.38658762 -42867159.205554962 0 -42867159.205554962 364018983.98010254 0 0 0 0 -90749360.278435707 -151374567.14836121 0 -151374567.14836121 1352142586.3030701 0 0 0 0 1809794.6208952563 1481105.3970516324 0 1481105.3970516324 447187.3426591442 0 0 0 0 52244583.252626419 373392273.37649536 0 373392273.37649536 591903937.01820374 0 0 0 0 5751562.0417804718 18357282.863494873 0 18357282.863494873 415196791.76197815 0 0 0 0 57305279.932214737 39867139.321777344 0 39867139.321777344 319845582.18859863 0 0 0 0 -11944860.008289337 61488565.530487061 0 61488565.530487061 321522824.08662224 0 0 0 0 49043837.687969208 85219496.904983521 0 85219496.904983521 357102569.43551636 0 0 0 0 135851396.01099586 102975806.62073517 0 102975806.62073517 173060277.27099609 0 0 0 0 -144798189.72081518 -69409436.970733643 0 -69409436.970733643 208460207.30499268 0 0 0 0 154367.22603149596 -58949.096367157996 0 -58949.096367157996 -469130.83745324612 0 0 0 0 121439323.72777939 35971705.775878906 0 35971705.775878906 -26601489.053009033 0 0 0 0 38121286.137998581 -1689700.4218292236 0 -1689700.4218292236 -145097455.65097427 0 0 0 0 44559649.175106049 37274990.976028442 0 37274990.976028442 174569512.03277588 0 0 0 0 55724583.690921783 35490950.48059082 0 35490950.48059082 173870018.00112152 0 0 0 0 -50942878.823070526 -16206806.696594238 0 -16206806.696594238 200253134.22216797 0 0 0 0 16228529.552623749 -2842656.9241638184 0 -2842656.9241638184 198095422.1960907 0 0 0 0 30220778.738016129 -14027360.473960876 0 -14027360.473960876 27870252.300292969 0 0 0 0 56599121.545783997 7864110.6466064453 0 7864110.6466064453 44251894.856018066 0 0 0 0 116653883.27510595 66085712.189239502 0 66085712.189239502 44282278.521240234 0 0 0 0 72692827.193618774 41323155.982818604 0 41323155.982818604 25296442.919036865 0 0 0 0 101097480.13855362 14699927.32800293 0 14699927.32800293 -25708041.100097656 0 0 0 0 81450563.486984253 23450608.282714844 0 23450608.282714844 -29398077.412155151 0 0 0 0 61284152.827737808 27338084.619873047 0 27338084.619873047 -49104313.770935059 0 0 0 0 93341717.880104065 22472458.239044189 0 22472458.239044189 -81865789.729980469 0 0 0 0 8341898.2472038269 60864554.957901001 0 60864554.957901001 -71299752.700012207 0 0 0 0 63321416.635227203 10962230.962554932 0 10962230.962554932 -10586258.041900635 0 0 0 0 74134334.199101448 29190545.873497009 0 29190545.873497009 -107006619.87677002 0 0 0 0 57089639.083627701 52202904.183071136 0 52202904.183071136 -101859590.82128906 0 0 0 0 -21351470.716480255 89829024.508071899 0 89829024.508071899 -56775880.839508057 0 0 0 0 53081325.016109467 39363876.610809326 0 39363876.610809326 -66223307.826416016 0 0 0 0 -16584176.350614309 2137631.1440849304 0 2137631.1440849304 -10166354.986694336 0 0 0 0 -2232719.0102422619 5531814.3367830664 0 5531814.3367830664 841404.71860460937 0 0 0 0 -350452.06901126355 733674.04292282462 0 733674.04292282462 -728387.64307437837 0 0 0 0 -18897475.421992302 65336965.404754639 0 65336965.404754639 67988274.991516113 0 0 0 0 55215173.260730743 11310924.247772217 0 11310924.247772217 -52478245.470077515 0 0 0 0 -56424866.683760166 42133908.095687866 0 42133908.095687866 120483428.01757812 0 0 0 0 103277340.45921707 -5826911.1423339844 0 -5826911.1423339844 -53596578.291687012 0 0 0 0 -4161744.4311172962 209185809.11438751 0 209185809.11438751 -77023900.879272461 0 0 0 0 -3154000.1240722425 6038470.7937912643 0 6038470.7937912643 6977398.2786157131 0 0 0 0 -1677191.7906149328 -8639003.1512298584 0 -8639003.1512298584 -2243189.8449554443 0 0 0 0 -19493169.905771315 -5100096.6569519043 0 -5100096.6569519043 7133900.348449707 0 0 0 0 -32187155.97845073 -18474429.042556763 0 -18474429.042556763 14262838.272155762 0 0 0 0 -15660134.611339286 -22376190.054832458 0 -22376190.054832458 10686845.448699951 0 0 0 0 -458024.16451537609 -4433487.8641204834 0 -4433487.8641204834 5779901.9123001099 0 0 0 0 -83924895.988601685 29835886.074928284 0 29835886.074928284 76731568.454910278 0 0 0 0 -1483045.0030636787 19740543.704483032 0 19740543.704483032 15637399.830749512 0 0 0 0 -5829531.4727957733 -2803616.0361506343 0 -2803616.0361506343 21437823.255789295 0 0 0 0 -36192836.640867233 60529244.833251953 0 60529244.833251953 45520062.181221008 0 0 0 0 -12381079.552306779 19299837.678904414 0 19299837.678904414 12546655.551640153 0 0 0 0 21012623.217182159 33154650.437484741 0 33154650.437484741 18926940.563842773 0 0 0 0 -36426331.994873047 80118200.242980957 0 80118200.242980957 21615346.097702026 0 0 0 0 -47517747.8953228 78938497.775604248 0 78938497.775604248 21671557.425880432 0 0 0 0 -21932535.016850632 -14611827.182548717 0 -14611827.182548717 49980374.995296061 0 0 0 0 -44016591.26700449 -40982842.478027344 0 -40982842.478027344 -4021300.1795043945 0 0 0 0 -56860387.753536224 10698579.515060425 0 10698579.515060425 62996643.951004028 0 0 0 0 -43144528.066167831 -38354341.325561523 0 -38354341.325561523 -1628193.7094192505 0 0 0 0 2177055.7790075783 1084102.978311263 0 1084102.978311263 -366417.66511623561 0 0 0 0 -409454.99982261658 17789864.150802612 0 17789864.150802612 87200934.825683594 0 0 0 0 -381467.31159558624 147918.49214877933 0 147918.49214877933 18768.190530508757 0 0 0 0 -1264614.5887041092 36984840.877349854 0 36984840.877349854 102704657.01907349 0 0 0 0 -3516145.9910178185 11883345.676864624 0 11883345.676864624 116296672.83563232 0 0 0 0 -141570238.56091499 -141629084.52789307 0 -141629084.52789307 -129677021.40356445 0 0 0 0 -38654099.507764816 -28872176.835418701 0 -28872176.835418701 -2366115.2955322266 0 0 0 0 -37266785.462209702 -38878037.715820312 0 -38878037.715820312 -16034632.239522457 0 0 0 0 -37980376.946862698 -33167277.462480545 0 -33167277.462480545 -16140591.28503418 0 0 0 0 -94759342.090316772 9463789.6827020645 0 9463789.6827020645 110716684.5832634 0 0 0 0 -12376497.103533769 92359.554194834083 0 92359.554194834083 76674219.999212414 0 0 0 0 -88689569.734045029 -20127098.609421968 0 -20127098.609421968 98210822.968605042 0 0 0 0 -43168304.401769638 -43618749.524856567 0 -43618749.524856567 -8702003.3213500977 0 0 0 0 -119813310.19921875 14622888.070697784 0 14622888.070697784 112072251.55348587 0 0 0 0 -115953463.06232452 8363336.6899518967 0 8363336.6899518967 121713936.85736465 0 0 0 0 -137600211.25257111 30778323.105621338 0 30778323.105621338 120605389.55056 0 0 0 0 -120814514.13407898 25644180.625841141 0 25644180.625841141 114998200.96641922 0 0 0 0 -326140257.37018919 466747469.55213737 0 466747469.55213737 -316236375.97567749 0 0 0 0 -4608060.9531264007 27112619.730012134 0 27112619.730012134 92640435.727698803 0 0 0 0 -126155695.6583252 21244459.205596924 0 21244459.205596924 126558542.97063065 0 0 0 0 -120732492.59052223 32654531.234100491 0 32654531.234100491 116726356.24857712 0 0 0 0 -122612543.43182373 23301654.72190094 0 23301654.72190094 112764461.31472063 0 0 0 0 -8238122.8979774592 6303052.2216594741 0 6303052.2216594741 12251243.401574612 0 0 0 0 -270120163.31710052 77196063.738220215 0 77196063.738220215 109891116.17208862 0 0 0 0 -271452853.01165771 180170760.5103302 0 180170760.5103302 -185048657.08172607 0 0 0 0 -116956877.38274574 187257372.8193512 0 187257372.8193512 -114346340.55358887 0 0 0 0 15866780.067279816 63998957.769897461 0 63998957.769897461 -169292115.30436707 0 0 0 0 -206626934.94071579 229653910.41790771 0 229653910.41790771 -234324670.7835083 0 0 0 0 111626767.06945419 -42273539.228271484 0 -42273539.228271484 -154818184.14551544 0 0 0 0 -5445001.2755889893 -42447544.254119873 0 -42447544.254119873 11098285.441192627 0 0 0 0 3174547.9790115356 -679790.57192993164 0 -679790.57192993164 15109278.164855957 0 0 0 0 -66126400.988342285 -122455046.86312866 0 -122455046.86312866 272209016.76708984 0 0 0 0 -85737141.723152161 -335207803.54693604 0 -335207803.54693604 722329079.75539398 0 0 0 0 -73195535.01111412 -194176444.36755371 0 -194176444.36755371 -12216911.207336426 0 0 0 0 547987158.43556595 -461368913.1038208 0 -461368913.1038208 -491794980.82244873 0 0 0 0 41189751.19101429 346421408.28226089 0 346421408.28226089 -637634397.34539795 0 0 0 0 -157386345.18560028 108516903.07896996 0 108516903.07896996 68291201.038846016 0 0 0 0 -123929196.21878052 46643117.307361603 0 46643117.307361603 87540252.002623558 0 0 0 0 -140000221.03078461 42792140.67556572 0 42792140.67556572 136520568.25584698 0 0 0 0 -173245325.10444736 68593251.20682621 0 68593251.20682621 155954819.77926254 0 0 0 0 -125006349.14582825 15470397.075885773 0 15470397.075885773 197439127.04172516 0 0 0 0 -137067522.36964226 65996596.631783009 0 65996596.631783009 226549231.59801483 0 0 0 0 -154765547.13301849 1410613.385017395 0 1410613.385017395 161547199.54929066 0 0 0 0 -149261792.90158844 15005332.589796066 0 15005332.589796066 177132005.19737053 0 0 0 0 -161944100.99081421 60210011.277002335 0 60210011.277002335 149732901.75691223 0 0 0 0 -147991049.79776001 20692284.319723129 0 20692284.319723129 147370274.62874532 0 0 0 0 -129517445.7514801 -3835166.9909057617 0 -3835166.9909057617 131096380.71869659 0 0 0 0 -136726565.57582092 -1774028.682964325 0 -1774028.682964325 145089599.9844377 0 0 0 0 -143952509.84233856 -3711771.3509783745 0 -3711771.3509783745 160583914.2404232 0 0 0 0 -141988816.79794312 -49396854.551967621 0 -49396854.551967621 138324047.28018761 0 0 0 0 -145535520.36174011 -30225115.205278397 0 -30225115.205278397 166065728.00377846 0 0 0 0 -124763770.82788086 -16142072.367830276 0 -16142072.367830276 128659969.98427176 0 0 0 0 -130516201.99591064 -28462459.419946671 0 -28462459.419946671 125107956.25979614 0 0 0 0 -136115462.55653381 -46867806.085374832 0 -46867806.085374832 124268720.80352616 0 0 0 0 -158716078.25056458 -113817684.60796666 0 -113817684.60796666 78266479.509513855 0 0 0 0 -6164870.3631748315 -12196961.59801255 0 -12196961.59801255 72534279.808064252 0 0 0 0 -118085632.18975067 -86395329.423478127 0 -86395329.423478127 48520206.642228127 0 0 0 0 -103920645.40568542 -41125152.771142006 0 -41125152.771142006 69568240.194541931 0 0 0 0 -147585697.99888611 -76270310.664170265 0 -76270310.664170265 115774480.04837686 0 0 0 0 -135888390.42925262 -65426835.323004723 0 -65426835.323004723 110495239.62742805 0 0 0 0 -130721890.17276001 -41178715.287902832 0 -41178715.287902832 113450425.48097038 0 0 0 0 -126266829.90830994 -97345889.309372425 0 -97345889.309372425 133092035.98030424 0 0 0 0 -123219728.35206604 -101049860.6370573 0 -101049860.6370573 95384485.01616478 0 0 0 0 -130003546.76713562 -82987447.491651535 0 -82987447.491651535 141543478.59516525 0 0 0 0 -117140904.93313599 -85970505.037149429 0 -85970505.037149429 156069515.88703728 0 0 0 0 -119133865.03507996 -73934461.741382599 0 -73934461.741382599 129873635.15922523 0 0 0 0 -143543909.74492645 -57481815.176935673 0 -57481815.176935673 203856956.94186401 0 0 0 0 -140490481.39929962 -44650566.140746117 0 -44650566.140746117 150563026.27532554 0 0 0 0 -154813065.63850206 -97977.006277531385 0 -97977.006277531385 232293272.74791908 0 0 0 0 -142524911.4696579 -34726554.197119713 0 -34726554.197119713 188822915.98939896 0 0 0 0 -121437424.59436035 -93287331.541685104 0 -93287331.541685104 224531826.47584724 0 0 0 0 -146421923.54429626 -38791385.109808922 0 -38791385.109808922 309630824.73677492 0 0 0 0 -115023272.68585968 -77537539.580378652 0 -77537539.580378652 186366677.93133545 0 0 0 0 -54918349.776580811 -152465322.66526151 0 -152465322.66526151 137172792.09767437 0 0 0 0 -85043335.916165352 -211961220.69915426 0 -211961220.69915426 395365911.26905632 0 0 0 0 -72159110.43560791 -243744306.79299092 0 -243744306.79299092 184672019.30250931 0 0 0 0 -104841841.39156532 -116216914.83433104 0 -116216914.83433104 450010398.95079994 0 0 0 0 -109616623.7712841 -54007043.709638953 0 -54007043.709638953 303411964.30840492 0 0 0 0 -35900590.066904068 139064357.2726059 0 139064357.2726059 436057220.44698334 0 0 0 0 -102962200.82670593 55676710.52794075 0 55676710.52794075 270169147.51301241 0 0 0 0 -102491187.47463989 46834354.351540565 0 46834354.351540565 309624216.63744354 0 0 0 0 -52086009.450757504 106380439.41217113 0 106380439.41217113 197914711.20722198 0 0 0 0 -53716407.410491943 92728306.113080978 0 92728306.113080978 133385325.04722595 0 0 0 0 24885920.473934174 176108585.40236092 0 176108585.40236092 259531601.31689405 0 0 0 0 43467326.387789726 146420816.54364586 0 146420816.54364586 180026690.79432678 0 0 0 0 81476537.739118099 189177865.49015832 0 189177865.49015832 191437794.292202 0 0 0 0 39090603.497994319 3805298.7589416504 0 3805298.7589416504 621399809.14031982 0 0 0 0 28543120.718777481 -83969764.567259789 0 -83969764.567259789 550451329.55776978 0 0 0 0 -99314.196385374438 -41848.821373902261 0 -41848.821373902261 2242335.1383562582 0 0 0 0 -29091723.010053515 11547352.721221924 0 11547352.721221924 722125571.34371948 0 0 0 0 -56542604.838422656 -54722780.497177124 0 -54722780.497177124 792627062.49597168 0 0 0 0 -36008893.163264632 -80701052.836029053 0 -80701052.836029053 680633858.07476807 0 0 0 0 -4939534.4700629115 -61716488.28729248 0 -61716488.28729248 619345753.27191162 0 0 0 0 -37886295.256074667 -129429120.64595795 0 -129429120.64595795 606178100.05014038 0 0 0 0 13953379.994813889 -106017007.90840912 0 -106017007.90840912 366760864.95370483 0 0 0 0 25664450.108885154 -101958410.3469162 0 -101958410.3469162 376533740.22341919 0 0 0 0 -8809358.8325370289 -108109406.30350494 0 -108109406.30350494 502450827.69198608 0 0 0 0 -14322771.097536981 -105202737.85037231 0 -105202737.85037231 528022136.54366302 0 0 0 0 19711516.012533545 -86650000.403434753 0 -86650000.403434753 518419785.81243896 0 0 0 0 9894812.7399627082 -48299805.804710388 0 -48299805.804710388 375750650.81271362 0 0 0 0 -9089079.0447070673 -64750725.729797363 0 -64750725.729797363 463601970.9464159 0 0 0 0 -10361192.468940642 -52540660.301849365 0 -52540660.301849365 528789310.41988373 0 0 0 0 -4986336.3305051029 -49551429.499084473 0 -49551429.499084473 462121448.21941185 0 0 0 0 6992792.0104328543 -83242835.129013062 0 -83242835.129013062 429604352.13455963 0 0 0 0 30535324.492275074 -26659283.800384521 0 -26659283.800384521 453816062.66636658 0 0 0 0 -73470.049318552643 -80697616.647026062 0 -80697616.647026062 509863792.22174072 0 0 0 0 93778284.068935886 -131603464.50723267 0 -131603464.50723267 217493661.81173706 0 0 0 0 -2065949.8345784619 -30144822.115829468 0 -30144822.115829468 542052501.44152832 0 0 0 0 -30726207.035204083 -28687960.930053711 0 -28687960.930053711 545318565.68756104 0 0 0 0 -109187.63993520668 169866.2875456959 0 169866.2875456959 688327.64128415473 0 0 0 0 -31762052.279450346 -64678846.344299316 0 -64678846.344299316 601356663.52814984 0 0 0 0 -30426165.910251293 -33285113.668037415 0 -33285113.668037415 563250168.11557007 0 0 0 0 -22643159.80791229 -79622931.167098999 0 -79622931.167098999 548722032.76641846 0 0 0 0 8952320.8438625336 -28959623.052764893 0 -28959623.052764893 26257600.61138916 0 0 0 0 -12491347.026472092 -10458009.857177734 0 -10458009.857177734 46844745.389858961 0 0 0 0 18589250.15609467 -5849532.963180542 0 -5849532.963180542 -13990304.168060303 0 0 0 0 -4182773.176295042 1809301.9455718994 0 1809301.9455718994 10271381.496170044 0 0 0 0 62637.139553063906 -171832.40257704444 0 -171832.40257704444 207635.34682489932 0 0 0 0 -31085443.772819322 29938275.1483078 0 29938275.1483078 132235973.59008789 0 0 0 0 -4315.420662327112 -16027786.378089905 0 -16027786.378089905 -48359651.461700439 0 0 0 0 36721128.89416939 -16331538.559631348 0 -16331538.559631348 -15312901.743804932 0 0 0 0 4813811.2404668741 8049854.6274108887 0 8049854.6274108887 -14398182.304486275 0 0 0 0 -9375247.1526102871 6290053.8091430664 0 6290053.8091430664 -9366628.3890686035 0 0 0 0 191658.00995322387 -597229.39648764255 0 -597229.39648764255 521679.49835686386 0 0 0 0 4108115.3859840333 -1931976.8770294189 0 -1931976.8770294189 -12853028.611694336 0 0 0 0 -9247878.0926060267 -2822931.5535373688 0 -2822931.5535373688 1566181.8478393555 0 0 0 0 -1060264.053381538 136276.4294513166 0 136276.4294513166 6169509.9762321711 0 0 0 0 206807289.27273083 41289134.933265686 0 41289134.933265686 20585712.555648804 0 0 0 0 -787403.29325233749 -2173067.5971059725 0 -2173067.5971059725 5333545.7153081745 0 0 0 0 114378983.98088565 228924361.2462883 0 228924361.2462883 192000039.92367554 0 0 0 0 61713779.108078837 251553170.71233368 0 251553170.71233368 309765826.25314331 0 0 0 0 67510796.421182156 241886645.37866211 0 241886645.37866211 261796822.68222046 0 0 0 0 67172583.454753399 208305064.97619629 0 208305064.97619629 253805094.72538376 0 0 0 0 715954.82691990142 -3356488.2062323242 0 -3356488.2062323242 4332124.6538243443 0 0 0 0 536326.564313218 -16439349.968734741 0 -16439349.968734741 3514396.2803497314 0 0 0 0 20390506.361355424 7057844.8387451172 0 7057844.8387451172 7301624.4724884033 0 0 0 0 2849463.3805856118 -3977769.7550439313 0 -3977769.7550439313 3267615.5876058042 0 0 0 0 -199050690.01703739 -39355039.79246521 0 -39355039.79246521 288800762.10417175 0 0 0 0 -7792902.0460374355 -4415690.7650680542 0 -4415690.7650680542 17591877.876876831 0 0 0 0 -174307800.77094281 262873998.74467087 0 262873998.74467087 540260597.27987671 0 0 0 0 -162626707.2595582 336576196.92228699 0 336576196.92228699 300749604.38104248 0 0 0 0 52650491.712672472 209868503.62464142 0 209868503.62464142 302391381.91769409 0 0 0 0 -500603116.34569216 382220894.318367 0 382220894.318367 607050577.37011719 0 0 0 0 -194540.40232907329 -2405277.0078547248 0 -2405277.0078547248 6443494.0618233085 0 0 0 0 -643748236.01097918 469711467.50530243 0 469711467.50530243 1133659958.9784546 0 0 0 0 635955843.7980566 -840946152.69322968 0 -840946152.69322968 -1047060817.7074432 0 0 0 0 -404005899.61141968 -631674570.11836243 0 -631674570.11836243 2152993229.1029968 0 0 0 0 878456627.7081089 -1603644128.5433807 0 -1603644128.5433807 18708579.07585144 0 0 0 0 -466692783.36819124 94749254.500534058 0 94749254.500534058 460315746.30605316 0 0 0 0 -463962319.71633482 58096738.329193115 0 58096738.329193115 872731712.96668243 0 0 0 0 -519684293.59150505 -156768832.16340637 0 -156768832.16340637 215878912.90075684 0 0 0 0 -18260207.859556913 -471213703.82835388 0 -471213703.82835388 301281276.77010345 0 0 0 0 93374214.004479408 -368414288.78377533 0 -368414288.78377533 285649176.68417358 0 0 0 0 989338521.19500518 -875264044.70118713 0 -875264044.70118713 211141238.27508545 0 0 0 0 293228487.41700935 -1072404192.1577072 0 -1072404192.1577072 1443893328.1725464 0 0 0 0 -274588675.54621983 503563676.22363281 0 503563676.22363281 1674354195.1703949 0 0 0 0 806759450.44392395 613486597.48747253 0 613486597.48747253 -1442748475.9592438 0 0 0 0 498704493.15760612 1452214337.1369171 0 1452214337.1369171 83658410.891540527 0 0 0 0 -388406391.58217442 23961709.273834229 0 23961709.273834229 329447180.04590511 0 0 0 0 -89419797.7237297 -174591318.19581604 0 -174591318.19581604 -295548475.78897095 0 0 0 0 73192182.135117531 -102348748.27389526 0 -102348748.27389526 536795045.17623901 0 0 0 0 31342670.475690842 -244032834.59529114 0 -244032834.59529114 903311843.08647156 0 0 0 0 -96675782.232522488 -217456094.3228302 0 -217456094.3228302 1035491962.39505 0 0 0 0 4885138.9221965689 1188323.9512547553 0 1188323.9512547553 1275862.9365307782 0 0 0 0 -38880283.747302532 143147469.29418945 0 143147469.29418945 1142523110.8022766 0 0 0 0 -128790529.9226799 -300392579.33540344 0 -300392579.33540344 1210900406.8565979 0 0 0 0 206465989.86370707 55324787.740722656 0 55324787.740722656 428172028.18756104 0 0 0 0 575629.11731147766 86315906.348434448 0 86315906.348434448 425658650.31204224 0 0 0 0 -19402251.569154739 -40262638.033676147 0 -40262638.033676147 864120240.83766174 0 0 0 0 -21359272.413739234 17520911.081054688 0 17520911.081054688 538047174.46875 0 0 0 0 23167029.577764511 -70301136.330627441 0 -70301136.330627441 403700100.24427795 0 0 0 0 -98658601.752158165 50918368.79977417 0 50918368.79977417 499316102.74052811 0 0 0 0 59087387.110937476 -16712796.380516052 0 -16712796.380516052 655666217.77905273 0 0 0 0 2168746.083750248 -96187496.934005737 0 -96187496.934005737 705262920.13563538 0 0 0 0 -30600318.88312161 104455809.61628723 0 104455809.61628723 1045778392.4111328 0 0 0 0 1547221.9724302334 -69540.017721705139 0 -69540.017721705139 -153968.4253552258 0 0 0 0 4015234.0748954732 -1597824.2595247254 0 -1597824.2595247254 2833143.4872992258 0 0 0 0 -98080427.889064312 -81291748.472244263 0 -81291748.472244263 1548923678.4541168 0 0 0 0 214501366.90810394 -87228549.176269531 0 -87228549.176269531 36529216.054724455 0 0 0 0 506192791.11867332 63099501.18119812 0 63099501.18119812 758132807.84777832 0 0 0 0 150493146.77356535 -299099708.38051414 0 -299099708.38051414 651099386.03451538 0 0 0 0 37780189.318003654 -47541993.844543457 0 -47541993.844543457 745981871.66680527 0 0 0 0 80341077.550251961 99457676.188018799 0 99457676.188018799 479500456.26226807 0 0 0 0 117601084.40115595 -88298536.266540527 0 -88298536.266540527 309641827.53700256 0 0 0 0 -91553101.714262009 -57652884.438568115 0 -57652884.438568115 447199631.00506592 0 0 0 0 27307924.055630922 -226594359.99996948 0 -226594359.99996948 291223155.81195068 0 0 0 0 -75796915.157007337 -152328989.86842346 0 -152328989.86842346 732435453.0916214 0 0 0 0 -21393560.56641835 -183949893.50777435 0 -183949893.50777435 377100805.55828857 0 0 0 0 13599941.985073138 -157935249.53458118 0 -157935249.53458118 213950739.49450684 0 0 0 0 21140726.308556497 -74609081.791988373 0 -74609081.791988373 -35566917.595947266 0 0 0 0 -145017210.09163618 13046875.734283447 0 13046875.734283447 85447648.549789429 0 0 0 0 -160819003.12207341 -191243782.38626099 0 -191243782.38626099 290891605.71569824 0 0 0 0 -34429880.915517807 -218565029.11328125 0 -218565029.11328125 232790575.26940918 0 0 0 0 -89140610.998114347 10149886.195075989 0 10149886.195075989 -79779619.689697266 0 0 0 0 -21833463.486757487 129851787.04149246 0 129851787.04149246 100090614.50619507 0 0 0 0 51541415.216939926 -103948519.74588013 0 -103948519.74588013 -38240044.246429443 0 0 0 0 -163775146.44188678 -37268782.72851181 0 -37268782.72851181 -46659685.611450195 0 0 0 0 -158835248.26505578 -71717551.882858276 0 -71717551.882858276 -30265247.371566772 0 0 0 0 17056.847795551759 227641.9966269508 0 227641.9966269508 -10915.652492590249 0 0 0 0 -6532578.681687355 26122233.347381592 0 26122233.347381592 -77790034.936431885 0 0 0 0 61780.290607322226 173095.67913085409 0 173095.67913085409 -111767.5289042592 0 0 0 0 755427.90590105625 1933297.3908221871 0 1933297.3908221871 -5268.0229423940182 0 0 0 0 -1259120.6579121575 1064444.080218792 0 1064444.080218792 1906710.1997680664 0 0 0 0 -119995944.82117054 -10545871.306037426 0 -10545871.306037426 47956837.25592041 0 0 0 0 -1323531.1995221337 -9977.6073600868694 0 -9977.6073600868694 1174659.4099358022 0 0 0 0 -91493363.541326284 8839023.7338562012 0 8839023.7338562012 -2445681.0966186523 0 0 0 0 -87770346.789799795 26479456.056453705 0 26479456.056453705 75431148.970336914 0 0 0 0 -15630201.855376363 -24847402.897186279 0 -24847402.897186279 47048141.565155029 0 0 0 0 36697522.777526855 109021044.42051697 0 109021044.42051697 235056244.46691895 0 0 0 0 28085696.058552742 -540582.35223388672 0 -540582.35223388672 -9628691.6624565125 0 0 0 0 42473471.514766693 57673661.957305908 0 57673661.957305908 -6199109.554107666 0 0 0 0 12855927.35130477 -10835191.358932495 0 -10835191.358932495 122610181.60427856 0 0 0 0 13411680.994635582 56961248.750030518 0 56961248.750030518 104496161.41494751 0 0 0 0 65772877.393088341 -19842231.990325928 0 -19842231.990325928 -1833798.6665649414 0 0 0 0 102569037.71880424 -3311517.7306404114 0 -3311517.7306404114 135423954.00872803 0 0 0 0 -25108896.189783096 -80642303.176696777 0 -80642303.176696777 -25695101.318641663 0 0 0 0 125417384.40784073 10566089.782699585 0 10566089.782699585 -46589321.954223633 0 0 0 0 35121817.236430168 -98250569.568634033 0 -98250569.568634033 -87939418.546707153 0 0 0 0 -597988.03746626712 2620700.5919883922 0 2620700.5919883922 638870.34359819442 0 0 0 0 -899397.25273799896 1815606.8129425049 0 1815606.8129425049 3093389.8028259277 0 0 0 0 -837665.45863294601 478415.88372802734 0 478415.88372802734 1126342.9716339111 0 0 0 0 -14711718.058437169 45050500.085010529 0 45050500.085010529 -52562108.151184082 0 0 0 0 39210959.760253906 -13446648.14755249 0 -13446648.14755249 -98457244.262481689 0 0 0 0 1217450.0996551514 3435398.6839752197 0 3435398.6839752197 -44311314.806335449 0 0 0 0 7956892.2503833771 54377564.911590576 0 54377564.911590576 -28112423.819877625 0 0 0 0 -4163373.9126169682 2705089.8307647705 0 2705089.8307647705 -6719294.8293838501 0 0 0 0 -3507064.2328525083 561128.17523317784 0 561128.17523317784 2029470.1916889474 0 0 0 0 -2494226.2261820887 -86245.718209557235 0 -86245.718209557235 1291782.0977807939 0 0 0 0 -963799.04653164744 12797118.040599823 0 12797118.040599823 -7575029.0786132812 0 0 0 0 19134764.449747324 -10905090.943786621 0 -10905090.943786621 1285826.9861679077 0 0 0 0 -6546714.2090679258 -1189731.1947441101 0 -1189731.1947441101 928986.05668640137 0 0 0 0 -6413224.2136925459 16816122.389053345 0 16816122.389053345 10065565.43661499 0 0 0 0 -101803990.54512793 64014342.516975403 0 64014342.516975403 36228161.082946777 0 0 0 0 -27499193.445018053 41311155.27557373 0 41311155.27557373 7207444.4252929688 0 0 0 0 -85964626.189125061 26690966.511810303 0 26690966.511810303 14767157.779586792 0 0 0 0 -2345028.9383106232 85853.08268737793 0 85853.08268737793 1898031.3906097412 0 0 0 0 -1290848.6354349498 123533.46479958948 0 123533.46479958948 1312981.5711244345 0 0 0 0 -812809.77707129135 476.55133870290592 0 476.55133870290592 745551.8670938015 0 0 0 0 -1803411.1532037258 3971994.6427841187 0 3971994.6427841187 19970212.465118408 0 0 0 0 -23819771.438915372 4029735.6257171631 0 4029735.6257171631 3482541.3943557739 0 0 0 0 -75571407.79746455 77627906.755569458 0 77627906.755569458 -51497035.318489075 0 0 0 0 -983930.77852552989 203980.8828753531 0 203980.8828753531 788185.2303429842 0 0 0 0 3621065.3801512718 1436487.3751373291 0 1436487.3751373291 -26175626.820335388 0 0 0 0 -87261259.908631027 21451653.435470581 0 21451653.435470581 42588044.494293213 0 0 0 0 -36661706.374058977 206904784.72677612 0 206904784.72677612 -108860478.34899902 0 0 0 0 36136501.232375026 -41638975.970546722 0 -41638975.970546722 97651813.774780273 0 0 0 0 13411087.974017233 39013746.257293701 0 39013746.257293701 62137938.023712158 0 0 0 0 -18937295.447826684 -19511938.571792603 0 -19511938.571792603 48873236.001279831 0 0 0 0 49151084.525533348 -57346241.978134155 0 -57346241.978134155 102872148.71209717 0 0 0 0 11445278.26361835 -83583741.213287354 0 -83583741.213287354 189529198.02285767 0 0 0 0 -1388313.2578516304 12058315.376953125 0 12058315.376953125 99390133.342895508 0 0 0 0 2710263.9185363054 -2804932.111541748 0 -2804932.111541748 73146337.084014893 0 0 0 0 36462876.478548959 -17193807.902282715 0 -17193807.902282715 151414022.48030853 0 0 0 0 50455152.415564321 -66849332.889984131 0 -66849332.889984131 170354902.3822937 0 0 0 0 23594691.693857461 -38549708.720176697 0 -38549708.720176697 211498329.35076904 0 0 0 0 37719428.821946383 -110738800.75737 0 -110738800.75737 254034639.6316452 0 0 0 0 10692434.707550384 -62912714.069412231 0 -62912714.069412231 361384780.90155029 0 0 0 0 6350847.9603157043 -146893440.93003845 0 -146893440.93003845 341183676.4115448 0 0 0 0 7492873.0340026617 -91126053.037612915 0 -91126053.037612915 318206183.57078552 0 0 0 0 33459155.069756925 -63621647.384417534 0 -63621647.384417534 205970847.0864563 0 0 0 0 55072.187571345465 -19793305.332511902 0 -19793305.332511902 328994842.42628479 0 0 0 0 22727908.756133977 -41887092.064117432 0 -41887092.064117432 285019132.35205078 0 0 0 0 29348596.094428718 -98508144.835529327 0 -98508144.835529327 314346226.7071228 0 0 0 0 40614125.706780851 -27749854.982826233 0 -27749854.982826233 191801215.06832886 0 0 0 0 26320620.020792987 -54127117.264572144 0 -54127117.264572144 274865834.32403564 0 0 0 0 49599465.079197198 8385191.6164703369 0 8385191.6164703369 144995726.25242615 0 0 0 0 47898.864980439692 3095044.469082816 0 3095044.469082816 180922755.56781006 0 0 0 0 50103984.206177309 10311986.185302734 0 10311986.185302734 129580956.32791901 0 0 0 0 49171517.724324405 -49448989.250839233 0 -49448989.250839233 159481565.37982178 0 0 0 0 43207722.338981122 -6602174.3842506409 0 -6602174.3842506409 104642735.47766113 0 0 0 0 72419648.971871346 18003694.028610229 0 18003694.028610229 87945839.900787354 0 0 0 0 -4070.1123745637451 31444024.861869812 0 31444024.861869812 138340330.06307602 0 0 0 0 50349446.635451905 58047982.495796204 0 58047982.495796204 124452468.097229 0 0 0 0 -30952355.94366236 14380316.55506134 0 14380316.55506134 104758902.3890686 0 0 0 0 -35550676.825645573 -46846457.658480167 0 -46846457.658480167 -4514116.1096954346 0 0 0 0 69148.928983396865 38247134.84135437 0 38247134.84135437 48476310.821716309 0 0 0 0 -24293962.958505459 12110071.67093277 0 12110071.67093277 290772477.62435913 0 0 0 0 -169332.05312435521 59660.2099166587 0 59660.2099166587 177872.45225787908 0 0 0 0 -21748687.90135774 115971661.33286285 0 115971661.33286285 269644341.31208801 0 0 0 0 59056169.663868129 227038538.92323303 0 227038538.92323303 150981765.10791016 0 0 0 0 -73565.180112753558 -71975.645428404212 0 -71975.645428404212 344057.71257202327 0 0 0 0 4750556.0129674971 51313936.235809326 0 51313936.235809326 9224442.5141830444 0 0 0 0 95616942.703292668 132209161.21347046 0 132209161.21347046 227169780.07935333 0 0 0 0 30275397.980663002 47470124.534805298 0 47470124.534805298 135111462.54806519 0 0 0 0 -29108458.076660957 -23978809.678930283 0 -23978809.678930283 59971231.78288269 0 0 0 0 -112303.05998587282 -220211.95057386905 0 -220211.95057386905 741192.52300356328 0 0 0 0 91580654.562482119 -3235870.4820709229 0 -3235870.4820709229 36878699.648010254 0 0 0 0 -54768006.632353753 9821657.518081665 0 9821657.518081665 134654377.31970215 0 0 0 0 -28380153.474641457 56630309.93788147 0 56630309.93788147 109200862.70056152 0 0 0 0 -131350.39354472529 15797.015039108694 0 15797.015039108694 207087.50903504342 0 0 0 0 14436939.417986432 19982844.677352905 0 19982844.677352905 149551680.16837311 0 0 0 0 11954130.33964026 53828288.797073364 0 53828288.797073364 173567547.05513 0 0 0 0 46939045.611948103 171282819.14163208 0 171282819.14163208 187300012.73986053 0 0 0 0 -97328.804521241938 -19078.798686772585 0 -19078.798686772585 138854.04064982384 0 0 0 0 7115533.2014812529 51173072.272277832 0 51173072.272277832 259829518.04467773 0 0 0 0 4902162.4888163805 56126170.854400635 0 56126170.854400635 250599194.08584595 0 0 0 0 -40555.927986477334 45673.106115497649 0 45673.106115497649 182972.61787879467 0 0 0 0 12526223.097899742 21033018.182601929 0 21033018.182601929 85407238.576934814 0 0 0 0 4532879.2705005556 56947589.378425598 0 56947589.378425598 64799584.265319824 0 0 0 0 20580294.183778256 3529793.5349731445 0 3529793.5349731445 73920616.897857666 0 0 0 0 -5115580.0458252337 25874011.055580139 0 25874011.055580139 179255369.11203003 0 0 0 0 1378769.1094877049 22929786.860855103 0 22929786.860855103 179171610.55532837 0 0 0 0 -6070.9241601382473 1982664.6455459595 0 1982664.6455459595 156172170.19221497 0 0 0 0 -6837329.3764854837 24971056.624404907 0 24971056.624404907 177081542.45973206 0 0 0 0 -13501.34043733808 -2078228.4002609253 0 -2078228.4002609253 212990012.17883301 0 0 0 0 -7546981.8298924295 -1369039.4252586365 0 -1369039.4252586365 224188388.9588623 0 0 0 0 4891589.3831590377 -18900708.405151367 0 -18900708.405151367 238541224.80639648 0 0 0 0 -7150793.4541294351 12230713.287536621 0 12230713.287536621 221817774.133255 0 0 0 0 -9396785.9653854109 6189641.9320755005 0 6189641.9320755005 216354479.28521729 0 0 0 0 -2573208.5281835496 15767132.983535767 0 15767132.983535767 226604026.53814697 0 0 0 0 -1666146.4017350823 18598901.333358765 0 18598901.333358765 228606488.96359253 0 0 0 0 -4821370.6692905277 -4555806.3807830811 0 -4555806.3807830811 258825288.81784058 0 0 0 0 6940689.5618425235 30816235.018054962 0 30816235.018054962 291899293.78460693 0 0 0 0 7970747.5729474425 30420910.98147583 0 30420910.98147583 240917598.72449493 0 0 0 0 -13086724.499356478 10549824.398681641 0 10549824.398681641 276463380.27462769 0 0 0 0 -3427823.4057165533 8746413.0650253296 0 8746413.0650253296 271553041.81546021 0 0 0 0 -8575170.0054163635 -7915304.3056411743 0 -7915304.3056411743 347280062.61697388 0 0 0 0 43993227.724369362 879718.00010681152 0 879718.00010681152 253753214.52046204 0 0 0 0 278072.12405784056 -1142.5167265385389 0 -1142.5167265385389 353203.9788179379 0 0 0 0 -688938.26687270403 -24010022.992973328 0 -24010022.992973328 305548601.34266663 0 0 0 0 5230068.6985683739 -28018386.96875 0 -28018386.96875 292580983.96264648 0 0 0 0 -10938508.988985509 -15840305.35836792 0 -15840305.35836792 272310486.50442505 0 0 0 0 200517.64856508549 66360.842528656125 0 66360.842528656125 472833.57412787154 0 0 0 0 -1690075.5142173618 -6803013.1147460938 0 -6803013.1147460938 256810146.28272247 0 0 0 0 59570819.88471663 12384674.386611938 0 12384674.386611938 312681289.30814743 0 0 0 0 -70543018.592812553 -65028833.662574768 0 -65028833.662574768 462051575.80273438 0 0 0 0 21234559.596702248 173272303.00645447 0 173272303.00645447 503860306.60285759 0 0 0 0 -42149748.743665814 18297442.459686279 0 18297442.459686279 21961466.764039993 0 0 0 0 333445.73959931562 341340.25973635912 0 341340.25973635912 1272282.3611780703 0 0 0 0 -49663667.350619078 -102119963.75128645 0 -102119963.75128645 225571957.93093872 0 0 0 0 -49522818.937509358 -116869302.09432983 0 -116869302.09432983 7026412.9016876221 0 0 0 0 27103364.566680111 -8542976.732711792 0 -8542976.732711792 115284898.02505493 0 0 0 0 -5323848.3429687619 19210381.108078003 0 19210381.108078003 136983849.43980408 0 0 0 0 7459280.8600089177 -15588164.72984314 0 -15588164.72984314 214610680.28588104 0 0 0 0 -41726275.298981704 -38349935.566087723 0 -38349935.566087723 388451352.875 0 0 0 0 40454.761107624785 65689.133861273527 0 65689.133861273527 522002.17077372968 0 0 0 0 38190.526572214942 29184103.203178406 0 29184103.203178406 243643549.22315979 0 0 0 0 -24923408.682360597 14262778.375061035 0 14262778.375061035 338297922.58662415 0 0 0 0 -20862046.425214261 31598095.518981934 0 31598095.518981934 220185021.81468201 0 0 0 0 -21995118.21781522 18379804.178260803 0 18379804.178260803 167011765.34273362 0 0 0 0 -39601870.177925527 36966152.019710541 0 36966152.019710541 236566709.42370605 0 0 0 0 -14519447.61039114 40583758.960159302 0 40583758.960159302 167392628.25091553 0 0 0 0 -13964058.715301394 36401729.178451538 0 36401729.178451538 95260048.653396606 0 0 0 0 -9584342.7500554323 21899427.940979004 0 21899427.940979004 114434661.54766846 0 0 0 0 5322851.9816567898 35241503.968399048 0 35241503.968399048 116341655.46939087 0 0 0 0 -4041684.7853707969 42813571.341781616 0 42813571.341781616 164712430.09777832 0 0 0 0 31699192.976495922 36315385.361907959 0 36315385.361907959 162488583.23947906 0 0 0 0 33956487.743936613 67068184.949234009 0 67068184.949234009 104061789.1264801 0 0 0 0 36040171.928251609 50400620.190856934 0 50400620.190856934 166983528.53499603 0 0 0 0 26628213.989147484 51185522.469772339 0 51185522.469772339 167257273.14476395 0 0 0 0 -12677590.227910146 -31763.442489624023 0 -31763.442489624023 318624372.49102783 0 0 0 0 59165571.079554841 101792685.15170288 0 101792685.15170288 255517550.57470703 0 0 0 0 -6655151.7597713172 -8271027.4903411865 0 -8271027.4903411865 218560455.221138 0 0 0 0 12944513.914396316 18572073.830322266 0 18572073.830322266 230711107.13764954 0 0 0 0 126091.44466279316 -28603.179135538638 0 -28603.179135538638 146691.98811809532 0 0 0 0 27996580.125082687 -13613984.179985046 0 -13613984.179985046 213278541.96876526 0 0 0 0 15983043.964694381 -1960765.315612793 0 -1960765.315612793 366484074.51000214 0 0 0 0 8614550.1325557828 -37267934.59576416 0 -37267934.59576416 318837469.29364014 0 0 0 0 2455083.3934547901 56361344.963363647 0 56361344.963363647 260958211.41888428 0 0 0 0 -20001635.737386227 56046647.521942139 0 56046647.521942139 320082417.02920532 0 0 0 0 -24652361.914972186 69515329.368469238 0 69515329.368469238 477388494.56742859 0 0 0 0 -19537202.389327765 69713403.683395386 0 69713403.683395386 290704345.60119629 0 0 0 0 -36959576.719432414 -67550874.343292236 0 -67550874.343292236 299367848.71081543 0 0 0 0 101178614.97820568 -25867918.411849976 0 -25867918.411849976 367591400.95957947 0 0 0 0 43652197.063229948 44076839.743286133 0 44076839.743286133 315573924.059021 0 0 0 0 -42755865.990431339 -25338902.673316956 0 -25338902.673316956 299688455.36126709 0 0 0 0 49086849.608412415 67429046.833593369 0 67429046.833593369 237136740.29701233 0 0 0 0 -111830132.05126652 -68248087.999633789 0 -68248087.999633789 185744710.34735107 0 0 0 0 -60603749.898146272 7538363.7754058838 0 7538363.7754058838 267884476.54634094 0 0 0 0 -54384655.315617144 -2968696.7375488281 0 -2968696.7375488281 266430221.22848129 0 0 0 0 2671420.9896616936 -13552657.02488327 0 -13552657.02488327 186135943.52697754 0 0 0 0 -4000709.0660421252 7826618.0280075073 0 7826618.0280075073 183283911.33102417 0 0 0 0 14251724.458908051 52510317.001846313 0 52510317.001846313 149101911.27194214 0 0 0 0 -3633356.1092169881 32071618.92590332 0 32071618.92590332 179528722.68443108 0 0 0 0 -20301284.750429153 55993757.596054077 0 55993757.596054077 146555773.95339966 0 0 0 0 13353618.700980663 143918676.76867676 0 143918676.76867676 339811268.16064453 0 0 0 0 -43646.711472193507 -135450.85393824428 0 -135450.85393824428 424200.29456591606 0 0 0 0 37987882.899117708 -69817796.059020996 0 -69817796.059020996 -56882261.219482422 0 0 0 0 -23926768.35085535 -150019606.85620117 0 -150019606.85620117 40252228.295349121 0 0 0 0 12876407.707985997 -70201273.774429321 0 -70201273.774429321 55462672.96005249 0 0 0 0 -33411512.589431986 -121928168.81194878 0 -121928168.81194878 157133536.37084961 0 0 0 0 35563236.735392928 -29580919.810043335 0 -29580919.810043335 128177732.20030212 0 0 0 0 30618264.550511658 -22058916.665557861 0 -22058916.665557861 117758800.53265381 0 0 0 0 65989997.749687433 36884014.787689209 0 36884014.787689209 121336779.08314705 0 0 0 0 101311701.26230878 37882931.261108398 0 37882931.261108398 105326235.4950676 0 0 0 0 41293221.702796221 32935360.917633057 0 32935360.917633057 51878572.556735992 0 0 0 0 41056214.600153774 6875818.9095306396 0 6875818.9095306396 103153617.32226562 0 0 0 0 -39198519.201302767 78678757.706726074 0 78678757.706726074 91213364.166992188 0 0 0 0 43304978.887107015 8908040.4745788574 0 8908040.4745788574 -55312743.102248192 0 0 0 0 -46471563.102906227 64509236.905860901 0 64509236.905860901 198935871.79724121 0 0 0 0 -31987095.98630172 87022922.3072052 0 87022922.3072052 233200003.57460403 0 0 0 0 -11368353.12951684 7457590.2376327515 0 7457590.2376327515 216823160.60205078 0 0 0 0 -243498.66973833842 21521.762347125448 0 21521.762347125448 300566.67016078532 0 0 0 0 72591740.222483069 118178199.4873023 0 118178199.4873023 137190888.806427 0 0 0 0 878797.07305026613 -68783134.719108582 0 -68783134.719108582 112539170.64407349 0 0 0 0 38037785.786118746 18532894.648880005 0 18532894.648880005 10153153.775871277 0 0 0 0 -19295835.130743533 -2707934.2568283081 0 -2707934.2568283081 187918894.63067627 0 0 0 0 -15095688.845265344 23362923.086391449 0 23362923.086391449 149982916.60421753 0 0 0 0 -5712365.5080367476 18095673.562847137 0 18095673.562847137 101917559.36523438 0 0 0 0 66247030.877451226 93007133.471969604 0 93007133.471969604 175160884.58999634 0 0 0 0 -29869012.519772887 27041282.515640259 0 27041282.515640259 241674779.40287781 0 0 0 0 5729732.8741640896 -30783747.410079956 0 -30783747.410079956 88924282.406158447 0 0 0 0 24758475.69946605 -9904075.6454315186 0 -9904075.6454315186 4104996.005645752 0 0 0 0 9720826.8874298036 1843112.3950042725 0 1843112.3950042725 26566935.183563232 0 0 0 0 4370523.457167767 -16295230.593437195 0 -16295230.593437195 27098126.289825439 0 0 0 0 -15349656.447317064 3980538.7839202881 0 3980538.7839202881 67906451.700927734 0 0 0 0 -9531494.2347048521 4638723.2991523743 0 4638723.2991523743 11837305.408935547 0 0 0 0 -9179990.8707076907 411575.70383071899 0 411575.70383071899 52076848.799438477 0 0 0 0 11104774.946190566 33089352.093994141 0 33089352.093994141 60366563.003555298 0 0 0 0 -125962202.39330757 -66096640.15404892 0 -66096640.15404892 52884909.117645264 0 0 0 0 -36443590.799525559 7565520.7772445679 0 7565520.7772445679 54165034.799575806 0 0 0 0 -1335380.8265717893 -5131147.7751947362 0 -5131147.7751947362 14361047.718255058 0 0 0 0 -2240608.7606163025 -45644649.547729492 0 -45644649.547729492 -18062732.987701416 0 0 0 0 17758387.73816587 33005643.206417084 0 33005643.206417084 66788094.564453125 0 0 0 0 5191170.2339792252 32622046.256568909 0 32622046.256568909 70772043.700500488 0 0 0 0 21341405.165192604 -18855478.264541626 0 -18855478.264541626 22854000.002166748 0 0 0 0 -9473369.8121439815 3820573.8158817291 0 3820573.8158817291 90161094.570861816 0 0 0 0 -6469657.0197534561 -23713648.020584106 0 -23713648.020584106 11308844.605194092 0 0 0 0 -28999415.634895325 33326034.232528687 0 33326034.232528687 349664376.47628784 0 0 0 0 1609548.7740125144 1027720.0188491344 0 1027720.0188491344 -1045992.5714273006 0 0 0 0 34523767.568317413 66707454.317016602 0 66707454.317016602 190743330.74829102 0 0 0 0 41725693.723468781 54049846.595672607 0 54049846.595672607 124750657.58203125 0 0 0 0 14666756.936130524 19944316.764785767 0 19944316.764785767 87399003.086458206 0 0 0 0 33382390.687837601 -33478398.728515625 0 -33478398.728515625 101916252.10993195 0 0 0 0 20924551.696237564 -18125263.827468872 0 -18125263.827468872 87519392.311859131 0 0 0 0 47123375.468353271 -60416850.138061523 0 -60416850.138061523 73658327.143310547 0 0 0 0 19998028.898647308 -31522291.333251953 0 -31522291.333251953 213290325.36960602 0 0 0 0 -13092393.93904686 -52219614.513442993 0 -52219614.513442993 44031343.65071106 0 0 0 0 52480153.939301014 -44364213.950504303 0 -44364213.950504303 36941852.289764404 0 0 0 0 49978404.115046501 -52024614.437988281 0 -52024614.437988281 35217156.357467651 0 0 0 0 32533139.180629492 -29924838.347579956 0 -29924838.347579956 7746513.3698425293 0 0 0 0 -4876367.3553156853 -11398137.53968811 0 -11398137.53968811 -21653023.294433594 0 0 0 0 -86004390.343102098 -431444.99381256104 0 -431444.99381256104 41900890.685821533 0 0 0 0 6361078.3190250397 -42359422.87272644 0 -42359422.87272644 39822402.807884216 0 0 0 0 953260.72236084938 -20991889.721107483 0 -20991889.721107483 16315311.621932983 0 0 0 0 -46362410.645477533 -64224489.808624268 0 -64224489.808624268 11814536.359512329 0 0 0 0 47126986.683423519 -105134007.46295929 0 -105134007.46295929 88884966.6512146 0 0 0 0 72938105.332381248 -61300445.867736816 0 -61300445.867736816 -1012266.5690917969 0 0 0 0 -17342525.797288895 -117718596.46479034 0 -117718596.46479034 86429536.253295898 0 0 0 0 39862244.05266571 -202593109.17301941 0 -202593109.17301941 206499386.88168335 0 0 0 0 -8170165.0354309082 -159497698.79496765 0 -159497698.79496765 207356039.55050945 0 0 0 0 469997.80064671795 -1957016.2250678185 0 -1957016.2250678185 2723170.3379363567 0 0 0 0 464178552.83130389 -292500656.10208893 0 -292500656.10208893 126336823.19911194 0 0 0 0 228067220.87267458 -66000464.652198792 0 -66000464.652198792 -34129849.511444092 0 0 0 0 -20308829.154108346 103761262.95149231 0 103761262.95149231 160707457.38746452 0 0 0 0 436263905.13145101 546326214.62847137 0 546326214.62847137 588768128.63339233 0 0 0 0 -86216831.093850121 51546339.634441376 0 51546339.634441376 218179715.06587219 0 0 0 0 -36308045.639905453 139133880.54508209 0 139133880.54508209 366124622.29989624 0 0 0 0 23098940.196529776 73110850.199081421 0 73110850.199081421 90587070.258537292 0 0 0 0 -25830188.755093336 78345143.392562866 0 78345143.392562866 222010091.84446716 0 0 0 0 48654690.754459225 114676945.26976967 0 114676945.26976967 158160149.2539978 0 0 0 0 273940.2686659717 -4311802.4822574463 0 -4311802.4822574463 8484215.7918213308 0 0 0 0 68272912.66932106 -90570236.508443952 0 -90570236.508443952 -12019305.569437981 0 0 0 0 -5279898.1380081177 -71521428.416146159 0 -71521428.416146159 15525792.841616392 0 0 0 0 -645387.9909286499 -115851143.751333 0 -115851143.751333 3864047.7688625567 0 0 0 0 -43692226.505859375 -151868808.42756486 0 -151868808.42756486 3159297.6758904457 0 0 0 0 -43222678.861526489 -87347752.798428714 0 -87347752.798428714 12764160.503097296 0 0 0 0 -76550544.500091553 -72610140.598347604 0 -72610140.598347604 15042438.79279685 0 0 0 0 -30421926.56464386 -107863257.37158155 0 -107863257.37158155 17288650.277888477 0 0 0 0 -125677303.54774857 -130844366.51228261 0 -130844366.51228261 25247899.903672218 0 0 0 0 -5053480.2791922651 -19281715.835842863 0 -19281715.835842863 77067779.13937974 0 0 0 0 -101388539.59939575 -70906966.737312317 0 -70906966.737312317 87984709.158843994 0 0 0 0 -82639773.342815399 -111872588.80300856 0 -111872588.80300856 46693860.176231384 0 0 0 0 -83668840.277938843 -95092320.894078732 0 -95092320.894078732 -2952447.7745528221 0 0 0 0 -76585881.829284668 -105424510.25036931 0 -105424510.25036931 43998145.204864502 0 0 0 0 -122752752.16641235 -225772905.80218506 0 -225772905.80218506 101116087.47143555 0 0 0 0 -160222729.13510895 -68157382.045324326 0 -68157382.045324326 67674926.562864304 0 0 0 0 8394834.2068557739 47992701.162231445 0 47992701.162231445 -31664492.161705017 0 0 0 0 11621942.260391235 -154902956.07843018 0 -154902956.07843018 305288678.65973663 0 0 0 0 128726422.4709816 -222338280.45124817 0 -222338280.45124817 -144439845.71026611 0 0 0 0 16624177.106653214 -48971847.406784058 0 -48971847.406784058 78176874.815628052 0 0 0 0 -13676855.195205688 -56177963.893714905 0 -56177963.893714905 75508586.465927124 0 0 0 0 -105311836.6884079 -8811831.0997772217 0 -8811831.0997772217 67752446.885314941 0 0 0 0 -67910026.476705551 -57727061.571365356 0 -57727061.571365356 122287472.13369751 0 0 0 0 -76039192.955064774 -79426314.906455994 0 -79426314.906455994 154171736.15563965 0 0 0 0 -51437568.641391754 -129974896.96516418 0 -129974896.96516418 189603074.17529297 0 0 0 0 -107288084.18742561 -10252475.111831665 0 -10252475.111831665 125520861.50036621 0 0 0 0 -127875561.48183441 -83485306.619979858 0 -83485306.619979858 242998740.81863403 0 0 0 0 -168651557.82146645 -24077684.68800354 0 -24077684.68800354 193551184.18357849 0 0 0 0 -150448259.38195801 -19062804.182765961 0 -19062804.182765961 170762923.55084229 0 0 0 0 -9228321.9993534386 32571260.609371252 0 32571260.609371252 78152294.646298528 0 0 0 0 -108413888.50712967 9134168.3940887451 0 9134168.3940887451 118210409.31743813 0 0 0 0 -42026078.84808445 -4485411.3691864014 0 -4485411.3691864014 120289963.02922058 0 0 0 0 -71848121.061502457 -45686491.272094727 0 -45686491.272094727 86512181.245467663 0 0 0 0 -28487107.961872339 -84919247.040038899 0 -84919247.040038899 15673313.419804335 0 0 0 0 -29223215.99817276 -88686852.962666512 0 -88686852.962666512 17029729.712512434 0 0 0 0 -7523449.0863944218 -23492692.47547622 0 -23492692.47547622 86366426.901913941 0 0 0 0 -977215080.96018982 -907341204.41346359 0 -907341204.41346359 928226617.11685705 0 0 0 0 53585587.458654404 -255315718.44658875 0 -255315718.44658875 177248527.61333084 0 0 0 0 -2961942763.5186729 -45870928.38627553 0 -45870928.38627553 745269668.33187294 0 0 0 0 -3079185.1093386468 2366999.9713889128 0 2366999.9713889128 4321750.0691325124 0 0 0 0 1718463140.6203499 486957184.78729296 0 486957184.78729296 -203567292.84537005 0 0 0 0 49399629.758876801 250363375.38270569 0 250363375.38270569 538081294.18400061 0 0 0 0 -139936375.41691208 -20288682.105662584 0 -20288682.105662584 782222518.97693133 0 0 0 0 -98960411.071336746 1661309.3719277382 0 1661309.3719277382 290637174.43966055 0 0 0 0 90363632.982448578 681713298.88339674 0 681713298.88339674 -76982409.009738863 0 0 0 0 -333060682.73302078 -133254290.06125331 0 -133254290.06125331 346264623.27960849 0 0 0 0 -14634499.508096674 -14299673.050517479 0 -14299673.050517479 34117668.871954225 0 0 0 0 14758917.164169312 22937258.979130119 0 22937258.979130119 133462327.25641495 0 0 0 0 20698174.198999405 4232898.7763641775 0 4232898.7763641775 150069564.01325673 0 0 0 0 57826573.186637878 21768486.583905935 0 21768486.583905935 112694947.93475533 0 0 0 0 56009326.98448658 69352914.554734439 0 69352914.554734439 137867682.70782948 0 0 0 0 -52981239.60329628 60651504.26483351 0 60651504.26483351 190579188.20917273 0 0 0 0 185238314.64970589 156138844.24063194 0 156138844.24063194 132127317.83371258 0 0 0 0 69148938.374803543 33902912.262480259 0 33902912.262480259 100768250.07250166 0 0 0 0 82372966.501098633 61513409.344097376 0 61513409.344097376 147694158.80730057 0 0 0 0 127224887.33942604 75337030.948127568 0 75337030.948127568 67569440.721398354 0 0 0 0 44178836.811004639 -13260185.840823412 0 -13260185.840823412 81652933.560844898 0 0 0 0 528995.82993597537 -1372944.7065648003 0 -1372944.7065648003 9372921.813450655 0 0 0 0 115784332.21587372 32963338.259426594 0 32963338.259426594 48780405.901552677 0 0 0 0 73837470.070602417 -13145006.181071162 0 -13145006.181071162 10005938.78053093 0 0 0 0 16274790.63551712 -60753575.136776805 0 -60753575.136776805 32447699.956295013 0 0 0 0 -61053962.749763489 -42587282.402239561 0 -42587282.402239561 107685299.24120879 0 0 0 0 -36194692.107406616 -31780760.942613363 0 -31780760.942613363 107288546.7965126 0 0 0 0 59846591.988644838 -4638101.688730374 0 -4638101.688730374 86251308.510289192 0 0 0 0 12199874.555259705 -20307554.224557161 0 -20307554.224557161 112739915.06295323 0 0 0 0 23178009.730911255 -18930083.32227397 0 -18930083.32227397 112895573.68363759 0 0 0 0 16263880.527442932 -6949151.5125436783 0 -6949151.5125436783 116413127.91911957 0 0 0 0 9964094.4809970856 -7344623.5022125393 0 -7344623.5022125393 116479888.17238235 0 0 0 0 -50560883.861248016 -690531.28371393681 0 -690531.28371393681 133969517.70944607 0 0 0 0 -36170359.41129303 -1474191.0054581165 0 -1474191.0054581165 133386504.30433297 0 0 0 0 -422373.65111744218 5670371.4643887337 0 5670371.4643887337 40573843.250320829 0 0 0 0 -53603178.300222397 -5396960.3021024466 0 -5396960.3021024466 130519176.99117374 0 0 0 0 -5756632.2229432678 -4904223.625136748 0 -4904223.625136748 40137448.133000799 0 0 0 0 -63353246.869010925 -18261718.937374115 0 -18261718.937374115 118629487.00512028 0 0 0 0 -34516509.090240479 224488.52787661552 0 224488.52787661552 129721001.47457528 0 0 0 0 -169440500.76949024 -222407503.38227177 0 -222407503.38227177 289486915.93283415 0 0 0 0 440870914.37621403 166780467.35141611 0 166780467.35141611 90339704.661437988 0 0 0 0 -252515953.946702 329076470.03941345 0 329076470.03941345 43542973.205131531 0 0 0 0 -150423537.98594093 97973964.726501465 0 97973964.726501465 -41576688.854187012 0 0 0 0 -201501894.72586966 30799605.786155701 0 30799605.786155701 316710110.93969727 0 0 0 0 -10642381.590813538 34347351.906607613 0 34347351.906607613 75532872.566138491 0 0 0 0 45091571.262701035 3141556.0467252731 0 3141556.0467252731 124438312.6517868 0 0 0 0 2695607.6553950873 -26356950.991520308 0 -26356950.991520308 73600177.689755112 0 0 0 0 -28157374.74429369 -12936092.60305047 0 -12936092.60305047 147533766.23410416 0 0 0 0 19480731.910871506 -76383973.570566654 0 -76383973.570566654 100115730.60797691 0 0 0 0 37531004.670016289 -38669517.498452783 0 -38669517.498452783 -51940400.161003113 0 0 0 0 -101129565.82269287 61506981.011753082 0 61506981.011753082 51638413.279697418 0 0 0 0 -18909636.820287704 -7312583.6666030884 0 -7312583.6666030884 94083851.248569489 0 0 0 0 -31508066.705343604 -11587852.662830353 0 -11587852.662830353 138758386.87938309 0 0 0 0 -65455180.177881241 -13627551.517433167 0 -13627551.517433167 140809320.92605209 0 0 0 0 -102305232.19610214 23812116.509815216 0 23812116.509815216 126570667.01210213 0 0 0 0 -124989923.21652603 -9552026.3506231308 0 -9552026.3506231308 198248270.24200058 0 0 0 0 -149892074.68006516 -39622070.121377945 0 -39622070.121377945 172772489.93340302 0 0 0 0 -61575484.010721207 -50767057.393154144 0 -50767057.393154144 165122179.32484436 0 0 0 0 28101671.910217285 -199800877.87728119 0 -199800877.87728119 150494416.70751953 0 0 0 0 -33689575.056728363 -100621584.53612518 0 -100621584.53612518 75776289.999347687 0 0 0 0 -161295918.55290294 -158381728.6016854 0 -158381728.6016854 298694930.74119186 0 0 0 0 -146966720.36901093 479613905.30717564 0 479613905.30717564 -533266030.19066954 0 0 0 0 -282087746.96242523 -125573133.22567558 0 -125573133.22567558 290328018.80487442 0 0 0 0 -12910958.750629425 41452756.339506626 0 41452756.339506626 -164723750.5484848 0 0 0 0 -485930609.4213028 189254553.27918339 0 189254553.27918339 345817427.88868046 0 0 0 0 -301192063.04692078 -56261938.030778885 0 -56261938.030778885 413247037.02916336 0 0 0 0 -102737750.42876434 63915038.895318031 0 63915038.895318031 96116477.091004372 0 0 0 0 -285158319.77751923 90700056.557249069 0 90700056.557249069 138935919.37480736 0 0 0 0 -257466056.5812912 290577972.03929901 0 290577972.03929901 -132463824.26425838 0 0 0 0 -479273821.48588562 87720189.890503883 0 87720189.890503883 596918196.94922447 0 0 0 0 -1594348597.238327 1707778515.8278384 0 1707778515.8278384 393991968.40594363 0 0 0 0 -948370169.92120361 -910854104.22540283 0 -910854104.22540283 1838094784.3774662 0 0 0 0 -3880711492.6724854 1268688279.0650816 0 1268688279.0650816 4241651889.4044428 0 0 0 0 1427422180.9297791 -1739498286.0293617 0 -1739498286.0293617 1389381217.8143616 0 0 0 0 -4154697311.5144615 -435192369.45618296 0 -435192369.45618296 6656028518.7353134 0 0 0 0 -705667852.94123268 -2809643810.6114025 0 -2809643810.6114025 4524027501.7334938 0 0 0 0 381264486.21517181 -654139077.77770424 0 -654139077.77770424 350122318.77616501 0 0 0 0 297475424.3835907 -612163866.53208542 0 -612163866.53208542 344694899.32643986 0 0 0 0 -165809224.78156281 -405961083.11696625 0 -405961083.11696625 711666302.21930504 0 0 0 0 -497615113.28190613 -1220878299.4049606 0 -1220878299.4049606 2048706510.7398014 0 0 0 0 -809668350.75955963 -68200608.258893967 0 -68200608.258893967 585927850.19214249 0 0 0 0 244573426.31944275 -362282861.88971329 0 -362282861.88971329 169378978.45932007 0 0 0 0 71271001.255180359 -357791998.53304863 0 -357791998.53304863 177845976.74645996 0 0 0 0 31868892.04630518 -160791981.66533971 0 -160791981.66533971 -20509923.560279846 0 0 0 0 205310020.57097626 -115940653.84553909 0 -115940653.84553909 -118559031.12372971 0 0 0 0 700004486.8338089 -320157944.86313915 0 -320157944.86313915 -4188537.1790122986 0 0 0 0 207174309.61683464 -103495463.85214043 0 -103495463.85214043 -97154763.222816467 0 0 0 0 -91148735.131080627 105783429.90927696 0 105783429.90927696 2260502.3056716919 0 0 0 0 293834951.74687576 75314074.655973434 0 75314074.655973434 -28992902.754299164 0 0 0 0 -148162793.43119431 44228736.218595505 0 44228736.218595505 -40485641.209308624 0 0 0 0 294256417.22827911 459189452.78580678 0 459189452.78580678 457914845.69967377 0 0 0 0 1571508598.7514477 -1495033922.9479351 0 -1495033922.9479351 528822356.32124448 0 0 0 0 5191694.4148596302 920085.10858207266 0 920085.10858207266 16220428.119859369 0 0 0 0 4473508.8208344206 -4531410.2941336948 0 -4531410.2941336948 415729.34960911795 0 0 0 0 959739810.78006554 -312111830.08789802 0 -312111830.08789802 183921515.75762558 0 0 0 0 -84924874.783077478 63123776.674102783 0 63123776.674102783 452943257.23200226 0 0 0 0 -157377.54470004787 1187613.542631276 0 1187613.542631276 10780962.296936922 0 0 0 0 223188795.75848839 -554290002.97213745 0 -554290002.97213745 -658284423.328125 0 0 0 0 -25433359.776315689 107070746.32885742 0 107070746.32885742 339236923.88671875 0 0 0 0 -5564608.0343031883 20952795.669265747 0 20952795.669265747 244065646.24848175 0 0 0 0 -221854978.88903493 23308443.408008575 0 23308443.408008575 333662502.40441895 0 0 0 0 -109128933.86549169 65743607.897773743 0 65743607.897773743 -13873520.599975586 0 0 0 0 -361670348.95585245 -53005584.158462524 0 -53005584.158462524 1112836271.9644775 0 0 0 0 -118536408.95394328 -892120991.12310791 0 -892120991.12310791 452558109.76400757 0 0 0 0 154957597.70320749 -447293759.97692871 0 -447293759.97692871 706001282.26092529 0 0 0 0 -235165708.66600037 86047758.851745605 0 86047758.851745605 1221090887.1401215 0 0 0 0 807664831.36206365 1039541741.9611206 0 1039541741.9611206 90967723.759429932 0 0 0 0 -326566362.78508949 277999869.11930084 0 277999869.11930084 151197332.19496918 0 0 0 0 -143839359.05556393 -148268526.56425095 0 -148268526.56425095 511401156.86791992 0 0 0 0 -166419747.57666779 132504658.52116394 0 132504658.52116394 258511884.90364075 0 0 0 0 -336895967.09298611 123290913.71385193 0 123290913.71385193 302916211.69259644 0 0 0 0 472959157.13621044 187190904.69404602 0 187190904.69404602 -909661833.40592957 0 0 0 0 103370048.0731374 86815197.499420166 0 86815197.499420166 227847325.87498093 0 0 0 0 -3228998.4983231812 1349408.9881096333 0 1349408.9881096333 39952868.414798677 0 0 0 0 -12080591.025674336 82642393.559525013 0 82642393.559525013 417993838.35998535 0 0 0 0 459619110.17686081 76267914.044998169 0 76267914.044998169 -291672226.38427734 0 0 0 0 251107622.7894392 -191899971.88406372 0 -191899971.88406372 136022549.87652588 0 0 0 0 -39487476.24076438 -54654450.628082275 0 -54654450.628082275 474543701.94750977 0 0 0 0 -10375454.362908596 34153652.245506123 0 34153652.245506123 85685643.437678918 0 0 0 0 -208433084.54781973 -115099629.38471985 0 -115099629.38471985 615827298.84738159 0 0 0 0 -27664707.703522444 45364227.83895874 0 45364227.83895874 141178658.01513481 0 0 0 0 -10785420.038337002 -3835645.1550986841 0 -3835645.1550986841 23084155.664789572 0 0 0 0 54031587.994575262 -3326363.733299017 0 -3326363.733299017 120227849.08263397 0 0 0 0 -2403224.8495959044 16937685.977142334 0 16937685.977142334 143592066.51541209 0 0 0 0 47859000.087090969 -24318977.210544109 0 -24318977.210544109 129955775.00259399 0 0 0 0 26736974.757774353 -19051576.84141922 0 -19051576.84141922 129010190.49488354 0 0 0 0 -36534569.395361811 -66518485.565349579 0 -66518485.565349579 28402306.945678711 0 0 0 0 -118046109.45303082 97882609.090530396 0 97882609.090530396 56841142.221244812 0 0 0 0 -9116339.9793857597 28476757.267265908 0 28476757.267265908 76505190.751146346 0 0 0 0 97198033.6040622 326531327.79492188 0 326531327.79492188 -208494497.43350983 0 0 0 0 -10205651.197192401 24046611.928766761 0 24046611.928766761 74074131.998261631 0 0 0 0 -15404395.370529652 66069686.853790283 0 66069686.853790283 -85510174.76914978 0 0 0 0 15100832.349110961 5762633.6425476074 0 5762633.6425476074 29339752.147361755 0 0 0 0 -3114509.7510827351 -1808571.7754599303 0 -1808571.7754599303 18572149.484295376 0 0 0 0 12205244.24961108 9801493.8271217346 0 9801493.8271217346 30852956.771636963 0 0 0 0 -26584822.311249137 22850575.333297729 0 22850575.333297729 179008089.0838623 0 0 0 0 -13747123.419942975 -38091936.991172791 0 -38091936.991172791 203448502.70739746 0 0 0 0 -32733755.172299236 -3836057.7690162659 0 -3836057.7690162659 232919546.80108643 0 0 0 0 -16234652.470535159 23417463.644884109 0 23417463.644884109 357100406.6098938 0 0 0 0 -63068135.219136596 41028026.625976562 0 41028026.625976562 350528524.03244019 0 0 0 0 -56595207.937775373 67555620.979598999 0 67555620.979598999 190147346.80249023 0 0 0 0 -52523098.604249358 -22771823.52104187 0 -22771823.52104187 153175916.08401489 0 0 0 0 -36702897.66831132 4977552.7269678116 0 4977552.7269678116 96873991.643508911 0 0 0 0 -35584857.758220032 31289096.674408913 0 31289096.674408913 97699682.717285156 0 0 0 0 -1410156.4194324049 6505769.8326470852 0 6505769.8326470852 17956172.013039835 0 0 0 0 -15660736.644607276 16806298.498794556 0 16806298.498794556 67668157.519226074 0 0 0 0 -15720.939874649048 -2730362.7510070801 0 -2730362.7510070801 10660853.752716064 0 0 0 0 2559703.2267351151 -3401132.1244354248 0 -3401132.1244354248 9560689.8511657715 0 0 0 0 6892077.7371239662 -2435860.9952735901 0 -2435860.9952735901 41649555.650177002 0 0 0 0 3336663.1547880173 -8551074.1915435791 0 -8551074.1915435791 51787368.10647583 0 0 0 0 1148745.8613214921 -575512.2634202987 0 -575512.2634202987 13679593.388766751 0 0 0 0 -75902.708628996275 2220496.9019269347 0 2220496.9019269347 7569283.0209761113 0 0 0 0 -3143576.6852531433 -4179064.1319046021 0 -4179064.1319046021 30805064.999899864 0 0 0 0 3838785.5942034721 -9422239.4407806396 0 -9422239.4407806396 53123021.219833374 0 0 0 0 6741959.9118163586 -11228333.980407715 0 -11228333.980407715 49209253.942825317 0 0 0 0 -4108492.0360395014 -4095031.4909934998 0 -4095031.4909934998 93474927.15071106 0 0 0 0 -1826202.5026504006 2348800.004886277 0 2348800.004886277 41679699.6458814 0 0 0 0 -651177.53876638412 -14949695.239837646 0 -14949695.239837646 107868434.90969849 0 0 0 0 -3138058.1101611853 -3876736.9104423523 0 -3876736.9104423523 22044885.901306152 0 0 0 0 -7809143.166897011 -349913.85558092594 0 -349913.85558092594 55900783.189234868 0 0 0 0 -3801683.9142665863 -5631970.0703582764 0 -5631970.0703582764 36368825.98046875 0 0 0 0 9603725.7138265092 -21254704.03689139 0 -21254704.03689139 32444240.64851404 0 0 0 0 6364634.5050888062 -10831465.719245911 0 -10831465.719245911 34568761.420288086 0 0 0 0 29773250.330667257 -12173671.08108902 0 -12173671.08108902 132302192.65895081 0 0 0 0 17018476.8367939 -14727173.74168396 0 -14727173.74168396 33566721.471622467 0 0 0 0 6715256.87520504 4938543.9649543762 0 4938543.9649543762 126294711.71704292 0 0 0 0 1073297.0916625708 -4055396.6272311211 0 -4055396.6272311211 67120912.489562988 0 0 0 0 2092869.4394449824 4433869.3379759416 0 4433869.3379759416 15618851.614627454 0 0 0 0 -29575727.493278503 -8819078.7505493164 0 -8819078.7505493164 99262670.330924988 0 0 0 0 22221638.481731176 -8423004.7325897217 0 -8423004.7325897217 68017516.871307373 0 0 0 0 -58721.179506504224 1184077.6519659087 0 1184077.6519659087 2385095.4489776585 0 0 0 0 -11332233.345555782 -2370902.5817718506 0 -2370902.5817718506 102122646.98797417 0 0 0 0 5175278.5016007423 -3761795.1245574951 0 -3761795.1245574951 30486582.816299438 0 0 0 0 -1113703.2868452072 -19832814.134185791 0 -19832814.134185791 103285819.07516479 0 0 0 0 -24991628.437421799 -29900433.196563721 0 -29900433.196563721 100336880.64790344 0 0 0 0 4889811.6465229988 -35587701.674057007 0 -35587701.674057007 101856396.25402832 0 0 0 0 -121296585.4107666 -114408899.42857361 0 -114408899.42857361 167181819.99212646 0 0 0 0 -58483993.666072845 -12134811.463394165 0 -12134811.463394165 119337731.7800293 0 0 0 0 7275544.5872678757 -40873161.437902451 0 -40873161.437902451 93756660.128295898 0 0 0 0 -25441524.76644516 -31598995.865478516 0 -31598995.865478516 126196848.59051514 0 0 0 0 17215479.828077793 -9308733.3892631531 0 -9308733.3892631531 67504758.212860107 0 0 0 0 145626513.6952858 -63799323.685302734 0 -63799323.685302734 79983702.485549927 0 0 0 0 -49674780.376840591 -11080866.733200073 0 -11080866.733200073 77419801.592483521 0 0 0 0 -2173306.0921871164 6949648.5028263517 0 6949648.5028263517 -1922931.7440086082 0 0 0 0 -8472846.979133606 1433415.4108276367 0 1433415.4108276367 71651315.155090332 0 0 0 0 -33138775.955965042 -24392026.114685059 0 -24392026.114685059 91512760.101867676 0 0 0 0 -10348376.904139519 -21442826.140480042 0 -21442826.140480042 62542113.51127243 0 0 0 0 -15071447.876607895 -38166498.917606354 0 -38166498.917606354 69540288.236968994 0 0 0 0 -3389908.097527504 -19361454.805404663 0 -19361454.805404663 89324095.052520752 0 0 0 0 -4967837.052087903 -22315754.818462372 0 -22315754.818462372 103154632.67614746 0 0 0 0 -7402910.1724328995 -62169412.022506714 0 -62169412.022506714 43426661.486309052 0 0 0 0 55098134.372773647 -34153094.443649292 0 -34153094.443649292 53005713.612922668 0 0 0 0 46975813.552741766 -38896519.310440063 0 -38896519.310440063 67460924.17855835 0 0 0 0 8380887.4347400665 -3861970.3810501099 0 -3861970.3810501099 32275720.781570435 0 0 0 0 5456415.7736265659 -11883938.142837524 0 -11883938.142837524 43285979.351028442 0 0 0 0 38842174.453011751 -23473622.095657349 0 -23473622.095657349 44812280.056518555 0 0 0 0 288297.27602386475 810760.49757385254 0 810760.49757385254 70958352.192749023 0 0 0 0 199344.94828033447 -1024220.1000213623 0 -1024220.1000213623 6339579.0567321777 0 0 0 0 -324015.79018551111 12748167.83026886 0 12748167.83026886 17073130.275039673 0 0 0 0 -786681.76266573719 3809203.4524823129 0 3809203.4524823129 14619120.784903489 0 0 0 0 1116152.3730316162 -11336489.819587708 0 -11336489.819587708 35336351.32333374 0 0 0 0 -109486.41716749594 -312564.46052826941 0 -312564.46052826941 2193359.8382437751 0 0 0 0 6836661.4213867188 -6289592.0856323242 0 -6289592.0856323242 23962799.651306152 0 0 0 0 3300256.8970226422 -1782106.9965380654 0 -1782106.9965380654 19446242.861809179 0 0 0 0 -1435415.9533153076 1487239.8797815517 0 1487239.8797815517 8650772.1977910623 0 0 0 0 5555921.309677124 -2023374.2817077637 0 -2023374.2817077637 54442146.145210266 0 0 0 0 1168170.5956684696 4018108.4252726808 0 4018108.4252726808 17753324.885939013 0 0 0 0 15091838.119004965 -15585643.266952515 0 -15585643.266952515 88756875.921173096 0 0 0 0 37651626.653460026 -22926654.679733276 0 -22926654.679733276 67967393.503631592 0 0 0 0 -28317.802666387404 460298.45437251404 0 460298.45437251404 4099818.1465548575 0 0 0 0 6682603.218334198 -5573722.2938537598 0 -5573722.2938537598 47368200.973861694 0 0 0 0 -9172190.9082603455 -6846940.3635854721 0 -6846940.3635854721 41155302.987030029 0 0 0 0 -12300711.447095871 -1094922.0534515381 0 -1094922.0534515381 38601337.005187988 0 0 0 0 -59419903.387468338 -1893508.717540741 0 -1893508.717540741 72038625.799808502 0 0 0 0 -9573975.4521026611 -55720992.199290276 0 -55720992.199290276 6848204.5601844788 0 0 0 0 -8441672.5611791611 3558680.0847892761 0 3558680.0847892761 26874147.852859497 0 0 0 0 -12238662.902585901 -5156533.3899055487 0 -5156533.3899055487 34776517.469750285 0 0 0 0 17706953.608879089 -95479026.667562485 0 -95479026.667562485 41454826.628694534 0 0 0 0 -9035317.3905894719 -4379878.5588164665 0 -4379878.5588164665 12055289.760638192 0 0 0 0 53138923.893226624 59865511.337875366 0 59865511.337875366 -154896519.01485157 0 0 0 0 19832903.579782486 -96889115.097902298 0 -96889115.097902298 39138136.434150696 0 0 0 0 -8514037.7344664186 -14844486.39128612 0 -14844486.39128612 33445597.668672856 0 0 0 0 -16955868.399323463 12025706.32299614 0 12025706.32299614 35889101.597419739 0 0 0 0 -5815839.7042598724 -2049612.508026123 0 -2049612.508026123 32920216.342597961 0 0 0 0 -180033896.72558594 88537886.558151245 0 88537886.558151245 73307802.66645813 0 0 0 0 -13623550.653673097 7039065.633327635 0 7039065.633327635 41685340.012877032 0 0 0 0 -330243752.33954239 37710309.355880737 0 37710309.355880737 430285511.04962921 0 0 0 0 -29362318.403823853 33388099.362091064 0 33388099.362091064 -64473285.640426636 0 0 0 0 777202.9830443114 964896.3286732994 0 964896.3286732994 -1974889.8715731464 0 0 0 0 -332172721.55089569 -53144274.9634552 0 -53144274.9634552 181397119.85715866 0 0 0 0 5442186.5681266785 -37678021.447425842 0 -37678021.447425842 -14427276.544010162 0 0 0 0 -47117807.006034851 -77357835.50712204 0 -77357835.50712204 118034209.44020081 0 0 0 0 3746375.0297780037 -38281865.210946321 0 -38281865.210946321 89744448.059234619 0 0 0 0 -19778982.629432678 -27829589.834285736 0 -27829589.834285736 106395398.28765297 0 0 0 0 4573924.5962366182 -15685461.385964841 0 -15685461.385964841 17045260.244395994 0 0 0 0 1117019.9866538048 -10154090.392118931 0 -10154090.392118931 117766278.10438919 0 0 0 0 952677.87295252085 -2506740.6878242493 0 -2506740.6878242493 63048524.265235901 0 0 0 0 2002696.806267878 4671792.9815683737 0 4671792.9815683737 22109809.830169376 0 0 0 0 461929467.40896606 61988428.778564453 0 61988428.778564453 268924788.53216553 0 0 0 0 19911438.722885132 -281880561.01365662 0 -281880561.01365662 182198423.72694778 0 0 0 0 -199223332.66768646 102591620.26446152 0 102591620.26446152 53450376.027740479 0 0 0 0 198677453.47547245 129571155.34581757 0 129571155.34581757 -103647517.82542419 0 0 0 0 179724530.31278229 -253470616.49075317 0 -253470616.49075317 78330452.54776001 0 0 0 0 -1933929.7314720158 510747.52648365218 0 510747.52648365218 909046.99634775519 0 0 0 0 31175365.932203293 95470611.741756439 0 95470611.741756439 -99382495.320549011 0 0 0 0 -10399328.802230014 3705103.7314146869 0 3705103.7314146869 36694768.305944003 0 0 0 0 -12326141.922851562 -5302407.5663986206 0 -5302407.5663986206 44122738.639582634 0 0 0 0 -17704769.883553505 16884218.733943939 0 16884218.733943939 38285565.369093895 0 0 0 0 -9343054.4692640975 6492732.1757679433 0 6492732.1757679433 36307214.033539288 0 0 0 0 -9969393.831277132 -5531403.4107933044 0 -5531403.4107933044 40308860.441112518 0 0 0 0 -1456327.5038871765 3701710.6446266174 0 3701710.6446266174 50149813.641469955 0 0 0 0 -8039567.4654807961 11824760.571967231 0 11824760.571967231 24739646.990256742 0 0 0 0 -161204.00686872005 -16885908.256426454 0 -16885908.256426454 64527591.424362183 0 0 0 0 23663126.078472018 -23805689.65845871 0 -23805689.65845871 79844286.547588348 0 0 0 0 -561928263.20751953 -148772950.70399857 0 -148772950.70399857 204969474.52788568 0 0 0 0 -206357045.60115623 -216057083.18013 0 -216057083.18013 -53796778.453430176 0 0 0 0 -242921359.52497244 -46377026.033076286 0 -46377026.033076286 184043755.2998848 0 0 0 0 -285925069.91579056 -68192384.693977356 0 -68192384.693977356 209039962.05985415 0 0 0 0 -194018342.82265282 81844481.499339581 0 81844481.499339581 144660648.36717796 0 0 0 0 -71608395.982658863 -38511090.943323135 0 -38511090.943323135 179706553.49397278 0 0 0 0 -10553507.763667496 10487496.820477681 0 10487496.820477681 25012267.343094289 0 0 0 0 -2946919.7504291534 -19689575.341876984 0 -19689575.341876984 67508342.104444504 0 0 0 0 -98012864.963916063 -73754434.611282349 0 -73754434.611282349 189644016.57262611 0 0 0 0 -56013847.877252221 -33930102.25178957 0 -33930102.25178957 177588910.38070107 0 0 0 0 -78107316.471214294 -88125010.714502335 0 -88125010.714502335 76598909.600471497 0 0 0 0 -66322975.546401978 -46012153.525749207 0 -46012153.525749207 86088036.21446991 0 0 0 0 30978618.930562139 -62615815.549815178 0 -62615815.549815178 139818095.08787918 0 0 0 0 333455.47373247147 3124797.984326601 0 3124797.984326601 48867006.584877014 0 0 0 0 -18068928.640152782 14932599.923128128 0 14932599.923128128 41361169.51424408 0 0 0 0 2077143.5290700197 -4207194.7847499847 0 -4207194.7847499847 38018746.550537109 0 0 0 0 -8825236.9680643082 -13115275.870880127 0 -13115275.870880127 60682401.029605865 0 0 0 0 -11576411.538002927 7216678.4332820959 0 7216678.4332820959 28074371.475492202 0 0 0 0 17341194.885353312 -34191131.006400347 0 -34191131.006400347 104740204.70829773 0 0 0 0 2408830.1948795319 -21420224.75674057 0 -21420224.75674057 40734834.523582458 0 0 0 0 -14455348.242134094 -17610143.488964081 0 -17610143.488964081 73037425.102415085 0 0 0 0 -15045894.214295387 -25507247.956998825 0 -25507247.956998825 54897525.051063538 0 0 0 0 -128834.77477493603 -7934363.1709314696 0 -7934363.1709314696 6573084.5598693527 0 0 0 0 -9653911.0815706253 -59601704.631608963 0 -59601704.631608963 55934493.455238342 0 0 0 0 -63952795.014463425 -46731321.337745667 0 -46731321.337745667 91155105.833363533 0 0 0 0 -6785671.5962518575 -6197944.1724194493 0 -6197944.1724194493 3019640.6812342713 0 0 0 0 -12363617.530664213 13161568.513511658 0 13161568.513511658 54329631.469646454 0 0 0 0 -32029614.402665138 25940743.958023071 0 25940743.958023071 46234353.92930603 0 0 0 0 1043232.8215289116 24241385.556980133 0 24241385.556980133 24428841.518615723 0 0 0 0 30374193.443637609 -154890584.08272648 0 -154890584.08272648 45444336.938568115 0 0 0 0 7571270.1336319447 11574564.041404724 0 11574564.041404724 35377591.455749512 0 0 0 0 -4129997.2230902873 1712288.0529012112 0 1712288.0529012112 22260422.028634947 0 0 0 0 -11418759.181396484 -181737696.43416786 0 -181737696.43416786 64475017.000209808 0 0 0 0 -92477444.649562836 -159344793.43230438 0 -159344793.43230438 99489179.397705078 0 0 0 0 -191428325.15062332 285896051.33288574 0 285896051.33288574 217225701.99804688 0 0 0 0 -129013980.24289465 -178785262.16474295 0 -178785262.16474295 91779393.637512207 0 0 0 0 -345981360.77532196 -110414973.78182983 0 -110414973.78182983 88140297.0704422 0 0 0 0 -61293.961957188323 141637.08200833574 0 141637.08200833574 404108.63901083916 0 0 0 0 124516179.70637131 -43489823.270275116 0 -43489823.270275116 -21672312.8306427 0 0 0 0 -2571756.9020378501 -3709697.4331452399 0 -3709697.4331452399 2670371.6754910015 0 0 0 0 -878251228.04117966 170154470.77249527 0 170154470.77249527 -1639822.9595146179 0 0 0 0 -1030067656.1247025 -212334719.68984985 0 -212334719.68984985 164082724.33291626 0 0 0 0 178252766.50339437 -216801573.40833282 0 -216801573.40833282 73633937.766113281 0 0 0 0 -16343468.032705307 30032143.871963501 0 30032143.871963501 -143257451.60604858 0 0 0 0 -76176963.186127186 -3732334.7923126221 0 -3732334.7923126221 387309044.06140137 0 0 0 0 138621516.38879097 -314293393.79251862 0 -314293393.79251862 287420029.08094788 0 0 0 0 1185805.3731907569 -156877.92234208062 0 -156877.92234208062 808636.12946757674 0 0 0 0 54336421.464590311 172792407.47264099 0 172792407.47264099 -51652929.173141479 0 0 0 0 -17135626.528417826 -97000849.288139343 0 -97000849.288139343 44297019.95513916 0 0 0 0 274820167.86127508 -30749420.656684875 0 -30749420.656684875 -13347320.926391602 0 0 0 0 75171827.494431257 -4681420.263671875 0 -4681420.263671875 4905217.2685852051 0 0 0 0 100708400.4157213 -87532217.520301819 0 -87532217.520301819 22594598.937011719 0 0 0 0 -1099868.3082036972 -57609309.656738281 0 -57609309.656738281 41529598.236938477 0 0 0 0 -19798932.181501389 -40218677.271369934 0 -40218677.271369934 38673388.038574219 0 0 0 0 -177845365.96551991 45474093.67527771 0 45474093.67527771 36366367.841442108 0 0 0 0 -7433286.3981651049 9792321.4110332094 0 9792321.4110332094 12997693.484042592 0 0 0 0 -5645245.6810301915 1193988.440222498 0 1193988.440222498 20945254.147696391 0 0 0 0 -10944136.396443168 1134939.203471005 0 1134939.203471005 36639714.125696585 0 0 0 0 -28564631.607104301 20650154.836616516 0 20650154.836616516 3188565.109954834 0 0 0 0 -12394398.55096817 8400386.3322067261 0 8400386.3322067261 33139631.38936615 0 0 0 0 -2564007.909154892 -8028877.6707687378 0 -8028877.6707687378 36549305.241762161 0 0 0 0 -99905303.33806324 -136835235.6428299 0 -136835235.6428299 74827451.188171387 0 0 0 0 -8901057.1511497367 5337798.4505293481 0 5337798.4505293481 14963312.117562078 0 0 0 0 -13760660.052400589 13451801.443969727 0 13451801.443969727 -9838795.591583252 0 0 0 0 -1471967.5450628116 -6924633.1372595876 0 -6924633.1372595876 30169838.077138096 0 0 0 0 -20134099.998311996 14017467.556177139 0 14017467.556177139 12449495.367134094 0 0 0 0 -787111.63612747192 -6705064.3696861267 0 -6705064.3696861267 31500030.512420654 0 0 0 0 -11549622.745826721 -97397077.82169342 0 -97397077.82169342 191287860.69314957 0 0 0 0 -18439834.366386611 573994.42588051222 0 573994.42588051222 35602701.6166877 0 0 0 0 -592077.75521252304 -3013794.9079398494 0 -3013794.9079398494 7375655.8309273124 0 0 0 0 14344030.057272911 -59856657.839128017 0 -59856657.839128017 138486963.79324341 0 0 0 0 58038435.945892334 -53427502.500076294 0 -53427502.500076294 119113777.2930069 0 0 0 0 32280694.310844421 -20998652.43390274 0 -20998652.43390274 95900387.491363525 0 0 0 0 7637649.0104186404 -13545904.299474819 0 -13545904.299474819 14781903.963925902 0 0 0 0 24055126.342636108 -33017059.265289307 0 -33017059.265289307 96807598.711753845 0 0 0 0 6336030.906496048 -19309745.395553589 0 -19309745.395553589 39085314.437595367 0 0 0 0 -2844194.3463282585 -9141746.9192657471 0 -9141746.9192657471 22157300.026580811 0 0 0 0 -2372608.6481832843 -9534242.1982101519 0 -9534242.1982101519 21630570.918076247 0 0 0 0 -157093.26930522919 2743545.5009231567 0 2743545.5009231567 33718965.179382324 0 0 0 0 2271259.8418146372 -9305987.9039328843 0 -9305987.9039328843 23206257.213994946 0 0 0 0 -1535260.1052875519 -5050677.075958252 0 -5050677.075958252 10085057.211936951 0 0 0 0 -3811521.4184849067 -3390090.5296223164 0 -3390090.5296223164 18997550.111689992 0 0 0 0 -14977170.58458259 -4387643.4313594699 0 -4387643.4313594699 31097113.668000165 0 0 0 0 -4522823.6197705269 -14488560.203212738 0 -14488560.203212738 38312831.076904297 0 0 0 0 -137021.00177777698 195126.12613558024 0 195126.12613558024 3352354.4243273195 0 0 0 0 -4985985.4756736755 -9591047.8254699707 0 -9591047.8254699707 43123517.105751038 0 0 0 0 -596401.73035144806 -14349018.385322571 0 -14349018.385322571 36894670.862775803 0 0 0 0 -280951073.41259456 391398514.28191376 0 391398514.28191376 97605742.71005249 0 0 0 0 -322956610.57966924 -86686892.585141182 0 -86686892.585141182 307175240.48522949 0 0 0 0 -3397739.9946962753 4768111.4725748003 0 4768111.4725748003 15514621.578239754 0 0 0 0 384690472.43919945 -25213057.778923035 0 -25213057.778923035 103634537.83076477 0 0 0 0 43716522.392584801 97975867.582794189 0 97975867.582794189 175313072.24163818 0 0 0 0 -136960882.87700593 -83252394.497573853 0 -83252394.497573853 320727279.46063232 0 0 0 0 611188.44289746403 -193666.4662251696 0 -193666.4662251696 661638.76871997118 0 0 0 0 280755743.87082398 254713856.97193909 0 254713856.97193909 -462820203.73412323 0 0 0 0 -3973485.8370157471 -1963734.4037791416 0 -1963734.4037791416 36196819.148424543 0 0 0 0 -1540408.6544876099 -6282021.3157958984 0 -6282021.3157958984 46300186.320983887 0 0 0 0 -390226.76605686359 -2786894.7432979047 0 -2786894.7432979047 29836078.258188426 0 0 0 0 -16272281.565359056 709614.38126373291 0 709614.38126373291 53471145.753128052 0 0 0 0 3074335.2848870754 17242006.144699097 0 17242006.144699097 42888310.279022217 0 0 0 0 -13087913.348220944 14897299.892326355 0 14897299.892326355 71292594.919067383 0 0 0 0 22482075.753832638 -14352246.441711426 0 -14352246.441711426 8936021.0107727051 0 0 0 0 12404570.022098064 -352187780.44393921 0 -352187780.44393921 -1409976.5649414062 0 0 0 0 98699319.254001617 389649445.72848511 0 389649445.72848511 -21167974.030201912 0 0 0 0 440008986.0414803 240758679.40496063 0 240758679.40496063 -117100355.93280029 0 0 0 0 82962.739735736439 327629.13816323876 0 327629.13816323876 463736.59943269193 0 0 0 0 -23395755.646366119 -17178493.294616699 0 -17178493.294616699 31072669.628601074 0 0 0 0 -37328788.083467484 60717114.756607056 0 60717114.756607056 121768398.12963867 0 0 0 0 141783139.48424911 24307754.650314331 0 24307754.650314331 84017023.135269165 0 0 0 0 -290176663.96209097 178873635.56181335 0 178873635.56181335 149433216.8548584 0 0 0 0 2824280.0024241782 -6327248.2587187402 0 -6327248.2587187402 24363815.799176633 0 0 0 0 -61437415.14192009 -15525287.100891113 0 -15525287.100891113 -62862348.782470703 0 0 0 0 -245544349.01578587 -63676039.117609978 0 -63676039.117609978 96028555.276000977 0 0 0 0 -8583704.3936517835 -36698471.073898315 0 -36698471.073898315 36438829.23387146 0 0 0 0 -79149307.654135704 -32156804.634765625 0 -32156804.634765625 18008132.964294434 0 0 0 0 -31114321.009139776 48142205.036235809 0 48142205.036235809 32720931.839080811 0 0 0 0 -13769699.492638111 12128427.576461792 0 12128427.576461792 29661878.958889008 0 0 0 0 -61151700.430320501 -1726136.1318016052 0 -1726136.1318016052 33681334.110046387 0 0 0 0 -6450656.4076499939 -4069290.2307739258 0 -4069290.2307739258 22023304.330505371 0 0 0 0 -557094.89470473258 -755506.66991972178 0 -755506.66991972178 3148498.6141184308 0 0 0 0 6323918.3829107285 24574788.327690125 0 24574788.327690125 -1031348.9092483521 0 0 0 0 63197.888031373353 1789203.3936052294 0 1789203.3936052294 1665344.2692940831 0 0 0 0 79711.819146531227 1171236.4871625137 0 1171236.4871625137 3555905.461751312 0 0 0 0 92885457.210561574 77463513.726894379 0 77463513.726894379 15288806.920959473 0 0 0 0 20812765.494887352 30022804.598495483 0 30022804.598495483 21848491.866104126 0 0 0 0 5457.0330288410187 1197237.6098327637 0 1197237.6098327637 10545621.810096741 0 0 0 0 461724.80155808234 -3125362.0608598068 0 -3125362.0608598068 8696262.4565818347 0 0 0 0 4995052.4618757069 -4111600.9498901367 0 -4111600.9498901367 28877143.403900146 0 0 0 0 -893951.94124257565 -361096.32174682617 0 -361096.32174682617 10061315.04309082 0 0 0 0 -887669.93243122101 172204.56576538086 0 172204.56576538086 10510199.240753174 0 0 0 0 -4465379.8136583567 -7042594.9885406494 0 -7042594.9885406494 34450035.609115601 0 0 0 0 478145.90967096592 -3938180.8510437161 0 -3938180.8510437161 11754978.201614358 0 0 0 0 232701.29995807447 -664346.13667524233 0 -664346.13667524233 6970745.8070141226 0 0 0 0 -294567.75979280472 345646.89340209961 0 345646.89340209961 9939236.076965332 0 0 0 0 -5132996.0912951827 -6242328.6846313477 0 -6242328.6846313477 -25166648.284118652 0 0 0 0 -1670171.5133410688 -3637007.4646447524 0 -3637007.4646447524 30364267.024085671 0 0 0 0 -3542117.2252959996 -3859613.7135132998 0 -3859613.7135132998 10467682.098551095 0 0 0 0 -16016818.73133266 -10128364.389274597 0 -10128364.389274597 24391180.184020996 0 0 0 0 -6340081.2346647978 -5242372.1701278687 0 -5242372.1701278687 17805222.819793701 0 0 0 0 -6908818.8035853505 -26247739.783714294 0 -26247739.783714294 51303710.584899902 0 0 0 0 7809192.8362861276 -15542780.095031738 0 -15542780.095031738 11279277.867645264 0 0 0 0 -1089491.8270114809 -10537662.225547791 0 -10537662.225547791 31979118.793945312 0 0 0 0 -552846.06270724488 -1089456.1687400565 0 -1089456.1687400565 2616197.0475711673 0 0 0 0 9438612.2985290289 8901445.2588653564 0 8901445.2588653564 23256657.223129272 0 0 0 0 6695690.3211114891 19077172.886493683 0 19077172.886493683 65075483.195465088 0 0 0 0 -3719264.1989401281 -630430.1298828125 0 -630430.1298828125 112261855.64838219 0 0 0 0 27591209.030882888 -28084434.15309906 0 -28084434.15309906 70670190.532897949 0 0 0 0 10473770.681657791 -40742786.371429443 0 -40742786.371429443 104028016.45809937 0 0 0 0 -8896077.1326540411 -6128317.2720184326 0 -6128317.2720184326 110022269.80226135 0 0 0 0 9566786.7038983703 8791449.929069519 0 8791449.929069519 81081049.967132568 0 0 0 0 6859490.2388979495 15340485.904060364 0 15340485.904060364 -3946952.8679656982 0 0 0 0 24777.896246570512 79505.66994780302 0 79505.66994780302 74575.969775661826 0 0 0 0 1486955.9906429052 -9608243.1156463623 0 -9608243.1156463623 17321261.389953613 0 0 0 0 45716.022043370904 152343.01782818139 0 152343.01782818139 146509.83902651072 0 0 0 0 6121536.3583571911 18149339.599945068 0 18149339.599945068 33659111.34803772 0 0 0 0 3879295.1650123596 -3448050.0489959717 0 -3448050.0489959717 51871730.729309082 0 0 0 0 -2808585.0819497555 -16426040.64251709 0 -16426040.64251709 67296280.570831299 0 0 0 0 5454703.2848305916 -2158915.7637405396 0 -2158915.7637405396 25942749.582717896 0 0 0 0 -8123261.5063940436 4932399.8006820679 0 4932399.8006820679 84438397.746612549 0 0 0 0 -11330396.524514757 -500674.12190246582 0 -500674.12190246582 78126357.216400146 0 0 0 0 -14493794.363293529 1153395.031539917 0 1153395.031539917 78293264.040161133 0 0 0 0 -14725543.831086189 50479.462753295898 0 50479.462753295898 108303094.0536499 0 0 0 0 -3697203.9171195729 -7381890.5434112549 0 -7381890.5434112549 59207500.641272545 0 0 0 0 4202585.0553397536 -14183080.415100098 0 -14183080.415100098 21215722.028869629 0 0 0 0 -2273970.0081745367 -301902.22364807129 0 -301902.22364807129 56002874.542719841 0 0 0 0 3807938.3823765074 -3137760.6870117188 0 -3137760.6870117188 55848141.841766357 0 0 0 0 10806395.55112379 11962617.442382812 0 11962617.442382812 84202921.371948242 0 0 0 0 22977013.24911613 -1438218.2601776123 0 -1438218.2601776123 72701202.113540649 0 0 0 0 9164211.540446315 -16668056.394088745 0 -16668056.394088745 60047396.536750793 0 0 0 0 -23378.549811008947 -9794334.0689449608 0 -9794334.0689449608 91504967.442687988 0 0 0 0 2220017.3023396097 31474145.510513306 0 31474145.510513306 63344369.292129517 0 0 0 0 -146415.64110487531 -243396.60865059495 0 -243396.60865059495 892394.75345115364 0 0 0 0 -278226.74430521578 14568366.875823975 0 14568366.875823975 7825667.7437438965 0 0 0 0 2146543.0986696891 2876994.5029067993 0 2876994.5029067993 133176648.78762817 0 0 0 0 7424937.3830444105 -8924486.8336029053 0 -8924486.8336029053 81007823.62305069 0 0 0 0 30316978.846815251 -16192211.842250824 0 -16192211.842250824 57191985.179626465 0 0 0 0 33015440.327699613 -61036060.263946533 0 -61036060.263946533 126898125.11144638 0 0 0 0 -7571628.2353033023 -8351147.6741800308 0 -8351147.6741800308 12813667.936096191 0 0 0 0 -8150920.0532023404 -3107807.7857913971 0 -3107807.7857913971 16735137.351379395 0 0 0 0 -6508597.7952030003 -3446193.3725738525 0 -3446193.3725738525 15228348.307876587 0 0 0 0 3793787.4623637237 187805.47885894775 0 187805.47885894775 16712817.622741699 0 0 0 0 -156513.86756975204 -4823533.3769989014 0 -4823533.3769989014 14487329.119720459 0 0 0 0 -3565433.5196087807 -4105532.861907959 0 -4105532.861907959 16479571.038673401 0 0 0 0 16870.714500782156 -7712030.5143051147 0 -7712030.5143051147 19660395.949264526 0 0 0 0 -5672532.2447774 -2636008.1756286621 0 -2636008.1756286621 42126384.390350342 0 0 0 0 836557.65827685595 -1619733.8774414062 0 -1619733.8774414062 43118297.190826416 0 0 0 0 -560199.55580586195 -7459326.5081634521 0 -7459326.5081634521 38050714.796356201 0 0 0 0 -11653379.266025014 -5904388.9707221985 0 -5904388.9707221985 71524103.969421387 0 0 0 0 -10909297.274631057 -4086844.1436157227 0 -4086844.1436157227 72876947.381286621 0 0 0 0 -10853382.10148488 -6599820.5660705566 0 -6599820.5660705566 80176083.674484253 0 0 0 0 -3170167.099731952 5441575.0763015747 0 5441575.0763015747 97434379.770324707 0 0 0 0 -4832998.7955089211 -28238566.169189453 0 -28238566.169189453 87526686.494743347 0 0 0 0 -5714015.3890427798 -16222222.089492798 0 -16222222.089492798 57330340.35369873 0 0 0 0 -11909725.46450153 -26064314.026184082 0 -26064314.026184082 49802268.573669434 0 0 0 0 -1294059.7116122097 -8846021.7484054565 0 -8846021.7484054565 38135039.132202148 0 0 0 0 2902978.6152603775 -32367548.250457764 0 -32367548.250457764 9539131.5093994141 0 0 0 0 16031914.337623656 -15988762.495635986 0 -15988762.495635986 36381628.592926025 0 0 0 0 -383703.13044997887 -105322.66729311645 0 -105322.66729311645 2340835.7360366434 0 0 0 0 7659581.1734811366 -6516989.3508605957 0 -6516989.3508605957 4116913.7075424194 0 0 0 0 -766613.64667264291 -736903.41067452729 0 -736903.41067452729 3143933.870636493 0 0 0 0 -14769243.834771156 -40110190.266540527 0 -40110190.266540527 19308547.004394531 0 0 0 0 -23709626.627819285 -7141834.0623474121 0 -7141834.0623474121 67629117.827819824 0 0 0 0 -18368868.761710063 -48165872.382293701 0 -48165872.382293701 39889796.262741089 0 0 0 0 -3246416.9960565865 60549.068054199219 0 60549.068054199219 18421033.160888672 0 0 0 0 -1589257.7211320698 626067.26312255859 0 626067.26312255859 12808191.637939453 0 0 0 0 -56669.142072925213 15055.997127130628 0 15055.997127130628 515191.24086953327 0 0 0 0 261785.35278687865 -171577.85929870233 0 -171577.85929870233 -418536.76354262233 0 0 0 0 -2424636.5460627675 16636581.311126709 0 16636581.311126709 33843302.642364502 0 0 0 0 66889873.325388432 9345126.0935058594 0 9345126.0935058594 15034209.227539062 0 0 0 0 7417743.7320542634 -11800232.609375 0 -11800232.609375 -426021.49319458008 0 0 0 0 -50237105.95988071 -12765663.545349121 0 -12765663.545349121 16538398.579742432 0 0 0 0 -1654133.0241731573 2617745.5894344896 0 2617745.5894344896 2441112.6229624897 0 0 0 0 404365.89192324702 -2749857.8129376844 0 -2749857.8129376844 4896316.4167844281 0 0 0 0 -310327.01846837997 -516360.81146240234 0 -516360.81146240234 3885888.40625 0 0 0 0 -2013643.0468722354 2546834.6983164921 0 2546834.6983164921 12249592.655063309 0 0 0 0 2468411.8828081191 -12744106.819839478 0 -12744106.819839478 21371154.947471619 0 0 0 0 985796.90701127052 -7392971.5349121094 0 -7392971.5349121094 37574625.956481934 0 0 0 0 719868.69528973266 -2973332.941312328 0 -2973332.941312328 11444836.219499089 0 0 0 0 -3451168.7846533656 -5047408.1926574707 0 -5047408.1926574707 29159696.443786621 0 0 0 0 1586421.4440737516 -15447675.410907745 0 -15447675.410907745 32829239.988861084 0 0 0 0 -1028503.6223858485 1303937.0545355827 0 1303937.0545355827 9931796.2116655447 0 0 0 0 -3300493.6939163208 7618264.9586639404 0 7618264.9586639404 -9686685.6035079956 0 0 0 0 1728935.0716840029 -10624440.786758423 0 -10624440.786758423 60154381.438842773 0 0 0 0 -2241304.4679681063 11214598.343238831 0 11214598.343238831 -2529723.010055542 0 0 0 0 1230163.3487496972 -5801910.0164337158 0 -5801910.0164337158 22533921.238052368 0 0 0 0 1168404.4468696483 1740856.5667388216 0 1740856.5667388216 -1701654.3681256324 0 0 0 0 -497514.82459619624 102492.03691431135 0 102492.03691431135 8181384.6474210322 0 0 0 0 -2072356.7544718087 3712969.7639160156 0 3712969.7639160156 8408767.5878295898 0 0 0 0 -49195509.737038314 45691353.283004761 0 45691353.283004761 59730075.770772934 0 0 0 0 -7072195.9309321493 30748421.904630661 0 30748421.904630661 61495943.358535767 0 0 0 0 -29793952.693795145 3803633.1868591309 0 3803633.1868591309 80128774.362640381 0 0 0 0 -7732049.8597327769 -5057005.064453125 0 -5057005.064453125 66728312.390045166 0 0 0 0 -18054677.075204283 253134.80857849121 0 253134.80857849121 64147365.415641785 0 0 0 0 -59424411.650435679 12424875.851882935 0 12424875.851882935 102641804.85021973 0 0 0 0 32889001.570811991 -48334890.550964355 0 -48334890.550964355 103580454.7355957 0 0 0 0 43463.200293075184 381892.22916696966 0 381892.22916696966 2339926.596505329 0 0 0 0 5126837.7298235241 -2204781.463973999 0 -2204781.463973999 -894396.11181640625 0 0 0 0 -1068174.4580070016 2706071.3047943115 0 2706071.3047943115 7976715.7822189331 0 0 0 0 -27920.376803309435 353249.98613933474 0 353249.98613933474 3036907.2517399229 0 0 0 0 -2029778.8667199165 -4825979.6475982666 0 -4825979.6475982666 13311759.269302368 0 0 0 0 17849288.563003793 33296044.465988159 0 33296044.465988159 51554198.660400391 0 0 0 0 -1068174.4580064151 182298.26573181152 0 182298.26573181152 6141536.6311035156 0 0 0 0 -278601.88419332361 921195.81724978238 0 921195.81724978238 1780893.9353833348 0 0 0 0 8141.7879432706741 -740336.86457824707 0 -740336.86457824707 2046922.5542907715 0 0 0 0 -5191.2593164886985 -745702.8072052002 0 -745702.8072052002 2050227.943107605 0 0 0 0 270985.18512398662 493907.12403927743 0 493907.12403927743 641932.30579054356 0 0 0 0 55475822.772211775 78677627.224006653 0 78677627.224006653 96580860.754455566 0 0 0 0 49280678.697842695 50442040.795394897 0 50442040.795394897 28831780.467834473 0 0 0 0 -7816258.4013163894 -1937729.3048782349 0 -1937729.3048782349 71832261.070205688 0 0 0 0 18700979.65839234 35667440.092247009 0 35667440.092247009 118068868.15884399 0 0 0 0 150953.20743944484 33482820.323051076 0 33482820.323051076 143196155.67544556 0 0 0 0 27390088.644017197 27646217.801193237 0 27646217.801193237 108185198.46896744 0 0 0 0 -137500.06478587969 116211.08945823461 0 116211.08945823461 2543478.0118160797 0 0 0 0 -36204184.605816066 47358944.33555603 0 47358944.33555603 27253147.933806419 0 0 0 0 -24532598.68341358 19691493.239707947 0 19691493.239707947 56671549.038360596 0 0 0 0 -55764119.461084023 45598416.76802063 0 45598416.76802063 75871028.004852295 0 0 0 0 -35115725.96642825 -13666777.117607117 0 -13666777.117607117 102527697.34210205 0 0 0 0 -49617729.912454665 20897141.000946045 0 20897141.000946045 43483640.297302246 0 0 0 0 -3868093.3953768015 19224936.627258301 0 19224936.627258301 42649436.241119385 0 0 0 0 771058.98524411651 1244549.5509395823 0 1244549.5509395823 4588406.5763739273 0 0 0 0 -18841050.917710036 -16279547.501178741 0 -16279547.501178741 11741091.662872314 0 0 0 0 -2540715.9509580135 21551004.856658936 0 21551004.856658936 29998411.419128418 0 0 0 0 158245106.06615633 115450073.78945923 0 115450073.78945923 -24177361.392711639 0 0 0 0 -28514306.345323265 -55844250.384212494 0 -55844250.384212494 166587794.65942383 0 0 0 0 -22065603.208728731 9976629.1300506592 0 9976629.1300506592 77370771.615386963 0 0 0 0 -518090.39494751242 716539.41296520829 0 716539.41296520829 8666602.0704697333 0 0 0 0 -250761.79836559296 6136557.0836791992 0 6136557.0836791992 74845954.594573975 0 0 0 0 9935738.2662513256 2344011.8093719482 0 2344011.8093719482 42280476.459106445 0 0 0 0 761332.34790475562 6445397.6632158756 0 6445397.6632158756 7383394.9040390486 0 0 0 0 -1054691.7598089122 2462573.9187214524 0 2462573.9187214524 12559033.48213388 0 0 0 0 -40997633.994751453 -60549925.544281006 0 -60549925.544281006 4184293.4992980957 0 0 0 0 -199077.16937503219 4055988.6835441589 0 4055988.6835441589 42501377.851303101 0 0 0 0 -1760468.6473813881 -4924740.5483013317 0 -4924740.5483013317 14662084.383917652 0 0 0 0 -5075462.2268373221 -2137910.0621509552 0 -2137910.0621509552 46782025.148040771 0 0 0 0 -6051562.884074688 16956001.967041016 0 16956001.967041016 77086431.446868896 0 0 0 0 -234183.30579323875 -141950.23001670092 0 -141950.23001670092 1790375.4080903307 0 0 0 0 26989164.653410614 34320626.218017578 0 34320626.218017578 63902904.793457031 0 0 0 0 14057382.075354576 31769057.613983154 0 31769057.613983154 64316344.417713165 0 0 0 0 2179514.9364432096 46057685.282592773 0 46057685.282592773 115237383.57985878 0 0 0 0 4096687.0766197443 33632989.693588257 0 33632989.693588257 78537417.460968018 0 0 0 0 -14261006.688299179 46225987.989135742 0 46225987.989135742 77295331.069023132 0 0 0 0 -7824367.8810635805 50877978.618423462 0 50877978.618423462 98705957.754989624 0 0 0 0 -396576.76223683357 44274709.253204346 0 44274709.253204346 61977020.812927246 0 0 0 0 947274.91707983613 39508194.53527832 0 39508194.53527832 34997562.093688965 0 0 0 0 -10156516.841166258 35545223.761871338 0 35545223.761871338 75303256.414794922 0 0 0 0 -10179597.333347678 36433343.170928955 0 36433343.170928955 86896367.020721436 0 0 0 0 -1852456.0212470293 24980594.890335083 0 24980594.890335083 58656360.43862915 0 0 0 0 -1273013.3713169098 22520412.244995117 0 22520412.244995117 50953735.479064941 0 0 0 0 -674421.05864474329 4865415.0764920041 0 4865415.0764920041 16914608.058961198 0 0 0 0 8316056.8832633495 22149535.543334961 0 22149535.543334961 5711315.5073242188 0 0 0 0 -1112290.3530418593 2257714.7946854751 0 2257714.7946854751 5724382.338149026 0 0 0 0 -3911286.6150269508 2327984.2607116699 0 2327984.2607116699 4665740.9467105865 0 0 0 0 -3601583.6308305264 2979223.2427597046 0 2979223.2427597046 4831820.2877197266 0 0 0 0 -2227386.0025142352 3849105.9070871137 0 3849105.9070871137 7401148.2777592689 0 0 0 0 -3130568.186091423 -1143171.75340271 0 -1143171.75340271 10246187.115142822 0 0 0 0 5815909.3908176422 7046860.5267333984 0 7046860.5267333984 16244295.150550842 0 0 0 0 -329631.46771812439 -1245411.5884399414 0 -1245411.5884399414 17279972.770355225 0 0 0 0 12514002.264621258 39798210.402359009 0 39798210.402359009 39904362.334289551 0 0 0 0 12695054.254876852 34279248.143737793 0 34279248.143737793 35682323.421440125 0 0 0 0 -17698582.544202209 10232698.075317383 0 10232698.075317383 33277654.002075195 0 0 0 0 -1748501.717052317 2303463.438968353 0 2303463.438968353 2639973.8376040608 0 0 0 0 -3257246.7326218933 18147075.74564743 0 18147075.74564743 39851791.098266602 0 0 0 0 -2806075.6796605252 1658233.7018909454 0 1658233.7018909454 15179422.787200928 0 0 0 0 -2907899.543535471 2672128.2387390137 0 2672128.2387390137 10128697.934968948 0 0 0 0 -1687777.8467713315 3162368.1670389324 0 3162368.1670389324 13585158.644340038 0 0 0 0 434086.46740560525 5119044.4303562343 0 5119044.4303562343 15580540.394840874 0 0 0 0 -69131.251529772999 122768.18381018937 0 122768.18381018937 134251.9089564532 0 0 0 0 -25856084.49655354 2999793.6599578857 0 2999793.6599578857 59293170.860534668 0 0 0 0 -18513570.304567337 5945502.1308135986 0 5945502.1308135986 37379047.831420898 0 0 0 0 -4579558.1842051744 1168187.454864502 0 1168187.454864502 9039007.1095275879 0 0 0 0 -5842598.3956739753 -1147201.530283764 0 -1147201.530283764 19491481.333745509 0 0 0 0 -2330498.6050056084 1285439.6702280268 0 1285439.6702280268 11469756.969656881 0 0 0 0 347931.2340080142 -2355630.3511199951 0 -2355630.3511199951 17219528.402389526 0 0 0 0 -1853151.7598422747 7219845.8665799126 0 7219845.8665799126 11992730.901556179 0 0 0 0 809890.78954465105 4911378.2180271968 0 4911378.2180271968 16873461.298329577 0 0 0 0 -19109671.245248795 21528178.740966797 0 21528178.740966797 27731527.107543945 0 0 0 0 -27707463.876451612 19403310.591430664 0 19403310.591430664 48029768.258392334 0 0 0 0 2052222.8330235807 -3305278.9548836052 0 -3305278.9548836052 10701147.284700245 0 0 0 0 -1397877.0193824768 841030.80868530273 0 841030.80868530273 2666632.1503448486 0 0 0 0 509693.99914550781 -1959319.6743164062 0 -1959319.6743164062 4084489.8381347656 0 0 0 0 73696.297588957474 2014606.9391627908 0 2014606.9391627908 21831496.021686696 0 0 0 0 30065.673290252686 -2071063.6975708008 0 -2071063.6975708008 9953621.6110229492 0 0 0 0 -932148.17775695061 2090693.1499769613 0 2090693.1499769613 19250435.916799389 0 0 0 0 -9747.4380930662155 -1755417.7985649109 0 -1755417.7985649109 8285144.1802368164 0 0 0 0 -744928.04866889957 -4006475.9803078026 0 -4006475.9803078026 13732286.270527691 0 0 0 0 -2818186.2665958405 -63492.623596191406 0 -63492.623596191406 7628205.9351654053 0 0 0 0 -2411683.2101755142 1786593.575012207 0 1786593.575012207 6567227.2024536133 0 0 0 0 -1959718.7477617264 2456998.6345214844 0 2456998.6345214844 15054962.028869629 0 0 0 0 -2053437.8797887291 5939731.2865259722 0 5939731.2865259722 4877910.7460956424 0 0 0 0 -2018647.7320572708 6905443.5343547203 0 6905443.5343547203 7949033.3738123775 0 0 0 0 -5155624.2016701698 6355459.5478363037 0 6355459.5478363037 4514372.5314941406 0 0 0 0 -4800915.0410747528 2094462.9119873047 0 2094462.9119873047 8400105.570892334 0 0 0 0 -3325632.6747310786 4100824.637001574 0 4100824.637001574 10615981.277401403 0 0 0 0 -2755124.706186743 4715095.3585532084 0 4715095.3585532084 11755409.93080385 0 0 0 0 -380253.23492218932 -2310244.1339498833 0 -2310244.1339498833 10225165.042152829 0 0 0 0 -665710.22386424895 -3435124.3874654993 0 -3435124.3874654993 15473465.899867035 0 0 0 0 -2667293.4842405319 3882200.0137023926 0 3882200.0137023926 5424336.5379943848 0 0 0 0 -3194967.3560431004 3285830.5945968628 0 3285830.5945968628 5625660.6255493164 0 0 0 0 -4014915.7845821381 857911.53088378906 0 857911.53088378906 5691230.0503540039 0 0 0 0 -1912739.3249286739 -1769387.1192235202 0 -1769387.1192235202 19289115.579403065 0 0 0 0 -1315772.5056468581 6327614.9305225275 0 6327614.9305225275 4230503.2388963997 0 0 0 0 -2122581.0173778534 985589.76806640625 0 985589.76806640625 5461816.9314727783 0 0 0 0 -6620366.1258823872 6503696.6157684326 0 6503696.6157684326 5558840.908203125 0 0 0 0 -1987101.243542535 7323036.9980721101 0 7323036.9980721101 8215680.0262695402 0 0 0 0 -333113.82904832042 -1682409.4770058617 0 -1682409.4770058617 24826700.095799483 0 0 0 0 1603938.2179591835 -227013.38888293505 0 -227013.38888293505 3799125.4859919846 0 0 0 0 -4926691.421254158 22908141.552703857 0 22908141.552703857 19964368.396770477 0 0 0 0 -2145546.7878042501 7864297.7088850886 0 7864297.7088850886 2458492.5314900726 0 0 0 0 -1775076.8717330315 4161447.9381200485 0 4161447.9381200485 8396809.7769720331 0 0 0 0 33471468.488515854 29892165.755340576 0 29892165.755340576 3133711.0753173828 0 0 0 0 -11224466.995346904 3154464.066204071 0 3154464.066204071 4637515.7914428711 0 0 0 0 -1840541.1064904809 3112129.8184391945 0 3112129.8184391945 11084627.687411219 0 0 0 0 -23598709.518286705 68803154.044494629 0 68803154.044494629 38974469.633710623 0 0 0 0 63812.959774515126 -2962871.559057951 0 -2962871.559057951 6594509.445940271 0 0 0 0 -412930.80508537719 2809940.9269296266 0 2809940.9269296266 8789647.4459257573 0 0 0 0 -1205898.5259606838 -3168677.0661468506 0 -3168677.0661468506 11334554.778793335 0 0 0 0 67790.381144095387 -1187480.5509013757 0 -1187480.5509013757 17651327.932253808 0 0 0 0 -1213785.7787592411 -1176164.7755737305 0 -1176164.7755737305 11245396.196121216 0 0 0 0 -5142407.7973489761 1120832.8023071289 0 1120832.8023071289 23036091.504638672 0 0 0 0 -747451.10671825451 -1860324.5159554705 0 -1860324.5159554705 12230546.826647516 0 0 0 0 -1600586.9315649867 -2923705.2789669037 0 -2923705.2789669037 10641416.785583496 0 0 0 0 139873.68354904896 3483503.6706620529 0 3483503.6706620529 12074848.68405053 0 0 0 0 69465.206031727605 -1726758.389812246 0 -1726758.389812246 12330096.818034928 0 0 0 0 8717184.4944992065 -13858060.606060028 0 -13858060.606060028 25247061.376235962 0 0 0 0 -10325098.19546926 -12603520.930633545 0 -12603520.930633545 -78430285.267089844 0 0 0 0 11524489.057020664 36668660.658935547 0 36668660.658935547 -19733653.667785645 0 0 0 0 -7764.3049086332321 567177.77952575684 0 567177.77952575684 4498442.0936279297 0 0 0 0 -108852.85610314581 -505949.18738800287 0 -505949.18738800287 8199932.225991413 0 0 0 0 -337730.08094284986 1032164.8810790405 0 1032164.8810790405 20740825.605562627 0 0 0 0 -12721497.838920534 25994369.250427246 0 25994369.250427246 -14874317.507873535 0 0 0 0 -164904.17963549495 -2139643.350402832 0 -2139643.350402832 23024870.262985229 0 0 0 0 -1855504.7068828985 1280330.6461006664 0 1280330.6461006664 2737650.1527394652 0 0 0 0 39773015.27241528 64940347.528106689 0 64940347.528106689 -58725031.074890137 0 0 0 0 42137988.157922626 -5886800.2795715332 0 -5886800.2795715332 -9642639.7891845703 0 0 0 0 14875231.451740518 -100647242.39729691 0 -100647242.39729691 150538288.7543335 0 0 0 0 438810.90551192657 520020.1655908525 0 520020.1655908525 -523682.80403162539 0 0 0 0 -22889988.946427971 -26896644.385925293 0 -26896644.385925293 -16082942.50009346 0 0 0 0 -113628825.14951611 -86342982.896560669 0 -86342982.896560669 270513343.00466919 0 0 0 0 90982109.914526701 100130864.26457977 0 100130864.26457977 15684770.485473633 0 0 0 0 5691677.3473548889 121002245.93228149 0 121002245.93228149 140452493.17584229 0 0 0 0 -39357267.503696144 39576870.177757263 0 39576870.177757263 39396660.803710938 0 0 0 0 30894968.015531063 59234599.505859375 0 59234599.505859375 -26133681.723373413 0 0 0 0 10005545.959684134 42438467.336334229 0 42438467.336334229 5018447.8023681641 0 0 0 0 138693952.17220497 89083158.763893127 0 89083158.763893127 202039586.16778564 0 0 0 0 137965310.28520966 136659578.47352982 0 136659578.47352982 171065948.39493561 0 0 0 0 189023596.97966671 63169134.628121376 0 63169134.628121376 132545921.56276321 0 0 0 0 211018224.54344559 35335421.672859192 0 35335421.672859192 199486236.92037392 0 0 0 0 103875467.64128304 10946174.605342865 0 10946174.605342865 195441705.26521111 0 0 0 0 166382546.07196426 12507980.116043091 0 12507980.116043091 132649910.10435104 0 0 0 0 165840846.92392683 -85963608.732418537 0 -85963608.732418537 256831767.93694305 0 0 0 0 281980636.3894043 -22757253.136592865 0 -22757253.136592865 232638633.4078331 0 0 0 0 343161932.01844406 -73880279.766178131 0 -73880279.766178131 333953003.83836365 0 0 0 0 219026127.02457809 -27093910.13359642 0 -27093910.13359642 322652042.61034775 0 0 0 0 307960005.08917618 51126711.996929169 0 51126711.996929169 316672794.90554142 0 0 0 0 235732956.3072629 112302614.7308507 0 112302614.7308507 202437507.82793808 0 0 0 0 200918044.50933266 21830229.548082352 0 21830229.548082352 311101857.13132477 0 0 0 0 185563057.28040504 33187190.727457047 0 33187190.727457047 298685042.56102562 0 0 0 0 234585736.17361832 149359730.94618225 0 149359730.94618225 169992289.74993134 0 0 0 0 109313853.30033684 126699655.78681564 0 126699655.78681564 185216729.66101074 0 0 0 0 -58910322.588947296 158540319.29637146 0 158540319.29637146 187479218.71286774 0 0 0 0 -4736876.5197086334 203166278.7025013 0 203166278.7025013 116782016.05688095 0 0 0 0 124525771.6307745 193637369.32170939 0 193637369.32170939 77081504.114227295 0 0 0 0 107512829.55612373 202827312.11224937 0 202827312.11224937 79961210.115753174 0 0 0 0 -22593380.411560059 280946142.04060364 0 280946142.04060364 126143066.97977066 0 0 0 0 -24346518.402540684 310227230.15669537 0 310227230.15669537 263547898.91710281 0 0 0 0 43477973.074811935 181416001.5399189 0 181416001.5399189 149622615.79274487 0 0 0 0 181542276.00186872 144979893.53224945 0 144979893.53224945 154160368.65072632 0 0 0 0 98543417.934019089 214003808.1068573 0 214003808.1068573 143884043.80670357 0 0 0 0 104372696.68517303 99702264.521718979 0 99702264.521718979 130988551.16693115 0 0 0 0 58439515.097806454 208106430.83815765 0 208106430.83815765 191427455.41259766 0 0 0 0 -52783826.819026947 174004242.45431328 0 174004242.45431328 182286252.06410599 0 0 0 0 -62903223.692378283 226623132.99503326 0 226623132.99503326 272568029.77459335 0 0 0 0 -73131802.31282711 -8414432.9051208496 0 -8414432.9051208496 69635895.117601395 0 0 0 0 23821583.515810013 57382653.209963322 0 57382653.209963322 31603270.572879791 0 0 0 0 -3101577.3277492523 119552653.37083626 0 119552653.37083626 216117617.35902214 0 0 0 0 84885930.09073925 16522839.05613327 0 16522839.05613327 -14173088.582771301 0 0 0 0 11911027.15045929 78616934.411094666 0 78616934.411094666 95101997.721401215 0 0 0 0 121759040.20479584 118616647.51768494 0 118616647.51768494 105663584.61077023 0 0 0 0 47955670.188426971 58654337.863622665 0 58654337.863622665 133642313.55116272 0 0 0 0 50177532.007875443 3973992.6400375366 0 3973992.6400375366 132074680.87128448 0 0 0 0 36383532.614646912 49192624.816738129 0 49192624.816738129 62513786.752713203 0 0 0 0 113678202.66783333 29059900.138069153 0 29059900.138069153 66684864.780197144 0 0 0 0 100558167.20562172 14592703.595029831 0 14592703.595029831 61742895.212646484 0 0 0 0 46368700.799827695 -35815014.725194693 0 -35815014.725194693 36143041.902450562 0 0 0 0 -7767859.9275856018 39018752.490322113 0 39018752.490322113 -19383187.075176239 0 0 0 0 -9456995.0142555237 -84088324.03282547 0 -84088324.03282547 -65641728.08934021 0 0 0 0 65868461.18006897 -55166399.445569992 0 -55166399.445569992 -202306612.14768219 0 0 0 0 1842391188.3305955 -2597233145.2387428 0 -2597233145.2387428 -94353035.464698792 0 0 0 0 16672498.687648773 -53462330.405738831 0 -53462330.405738831 35363905.899318695 0 0 0 0 48004943.613777161 21008117.716808319 0 21008117.716808319 -32378843.20437336 0 0 0 0 -2502854.3917999268 20341180.122467041 0 20341180.122467041 -69356976.553924561 0 0 0 0 -58037542.770477295 61268073.596405029 0 61268073.596405029 -79490010.828674316 0 0 0 0 -2425329824.7996068 806934390.24691582 0 806934390.24691582 -2189319604.6636047 0 0 0 0 90041203.585077286 -82457151.931270599 0 -82457151.931270599 -45427490.680511475 0 0 0 0 8679101.357669713 -3252541.0341492966 0 -3252541.0341492966 618089.35184588563 0 0 0 0 20454892.142576218 -133371105.74750137 0 -133371105.74750137 -43010816.945632935 0 0 0 0 2533942.7350602741 -255331.63937711529 0 -255331.63937711529 603935.58172033168 0 0 0 0 -142198116.68709564 -35134611.577964783 0 -35134611.577964783 21591127.744903564 0 0 0 0 -49492871.152338028 -92654119.911031723 0 -92654119.911031723 46340328.424751282 0 0 0 0 5449801.0829696655 -51041738.849716187 0 -51041738.849716187 68308870.805118561 0 0 0 0 3087199.3275260925 -109243954.93392181 0 -109243954.93392181 136252330.30804825 0 0 0 0 17867487.652458191 -23578667.688018799 0 -23578667.688018799 184478146.31926727 0 0 0 0 5049015.3975964412 -140317492.46838927 0 -140317492.46838927 68584441.832237244 0 0 0 0 37803001.872177124 -165299913.04004288 0 -165299913.04004288 268395580.84526062 0 0 0 0 14082348.695439816 -156508092.74105215 0 -156508092.74105215 279076512.6692276 0 0 0 0 1676674.8583071232 -67246300.044810295 0 -67246300.044810295 179455644.0921936 0 0 0 0 83545941.683862686 -155865523.73599243 0 -155865523.73599243 225364980.55615997 0 0 0 0 30888515.811401367 -63298350.964488983 0 -63298350.964488983 146528559.32397079 0 0 0 0 119551247.68922806 -59144703.846294403 0 -59144703.846294403 142880360.44924164 0 0 0 0 19763116.767323971 -5346031.702069521 0 -5346031.702069521 62398600.444641113 0 0 0 0 208399868.14745808 76199070.116479874 0 76199070.116479874 -1332058869.2785091 0 0 0 0 7791382.8981095245 -1696669.667106716 0 -1696669.667106716 2364891.6464869287 0 0 0 0 -104898507.52231359 -35641155.262523651 0 -35641155.262523651 -1358974727.7254601 0 0 0 0 327866746.68228722 -771023695.46397018 0 -771023695.46397018 -2845886130.3871002 0 0 0 0 57779067.227108002 -12054189.657684326 0 -12054189.657684326 5663696.5833740234 0 0 0 0 -21913408.259025574 -228930311.6560421 0 -228930311.6560421 388547365.32032776 0 0 0 0 67281192.945793152 -337940422.1151886 0 -337940422.1151886 513523452.45396566 0 0 0 0 110750830.95654678 -327047737.20350075 0 -327047737.20350075 451802835.33783722 0 0 0 0 -90721729.960983276 42733036.743848801 0 42733036.743848801 449395586.36870193 0 0 0 0 261610037.75271988 -600295780.2644043 0 -600295780.2644043 886745102.87317276 0 0 0 0 -9990125.8501873016 -185368000.95576 0 -185368000.95576 1069721172.748085 0 0 0 0 692312324.5575161 -629093782.88563728 0 -629093782.88563728 418265522.48377228 0 0 0 0 3621821.7293005344 -685806.19809788559 0 -685806.19809788559 -251647.82048104424 0 0 0 0 347320964.64301538 -276465021.8300066 0 -276465021.8300066 132756219.18660355 0 0 0 0 253715163.47767067 -453143617.23073006 0 -453143617.23073006 418584063.52239561 0 0 0 0 169194776.04313135 -343122371.23758841 0 -343122371.23758841 275373865.77317047 0 0 0 0 171085301.3039546 -332535684.55511761 0 -332535684.55511761 334300200.85018158 0 0 0 0 65187035.771110535 -319073652.24094009 0 -319073652.24094009 409327216.48274708 0 0 0 0 175958173.00960922 -295953832.65219116 0 -295953832.65219116 305341490.49571323 0 0 0 0 177750228.71304703 -299573537.36474419 0 -299573537.36474419 311669359.93610764 0 0 0 0 162941192.4774437 -245482226.81360435 0 -245482226.81360435 222322504.49501801 0 0 0 0 199316687.39323258 -220122839.18968225 0 -220122839.18968225 149567572.19101715 0 0 0 0 181271898.95013428 -144875121.96384048 0 -144875121.96384048 271420505.20685196 0 0 0 0 129981304.55267715 -164858436.60561609 0 -164858436.60561609 264693463.90183258 0 0 0 0 180532442.61923218 -60869148.915903091 0 -60869148.915903091 196834826.56994629 0 0 0 0 85437448.541848183 -68951970.196763992 0 -68951970.196763992 198288660.37702942 0 0 0 0 37839796.189418793 -102108894.08904076 0 -102108894.08904076 236899615.01813889 0 0 0 0 27524435.084724426 -198217245.08763695 0 -198217245.08763695 327589846.49544525 0 0 0 0 101747756.12198639 -217943060.15264893 0 -217943060.15264893 296021174.03330231 0 0 0 0 118266157.02056503 -247120518.19762421 0 -247120518.19762421 321744979.44898415 0 0 0 0 180592330.24329233 -236985005.68409061 0 -236985005.68409061 313692699.28572845 0 0 0 0 149494653.83593941 -312234596.33748817 0 -312234596.33748817 315228334.12099457 0 0 0 0 195057137.39989471 -274102170.23358917 0 -274102170.23358917 331732147.31734085 0 0 0 0 191725814.63375664 -282753030.47062111 0 -282753030.47062111 370587415.49449158 0 0 0 0 269987720.48307419 -253897106.68961334 0 -253897106.68961334 314249200.78694153 0 0 0 0 221283998.27473259 -173711838.94877052 0 -173711838.94877052 345799622.69096375 0 0 0 0 244177244.36722946 -194389390.26237106 0 -194389390.26237106 304837613.51200485 0 0 0 0 296424291.93266106 -56565522.810653687 0 -56565522.810653687 262043702.49314499 0 0 0 0 312027304.93688202 -144551540.4665966 0 -144551540.4665966 463919977.51782227 0 0 0 0 413653256.83699608 -185039988.56495667 0 -185039988.56495667 340000000.6837616 0 0 0 0 474704817.86577988 -174564872.68980789 0 -174564872.68980789 467959663.66946793 0 0 0 0 228878139.63793182 -218480903.51936626 0 -218480903.51936626 359021657.00686264 0 0 0 0 232721015.72383881 -246938865.68875313 0 -246938865.68875313 491046410.29863739 0 0 0 0 144207428.59710503 -163554207.09420395 0 -163554207.09420395 770222340.14871597 0 0 0 0 387983714.59095049 74742067.660077572 0 74742067.660077572 443941508.55783844 0 0 0 0 102892343.24333 -25629978.083154678 0 -25629978.083154678 386031279.73035431 0 0 0 0 387235767.56606865 -31525034.054983139 0 -31525034.054983139 1651581563.7534981 0 0 0 0 883185935.91185951 -148868384.95619202 0 -148868384.95619202 607413839.38988495 0 0 0 0 500896477.28363299 -49655570.93125701 0 -49655570.93125701 593873702.31380081 0 0 0 0 470951222.78329849 -271848057.98371124 0 -271848057.98371124 484984200.73888397 0 0 0 0 109233302.93325472 -157698378.70774889 0 -157698378.70774889 235573545.76334381 0 0 0 0 4766728.0269069672 -104464830.53788185 0 -104464830.53788185 238117013.15383148 0 0 0 0 152635829.22212029 -237404388.10525131 0 -237404388.10525131 470926914.2602005 0 0 0 0 107303511.11739159 -150168953.79495811 0 -150168953.79495811 311113008.67855018 0 0 0 0 77230898.609280586 -40797389.61515522 0 -40797389.61515522 379322874.3896122 0 0 0 0 18257463.842468262 45891196.23633194 0 45891196.23633194 252041990.66720021 0 0 0 0 32487223.023954391 79792461.31817627 0 79792461.31817627 147366012.32040024 0 0 0 0 16758271.160158634 109357423.97499371 0 109357423.97499371 154869716.34658051 0 0 0 0 137714786.96842957 212045541.93449116 0 212045541.93449116 313304707.47813606 0 0 0 0 -495484.38840384595 301080.93363182433 0 301080.93363182433 372011.86370115355 0 0 0 0 77769556.630527496 46771307.752817154 0 46771307.752817154 147683778.87319946 0 0 0 0 388207522.61687469 346826238.4022522 0 346826238.4022522 162175641.45985985 0 0 0 0 34641534.928308487 110125743.29283905 0 110125743.29283905 137965267.1691184 0 0 0 0 -1411733.4454027107 935105.37685586093 0 935105.37685586093 638808.30357444845 0 0 0 0 630514121.60276127 255574213.97623634 0 255574213.97623634 75221556.502193451 0 0 0 0 345652.63721224718 -155338.29055251461 0 -155338.29055251461 1472529.561574351 0 0 0 0 1023801776.2868271 716490842.98692513 0 716490842.98692513 580415195.61444092 0 0 0 0 243998533.14858055 378617206.61944389 0 378617206.61944389 735507354.45101166 0 0 0 0 121621340.13539314 72635039.364341736 0 72635039.364341736 122389372.86844254 0 0 0 0 305936962.23058701 213787377.95312428 0 213787377.95312428 147274006.705616 0 0 0 0 299365660.66543388 192201513.50008965 0 192201513.50008965 126066780.74474907 0 0 0 0 979122.49033103033 -695276.78129785974 0 -695276.78129785974 3848297.9067890383 0 0 0 0 -83854639.464833021 -66050935.662944376 0 -66050935.662944376 8132461.9118423462 0 0 0 0 4279847.058200038 -1038013.255568482 0 -1038013.255568482 2736540.92512892 0 0 0 0 6010561.3861942291 -15359023.762830734 0 -15359023.762830734 115487236.22639751 0 0 0 0 -90457760.396509171 -40973804.777565956 0 -40973804.777565956 182467544.34134102 0 0 0 0 -17504392.782030106 -159635811.57754469 0 -159635811.57754469 1319133011.9937878 0 0 0 0 -87029227.118408203 10322762.023615837 0 10322762.023615837 940631107.78871536 0 0 0 0 190008914.26261902 7790145.5599708557 0 7790145.5599708557 118256573.02914429 0 0 0 0 45631112.364263594 -488879346.84483761 0 -488879346.84483761 941296227.89395142 0 0 0 0 -71648860.257377625 90754848.945116043 0 90754848.945116043 1275108467.7153749 0 0 0 0 603858942.78391981 258306569.93969774 0 258306569.93969774 833363557.16579437 0 0 0 0 47605244.6407547 -181780700.12397957 0 -181780700.12397957 1046074246.2450752 0 0 0 0 209042553.0541029 -268044175.7112112 0 -268044175.7112112 740214181.61501503 0 0 0 0 273044449.57534027 -28374947.453935623 0 -28374947.453935623 485727840.30685043 0 0 0 0 220577071.99297333 -11593214.596496582 0 -11593214.596496582 574318846.23008347 0 0 0 0 261666964.65977082 61534939.702644348 0 61534939.702644348 309140141.99481201 0 0 0 0 258342012.28893203 -40809234.353835762 0 -40809234.353835762 479738323.94729233 0 0 0 0 286268657.85544777 31769262.046602249 0 31769262.046602249 736395644.89941406 0 0 0 0 388165572.45578766 -1182544.7568244934 0 -1182544.7568244934 408635451.95443726 0 0 0 0 519370813.4898262 -20745105.499847412 0 -20745105.499847412 410622640.17424011 0 0 0 0 112707874.58270788 39549787.59129715 0 39549787.59129715 295756462.00699615 0 0 0 0 133069567.50944388 126842989.97005081 0 126842989.97005081 147681870.45837402 0 0 0 0 200608289.95969391 102453733.99916649 0 102453733.99916649 339754833.3198967 0 0 0 0 361934075.58845139 -108847156.31499481 0 -108847156.31499481 418834513.0315094 0 0 0 0 542843819.3011322 -230678266.19997311 0 -230678266.19997311 367142118.64110065 0 0 0 0 294781503.94195032 -427723373.12564039 0 -427723373.12564039 1023634109.4057999 0 0 0 0 212479804.35091567 177680628.7162385 0 177680628.7162385 420525011.43135643 0 0 0 0 -58954311.648981094 -441836406.27580643 0 -441836406.27580643 765132348.42835808 0 0 0 0 2138802.2273143725 -123203.3763283724 0 -123203.3763283724 422817.29341677576 0 0 0 0 416030140.89745474 -459067002.21140242 0 -459067002.21140242 306817190.01799011 0 0 0 0 204963248.73809624 -73794881.478563309 0 -73794881.478563309 -132775953.28029823 0 0 0 0 166655076.16160202 -728974878.92872715 0 -728974878.92872715 426112908.116786 0 0 0 0 15186514.867560863 -946339461.59698439 0 -946339461.59698439 73731451.458546698 0 0 0 0 -71538140.806113243 -795522592.42842484 0 -795522592.42842484 970672509.00955391 0 0 0 0 -200200034.12686741 -56544961.382699728 0 -56544961.382699728 457768.15257644653 0 0 0 0 -1726402.5309384544 -3501780.5625044047 0 -3501780.5625044047 16327045.93867833 0 0 0 0 -908471389.2311976 -339605369.18879986 0 -339605369.18879986 206586811.05741882 0 0 0 0 -573719.64691915945 -974961.07382323651 0 -974961.07382323651 5886334.3653277326 0 0 0 0 1285035805.6578646 1614215799.0340555 0 1614215799.0340555 1149929445.8387814 0 0 0 0 287384066.6516304 276944380.79850578 0 276944380.79850578 299708144.64694834 0 0 0 0 -48735116.906520844 400104582.8907299 0 400104582.8907299 460447615.41117954 0 0 0 0 14584358.981346386 -15831478.743896689 0 -15831478.743896689 14990569.517687313 0 0 0 0 -43603358.821483016 316404103.5284425 0 316404103.5284425 784838657.81590652 0 0 0 0 75423865.567640305 381121263.21931553 0 381121263.21931553 442722181.00921726 0 0 0 0 -2531038.9151739832 -7043555.907864783 0 -7043555.907864783 24096387.784269594 0 0 0 0 -157128174.86589622 -80460448.875567436 0 -80460448.875567436 214952296.90243196 0 0 0 0 27664987.675559998 -40727177.351100922 0 -40727177.351100922 620028664.02242279 0 0 0 0 -8583862.4705638885 91390229.925335884 0 91390229.925335884 244638553.68901253 0 0 0 0 40833901.753582001 -197361482.90841866 0 -197361482.90841866 -1382886.3408660889 0 0 0 0 -625093814.92636847 -102175275.94368505 0 -102175275.94368505 104966294.55289078 0 0 0 0 -477760793.09757614 115395053.81435633 0 115395053.81435633 190890470.62084579 0 0 0 0 -159197806.9022007 159910575.51681709 0 159910575.51681709 319887200.4636898 0 0 0 0 -266829164.77484703 2702833.177116394 0 2702833.177116394 137086057.5145607 0 0 0 0 -175622136.74391651 -104046069.39140797 0 -104046069.39140797 286017760.82297516 0 0 0 0 -221997486.66468811 24834267.993816376 0 24834267.993816376 2290837.5616521835 0 0 0 0 -380843148.13515472 -399344877.73319626 0 -399344877.73319626 -76400628.644706726 0 0 0 0 -196046736.92086792 -223008724.1463356 0 -223008724.1463356 -17436528.226905823 0 0 0 0 65000645.203697205 -392372242.02902985 0 -392372242.02902985 17788777.370826721 0 0 0 0 -166612784.39126968 -321331659.49836731 0 -321331659.49836731 294002285.16629028 0 0 0 0 -46646254.574028015 -386214883.2947588 0 -386214883.2947588 30069341.247184753 0 0 0 0 -77290828.53809166 -322117628.00272942 0 -322117628.00272942 67214812.558822632 0 0 0 0 -314456515.7397995 -425086559.40454102 0 -425086559.40454102 83736018.597747803 0 0 0 0 -91572214.977638245 -309533920.66301727 0 -309533920.66301727 61107793.281826019 0 0 0 0 56117724.207881927 -229528322.90251541 0 -229528322.90251541 16125854.064343929 0 0 0 0 60487821.949710846 -376800465.368536 0 -376800465.368536 13915774.219039917 0 0 0 0 -15544959.037971497 -290418735.42020035 0 -290418735.42020035 11842453.105621338 0 0 0 0 52249805.392990112 -200510985.39089966 0 -200510985.39089966 -108354501.25333786 0 0 0 0 137070278.75821686 -299128847.36235428 0 -299128847.36235428 -98002567.816562176 0 0 0 0 127091905.43278122 -319147300.5152092 0 -319147300.5152092 -47874664.161758423 0 0 0 0 110631468.73521423 -503455104.59100151 0 -503455104.59100151 288115280.38130188 0 0 0 0 350166882.94771576 -355667257.76763535 0 -355667257.76763535 -93838028.347377777 0 0 0 0 129631295.71739349 -117327324.66633967 0 -117327324.66633967 -295398539.59956741 0 0 0 0 128140162.79543304 -586464321.73009109 0 -586464321.73009109 -159495433.67704487 0 0 0 0 -245770100.01792145 -100108886.60575485 0 -100108886.60575485 -100702609.78728867 0 0 0 0 -269725758.12577057 -305675243.55343246 0 -305675243.55343246 -180762218.42914581 0 0 0 0 370570044.00460052 58528472.394683838 0 58528472.394683838 509738547.21789265 0 0 0 0 560351401.49131966 243312463.79206276 0 243312463.79206276 502721570.00437546 0 0 0 0 180663570.41213226 237885454.34498692 0 237885454.34498692 712145392.85634613 0 0 0 0 233479746.69944 15774193.722389221 0 15774193.722389221 -58351909.14197731 0 0 0 0 222131521.88686752 -231255003.5661869 0 -231255003.5661869 290614962.19446754 0 0 0 0 -231302889.09667587 72751477.569229126 0 72751477.569229126 -11428204.06627655 0 0 0 0 241956271.45198774 185903299.24528039 0 185903299.24528039 -172524641.22852325 0 0 0 0 3185117.2680397597 -3049444.0294251349 0 -3049444.0294251349 -5991082.2680736911 0 0 0 0 -1044187942.5555916 -1591526219.5314798 0 -1591526219.5314798 -786902037.32925415 0 0 0 0 5327847.3441356719 -5093326.9278230593 0 -5093326.9278230593 4771555.2117789425 0 0 0 0 61403787.190203667 1392145821.0993559 0 1392145821.0993559 2460451316.8401108 0 0 0 0 -2919477846.04039 -1782892418.7788658 0 -1782892418.7788658 2451207293.4932308 0 0 0 0 3998567892.2488174 -466725941.45193863 0 -466725941.45193863 -1817998561.2910614 0 0 0 0 129169137.86103058 -652306992.14979935 0 -652306992.14979935 666750090.68140221 0 0 0 0 60964143.716064453 -133587595.59402847 0 -133587595.59402847 2224640566.908226 0 0 0 0 59349753.018961251 -481651121.98458433 0 -481651121.98458433 634834631.75971985 0 0 0 0 -20658159.418525696 -294449808.0501709 0 -294449808.0501709 395521395.7855854 0 0 0 0 257850179.22680283 786900504.34757137 0 786900504.34757137 1607831575.328186 0 0 0 0 1905964866.1161041 2407662942.9712124 0 2407662942.9712124 2812928200.4555302 0 0 0 0 673614539.92683029 447035676.24598408 0 447035676.24598408 -283940721.86923218 0 0 0 0 259785.3467515111 -824821.03606972122 0 -824821.03606972122 1126624.4669071431 0 0 0 0 198045582.23534012 346721627.53790665 0 346721627.53790665 -208176873.53390551 0 0 0 0 445667785.62580109 437669430.7911253 0 437669430.7911253 -271582079.4989233 0 0 0 0 -170495411.3102684 42573755.709423065 0 42573755.709423065 58290640.061624527 0 0 0 0 -198187409.1283493 168597604.30726814 0 168597604.30726814 312376645.58675385 0 0 0 0 -413600069.26513672 42330679.19440937 0 42330679.19440937 342433883.77367783 0 0 0 0 63056172.434715271 263173328.50939751 0 263173328.50939751 228621138.14791107 0 0 0 0 -38551983.257727623 -355861553.05337763 0 -355861553.05337763 299867592.36541748 0 0 0 0 -328117424.70085907 94330121.960411072 0 94330121.960411072 803224943.10821152 0 0 0 0 -448404583.94566727 65285078.023573875 0 65285078.023573875 212790419.51487732 0 0 0 0 -341521689.98411179 6219164.4361419678 0 6219164.4361419678 241120664.94537354 0 0 0 0 4720318.6241397858 -15950632.089673996 0 -15950632.089673996 44920334.673233032 0 0 0 0 2945875.8909378052 -770258.50529098511 0 -770258.50529098511 44193124.069225311 0 0 0 0 71950681.513143539 177851768.92533517 0 177851768.92533517 52176972.677642107 0 0 0 0 22947518.476006508 -46502713.400235415 0 -46502713.400235415 -47740246.738908291 0 0 0 0 -518639.95957565308 -23684343.591602802 0 -23684343.591602802 34452609.551687241 0 0 0 0 5591953.3197822571 9706435.3967685699 0 9706435.3967685699 -34035579.959885597 0 0 0 0 24582832.689056396 21735449.234441996 0 21735449.234441996 -48341968.454172149 0 0 0 0 -3050924.6109510139 10457576.307430027 0 10457576.307430027 25620245.488230173 0 0 0 0 720057.65719604492 -16276144.910720825 0 -16276144.910720825 56148914.664241791 0 0 0 0 -30176147.957773209 -40085446.429400921 0 -40085446.429400921 74801183.112394273 0 0 0 0 -103622715.90907288 87184097.342045784 0 87184097.342045784 54081059.939886093 0 0 0 0 -732449.18134774454 29675.369029954076 0 29675.369029954076 2070186.3190545384 0 0 0 0 1138861.1104381909 -719854.95260736439 0 -719854.95260736439 8171111.9807116836 0 0 0 0 120827935.39184952 104000630.65124702 0 104000630.65124702 -140380042.23710442 0 0 0 0 6582212.2008804604 -11733079.814992528 0 -11733079.814992528 1138194.6859954756 0 0 0 0 9245378.1760997772 -13156681.859608889 0 -13156681.859608889 -1607861.1890439987 0 0 0 0 -23078868.819797516 -43579179.779441833 0 -43579179.779441833 -71785289.739028931 0 0 0 0 6224628.175945282 2858281.6651744843 0 2858281.6651744843 -39055248.770699501 0 0 0 0 42318327.433517456 10811071.709216118 0 10811071.709216118 -38475554.585478425 0 0 0 0 -11480098.388366699 50621656.84719038 0 50621656.84719038 -43450210.108575821 0 0 0 0 -16428321.436141968 -25480266.356574059 0 -25480266.356574059 -48490973.50381279 0 0 0 0 118533396.17997789 -43401964.716555476 0 -43401964.716555476 -52339011.813934326 0 0 0 0 102559956.50049257 73086445.453917146 0 73086445.453917146 -44397034.69742012 0 0 0 0 -375201.10866932571 -1113961.5605731714 0 -1113961.5605731714 3611204.2185909478 0 0 0 0 134831754.45493317 -552685258.51012039 0 -552685258.51012039 690965255.12190628 0 0 0 0 344759819.40370369 -222764653.87145901 0 -222764653.87145901 155796724.4507184 0 0 0 0 -424453230.9247818 -189997545.2425766 0 -189997545.2425766 514549486.8447907 0 0 0 0 -734302252.63903427 -262086658.90647793 0 -262086658.90647793 1074146815.9580688 0 0 0 0 1005727.5605942309 1666190.3098607184 0 1666190.3098607184 1518052.1815034202 0 0 0 0 121106710.07922935 281478995.19012034 0 281478995.19012034 -148252470.12009239 0 0 0 0 -490058528.33592224 -57649413.302757263 0 -57649413.302757263 1219968257.3623066 0 0 0 0 570683708.09391022 1554360543.2062607 0 1554360543.2062607 706437793.53254128 0 0 0 0 218833776.89261818 269371896.6838522 0 269371896.6838522 -651034991.47565842 0 0 0 0 -18491644.860359192 225445448.94961166 0 225445448.94961166 518416822.2494573 0 0 0 0 -33295293.329971313 72237343.553782463 0 72237343.553782463 53922999.76900959 0 0 0 0 37175694.046482086 12757649.516553879 0 12757649.516553879 46689307.693650246 0 0 0 0 -4110454.6629754137 1267891.1320058312 0 1267891.1320058312 6757880.8857290344 0 0 0 0 -10874572.639267892 -338364839.89329362 0 -338364839.89329362 -540114397.54302597 0 0 0 0 6587073.4722290039 -8527576.9269676208 0 -8527576.9269676208 36908449.004707336 0 0 0 0 -1467486.9425641168 -12051159.075850278 0 -12051159.075850278 31096223.748760521 0 0 0 0 -75332.957321166992 -5689127.2997016907 0 -5689127.2997016907 46713441.324176788 0 0 0 0 -2710455.9650779255 -9174831.7116087787 0 -9174831.7116087787 30613537.593202282 0 0 0 0 9848176.3825025558 -108675962.42986619 0 -108675962.42986619 294682925.56098843 0 0 0 0 -2890717.409828186 -11106271.779483795 0 -11106271.779483795 36876583.294248581 0 0 0 0 1609001.2690634173 -5561470.1130134529 0 -5561470.1130134529 -1348718.1711192029 0 0 0 0 -320542517.3702507 336121315.58922887 0 336121315.58922887 2206012217.0360527 0 0 0 0 -3353524.9297332764 -2510886.1666221619 0 -2510886.1666221619 28624238.938863754 0 0 0 0 -15153987.718025006 -8172111.0108396346 0 -8172111.0108396346 30267721.104276467 0 0 0 0 13236.132204296067 -368349.19108541356 0 -368349.19108541356 1776913.6196733564 0 0 0 0 -5396574.7832813263 -10396067.675790787 0 -10396067.675790787 36631806.274856567 0 0 0 0 -369197361.85975075 -147557380.92893982 0 -147557380.92893982 -459847727.65829468 0 0 0 0 -443012656.19844961 59634673.734511375 0 59634673.734511375 7801905.2511444092 0 0 0 0 548444772.43317795 -1343591447.6289368 0 -1343591447.6289368 269686781.20521545 0 0 0 0 95915395.708433151 745019610.15808868 0 745019610.15808868 -967009121.97853279 0 0 0 0 -48232753.131814957 604540054.73158455 0 604540054.73158455 541343084.6756897 0 0 0 0 -49766047.584140778 432932571.93782806 0 432932571.93782806 -87099134.653371811 0 0 0 0 -101468417.85838127 174676076.06791878 0 174676076.06791878 12334205.415504456 0 0 0 0 -101488344.80708757 176638043.17875576 0 176638043.17875576 -98237248.312667847 0 0 0 0 -222916323.98859406 157751060.36233902 0 157751060.36233902 134308342.9668079 0 0 0 0 -1043350.0268535614 208486469.68748474 0 208486469.68748474 8966902.4445037842 0 0 0 0 -119153131.70911121 64586245.973049164 0 64586245.973049164 60643833.355705261 0 0 0 0 -390811066.88777637 26246165.701795578 0 26246165.701795578 58742975.226612091 0 0 0 0 -335611642.64724731 44535083.360332489 0 44535083.360332489 145322760.35086346 0 0 0 0 -376358655.37722397 110642350.82211399 0 110642350.82211399 39245390.846260071 0 0 0 0 -2829072.8327270513 -12923520.661562199 0 -12923520.661562199 28746186.257594191 0 0 0 0 -206893279.57809019 98124238.594999313 0 98124238.594999313 -31460489.867687225 0 0 0 0 1524968.7331690621 -15449783.551777961 0 -15449783.551777961 5230304.0034956858 0 0 0 0 -95848834.705951691 -149904443.57258987 0 -149904443.57258987 -17620258.223089218 0 0 0 0 32448210.130020142 -25495916.262651443 0 -25495916.262651443 -118943098.86361694 0 0 0 0 -5464161.4533987045 -7419911.9231348038 0 -7419911.9231348038 1852089.8246011734 0 0 0 0 1097925.4764191657 -6557003.2788204644 0 -6557003.2788204644 7505320.2654541302 0 0 0 0 -48589051.971492767 13975760.193733215 0 13975760.193733215 -8605230.9813346863 0 0 0 0 -1996367.775593447 -4361295.4194307439 0 -4361295.4194307439 4295363.1386470124 0 0 0 0 -214178503.22518349 -23449396.925504684 0 -23449396.925504684 145948472.24409485 0 0 0 0 354585095.87924957 -194292852.32689667 0 -194292852.32689667 -695823151.42312813 0 0 0 0 -321838189.53928924 155644010.52405548 0 155644010.52405548 -58764985.361499786 0 0 0 0 -309049900.6277256 -231259943.7280426 0 -231259943.7280426 428771208.91012955 0 0 0 0 -263448620.97078705 270166185.17313004 0 270166185.17313004 178553517.71327591 0 0 0 0 -262414994.96472168 432537795.95218849 0 432537795.95218849 1132441205.1131687 0 0 0 0 -194293986.76103306 38947723.272628307 0 38947723.272628307 337958464.3146019 0 0 0 0 241397961.61057377 364503486.95075226 0 364503486.95075226 175793479.80358887 0 0 0 0 458283953.73178577 679870541.54930615 0 679870541.54930615 577868483.87001228 0 0 0 0 25143660.359847069 150474592.68094206 0 150474592.68094206 326465762.21856308 0 0 0 0 -339346664.98185921 197642000.40578747 0 197642000.40578747 485154699.70003033 0 0 0 0 -342966081.69538879 351260365.17691517 0 351260365.17691517 -204304218.30386066 0 0 0 0 -435007.59455361404 -232449.8842119351 0 -232449.8842119351 848979.61160056945 0 0 0 0 366757632.93742752 628075624.03275681 0 628075624.03275681 992764891.79466248 0 0 0 0 -487614.40701483563 437272.69839189062 0 437272.69839189062 3355259.7030651048 0 0 0 0 343611538.76675868 -525629480.79239941 0 -525629480.79239941 695120016.15887451 0 0 0 0 -429467216.98881721 1440295722.3851466 0 1440295722.3851466 851119192.91902161 0 0 0 0 -474194064.51778603 15541860.166654587 0 15541860.166654587 2024609106.7864552 0 0 0 0 -311788622.91873294 -237013728.0135541 0 -237013728.0135541 1721235761.2692184 0 0 0 0 -210166698.78824615 218471450.85334206 0 218471450.85334206 422694555.94356918 0 0 0 0 -329572852.74802208 285133975.25762558 0 285133975.25762558 495760435.03002453 0 0 0 0 -77173786.599474907 -12745028.985898972 0 -12745028.985898972 395744097.42654514 0 0 0 0 103134743.73487949 -56228877.758382797 0 -56228877.758382797 49136012.193784714 0 0 0 0 -887238.86705353856 -373164.32961382996 0 -373164.32961382996 4430344.6596766766 0 0 0 0 368649.0839099884 -504920.68411445618 0 -504920.68411445618 6182121.1780662537 0 0 0 0 -2549813.5460166931 -600223.42452812195 0 -600223.42452812195 8005730.1260147095 0 0 0 0 -4565153.8433361761 -4127020.2168233637 0 -4127020.2168233637 10859880.879197367 0 0 0 0 -3111991.065363884 -535958.91540813446 0 -535958.91540813446 7927244.3864326477 0 0 0 0 -244706042.78131294 -103953803.2988801 0 -103953803.2988801 -33648072.247024536 0 0 0 0 -5457375.1755132675 1447088.6541213989 0 1447088.6541213989 7129825.5837826729 0 0 0 0 -2680184.7300707651 266634.9291906869 0 266634.9291906869 11042919.072059091 0 0 0 0 -1811809.051660232 2849985.9410035051 0 2849985.9410035051 7420635.6987317447 0 0 0 0 -399394197.38244641 62813354.618470311 0 62813354.618470311 204507187.13489151 0 0 0 0 -3402454.5646896362 -1592737.8628520966 0 -1592737.8628520966 6909359.5783996582 0 0 0 0 -59941968.276592255 98106948.767457008 0 98106948.767457008 288060458.28046036 0 0 0 0 -286012684.73001862 -106908046.98576736 0 -106908046.98576736 511431163.36961555 0 0 0 0 -62967642.634256363 -243990359.36221457 0 -243990359.36221457 134083598.7231636 0 0 0 0 -297756083.95647049 -7998657.0742368698 0 -7998657.0742368698 27061051.005644798 0 0 0 0 -52056775.914863586 246219817.96495399 0 246219817.96495399 1226095164.7620106 0 0 0 0 214438097.96704483 -520960212.1536417 0 -520960212.1536417 905401413.20019722 0 0 0 0 -18110387.764230728 -95899018.407423496 0 -95899018.407423496 291169410.55119705 0 0 0 0 304253117.03442192 -68557626.997947693 0 -68557626.997947693 -182811837.9646225 0 0 0 0 94366919.429553986 -285502732.01424265 0 -285502732.01424265 72142081.249595642 0 0 0 0 -189746406.02000046 -109545605.51068068 0 -109545605.51068068 -23689984.542766094 0 0 0 0 20452017.8515625 11246317.039861441 0 11246317.039861441 -235929695.13821983 0 0 0 0 -131122325.13968468 -240447138.31427431 0 -240447138.31427431 -109136747.03846264 0 0 0 0 -4061097.0484552383 73536096.478837729 0 73536096.478837729 -231584605.21292305 0 0 0 0 152341526.56155396 95192507.474262238 0 95192507.474262238 -366513819.48230267 0 0 0 0 -216869084.45427322 -168707497.93673849 0 -168707497.93673849 108909166.91824222 0 0 0 0 -203205898.4532547 -205130123.05962563 0 -205130123.05962563 127100451.01608562 0 0 0 0 -110431833.14479065 -194301447.10985851 0 -194301447.10985851 -85259109.369634151 0 0 0 0 -186483132.38467979 -192536804.71281433 0 -192536804.71281433 -85250006.168994904 0 0 0 0 42062647.66166687 -145962816.73615646 0 -145962816.73615646 -315894840.72204971 0 0 0 0 -3196355.3155656513 -2976950.8830653098 0 -2976950.8830653098 12175622.749487111 0 0 0 0 -116975116.36004448 -137036004.95121861 0 -137036004.95121861 -92135265.382387161 0 0 0 0 -377906049.11888885 -376629265.57968903 0 -376629265.57968903 -407182017.08991742 0 0 0 0 -120438727.08281326 -252472236.59321165 0 -252472236.59321165 -348258087.18207741 0 0 0 0 -183565332.57435322 -322040203.97084939 0 -322040203.97084939 -534978011.32351875 0 0 0 0 -299701099.0705452 -140229289.8791194 0 -140229289.8791194 -168155638.34292221 0 0 0 0 -245051.23972118506 -410647.90967101604 0 -410647.90967101604 327651.5400847788 0 0 0 0 -312178135.66002655 326358875.5319016 0 326358875.5319016 -422876228.98998791 0 0 0 0 -1343116.2437225655 -476948.67386465264 0 -476948.67386465264 1982665.8225489992 0 0 0 0 -196292433.99188423 298592863.40312314 0 298592863.40312314 -458575311.29682159 0 0 0 0 -573079400.92121506 35541675.544341326 0 35541675.544341326 -222926730.88497603 0 0 0 0 -545489532.32352066 -285657511.24773908 0 -285657511.24773908 -253633672.16535616 0 0 0 0 265724790.69591141 242631773.6741755 0 242631773.6741755 -645812220.0173173 0 0 0 0 702676.17569572479 806954.89155685157 0 806954.89155685157 129621.202617159 0 0 0 0 198990059.78240204 -244997158.89287847 0 -244997158.89287847 72125014.192759216 0 0 0 0 -542433779.82870388 -66721786.741927594 0 -66721786.741927594 165491514.05815268 0 0 0 0 -240881.57767298352 4230982.2775422772 0 4230982.2775422772 6027534.536067252 0 0 0 0 -10414173.670852661 1907372.5480337143 0 1907372.5480337143 6398259.8823928833 0 0 0 0 -334498048.25410843 246093925.27399254 0 246093925.27399254 24384264.46561718 0 0 0 0 -90101961.345416069 -313053074.62357712 0 -313053074.62357712 -125746576.16495132 0 0 0 0 -82278990.994390488 -227074977.51218605 0 -227074977.51218605 -173741037.83143425 0 0 0 0 -409086499.77121162 -172088145.57022095 0 -172088145.57022095 -37926553.334037781 0 0 0 0 -2618417.7513602935 2382071.8254119447 0 2382071.8254119447 12300266.209586013 0 0 0 0 -7444767.1003160477 2755054.3185920715 0 2755054.3185920715 3900200.7697238922 0 0 0 0 -172688142.46185493 177901948.3990016 0 177901948.3990016 463264682.82590008 0 0 0 0 -70622276.447394371 -11804848.658869863 0 -11804848.658869863 315691162.7405839 0 0 0 0 97227973.950458527 276488602.33048987 0 276488602.33048987 419235365.33286095 0 0 0 0 10825074.808198094 -14102261.097947201 0 -14102261.097947201 2672411.2707548104 0 0 0 0 -41014165.144727707 214448290.70992208 0 214448290.70992208 274459418.5637331 0 0 0 0 53215529.625823975 59964109.409423351 0 59964109.409423351 375488951.96914995 0 0 0 0 159640631.89970398 81591008.122053623 0 81591008.122053623 343276494.08070087 0 0 0 0 131542181.52204895 342820517.23545837 0 342820517.23545837 315268755.46655929 0 0 0 0 383733991.38773346 263851664.20159674 0 263851664.20159674 60170846.466076851 0 0 0 0 161903096.5875119 26221441.154108822 0 26221441.154108822 -68254522.846673012 0 0 0 0 180069488.48454094 -205931620.56066436 0 -205931620.56066436 218609615.59465879 0 0 0 0 1812599.1547515411 -605475.06440646527 0 -605475.06440646527 4507454.898047409 0 0 0 0 125497246.43750381 101572692.65241355 0 101572692.65241355 239351374.6249837 0 0 0 0 17696827.380405426 -93764858.928223222 0 -93764858.928223222 391522954.93520623 0 0 0 0 -390492254.46629906 621721085.45327723 0 621721085.45327723 485224204.96244663 0 0 0 0 2053385.1863607401 3357122.2881734488 0 3357122.2881734488 2709474.9488982502 0 0 0 0 199761373.19178391 -274286688.62237775 0 -274286688.62237775 -212603448.56762409 0 0 0 0 358447040.49956512 147385740.48052084 0 147385740.48052084 -362073474.95765495 0 0 0 0 -554373798.09127712 -662323926.34302735 0 -662323926.34302735 933554996.92428589 0 0 0 0 703740231.96063232 1018986857.8553667 0 1018986857.8553667 -74281423.493876457 0 0 0 0 1091296943.0048027 -268301856.44651222 0 -268301856.44651222 -17378121.513301849 0 0 0 0 -567570740.44127655 886971199.03679848 0 886971199.03679848 163827103.49870062 0 0 0 0 51736595.075418472 -14710555.00575304 0 -14710555.00575304 -255842860.85883522 0 0 0 0 136663146.44823456 115530588.06116676 0 115530588.06116676 -56887749.447780848 0 0 0 0 153035525.11284256 105097616.03733444 0 105097616.03733444 -360177135.20360565 0 0 0 0 299611252.7859993 19551377.709963322 0 19551377.709963322 -514753894.46384025 0 0 0 0 -317170526.63801003 -70784828.740644366 0 -70784828.740644366 102928359.24803591 0 0 0 0 1772612.3577870075 2483685.0118853245 0 2483685.0118853245 1329486.4165091929 0 0 0 0 69049939.267742157 -98985438.819743991 0 -98985438.819743991 34753529.418995023 0 0 0 0 60015925.282161713 -177697236.89437294 0 -177697236.89437294 117662824.62030828 0 0 0 0 26307160.898683548 -124162551.20906994 0 -124162551.20906994 153586499.99741483 0 0 0 0 180813015.68358421 -329817119.93623954 0 -329817119.93623954 -139632855.81213582 0 0 0 0 355771173.86100531 33692508.837404713 0 33692508.837404713 57403059.65833962 0 0 0 0 99181045.824035645 -108083165.27055752 0 -108083165.27055752 29313351.843908489 0 0 0 0 113719026.41230083 -32765092.246313959 0 -32765092.246313959 201189508.05775452 0 0 0 0 -139264903.56834793 -7659461.1268019676 0 -7659461.1268019676 233877909.40833068 0 0 0 0 75472.095032531768 -218085.76182258315 0 -218085.76182258315 -126098.03249250399 0 0 0 0 -17630962.82034111 11150185.877315342 0 11150185.877315342 188441461.80478632 0 0 0 0 -24097859.849802017 47777806.352478981 0 47777806.352478981 140067924.69397497 0 0 0 0 -134085683.78531933 -208437554.06551129 0 -208437554.06551129 -5678381.7530634403 0 0 0 0 -114949655.08845711 87139616.241326869 0 87139616.241326869 430197376.29989624 0 0 0 0 -51358991.173065186 -33371603.181391239 0 -33371603.181391239 216851077.83855128 0 0 0 0 147893779.45963669 -193410793.96979344 0 -193410793.96979344 447410.34991765022 0 0 0 0 215529.80001547746 -473741.32082022866 0 -473741.32082022866 -276541.06010359537 0 0 0 0 47807002.646305084 -145329642.48422527 0 -145329642.48422527 159649405.60442394 0 0 0 0 -88013055.265403986 -222596369.21970546 0 -222596369.21970546 271706359.61196661 0 0 0 0 41442601.321708679 -76863697.443956375 0 -76863697.443956375 194687980.90585113 0 0 0 0 35534602.623524666 -103967292.31422146 0 -103967292.31422146 229534162.17411828 0 0 0 0 78659749.463327408 -89426475.181236625 0 -89426475.181236625 112708236.14001966 0 0 0 0 165144487.43845034 -137766573.52270186 0 -137766573.52270186 135422877.41380429 0 0 0 0 458899.48656822927 -422378.43102410459 0 -422378.43102410459 -304389.4739090607 0 0 0 0 181256085.88501549 -9324722.4162313342 0 -9324722.4162313342 175229295.6122756 0 0 0 0 107757406.24875259 441120406.88103795 0 441120406.88103795 635698478.60697174 0 0 0 0 319684725.64502907 377269805.10187745 0 377269805.10187745 303483241.2465992 0 0 0 0 236011073.77388382 199253716.42509365 0 199253716.42509365 95691026.866415501 0 0 0 0 426154125.32256126 373953782.12902927 0 373953782.12902927 -349717946.90850818 0 0 0 0 257105892.47532272 201530125.18747115 0 201530125.18747115 384048340.92892647 0 0 0 0 205307392.73669434 -93461177.986848116 0 -93461177.986848116 4897841.7159520611 0 0 0 0 -72789839.356779099 -309185544.4179846 0 -309185544.4179846 -148881733.84360886 0 0 0 0 -93500624.567245483 -423906155.97544193 0 -423906155.97544193 -97873821.407226086 0 0 0 0 68836088.141198277 -86446272.886543632 0 -86446272.886543632 -320458003.37995768 0 0 0 0 -406722264.75836945 103443773.76937854 0 103443773.76937854 -76901967.857468903 0 0 0 0 -242605.57509036735 -4275967.4828430619 0 -4275967.4828430619 5167584.1331926929 0 0 0 0 -423842999.78009605 213652120.45590496 0 213652120.45590496 184230706.91077328 0 0 0 0 -154740685.56760979 94414627.24515903 0 94414627.24515903 78408738.199972153 0 0 0 0 -321783916.96273804 -135500561.88159609 0 -135500561.88159609 -216339866.81155014 0 0 0 0 -8429.6181774302095 1332643.3596613454 0 1332643.3596613454 -253965.42502885382 0 0 0 0 300555398.32107919 886559912.14535153 0 886559912.14535153 2394293254.9124146 0 0 0 0 317662065.91173553 120377662.32046127 0 120377662.32046127 -732707049.81932545 0 0 0 0 357807352.78775215 145126218.13583183 0 145126218.13583183 -212583351.50871658 0 0 0 0 -1362817.2695927196 980587.28200911079 0 980587.28200911079 8349010.5252436977 0 0 0 0 -17577049.437549829 9816493.7729558349 0 9816493.7729558349 1704724.0773849487 0 0 0 0 -290413.68281351629 7891283.2900363794 0 7891283.2900363794 6880381.1424127044 0 0 0 0 -1237632739.827549 -106771421.51974332 0 -106771421.51974332 960836963.98403168 0 0 0 0 -89603612.361444473 273576483.0015536 0 273576483.0015536 -47330664.298951268 0 0 0 0 -150968279.38011551 -221714212.53924251 0 -221714212.53924251 297411312.19099796 0 0 0 0 -423536283.37704277 -12555848.768342137 0 -12555848.768342137 235036195.97621679 0 0 0 0 58867941.04189682 -19315366.947315574 0 -19315366.947315574 376244663.92713416 0 0 0 0 54757444.771003246 -177652723.98112965 0 -177652723.98112965 218464882.06175303 0 0 0 0 344858.80049819127 -184996.12126031402 0 -184996.12126031402 -169181.39928795153 0 0 0 0 91327411.207593918 -214073163.34856021 0 -214073163.34856021 127102666.08676857 0 0 0 0 259381862.69744682 -166026706.90718567 0 -166026706.90718567 92239517.329707861 0 0 0 0 149609021.37265015 -116460961.56240237 0 -116460961.56240237 51905331.822555065 0 0 0 0 -105477047.7106328 -64452898.993243784 0 -64452898.993243784 1156298694.6872957 0 0 0 0 -92038737.713640213 -45812643.22816968 0 -45812643.22816968 373777966.37948763 0 0 0 0 99937253.59103775 24183180.981966853 0 24183180.981966853 270050727.74048805 0 0 0 0 339790.846616745 258117141.12455893 0 258117141.12455893 740287838.09002638 0 0 0 0 8706434.8298492432 249957215.93854678 0 249957215.93854678 439990176.58242369 0 0 0 0 -89504280.266180038 375784490.83006215 0 375784490.83006215 603256245.14073372 0 0 0 0 -88184905.20489502 461616432.21838498 0 461616432.21838498 937137171.38295412 0 0 0 0 -282569381.17103767 315108689.18446231 0 315108689.18446231 827148770.49519515 0 0 0 0 285903585.7432251 1340871443.9050257 0 1340871443.9050257 1493202644.8227723 0 0 0 0 -310577446.98817968 397133878.88919407 0 397133878.88919407 2406540733.5720978 0 0 0 0 591402648.36352503 -261380595.73612663 0 -261380595.73612663 134331356.32164168 0 0 0 0 111129068.84505272 -314375052.9306308 0 -314375052.9306308 125978666.07355833 0 0 0 0 1039392.0917919413 4016899.3928239089 0 4016899.3928239089 4401768.30538035 0 0 0 0 -15049306.475679398 -612942015.24684179 0 -612942015.24684179 1583235074.8462713 0 0 0 0 897323608.63836098 1464803857.5800703 0 1464803857.5800703 681939138.24689817 0 0 0 0 859809110.24311543 1545444384.267803 0 1545444384.267803 534753942.45236635 0 0 0 0 -339587383.91708755 -1019969089.1081319 0 -1019969089.1081319 1789261876.9188037 0 0 0 0 60661232.9567976 -76910320.081628799 0 -76910320.081628799 52823531.282003403 0 0 0 0 1046159.2790503362 4346033.4314672891 0 4346033.4314672891 10516778.698171746 0 0 0 0 -993499351.91678107 -235183565.3443988 0 -235183565.3443988 920153875.88118649 0 0 0 0 153132450.43056202 -32955179.436689377 0 -32955179.436689377 40458035.594055176 0 0 0 0 291630224.41881943 -174602349.30094147 0 -174602349.30094147 54268176.179257393 0 0 0 0 86839078.346242428 -83266662.893138885 0 -83266662.893138885 49806604.350370407 0 0 0 0 171254858.43882465 -139440460.63706207 0 -139440460.63706207 87142578.523387909 0 0 0 0 -195213454.66345787 334137890.03066063 0 334137890.03066063 613938672.82192993 0 0 0 0 70148604.398309708 -286812669.4808979 0 -286812669.4808979 377731531.56464767 0 0 0 0 1164183892.765233 1594660835.7157335 0 1594660835.7157335 333480808.53788376 0 0 0 0 366020.25635620643 2589363.1474198774 0 2589363.1474198774 4338128.6126360148 0 0 0 0 256060540.58336926 -82739957.451692581 0 -82739957.451692581 32724616.609159946 0 0 0 0 557553390.97791958 -388412565.98645973 0 -388412565.98645973 321276364.23386765 0 0 0 0 -99469050.544621348 167336304.39183044 0 167336304.39183044 95287144.085224152 0 0 0 0 -116331251.8820653 -59821927.930746078 0 -59821927.930746078 277574475.50973129 0 0 0 0 -209487869.67213899 -164805983.36049271 0 -164805983.36049271 182137543.81685829 0 0 0 0 86836889.8902421 -84284006.902023315 0 -84284006.902023315 135265309.67006302 0 0 0 0 -100194118.55687857 -139530864.88394165 0 -139530864.88394165 170560258.02978945 0 0 0 0 -79479551.453707695 -91112619.287448883 0 -91112619.287448883 153388526.47916031 0 0 0 0 -205074647.23010355 209394179.4562912 0 209394179.4562912 195214357.33672905 0 0 0 0 -70987999.60938561 -114434360.2964077 0 -114434360.2964077 39782629.332420349 0 0 0 0 -129598936.23672581 330891978.88306046 0 330891978.88306046 -139983036.18188667 0 0 0 0 -124695984.37651205 -8802754.7844654322 0 -8802754.7844654322 4596148.9964103699 0 0 0 0 -144131850.58751023 131221635.27776146 0 131221635.27776146 -79297844.205654144 0 0 0 0 -9315580.6570324898 83213973.587001801 0 83213973.587001801 -77620513.465042353 0 0 0 0 -38888803.093682289 -116476774.80511475 0 -116476774.80511475 18132741.339302063 0 0 0 0 304610471.9131794 302205612.11055756 0 302205612.11055756 381225089.69790173 0 0 0 0 -411199.45673722727 -1457801.0858953884 0 -1457801.0858953884 -346672.7837973698 0 0 0 0 -38376807.425790787 278070404.33171463 0 278070404.33171463 -312780692.32986641 0 0 0 0 588681747.32130957 488029414.77244759 0 488029414.77244759 187562796.18128204 0 0 0 0 -146344159.3567605 683682931.54161167 0 683682931.54161167 1236761081.1093712 0 0 0 0 473641424.09665918 230534295.25249481 0 230534295.25249481 72047011.673664093 0 0 0 0 2263701.9692381038 1155263.4832876297 0 1155263.4832876297 -627550.56263619661 0 0 0 0 -59660646.595705271 -38521370.708824158 0 -38521370.708824158 1433947806.5457077 0 0 0 0 117025893.51272869 669251227.98624229 0 669251227.98624229 2196412266.5831528 0 0 0 0 2117148120.4838758 364066496.86371899 0 364066496.86371899 100962424.18081474 0 0 0 0 49004844.503682137 297198149.10722828 0 297198149.10722828 201841699.93466187 0 0 0 0 -46965517.599925995 897957525.98065376 0 897957525.98065376 1015022207.4954548 0 0 0 0 172015338.97816467 206213634.69095421 0 206213634.69095421 168716657.08430004 0 0 0 0 657287935.0718441 564389196.0246048 0 564389196.0246048 351852822.04943085 0 0 0 0 194927701.83954287 26551484.65243721 0 26551484.65243721 -55449057.437103271 0 0 0 0 69254770.832870245 -3470910.9989585876 0 -3470910.9989585876 336509466.42585373 0 0 0 0 -137869054.96244812 -192195526.00536728 0 -192195526.00536728 -61244312.954121351 0 0 0 0 -70530.743485450745 -147494377.08860779 0 -147494377.08860779 101463311.92018366 0 0 0 0 315587004.2931118 92659594.826501846 0 92659594.826501846 61585527.465876102 0 0 0 0 166893202.69964606 373920813.52803802 0 373920813.52803802 564379419.53116608 0 0 0 0 589832385.86312377 -14743191.012582779 0 -14743191.012582779 876514381.84198475 0 0 0 0 350566723.06320238 878991481.77543449 0 878991481.77543449 1051856234.0285797 0 0 0 0 101195593.24369144 491017695.37181854 0 491017695.37181854 611141203.33375263 0 0 0 0 -50304562.825870275 591552452.66034508 0 591552452.66034508 578910201.94498825 0 0 0 0 342400997.87377107 389960546.15001488 0 389960546.15001488 197380380.75061035 0 0 0 0 48409032.337040424 937404.43448638916 0 937404.43448638916 287496531.91244888 0 0 0 0 106683805.65138388 113479518.93815994 0 113479518.93815994 -2126099.199798584 0 0 0 0 17246718.734170675 72969936.902750015 0 72969936.902750015 -296140845.36571503 0 0 0 0 -176163288.81274676 -114502211.31748009 0 -114502211.31748009 -86239904.453910828 0 0 0 0 -53385623.233641148 -66067062.467365265 0 -66067062.467365265 -711734706.56241989 0 0 0 0 -323663420.49493325 100143523.3157959 0 100143523.3157959 161811701.38057947 0 0 0 0 -36093648.75132823 290797326.34514618 0 290797326.34514618 -7826231.6283111572 0 0 0 0 -730751931.9701581 113871182.37459946 0 113871182.37459946 130061643.40318298 0 0 0 0 5456678.7872267608 -6047753.2353143897 0 -6047753.2353143897 6038048.3829771103 0 0 0 0 -131253599.13311768 -300281052.85577393 0 -300281052.85577393 -603202131.96432495 0 0 0 0 35465772.028852463 -15371772.427820206 0 -15371772.427820206 -102463358.04409218 0 0 0 0 -304029605.94330955 -357097120.95485497 0 -357097120.95485497 -510905889.71746063 0 0 0 0 31930.458123482997 -212985.63240100257 0 -212985.63240100257 532954.61653344147 0 0 0 0 20829849.661307812 43941162.603509903 0 43941162.603509903 -5817913.7986297607 0 0 0 0 928646.50272778422 -121801.31097038742 0 -121801.31097038742 4243437.8735104967 0 0 0 0 -13253809.848331451 24860883.132925034 0 24860883.132925034 31637280.274469562 0 0 0 0 298644.29779720306 -1881447.9982452393 0 -1881447.9982452393 9817808.7660913467 0 0 0 0 118894378.1184423 -27957773.448672295 0 -27957773.448672295 -308920740.15433884 0 0 0 0 40641237.9845047 -300135445.48329926 0 -300135445.48329926 -405460644.81275558 0 0 0 0 444701.54613047605 -5541627.9148227824 0 -5541627.9148227824 6120946.1495142011 0 0 0 0 405395461.12965965 328253482.88583374 0 328253482.88583374 -705206085.79940605 0 0 0 0 1827885.0688415058 128683.72029906884 0 128683.72029906884 210972.51909211464 0 0 0 0 720784355.88636041 179739584.76197338 0 179739584.76197338 1365998260.4799194 0 0 0 0 -21438427.525560856 87707280.254619598 0 87707280.254619598 2359745912.0394974 0 0 0 0 207891987.37973976 445928847.46133041 0 445928847.46133041 2812522808.7576933 0 0 0 0 298774705.2229805 -343131935.33839417 0 -343131935.33839417 414519269.23350346 0 0 0 0 209753085.99531746 816259395.39647675 0 816259395.39647675 2787660373.7609406 0 0 0 0 1708512.8359636269 222374.42933399603 0 222374.42933399603 -402058.1171123907 0 0 0 0 -145273254.93294907 392261539.88214111 0 392261539.88214111 1933941123.4782181 0 0 0 0 528009557.39004898 744133366.70953751 0 744133366.70953751 1756719969.8847809 0 0 0 0 -50174739.629519463 -217992790.57390738 0 -217992790.57390738 1452195309.5361176 0 0 0 0 103553904.63469124 -556702391.43596649 0 -556702391.43596649 1619230039.8643641 0 0 0 0 262585275.40824127 -392565067.05755615 0 -392565067.05755615 1458926568.292778 0 0 0 0 241665145.97309017 -780232523.38043213 0 -780232523.38043213 1294877200.67276 0 0 0 0 314226545.25654364 -480759886.82867432 0 -480759886.82867432 894172158.04748535 0 0 0 0 279099154.45247078 -11746390.277412415 0 -11746390.277412415 999624504.71529579 0 0 0 0 188370224.94295454 -37552006.168041229 0 -37552006.168041229 -1132430270.3300476 0 0 0 0 9112972.8401307799 -5517774.4504100392 0 -5517774.4504100392 3036677.4626657572 0 0 0 0 272948824.73504508 -662994407.83208847 0 -662994407.83208847 430504569.95396423 0 0 0 0 -312506429.78291345 442335277.83789635 0 442335277.83789635 561113492.88520813 0 0 0 0 237581298.90380287 238097211.90745544 0 238097211.90745544 -103295062.37769699 0 0 0 0 227507712.35966778 872942394.95691299 0 872942394.95691299 1167592537.92698 0 0 0 0 484966290.96993995 -108048622.08290672 0 -108048622.08290672 1022528333.6924896 0 0 0 0 144009131.29490137 536381048.58929253 0 536381048.58929253 510917316.83480453 0 0 0 0 162991612.73539448 573742459.68138504 0 573742459.68138504 493992519.77118683 0 0 0 0 136402905.49808264 570659936.31900406 0 570659936.31900406 363931959.44722939 0 0 0 0 70902541.210027218 553298434.10300255 0 553298434.10300255 526996546.07373428 0 0 0 0 7689504.2611207962 269508168.97130013 0 269508168.97130013 701438989.23576164 0 0 0 0 371778407.38651419 372479510.88020611 0 372479510.88020611 163053762.50444031 0 0 0 0 26811661.200372696 161575291.28335571 0 161575291.28335571 273178081.4581356 0 0 0 0 87766930.539196491 138876986.51608658 0 138876986.51608658 145125500.74983978 0 0 0 0 697923272.42640066 768306856.34028816 0 768306856.34028816 -45059105.999656677 0 0 0 0 156450508.03483009 236637831.66337204 0 236637831.66337204 84047857.323997498 0 0 0 0 173590466.62337589 205422640.72729969 0 205422640.72729969 -99794148.08795929 0 0 0 0 -178295479.60134315 239005222.52078247 0 239005222.52078247 -76479275.172409058 0 0 0 0 -79088382.500743866 16199807.317024231 0 16199807.317024231 -222613089.37314987 0 0 0 0 2869404.1615421772 217298981.0726769 0 217298981.0726769 -84002956.021110535 0 0 0 0 -19212991.164546967 89148722.761741638 0 89148722.761741638 87935111.921051025 0 0 0 0 33370429.771478653 65387799.215408325 0 65387799.215408325 72538920.948188782 0 0 0 0 22583989.174751282 61018517.390575409 0 61018517.390575409 97222538.981403351 0 0 0 0 -3040408.6657886505 3094450.0151500702 0 3094450.0151500702 4679648.8479290009 0 0 0 0 7687244.6996774673 3257880.9262599945 0 3257880.9262599945 62475402.145095825 0 0 0 0 -2419090.7775847008 1122159.1328215823 0 1122159.1328215823 1320857.0222189873 0 0 0 0 -2141358.4834345467 2943670.4514009925 0 2943670.4514009925 3753239.2765161581 0 0 0 0 -42340456.485517502 36965908.4161129 0 36965908.4161129 154168265.23746109 0 0 0 0 -635869.62919425964 616950.12775993347 0 616950.12775993347 2136154.4592857361 0 0 0 0 33569521.288945675 -9966346.1962161064 0 -9966346.1962161064 -28268305.179153442 0 0 0 0 -1947060.0584716797 1118025.0803031921 0 1118025.0803031921 2762473.7909545898 0 0 0 0 -1555964.4751815796 429777.18567657471 0 429777.18567657471 3397876.6682395935 0 0 0 0 -1760706.859806461 3503170.6939432183 0 3503170.6939432183 1826350.4613378607 0 0 0 0 -32550998.45418489 -40986087.553421259 0 -40986087.553421259 293853593.17339325 0 0 0 0 56211095.352263451 116091886.50591087 0 116091886.50591087 188158559.45863342 0 0 0 0 12380753.339053869 120262040.9453392 0 120262040.9453392 194692559.13102722 0 0 0 0 -1620037.4345521033 513110.21922901832 0 513110.21922901832 2889429.8773320038 0 0 0 0 -885016.56937408447 -653141.67782592773 0 -653141.67782592773 5615557.6383056641 0 0 0 0 49482332.126147747 -38912707.182149887 0 -38912707.182149887 42878098.495126724 0 0 0 0 -481102.20502185822 -22230.401363372803 0 -22230.401363372803 4721985.067243576 0 0 0 0 -2584725.8048670031 -1741903.3644600231 0 -1741903.3644600231 271045.45615545008 0 0 0 0 -114852069.50672245 -48272065.256849289 0 -48272065.256849289 -21675712.117858887 0 0 0 0 2620996.3225955963 96880049.209123611 0 96880049.209123611 184792528.06093311 0 0 0 0 4112467.514552989 3700197.7704040059 0 3700197.7704040059 -146805.52705019899 0 0 0 0 10292908.833992004 2356919.4689025879 0 2356919.4689025879 -71908231.886070251 0 0 0 0 -1770995.6641604237 -432069.69969928544 0 -432069.69969928544 1763570.0086963754 0 0 0 0 -17377065.36498642 -8202315.535949707 0 -8202315.535949707 -780783.10902404785 0 0 0 0 -16597885.637001991 26814696.189567566 0 26814696.189567566 -4625251.9907541275 0 0 0 0 -6923985.9086427689 -1359171.9943504333 0 -1359171.9943504333 -13256629.259296417 0 0 0 0 -2976096.3169555664 2918107.49477005 0 2918107.49477005 -6927474.7064208984 0 0 0 0 -597717.68472657073 36487.690990409814 0 36487.690990409814 219340.36482698703 0 0 0 0 -9907765.993083477 -3483384.623052597 0 -3483384.623052597 17798239.089736938 0 0 0 0 678771.06708335876 2917644.7517776489 0 2917644.7517776489 5163101.4284095764 0 0 0 0 -5299969.7636585236 35124.601475715637 0 35124.601475715637 3802601.4621582031 0 0 0 0 -13437407.570733547 16481268.484525681 0 16481268.484525681 -2967251.6979980469 0 0 0 0 -669696.93696189299 -208441.97141511645 0 -208441.97141511645 -3153170.5200043553 0 0 0 0 1120318.2197979526 525833.05963037722 0 525833.05963037722 -2664866.2925842423 0 0 0 0 1722254.4850111008 -26129152.468393326 0 -26129152.468393326 35407086.042554855 0 0 0 0 -5408841.8283452988 -23186067.2384758 0 -23186067.2384758 41041377.270622253 0 0 0 0 -20705235.160058975 -30811758.349481583 0 -30811758.349481583 92576569.459739685 0 0 0 0 -47467867.286892414 -19778162.62216568 0 -19778162.62216568 111344289.36102295 0 0 0 0 -29749492.510771275 -15802246.691744804 0 -15802246.691744804 75556052.318172455 0 0 0 0 -119954835.12182283 25983411.455141068 0 25983411.455141068 306929807.79324722 0 0 0 0 -17479172.126283646 26737042.670661926 0 26737042.670661926 41738057.378669739 0 0 0 0 -59745435.685716152 -879170.90553092957 0 -879170.90553092957 119006409.51217747 0 0 0 0 -59474424.623375893 -8304029.2005844116 0 -8304029.2005844116 101996517.42226791 0 0 0 0 -17164597.346566677 68817832.87361145 0 68817832.87361145 101067227.76956558 0 0 0 0 -1028692.2592811584 1306547.0943622589 0 1306547.0943622589 1469867.209602356 0 0 0 0 -344141.38953590393 2764907.5406837463 0 2764907.5406837463 -2940577.1061048508 0 0 0 0 -75987.581619770732 -60431.605083305389 0 -60431.605083305389 467197.24742216803 0 0 0 0 -40228.115633010864 1620549.4593200684 0 1620549.4593200684 -8820493.518196106 0 0 0 0 286365.5866394043 5278951.1127357483 0 5278951.1127357483 -4943476.5267848969 0 0 0 0 12222092.830857038 -333839.49892234802 0 -333839.49892234802 22444613.819179535 0 0 0 0 559563.63919830322 5364819.8228912354 0 5364819.8228912354 -7649932.6875495911 0 0 0 0 554917.6403981694 139202.10886699334 0 139202.10886699334 -1021495.6565302592 0 0 0 0 23266337.724074364 -61067504.26995182 0 -61067504.26995182 90033866.482839584 0 0 0 0 66391550.526750565 -30411801.845932007 0 -30411801.845932007 18095644.035157204 0 0 0 0 30979942.792384148 15314793.723029137 0 15314793.723029137 -15799069.935754776 0 0 0 0 56214883.036999226 71249437.148730278 0 71249437.148730278 17265429.494819641 0 0 0 0 -16912806.842120171 8685741.0208492279 0 8685741.0208492279 17543762.285812378 0 0 0 0 -1361129.9978229187 2104800.6367987273 0 2104800.6367987273 3111617.6176710837 0 0 0 0 92696614.552604675 39055138.243292809 0 39055138.243292809 25359933.581762314 0 0 0 0 221107549.76776934 150629478.57906437 0 150629478.57906437 100989164.60785103 0 0 0 0 -544401.74500940461 930991.07685930328 0 930991.07685930328 1179570.7979663238 0 0 0 0 61793456.294852018 -144030944.90728426 0 -144030944.90728426 168547130.33245659 0 0 0 0 137392113.3032217 -71909682.043035507 0 -71909682.043035507 44001763.202859879 0 0 0 0 18648050.163526058 99577127.502843857 0 99577127.502843857 177406218.3788147 0 0 0 0 23140762.851640701 63459648.489491463 0 63459648.489491463 304448571.57597923 0 0 0 0 58202989.69560051 -110745523.4288826 0 -110745523.4288826 209671243.55228949 0 0 0 0 62378338.401344299 16551656.08352375 0 16551656.08352375 24092037.853025436 0 0 0 0 17128030.068969727 -59703555.753314734 0 -59703555.753314734 93480292.958517075 0 0 0 0 -8215135.9113225937 -20012853.578749657 0 -20012853.578749657 105447347.75143433 0 0 0 0 196253021.40434122 -58857500.634426594 0 -58857500.634426594 62755107.250929832 0 0 0 0 169538202.74888659 78084724.744935393 0 78084724.744935393 -2697275.3456497192 0 0 0 0 10793535.612781048 86727593.966339588 0 86727593.966339588 50685463.707778454 0 0 0 0 35018227.570826411 61829516.928083062 0 61829516.928083062 75529214.888141632 0 0 0 0 12015249.461484909 18259180.864479065 0 18259180.864479065 30731743.894991875 0 0 0 0 18388778.111490458 -37733845.058530927 0 -37733845.058530927 51885697.048586845 0 0 0 0 -10542843.193210602 -116749504.90259171 0 -116749504.90259171 147030286.23839569 0 0 0 0 88280565.891649008 -246303240.47128534 0 -246303240.47128534 313595598.40179825 0 0 0 0 -765418.83020384039 2125531.1706477068 0 2125531.1706477068 1298374.287301234 0 0 0 0 18353827.372832298 16340447.266180992 0 16340447.266180992 -1175852.0787162781 0 0 0 0 -43437232.269711018 -160886564.44234991 0 -160886564.44234991 116385283.55952263 0 0 0 0 716499.44427004573 802626.12942721637 0 802626.12942721637 -229235.95796310063 0 0 0 0 971388.36005806923 -161546808.49835634 0 -161546808.49835634 159818922.8642025 0 0 0 0 1225110.2911596298 129133274.08369493 0 129133274.08369493 -68792016.560954809 0 0 0 0 -38544645.005853653 -19712103.681741714 0 -19712103.681741714 21047115.256442547 0 0 0 0 1210737.4582172767 1417710.2663677889 0 1417710.2663677889 -313437.86631446984 0 0 0 0 -117946529.71425486 71533677.287501335 0 71533677.287501335 31270916.528238297 0 0 0 0 -16844553.670290768 -96998908.44750309 0 -96998908.44750309 164519942.07807732 0 0 0 0 191556662.84751081 19953201.446416855 0 19953201.446416855 -109128050.74677563 0 0 0 0 -171512794.93908048 84483168.415634155 0 84483168.415634155 89481256.844856262 0 0 0 0 -37793061.294932365 -50147754.942403793 0 -50147754.942403793 263995030.29835033 0 0 0 0 -41283888.78756237 -9196481.772611618 0 -9196481.772611618 34419691.019887924 0 0 0 0 -25211464.735810995 -63811708.732722282 0 -63811708.732722282 135036492.79013443 0 0 0 0 -25158389.644313812 -61618987.737600327 0 -61618987.737600327 102472108.20397377 0 0 0 0 -50462650.485364437 -93931772.208850861 0 -93931772.208850861 105321154.89292431 0 0 0 0 -48213451.997925758 -119162430.69446421 0 -119162430.69446421 208074577.32253456 0 0 0 0 -173865640.75300828 111789987.16829395 0 111789987.16829395 80953939.659786224 0 0 0 0 718504.77561924374 808856.4109564682 0 808856.4109564682 -298154.69286475331 0 0 0 0 -132498076.22369051 20924993.303804874 0 20924993.303804874 227360899.81592178 0 0 0 0 -17167002.508748114 -41483464.527475715 0 -41483464.527475715 118046985.56893539 0 0 0 0 78827027.643054008 -44086834.84594059 0 -44086834.84594059 73104259.570613861 0 0 0 0 -23451470.379390478 3633115.2693080902 0 3633115.2693080902 70346707.082115173 0 0 0 0 17435029.460466791 -27461627.805234909 0 -27461627.805234909 23730565.508865356 0 0 0 0 24947523.880153775 -58150431.747251987 0 -58150431.747251987 97734399.476341248 0 0 0 0 112654934.19838333 -61565411.008625984 0 -61565411.008625984 37108659.392148972 0 0 0 0 -786659.04922664165 -84727134.002882004 0 -84727134.002882004 43741181.558962822 0 0 0 0 -61597079.481637016 -76796988.935849428 0 -76796988.935849428 -7262367.3271007538 0 0 0 0 -33028224.913880825 34162032.544829369 0 34162032.544829369 -70202908.426235199 0 0 0 0 -34824341.802386254 -18098597.276044846 0 -18098597.276044846 85195551.870332718 0 0 0 0 161274742.70780277 -75247392.883116722 0 -75247392.883116722 -21385136.779079437 0 0 0 0 165869489.00980508 -32611053.986164331 0 -32611053.986164331 81991050.026473999 0 0 0 0 78677701.180047512 -43392369.480342865 0 -43392369.480342865 140974513.74546623 0 0 0 0 59356738.494132519 2625625.9626917839 0 2625625.9626917839 -15365797.415159225 0 0 0 0 142131803.3180666 -109747393.7352829 0 -109747393.7352829 89662028.801195145 0 0 0 0 1226689.4949004338 1466252.5806896561 0 1466252.5806896561 -1230778.373298984 0 0 0 0 -34275262.137251467 -141343258.04463336 0 -141343258.04463336 -312328365.49472618 0 0 0 0 -57044268.752449036 11831684.067663193 0 11831684.067663193 45566364.306804657 0 0 0 0 2459869.4096514019 5777411.1178580839 0 5777411.1178580839 13317385.455180906 0 0 0 0 -1743645.9384078979 80366759.566473961 0 80366759.566473961 118296221.24231815 0 0 0 0 3724664.9980185376 8842107.2775358092 0 8842107.2775358092 7977739.8397315154 0 0 0 0 92090.953239917755 4938739.6864037514 0 4938739.6864037514 2972534.8266291618 0 0 0 0 21842934.139691353 39033690.522271156 0 39033690.522271156 -29336529.836198807 0 0 0 0 3509708.9346356741 3025549.6673045503 0 3025549.6673045503 10618304.567299096 0 0 0 0 10057462.559502602 7239344.3590795994 0 7239344.3590795994 -24202007.782300949 0 0 0 0 3795194.5224215109 4637697.2389249783 0 4637697.2389249783 -3888955.141922975 0 0 0 0 31882.528714179993 4868960.4687833786 0 4868960.4687833786 770790.92729568481 0 0 0 0 3396780.985910255 2183276.9238413414 0 2183276.9238413414 8469262.054749947 0 0 0 0 2690223.9222544581 3074865.8247127533 0 3074865.8247127533 6782356.2795133591 0 0 0 0 1397458.6251499206 5337036.7163078785 0 5337036.7163078785 4369263.1619720459 0 0 0 0 1494896.4342649877 19134219.260314077 0 19134219.260314077 7685458.5882568359 0 0 0 0 734258.44362267852 3170231.1559849977 0 3170231.1559849977 6194906.6496839523 0 0 0 0 -2713866.420623064 -62080705.259530067 0 -62080705.259530067 99182185.59160614 0 0 0 0 17612723.926367879 -66692638.297772408 0 -66692638.297772408 43655739.145708084 0 0 0 0 -22954754.985599101 -31789064.243325233 0 -31789064.243325233 44978557.80891037 0 0 0 0 43685675.495031357 -58666672.096035957 0 -58666672.096035957 50430394.154592514 0 0 0 0 56987682.834874153 -57753004.588367462 0 -57753004.588367462 45333270.363202095 0 0 0 0 43712983.742470264 -58464865.859404564 0 -58464865.859404564 46906635.618853569 0 0 0 0 44140224.970572948 -44058851.523877621 0 -44058851.523877621 60060951.414768219 0 0 0 0 11140762.810857296 -66309362.163031578 0 -66309362.163031578 51300395.128391266 0 0 0 0 15262204.800590575 -15119803.616697311 0 -15119803.616697311 44931134.617733479 0 0 0 0 3452098.8500279547 1264617.4605172751 0 1264617.4605172751 1513975.5455046229 0 0 0 0 1971775.7120478153 1056335.7992393672 0 1056335.7992393672 -1343313.6252267361 0 0 0 0 3286486.9168787044 3570217.2809620616 0 3570217.2809620616 940041.58417753119 0 0 0 0 -14990.989677244565 1974099.2777493952 0 1974099.2777493952 7269710.7287284536 0 0 0 0 -3061.3685841560364 18882996.779336929 0 18882996.779336929 16208610.038663864 0 0 0 0 -19141982.057112396 1991889.7831463814 0 1991889.7831463814 205947405.22727656 0 0 0 0 1482075.6135701383 1856020.434695425 0 1856020.434695425 2432214.4851165265 0 0 0 0 -581182.66882193019 -286455.08037665067 0 -286455.08037665067 2964958.0572226713 0 0 0 0 9440326.2501952648 -11362035.764088631 0 -11362035.764088631 102023561.72456303 0 0 0 0 2098795.1403598785 4300981.502456665 0 4300981.502456665 6539179.3186531067 0 0 0 0 -103363.79165886843 -9681.9497489826754 0 -9681.9497489826754 344486.28485207399 0 0 0 0 -472812.5217215413 341443.67153052706 0 341443.67153052706 5607731.4894373119 0 0 0 0 -1069911.2563176155 -308829.38894200325 0 -308829.38894200325 3086113.0325696468 0 0 0 0 -3493316.4221925735 8400622.5325050354 0 8400622.5325050354 5782402.1231498718 0 0 0 0 -632130.75322628021 -719599.41955173016 0 -719599.41955173016 3475011.4160044193 0 0 0 0 1260698.9269480132 946470.02546556294 0 946470.02546556294 6245062.3072548034 0 0 0 0 -1428742.8742403984 -695531.62286758423 0 -695531.62286758423 3350892.7962617874 0 0 0 0 -1438456.8667608537 -1127770.7075760942 0 -1127770.7075760942 9778146.5458553452 0 0 0 0 -1107953.2105793953 -300958.65362167358 0 -300958.65362167358 3347434.4126787186 0 0 0 0 663041.82801892236 2913920.6797351837 0 2913920.6797351837 11718068.591716766 0 0 0 0 1569029.5955851825 1318469.1463712184 0 1318469.1463712184 3489640.2832275694 0 0 0 0 3544651.1896322966 -5686516.5828220844 0 -5686516.5828220844 -10965956.886909485 0 0 0 0 -538965.68004655838 -3575634.5167694092 0 -3575634.5167694092 614995.52216529846 0 0 0 0 -684052.89922630787 -1103476.0014716983 0 -1103476.0014716983 2884900.5710721016 0 0 0 0 -1078986.0317463875 -450869.31912064552 0 -450869.31912064552 1944114.5628348589 0 0 0 0 -53666.458579666883 679931.77319899027 0 679931.77319899027 5120141.7731197663 0 0 0 0 1542140.6358036757 -1524113.0104300177 0 -1524113.0104300177 1142228.6178316586 0 0 0 0 -885796.39662909508 5257053.6318492889 0 5257053.6318492889 11289115.667943001 0 0 0 0 1011130.3547797349 5668197.1168276444 0 5668197.1168276444 11296184.212951649 0 0 0 0 -19963770.243199348 14062230.654554367 0 14062230.654554367 53852754.587646484 0 0 0 0 2135125.4669049978 3612475.4127883911 0 3612475.4127883911 6126506.1527571678 0 0 0 0 -29374.797902862309 2706460.805619007 0 2706460.805619007 9385273.2907863148 0 0 0 0 -1127493.0031689326 -2419881.931182628 0 -2419881.931182628 34037.092024378479 0 0 0 0 2296454.4934865236 5515848.3922739029 0 5515848.3922739029 8746092.6972718239 0 0 0 0 1022838.4084681273 4401742.6285095215 0 4401742.6285095215 11390046.217750072 0 0 0 0 539080.64321975375 1981209.7423101338 0 1981209.7423101338 9070934.1207007393 0 0 0 0 -288693.50995624065 1045838.7435027361 0 1045838.7435027361 12541125.696908951 0 0 0 0 6634040.9760000706 2918488.1628603935 0 2918488.1628603935 -3341088.9131443501 0 0 0 0 5882847.9992973804 -37372766.878213644 0 -37372766.878213644 18145572.321356773 0 0 0 0 -1952376.754171998 -282880.80351579888 0 -282880.80351579888 11752075.888690529 0 0 0 0 -64178.515625953674 2634375.2754592896 0 2634375.2754592896 12286684.062589645 0 0 0 0 -6188636.2604026794 -20239662.284991741 0 -20239662.284991741 -5552860.4754476547 0 0 0 0 -1842946.9137535095 -1242473.1824264526 0 -1242473.1824264526 1679383.481300354 0 0 0 0 -280341.56701821333 -913639.91907389637 0 -913639.91907389637 3903154.1783998599 0 0 0 0 -1792168.1011347373 1168398.2213965233 0 1168398.2213965233 8680639.2588801607 0 0 0 0 -2124380.9560765056 2474966.9704522146 0 2474966.9704522146 20661797.770884927 0 0 0 0 -23547920.304459397 -2231923.5726137217 0 -2231923.5726137217 -14613057.438720703 0 0 0 0 -1730260.5778324604 -1193317.034620285 0 -1193317.034620285 1504169.5318603516 0 0 0 0 -1501091.4936951471 3836538.4524750635 0 3836538.4524750635 16843518.193317972 0 0 0 0 -96941480.463795185 -21070159.111142159 0 -21070159.111142159 56501578.186393738 0 0 0 0 -1234534.3054581909 6171540.2478781324 0 6171540.2478781324 19730701.017767552 0 0 0 0 -834469.66745703632 -3322945.8001642497 0 -3322945.8001642497 -68797.393413176294 0 0 0 0 -44625980.497532785 -9960261.5443599671 0 -9960261.5443599671 31997483.226017952 0 0 0 0 -69830176.374760628 11806404.145656109 0 11806404.145656109 -24682843.596146584 0 0 0 0 -27215532.08045578 -25682638.285830021 0 -25682638.285830021 45555737.127797127 0 0 0 0 -27550716.141089916 -18944076.545665264 0 -18944076.545665264 29719094.886353731 0 0 0 0 -40178540.820736885 -22541026.553260803 0 -22541026.553260803 112234986.33366585 0 0 0 0 30866698.106713638 -7860788.7910273671 0 -7860788.7910273671 41142518.846084595 0 0 0 0 26819832.900985181 -42530814.939222574 0 -42530814.939222574 15021033.542190552 0 0 0 0 -40564476.724618435 -1430610.7701473236 0 -1430610.7701473236 -25928224.063074112 0 0 0 0 -80796399.187529564 -52802541.195412636 0 -52802541.195412636 40098912.336518288 0 0 0 0 -23428636.996183395 -5107135.7882041931 0 -5107135.7882041931 20688314.382512093 0 0 0 0 -65048294.149913788 23696292.245620996 0 23696292.245620996 37092299.733110785 0 0 0 0 -746452.81871634012 2433044.1149681741 0 2433044.1149681741 2798819.4690320161 0 0 0 0 2554711.9836712033 2186934.2898270865 0 2186934.2898270865 471217.87666865904 0 0 0 0 -23148650.042582989 -12096219.519945532 0 -12096219.519945532 -22334291.199654222 0 0 0 0 -575847.8126318811 2429435.2343826918 0 2429435.2343826918 4347472.4474724708 0 0 0 0 -725778.02817440033 1415276.4122753143 0 1415276.4122753143 696224.45173072815 0 0 0 0 2534196.5924143996 1653409.8629452696 0 1653409.8629452696 415558.13175266096 0 0 0 0 -14944786.340644479 12282511.602082253 0 12282511.602082253 -1665052.610622406 0 0 0 0 -549552.51806081505 -1341143.7316691829 0 -1341143.7316691829 5188671.666278475 0 0 0 0 50810160.532608509 -11459699.872673988 0 -11459699.872673988 509465.12790203094 0 0 0 0 15109338.674855709 -8364548.3027610779 0 -8364548.3027610779 5611665.7369637489 0 0 0 0 -454724.85518836975 2446310.5581886768 0 2446310.5581886768 6387380.5203323364 0 0 0 0 -326520.25340283394 -1002901.7595607343 0 -1002901.7595607343 1087903.1418877698 0 0 0 0 100857081.7226243 -57208627.166930199 0 -57208627.166930199 12105735.256200194 0 0 0 0 2736198.7816812992 21568858.980371952 0 21568858.980371952 24603117.756320953 0 0 0 0 38036.361556529999 -8708922.2138297558 0 -8708922.2138297558 -44704055.647218704 0 0 0 0 66833437.103739738 -1929642.5173492432 0 -1929642.5173492432 -49659780.058358192 0 0 0 0 401364574.49794388 269063298.84883499 0 269063298.84883499 141393407.89374113 0 0 0 0 1312448.4799888958 1197381.6669949642 0 1197381.6669949642 -180667.45285605639 0 0 0 0 295119703.95846844 193324871.52905524 0 193324871.52905524 64117529.646111012 0 0 0 0 -51223286.11537075 -41536478.439869404 0 -41536478.439869404 33917133.877216846 0 0 0 0 116252838.19746399 -18283315.973772049 0 -18283315.973772049 -34356887.718425751 0 0 0 0 85031174.832593918 6599040.2576560378 0 6599040.2576560378 2514550.376546979 0 0 0 0 44028558.541322708 6793551.9725427628 0 6793551.9725427628 4144550.9297060966 0 0 0 0 62355326.130484104 70935896.500378549 0 70935896.500378549 39701894.136857986 0 0 0 0 -19339035.552996635 3047276.6466603875 0 3047276.6466603875 15127986.792337894 0 0 0 0 125699445.23691177 117401695.73715091 0 117401695.73715091 71403991.588910282 0 0 0 0 -84964661.100402832 38021795.296234608 0 38021795.296234608 70073128.500907347 0 0 0 0 -29276906.968019485 125751952.9975121 0 125751952.9975121 204428657.17630529 0 0 0 0 -32138555.822143555 234125288.41815579 0 234125288.41815579 105561163.21507978 0 0 0 0 155611013.45712662 184550570.63899255 0 184550570.63899255 117333567.04281902 0 0 0 0 115934188.33134842 131634531.7026844 0 131634531.7026844 282798106.41648674 0 0 0 0 135237016.71557236 160198594.52542436 0 160198594.52542436 94908205.50200367 0 0 0 0 185329011.77419281 -154764379.38080597 0 -154764379.38080597 388124694.54257107 0 0 0 0 192669899.49298477 -175441367.59348392 0 -175441367.59348392 -423582234.11835289 0 0 0 0 451986460.32878876 179758222.04709148 0 179758222.04709148 -87604995.045779228 0 0 0 0 316466265.34177399 697722187.67897224 0 697722187.67897224 -1450257242.3116312 0 0 0 0 -169357384.91876221 769558412.93748701 0 769558412.93748701 -261906190.12126255 0 0 0 0 -125836713.00172806 513379723.9851892 0 513379723.9851892 335352842.26753688 0 0 0 0 -126747898.27597046 458700345.74413395 0 458700345.74413395 110295730.22763503 0 0 0 0 144327702.92604065 352950603.15666533 0 352950603.15666533 -182788277.83859801 0 0 0 0 -179141645.1072638 624898826.31664944 0 624898826.31664944 366120766.66501951 0 0 0 0 180904435.76403809 -161161654.14839649 0 -161161654.14839649 -65540078.742523193 0 0 0 0 -244499.83044738416 -535645.50528061949 0 -535645.50528061949 3581844.7502847682 0 0 0 0 -19758707.638885498 -54818696.130438805 0 -54818696.130438805 108375578.67070246 0 0 0 0 -20483510.431793213 -7039324.132062912 0 -7039324.132062912 61665303.669013023 0 0 0 0 -15194193.107337952 -54506220.148881912 0 -54506220.148881912 107808825.40153027 0 0 0 0 -21660834.63444519 -76438292.513046265 0 -76438292.513046265 77805484.984863758 0 0 0 0 -22471407.091941833 -17095805.446020126 0 -17095805.446020126 6190531.3184827259 0 0 0 0 -13161604.976486206 -117756006.28914082 0 -117756006.28914082 188925469.54250145 0 0 0 0 -40450826.681015015 -101953022.02267694 0 -101953022.02267694 260971408.37547874 0 0 0 0 -3777559.6907653809 -750186069.9623853 0 -750186069.9623853 -1000430533.0929699 0 0 0 0 -71638173.37537384 -132700617.57295513 0 -132700617.57295513 267266611.28207588 0 0 0 0 -155310647.21591949 -210115738.35628271 0 -210115738.35628271 463516476.10366154 0 0 0 0 -258747720.36032104 419729920.2969892 0 419729920.2969892 960943291.39641047 0 0 0 0 -320941699.70176697 25464931.891351223 0 25464931.891351223 1281945888.0819466 0 0 0 0 -18792817.631715775 292200462.3110677 0 292200462.3110677 282586998.30733669 0 0 0 0 -246125795.99081421 160841493.90283871 0 160841493.90283871 218033598.405864 0 0 0 0 -251619517.38879395 235449609.73507762 0 235449609.73507762 715831446.64104462 0 0 0 0 -265627318.71904755 485245262.56903887 0 485245262.56903887 351098436.66657948 0 0 0 0 -315235179.23249245 128214793.56630445 0 128214793.56630445 572465475.47369385 0 0 0 0 93149462.401329994 -60197440.3600173 0 -60197440.3600173 -66633541.906618357 0 0 0 0 5268378.1722114505 -3293224.1787709077 0 -3293224.1787709077 2253977.2683899878 0 0 0 0 -65444721.627738953 -239122570.47146511 0 -239122570.47146511 -51434623.228469372 0 0 0 0 -231384504.84548569 -407610193.10145903 0 -407610193.10145903 656075292.57773817 0 0 0 0 4520766.1328620911 -33679939.039309978 0 -33679939.039309978 -39913565.681863785 0 0 0 0 431300844.73917484 120843655.36014771 0 120843655.36014771 -324755492.01977015 0 0 0 0 -237896094.38618851 -400014709.18142986 0 -400014709.18142986 974150616.3533392 0 0 0 0 -677596.66066932678 11716751.256898403 0 11716751.256898403 54787948.10572052 0 0 0 0 -26097319.035373688 -37713278.013212442 0 -37713278.013212442 17922122.275538445 0 0 0 0 -18987240.645342946 4380342.1998355091 0 4380342.1998355091 89248794.767969131 0 0 0 0 50042006.377290726 106838692.50445247 0 106838692.50445247 46504212.295092106 0 0 0 0 -49046026.708978653 15077859.942030907 0 15077859.942030907 258183353.94999075 0 0 0 0 -150795994.33878374 38728439.619955063 0 38728439.619955063 11467697.525624275 0 0 0 0 93848.81103857822 -1014819.4994934623 0 -1014819.4994934623 5597355.3412731094 0 0 0 0 -34062801.014715672 63035479.368326187 0 63035479.368326187 55546747.552929401 0 0 0 0 -51119676.865602493 -8255573.2717261314 0 -8255573.2717261314 17429015.649986267 0 0 0 0 -59880917.429957986 23198200.498501539 0 23198200.498501539 -5889229.7831535339 0 0 0 0 5455706.1391253471 31469516.852701664 0 31469516.852701664 -65796508.810152531 0 0 0 0 29845573.423449993 60221469.801491261 0 60221469.801491261 -45541559.672945499 0 0 0 0 2178627.5985273784 -2599271.2106695436 0 -2599271.2106695436 4009906.9938974804 0 0 0 0 144878324.35129166 283681190.28467846 0 283681190.28467846 363867809.11882401 0 0 0 0 244694340.61135483 204993148.30141735 0 204993148.30141735 123311539.42848825 0 0 0 0 552719153.89494324 188836130.61744499 0 188836130.61744499 543015.2208480835 0 0 0 0 306381497.93267632 304256380.84469509 0 304256380.84469509 278688395.33080482 0 0 0 0 275713090.46915436 317241495.14776897 0 317241495.14776897 279249993.44587624 0 0 0 0 656030429.09253502 775153320.34857035 0 775153320.34857035 829430791.85205746 0 0 0 0 -13044522.002204895 141721529.66201973 0 141721529.66201973 346197853.9666636 0 0 0 0 125378578.43784714 385616820.65837145 0 385616820.65837145 772413336.03873825 0 0 0 0 -80457431.361619949 -156169488.50872374 0 -156169488.50872374 720747981.9969101 0 0 0 0 -49050485.659978867 -98174767.203165054 0 -98174767.203165054 333411685.35509491 0 0 0 0 186941474.31420517 117331560.73119497 0 117331560.73119497 498045276.33906841 0 0 0 0 -447178652.52477646 -173839359.556669 0 -173839359.556669 607122152.46700668 0 0 0 0 454473911.66225243 -354503099.28088474 0 -354503099.28088474 1329332752.6427536 0 0 0 0 77508883.292251587 464659198.4541223 0 464659198.4541223 1799434835.3191419 0 0 0 0 2892161.8517220765 -516776.81627930794 0 -516776.81627930794 -495450.83063779352 0 0 0 0 938126010.0439806 738875201.78624547 0 738875201.78624547 369250670.88593626 0 0 0 0 50652738.183379173 270369611.05875361 0 270369611.05875361 611709474.14919376 0 0 0 0 -24679102.313733578 88496701.715739727 0 88496701.715739727 88409839.098310471 0 0 0 0 365661780.26356316 -212540864.19328213 0 -212540864.19328213 -59576619.439146519 0 0 0 0 961319157.61572886 219496953.02052689 0 219496953.02052689 7551920.0123920441 0 0 0 0 320618644.5304718 -42916401.338626862 0 -42916401.338626862 -16269313.872415662 0 0 0 0 70939563.587981701 -62182197.635313988 0 -62182197.635313988 85440427.4133358 0 0 0 0 265391618.97233009 18994325.977716446 0 18994325.977716446 5650884.4776821136 0 0 0 0 -7043664.3990449905 15809860.000056267 0 15809860.000056267 8999192.7643890381 0 0 0 0 -8294499.6057052612 22551482.501199722 0 22551482.501199722 43408101.242650032 0 0 0 0 13106651.329483032 -31069784.046867371 0 -31069784.046867371 57118766.655930519 0 0 0 0 -29009107.742262065 15679929.046133995 0 15679929.046133995 21689183.51125145 0 0 0 0 -2923014.5126495361 1217011.1757011414 0 1217011.1757011414 -5851775.3569946289 0 0 0 0 21992497.618896484 892502.17625045776 0 892502.17625045776 -9686605.6645469666 0 0 0 0 -1308555.9370568236 2248554.8064580765 0 2248554.8064580765 1778666.2849187395 0 0 0 0 -28730635.667980939 12894410.964427948 0 12894410.964427948 3208149.3439311981 0 0 0 0 11985082.596276663 -111490.2289808949 0 -111490.2289808949 -3582004.6685668612 0 0 0 0 -24444515.118320942 26725793.272580862 0 26725793.272580862 -132398.34995269775 0 0 0 0 8660013.3456325531 15065239.258758545 0 15065239.258758545 -31101782.904363155 0 0 0 0 32295591.662262917 67803023.748968124 0 67803023.748968124 -124314599.26593924 0 0 0 0 -28004756.122335672 21673947.586743593 0 21673947.586743593 11611510.737207413 0 0 0 0 7793112.1228805101 -347753.87432999397 0 -347753.87432999397 -1616235.9022736731 0 0 0 0 25093810.133182526 220057360.28224087 0 220057360.28224087 712962431.25182903 0 0 0 0 19314503.153596401 366199621.18088043 0 366199621.18088043 547823576.776227 0 0 0 0 21878364.113500595 346625279.79560328 0 346625279.79560328 697266689.37305164 0 0 0 0 75942067.190662384 403378374.08897829 0 403378374.08897829 477944609.75064135 0 0 0 0 127021213.51971817 639907249.47910619 0 639907249.47910619 485512344.79187012 0 0 0 0 53804754.615531921 336308823.78278494 0 336308823.78278494 275459803.18693209 0 0 0 0 41468606.911048889 60274521.618431091 0 60274521.618431091 102513775.72290897 0 0 0 0 -12033058.828144073 92579177.325530291 0 92579177.325530291 371722292.78119564 0 0 0 0 207442284.72135544 332842427.27952385 0 332842427.27952385 -13378924.68506813 0 0 0 0 128268106.05970955 99087796.584743261 0 99087796.584743261 69093586.704381943 0 0 0 0 -17793530.835941315 -17159790.50322485 0 -17159790.50322485 46739831.050701141 0 0 0 0 7073142.210351035 -724092.15131688118 0 -724092.15131688118 -2020529.6170883179 0 0 0 0 4407377.1548514199 2823819.7659435966 0 2823819.7659435966 -1056934.7704415377 0 0 0 0 -69437006.799922943 -121289724.08042216 0 -121289724.08042216 -176997095.74112654 0 0 0 0 1790615.0149278734 -1285799.8382787399 0 -1285799.8382787399 -1617806.3066591513 0 0 0 0 93973136.631404877 42422995.688454628 0 42422995.688454628 -39938925.863156319 0 0 0 0 62398205.04888916 81899386.094283104 0 81899386.094283104 76644345.040258408 0 0 0 0 1072560155.0387516 1337854029.467504 0 1337854029.467504 6074115.2707471848 0 0 0 0 284665549.01506805 475866875.63588309 0 475866875.63588309 194825685.34831572 0 0 0 0 1492676.1340870913 741165.2467124965 0 741165.2467124965 -979964.65102996584 0 0 0 0 478350636.19567585 61527675.377555132 0 61527675.377555132 -711598806.9216814 0 0 0 0 136098982.73479223 628855589.4043138 0 628855589.4043138 64080118.241993904 0 0 0 0 384995008.99836159 -147758339.50903845 0 -147758339.50903845 -496106665.67459869 0 0 0 0 342725632.23092842 131446787.5483427 0 131446787.5483427 -781114555.48671913 0 0 0 0 1435649455.7832565 -748904187.84243798 0 -748904187.84243798 -73202737.447899818 0 0 0 0 -63713673.585611343 -72315811.148053169 0 -72315811.148053169 6447491.5602016449 0 0 0 0 12276872.922224045 12857964.415454865 0 12857964.415454865 5803086.2499523163 0 0 0 0 10111101.300407562 2785968.4294930901 0 2785968.4294930901 3958665.3077133414 0 0 0 0 -3156834.1642599106 273498180.50410724 0 273498180.50410724 -219472521.61794853 0 0 0 0 9198094.4155440331 10790991.986700058 0 10790991.986700058 6754468.3234901428 0 0 0 0 13285350.661419868 12079761.552650452 0 12079761.552650452 5954657.0894203186 0 0 0 0 7184862.4440250397 13242454.014604568 0 13242454.014604568 8035507.1613578796 0 0 0 0 13302782.382002831 13636719.168207169 0 13636719.168207169 7056272.1763572693 0 0 0 0 22913104.051839828 14685731.656478882 0 14685731.656478882 2305259.3890113831 0 0 0 0 20430709.093916893 8622593.1373767853 0 8622593.1373767853 7173018.5138397217 0 0 0 0 330188.73064159823 -962709.6368216509 0 -962709.6368216509 -467510.09001806076 0 0 0 0 13278677.073281288 14926200.612342834 0 14926200.612342834 19522428.780935287 0 0 0 0 7569097.3775285482 8448437.4974317551 0 8448437.4974317551 12570467.600814819 0 0 0 0 9302082.5337005258 3474124.4129505157 0 3474124.4129505157 -269567.60729980469 0 0 0 0 2953645.4195201164 7531587.9803336356 0 7531587.9803336356 1018066.3350947127 0 0 0 0 21031227.009530067 12543351.031047821 0 12543351.031047821 807077.20600128174 0 0 0 0 -164675.78365581698 -60386.999761508778 0 -60386.999761508778 28846.007076818496 0 0 0 0 29480781.943403721 13321249.67350769 0 13321249.67350769 1567309.5671005249 0 0 0 0 26728787.360301018 18720590.522712708 0 18720590.522712708 8215000.3105392456 0 0 0 0 20537078.534158707 11466483.608486176 0 11466483.608486176 154055.10232543945 0 0 0 0 24521082.563776016 14202256.013362885 0 14202256.013362885 1368299.4090042114 0 0 0 0 23275019.832617283 14882081.471151352 0 14882081.471151352 1026095.9199066162 0 0 0 0 23333900.634427786 13599682.766204834 0 13599682.766204834 2306624.9590759277 0 0 0 0 24420877.588080883 14374070.708766937 0 14374070.708766937 2790565.4900054932 0 0 0 0 23259736.176803589 15378665.599112511 0 15378665.599112511 7664077.0025939941 0 0 0 0 21967106.81724748 9861487.0832861662 0 9861487.0832861662 7877709.4593505859 0 0 0 0 -1000201.037210594 5022147.2200987805 0 5022147.2200987805 2183030.5622942541 0 0 0 0 23093695.051726341 13454408.45470047 0 13454408.45470047 4488998.008731842 0 0 0 0 22852318.906956673 14711818.310272217 0 14711818.310272217 4165630.2857284546 0 0 0 0 24607394.17545557 14157294.478809357 0 14157294.478809357 4325221.0611610413 0 0 0 0 21666751.864433289 14168345.855968475 0 14168345.855968475 5274477.6993560791 0 0 0 0 23191605.346795559 14324153.565216064 0 14324153.565216064 1626522.6084289551 0 0 0 0 22528761.728425026 12568154.596862793 0 12568154.596862793 8139258.7961502075 0 0 0 0 25877667.80449295 8445489.2257661819 0 8445489.2257661819 5309024.5404968262 0 0 0 0 27091116.874006271 12557286.234153748 0 12557286.234153748 8084803.0182189941 0 0 0 0 24605150.446497917 11545519.509220123 0 11545519.509220123 11910904.534469604 0 0 0 0 19261334.662338257 14010697.055316925 0 14010697.055316925 19393670.821431845 0 0 0 0 25518795.148295879 14384003.255208969 0 14384003.255208969 7873637.7519989014 0 0 0 0 24297158.701750278 13003163.543365479 0 13003163.543365479 13534593.464775085 0 0 0 0 19314324.749359131 9343918.9685783386 0 9343918.9685783386 7558393.7135829926 0 0 0 0 19278655.528625339 14435168.469335198 0 14435168.469335198 19482110.850028992 0 0 0 0 17191814.762419701 15769993.407409668 0 15769993.407409668 -7631264.3699684143 0 0 0 0 23124943.100057602 13461561.196960449 0 13461561.196960449 3023582.5450115204 0 0 0 0 19200183.255527496 18074835.125452042 0 18074835.125452042 1848069.1379241943 0 0 0 0 12724377.385198593 21488589.926891327 0 21488589.926891327 47530012.374389648 0 0 0 0 5988150.5223884583 23974935.59703064 0 23974935.59703064 46613741.659072876 0 0 0 0 8213089.1044206619 22254152.080562592 0 22254152.080562592 40419814.143585205 0 0 0 0 23376956.810345013 26334499.577403829 0 26334499.577403829 34012158.751235962 0 0 0 0 12901479.363103867 29493570.597389221 0 29493570.597389221 51353699.755363464 0 0 0 0 4252443.5155467987 12155025.779628754 0 12155025.779628754 62160998.86324501 0 0 0 0 791403.08621501923 -10492206.231280327 0 -10492206.231280327 18140391.104179382 0 0 0 0 6435868.6172158718 10173051.812231064 0 10173051.812231064 33851873.354057312 0 0 0 0 19684039.835120201 14519473.867515564 0 14519473.867515564 19489405.598285198 0 0 0 0 19772180.234647751 14090780.015281677 0 14090780.015281677 19393638.043028779 0 0 0 0 23287809.728290558 21026474.64484024 0 21026474.64484024 30275846.034309387 0 0 0 0 23371705.22191 15306844.945362091 0 15306844.945362091 29593281.719776154 0 0 0 0 31532330.048261404 13237311.538321495 0 13237311.538321495 -562246.423828125 0 0 0 0 28679989.529244304 21956805.04542923 0 21956805.04542923 19037854.458286285 0 0 0 0 33356047.529627085 17479697.160202026 0 17479697.160202026 6049542.5962181091 0 0 0 0 28984179.979918003 28756583.550136566 0 28756583.550136566 39796158.136398315 0 0 0 0 35115443.793349028 18599767.080821991 0 18599767.080821991 29938223.746276855 0 0 0 0 14368303.780344009 18735284.008834839 0 18735284.008834839 33814328.50107193 0 0 0 0 17667167.086312294 36521090.717086792 0 36521090.717086792 56632768.926860809 0 0 0 0 15277747.735293388 30361249.766124725 0 30361249.766124725 45464289.059387207 0 0 0 0 47950207.720919967 36246941.096905708 0 36246941.096905708 32563002.167961121 0 0 0 0 -1709424.9915909767 18520702.60134697 0 18520702.60134697 45284667.478553772 0 0 0 0 -5420389.737000227 7995322.114440918 0 7995322.114440918 44631945.615030289 0 0 0 0 4083618.6354789734 8099579.7842216492 0 8099579.7842216492 27093768.367660522 0 0 0 0 10432087.951047897 19861226.438652039 0 19861226.438652039 41791218.773956299 0 0 0 0 18800053.890360832 17728676.011779785 0 17728676.011779785 19434791.723739624 0 0 0 0 -876711.78794848872 1043508.3170147315 0 1043508.3170147315 6751287.182612583 0 0 0 0 3696450.5630721403 11507638.36896239 0 11507638.36896239 36218038.690185547 0 0 0 0 13416993.563983917 6331735.2963790894 0 6331735.2963790894 17514806.360595703 0 0 0 0 -3259147.0482973228 1755779.0365399122 0 1755779.0365399122 9668025.5195082668 0 0 0 0 -16334415.489587605 26734399.233325958 0 26734399.233325958 17100004.365264893 0 0 0 0 11529946.580081224 18092446.240837097 0 18092446.240837097 36863302.350037098 0 0 0 0 -12527363.667614719 28235762.075942151 0 28235762.075942151 1986230.7109375 0 0 0 0 -637728.54988574982 4649360.073802948 0 4649360.073802948 11007205.477340698 0 0 0 0 -4690638.5804384351 25268546.502723694 0 25268546.502723694 -27454612.785041809 0 0 0 0 1884019.133433342 42186514.858623505 0 42186514.858623505 -19522326.269617081 0 0 0 0 -7018876.4955863953 87596411.753955841 0 87596411.753955841 -90344123.888175964 0 0 0 0 -16318524.75028038 78434863.312915802 0 78434863.312915802 -90239730.396299362 0 0 0 0 14676947.387277007 2150444.5730476379 0 2150444.5730476379 -53995447.904935837 0 0 0 0 -14327789.656094551 26453302.231838226 0 26453302.231838226 42119317.113708496 0 0 0 0 -741960.85133539524 -8549.0345040000975 0 -8549.0345040000975 2567110.2918245606 0 0 0 0 -13789665.231348515 33771325.165691376 0 33771325.165691376 51412724.150360107 0 0 0 0 14360960.195796728 69858086.909431458 0 69858086.909431458 77550016.817550659 0 0 0 0 169570180.92455101 145562535.73936653 0 145562535.73936653 63770359.922912598 0 0 0 0 9382641.2909231186 18505198.033889771 0 18505198.033889771 42645731.422569275 0 0 0 0 -16570856.317255974 -43014981.52003479 0 -43014981.52003479 45166681.880728245 0 0 0 0 -1208212.3317968079 1488343.1880997811 0 1488343.1880997811 1928937.1139677763 0 0 0 0 42783662.350224733 143980866.32519674 0 143980866.32519674 169376731.01513672 0 0 0 0 -204957412.31355572 30463557.866283417 0 30463557.866283417 240923809.61204529 0 0 0 0 -1571906.100898602 135260.03606068529 0 135260.03606068529 3260096.2718944009 0 0 0 0 12108385.322516918 31013499.718048096 0 31013499.718048096 -159618556.86966705 0 0 0 0 9392625.8011436462 95600680.586578369 0 95600680.586578369 -139129858.86356544 0 0 0 0 87436052.116046429 86899907.702325821 0 86899907.702325821 -52944114.18548584 0 0 0 0 14717765.58216095 -65955984.929180145 0 -65955984.929180145 -142807903.87081146 0 0 0 0 97281777.379919767 148203464.36396456 0 148203464.36396456 155350297.94387817 0 0 0 0 245452715.36903763 83075821.932613373 0 83075821.932613373 -294753110.90691757 0 0 0 0 -3888304.4272626676 2478954.2185327224 0 2478954.2185327224 1788673.2754435502 0 0 0 0 -12595223.729370594 4268662.3648548126 0 4268662.3648548126 23297470.097576141 0 0 0 0 24120408.014849231 38368036.092858553 0 38368036.092858553 12659504.936943054 0 0 0 0 42298711.337828875 50269906.905668259 0 50269906.905668259 56107716.096572876 0 0 0 0 92586609.266330719 36661275.242893219 0 36661275.242893219 44558773.133125305 0 0 0 0 -1335245.4036776256 183616.54807261843 0 183616.54807261843 1257493.2551593557 0 0 0 0 6960154.0050463676 1794538.8326148987 0 1794538.8326148987 -5237621.6595077515 0 0 0 0 19650975.07795218 26336623.882807493 0 26336623.882807493 7030779.0207977295 0 0 0 0 -2305578.3700006786 5061693.9864503369 0 5061693.9864503369 1887477.0988030434 0 0 0 0 -16435404.126337051 -50774255.931148529 0 -50774255.931148529 13374763.117259979 0 0 0 0 -3311040.1953869602 1350053.7951741535 0 1350053.7951741535 3444467.4265872966 0 0 0 0 15787913.103693247 -11983497.476350784 0 -11983497.476350784 -19064096.738143921 0 0 0 0 -24919626.154698849 2328388.1371498108 0 2328388.1371498108 34071777.768745422 0 0 0 0 97831743.689364552 12754245.394202828 0 12754245.394202828 24254875.673387527 0 0 0 0 52231294.370100021 33012125.968297958 0 33012125.968297958 -2744396.7935333252 0 0 0 0 190464898.50234222 -3813839.0691452026 0 -3813839.0691452026 -962364.85977172852 0 0 0 0 99072023.356002808 -16943553.409820557 0 -16943553.409820557 14575768.169487 0 0 0 0 281260913.02592754 56330017.881272316 0 56330017.881272316 -32197794.031742096 0 0 0 0 213181786.4781723 94905359.57525444 0 94905359.57525444 11954078.675861359 0 0 0 0 136258176.20419121 53544836.180286407 0 53544836.180286407 -4910971.0402870178 0 0 0 0 13760431.149929523 -39367903.421385646 0 -39367903.421385646 -26030313.013187408 0 0 0 0 120932358.72576618 -5848327.1776885986 0 -5848327.1776885986 -21242839.483955383 0 0 0 0 -3397027.7275391994 733628.7574103009 0 733628.7574103009 3522886.4687616918 0 0 0 0 -28322804.038034439 37181966.437828064 0 37181966.437828064 41043671.347696304 0 0 0 0 -3671620.396309521 1784338.9377835523 0 1784338.9377835523 2063665.2349994704 0 0 0 0 77447815.147720337 91905007.46881485 0 91905007.46881485 -6317467.3777236938 0 0 0 0 47629929.327543259 119779056.16777802 0 119779056.16777802 46902616.118549347 0 0 0 0 58089957.671444893 -20133613.419017315 0 -20133613.419017315 -84883759.349609375 0 0 0 0 200242861.25333595 140021454.34557533 0 140021454.34557533 3518791.9116706848 0 0 0 0 -1878727.7395738047 272094.404362984 0 272094.404362984 1947061.4317833558 0 0 0 0 -45095629.241055489 -77383096.131320715 0 -77383096.131320715 -44360869.917800903 0 0 0 0 203314032.61417389 149999992.29291248 0 149999992.29291248 -49687646.260936737 0 0 0 0 34579287.542537689 154763177.78300858 0 154763177.78300858 -46016455.629348755 0 0 0 0 213266088.51579094 139089800.209939 0 139089800.209939 -47795716.779895782 0 0 0 0 225332159.22718811 147043094.37215424 0 147043094.37215424 -91732665.807712555 0 0 0 0 230809611.50443649 121565966.77762222 0 121565966.77762222 -39444929.214906693 0 0 0 0 225729209.13067245 135534272.10290527 0 135534272.10290527 -28748846.039923906 0 0 0 0 201223267.90359688 148597765.28651524 0 148597765.28651524 -29545149.77678299 0 0 0 0 293782511.77532196 102739177.6293087 0 102739177.6293087 -35460053.273716927 0 0 0 0 207916433.15395927 110639232.16271019 0 110639232.16271019 -35059147.886581421 0 0 0 0 320678649.43579102 90812655.800987244 0 90812655.800987244 -32781096.838980675 0 0 0 0 251285230.9013834 92598568.333049774 0 92598568.333049774 -15386953.226570129 0 0 0 0 214232033.35409546 205406897.85640144 0 205406897.85640144 123398869.0023315 0 0 0 0 352457938.06356621 189610611.67905736 0 189610611.67905736 337743.4216003418 0 0 0 0 212092932.71037292 191877248.37480545 0 191877248.37480545 60103896.269672394 0 0 0 0 233107203.92747116 150322148.67800808 0 150322148.67800808 59879.057090759277 0 0 0 0 573874852.95830536 -282725640.52470016 0 -282725640.52470016 -130939133.24201965 0 0 0 0 448045171.82955933 -312274649.67544556 0 -312274649.67544556 -11437553.254180908 0 0 0 0 193393439.29287338 19149326.556121826 0 19149326.556121826 -255367911.98418808 0 0 0 0 549230585.00416946 138136064.37161255 0 138136064.37161255 -227604692.78595734 0 0 0 0 303044821.72473955 136498174.29361343 0 136498174.29361343 -20568404.455245972 0 0 0 0 6617185.7155756615 -1313400.2045600638 0 -1313400.2045600638 -1802575.7999384236 0 0 0 0 92588068.404825479 314298390.00452781 0 314298390.00452781 -486678145.50284576 0 0 0 0 736226035.7259264 -171299673.60453033 0 -171299673.60453033 -358076689.20165253 0 0 0 0 31647368.305965424 -228065303.20951843 0 -228065303.20951843 16201429.900058746 0 0 0 0 137971119.05562019 127066522.91992569 0 127066522.91992569 493148362.84854507 0 0 0 0 3094891.1485224515 -1201478.2058280464 0 -1201478.2058280464 -1247820.6355626043 0 0 0 0 283111576.0304184 152556414.53863525 0 152556414.53863525 -103566814.47821426 0 0 0 0 561336415.19780779 329041073.2814576 0 329041073.2814576 8311091.9312286377 0 0 0 0 247877014.24858761 251221425.15941858 0 251221425.15941858 -47696212.191688538 0 0 0 0 53810313.32935524 265305573.79058456 0 265305573.79058456 6217805.7636947632 0 0 0 0 104745505.65321493 -15314083.062173367 0 -15314083.062173367 -113290426.5605278 0 0 0 0 -42272694.261707306 144441764.26126862 0 144441764.26126862 -33647920.136672974 0 0 0 0 -151159437.19232273 -93116400.098424911 0 -93116400.098424911 215330122.74336243 0 0 0 0 -1947748.5734866895 751496.06625480391 0 751496.06625480391 1308387.8780489154 0 0 0 0 -134342748.16570473 128304511.44453812 0 128304511.44453812 52321166.955661774 0 0 0 0 61675132.513858795 -998516.542137146 0 -998516.542137146 -30061589.331141472 0 0 0 0 24867504.169417381 -74576943.155227661 0 -74576943.155227661 -171896362.33009338 0 0 0 0 62146948.851530552 17583087.797958374 0 17583087.797958374 -5860262.9666824341 0 0 0 0 67281447.667203903 52525967.42634201 0 52525967.42634201 -211482916.07921219 0 0 0 0 8045046.6917506792 -74886.502583125606 0 -74886.502583125606 -1004153.9751537573 0 0 0 0 -12725967.18926239 31502750.521120071 0 31502750.521120071 126209709.3666153 0 0 0 0 -178269096.93068933 286571476.75625229 0 286571476.75625229 -86249194.522384644 0 0 0 0 352284431.61963272 287713196.44898987 0 287713196.44898987 -100976061.30778503 0 0 0 0 -385488.24734730832 3247007.2772568185 0 3247007.2772568185 7101151.0690280572 0 0 0 0 -193064706.8774206 241348135.11236191 0 241348135.11236191 -145474728.72272491 0 0 0 0 -563061732.27233815 179371802.7277298 0 179371802.7277298 9591539.59633255 0 0 0 0 -268105662.73286915 -783451706.68131161 0 -783451706.68131161 1592773885.6145401 0 0 0 0 4807077.5574579602 90783.979480924085 0 90783.979480924085 523660.00097749196 0 0 0 0 698581450.87788796 664581391.76694489 0 664581391.76694489 -608524325.6951828 0 0 0 0 -309728605.91646266 395636060.44636917 0 395636060.44636917 657343731.47946167 0 0 0 0 2007658.1008483584 32539.373838258907 0 32539.373838258907 106970.48321473785 0 0 0 0 90267179.864747882 -43536442.481090069 0 -43536442.481090069 1884192.5528259277 0 0 0 0 85910644.287087917 -30056150.486652374 0 -30056150.486652374 11413459.490560532 0 0 0 0 40398495.892899036 55612836.788356781 0 55612836.788356781 -7558808.5485305786 0 0 0 0 99234.881757305702 2902766.1981230723 0 2902766.1981230723 2600512.6247698851 0 0 0 0 69119863.931036949 -8408344.1653137207 0 -8408344.1653137207 -4651136.9074058533 0 0 0 0 70436957.187648296 -6385246.4138507843 0 -6385246.4138507843 -105824896.35659027 0 0 0 0 -288617.32005252899 1224260.9211252388 0 1224260.9211252388 1088024.9618834406 0 0 0 0 81006801.101903439 -4016671.9935970306 0 -4016671.9935970306 -106966933.75608826 0 0 0 0 -27657680.736680746 90415586.328802109 0 90415586.328802109 -85744152.8698349 0 0 0 0 14291086.261563301 53436707.977336884 0 53436707.977336884 -55080300.621601105 0 0 0 0 142630005.11343098 70110496.600482941 0 70110496.600482941 -80496282.823219299 0 0 0 0 85164379.589248717 97758137.054326057 0 97758137.054326057 -145195941.4363327 0 0 0 0 132652024.77048206 6623939.6073760986 0 6623939.6073760986 -12351022.292369843 0 0 0 0 18675118.616583943 104689923.55407715 0 104689923.55407715 -63193215.812143326 0 0 0 0 553209.55220007896 118127251.64771652 0 118127251.64771652 -64208582.674911499 0 0 0 0 31531033.330411762 101550675.10385227 0 101550675.10385227 -88652923.491447449 0 0 0 0 -47608432.969694614 83040919.679294586 0 83040919.679294586 -42742791.855133057 0 0 0 0 -139317374.52568388 142035814.36737061 0 142035814.36737061 -26883908.635765076 0 0 0 0 -2483829.8538701534 139360034.49781704 0 139360034.49781704 -34592566.816070557 0 0 0 0 -541253478.52962112 236311816.15238953 0 236311816.15238953 16404582.688726425 0 0 0 0 30249712.877838671 370334113.92677975 0 370334113.92677975 -118659495.43144989 0 0 0 0 330909593.73626709 -46832140.809204102 0 -46832140.809204102 -78140919.351947784 0 0 0 0 521190909.4475376 296506465.23669982 0 296506465.23669982 -122156813.13776398 0 0 0 0 407790422.66366416 -246686283.40398407 0 -246686283.40398407 121363199.07909012 0 0 0 0 -1055390325.8338289 137597510.41503906 0 137597510.41503906 621277333.75820923 0 0 0 0 327968770.41943437 -223823824.7486639 0 -223823824.7486639 -87442053.24030304 0 0 0 0 527943590.51939434 267119870.1828289 0 267119870.1828289 375940753.84275055 0 0 0 0 155144446.89994329 -206403336.75827789 0 -206403336.75827789 -10386698.372974396 0 0 0 0 528567911.57577729 -520028779.21717596 0 -520028779.21717596 183104092.23161316 0 0 0 0 -973178803.61858463 -295161186.76753616 0 -295161186.76753616 220353472.62329102 0 0 0 0 806339200.53536677 -1365724259.4751625 0 -1365724259.4751625 563694231.48128128 0 0 0 0 328375164.54555339 121424208.39375019 0 121424208.39375019 -120177007.77539825 0 0 0 0 -662943413.66653907 -1362700260.9059887 0 -1362700260.9059887 5348911271.5125275 0 0 0 0 636504064.93681169 -1912469920.4554214 0 -1912469920.4554214 2428768589.1298676 0 0 0 0 -790311634.65864587 -164503574.82260227 0 -164503574.82260227 5338476323.6631241 0 0 0 0 -755901987.0974803 -397717584.37655449 0 -397717584.37655449 2698585055.971283 0 0 0 0 -48658805.877717614 -604569897.66574478 0 -604569897.66574478 907151563.45178127 0 0 0 0 -247337615.01614508 790562491.12082672 0 790562491.12082672 -733623641.95322418 0 0 0 0 -50738.186703024272 -209592.85803979635 0 -209592.85803979635 7878797.5630795769 0 0 0 0 -374206753.989178 864024790.91709518 0 864024790.91709518 1189482427.1365972 0 0 0 0 -281537094.37374014 -1774438660.5442581 0 -1774438660.5442581 5354114788.6306381 0 0 0 0 -323177201.92834973 -927494663.7101593 0 -927494663.7101593 2126882582.7096558 0 0 0 0 -550999788.94167292 269996341.21979141 0 269996341.21979141 459311999.5880661 0 0 0 0 -248490848.77223134 -125835509.33691788 0 -125835509.33691788 234523897.0607605 0 0 0 0 -436508164.73849213 65281010.748264313 0 65281010.748264313 115205876.77655792 0 0 0 0 -321591465.40962857 -197953485.48150635 0 -197953485.48150635 377769506.59431458 0 0 0 0 128120169.65364939 -289620274.73540878 0 -289620274.73540878 284962342.19608879 0 0 0 0 -468526316.64949453 183665457.11938095 0 183665457.11938095 1256626874.1946487 0 0 0 0 -337008453.10825771 -375009774.2068367 0 -375009774.2068367 945836372.1219635 0 0 0 0 -374943360.78802919 -572760628.03068161 0 -572760628.03068161 153835507.25064087 0 0 0 0 -600370.00610998669 82886.205682189204 0 82886.205682189204 4355018.3440030217 0 0 0 0 1777619736.3606567 2059540687.3829956 0 2059540687.3829956 89879367.177448273 0 0 0 0 -212230195.35192776 351464978.61310577 0 351464978.61310577 -158406287.05238342 0 0 0 0 -204603675.48434019 297290909.58525372 0 297290909.58525372 196913714.17434692 0 0 0 0 146689227.76676369 182664763.89739227 0 182664763.89739227 41583728.211776733 0 0 0 0 187361936.20005608 105860849.50840759 0 105860849.50840759 750318814.66818237 0 0 0 0 270546881.18062782 500426267.88714981 0 500426267.88714981 801402710.78639221 0 0 0 0 -423679922.38095856 -341979566.74827576 0 -341979566.74827576 -328958387.32816315 0 0 0 0 -378574845.56880665 15731683.24055481 0 15731683.24055481 898079498.87413025 0 0 0 0 -1025703942.9171772 -475517281.85533524 0 -475517281.85533524 1381220854.1348267 0 0 0 0 -623530823.88411522 -417925141.89070129 0 -417925141.89070129 550811349.7723999 0 0 0 0 -386510506.2948122 194329857.80731964 0 194329857.80731964 1849405234.2874451 0 0 0 0 -579173573.14531326 -844541140.94798279 0 -844541140.94798279 1348238259.9299889 0 0 0 0 -666600438.14174747 -544931443.37691498 0 -544931443.37691498 364433062.74580383 0 0 0 0 954001213.05186009 1137172210.2678165 0 1137172210.2678165 785888386.77731323 0 0 0 0 -1080760805.2568507 -779320973.27616882 0 -779320973.27616882 712251585.08938599 0 0 0 0 -1089012.1581012825 -462544.45133410208 0 -462544.45133410208 11855549.970317636 0 0 0 0 -1000013.2968994826 1591375.0834432635 0 1591375.0834432635 4312447.8533993661 0 0 0 0 -501544280.27233839 436820449.75134277 0 436820449.75134277 2113394759.8096008 0 0 0 0 -490573141.41747677 -8211606.644411087 0 -8211606.644411087 58267873.865402222 0 0 0 0 -485677332.27308416 333707754.2947979 0 333707754.2947979 -99931450.445747375 0 0 0 0 394821.18559814122 634166.79462019354 0 634166.79462019354 10214140.001172908 0 0 0 0 418971915.4452154 1369388967.6307659 0 1369388967.6307659 3619975958.601059 0 0 0 0 632839944.54735446 1225085593.9034195 0 1225085593.9034195 1741234076.9477463 0 0 0 0 -391479976.27285379 212019593.94099808 0 212019593.94099808 5344738706.1552734 0 0 0 0 1683058159.6071794 -3898816903.8807569 0 -3898816903.8807569 2766030388.9790344 0 0 0 0 1393316.4400412459 1747264.7023887392 0 1747264.7023887392 8309245.1641039848 0 0 0 0 2014671345.9813409 -1624943088.6949463 0 -1624943088.6949463 861286661.96965027 0 0 0 0 -646332043.36106372 2190466742.2541962 0 2190466742.2541962 -1348826856.0359116 0 0 0 0 2798794.6804405241 242636.0836622268 0 242636.0836622268 6078451.6277783513 0 0 0 0 1189752611.6013184 1241135965.4429169 0 1241135965.4429169 394637827.35598266 0 0 0 0 -1634610443.0627413 -553641571.51611996 0 -553641571.51611996 4761970501.3771667 0 0 0 0 3666552569.3051157 1221174215.2472458 0 1221174215.2472458 -2724064281.389679 0 0 0 0 1247422796.9183154 -1961998282.2270355 0 -1961998282.2270355 3294689384.972908 0 0 0 0 3120831235.1297398 -2257321351.3384972 0 -2257321351.3384972 4401434848.0215454 0 0 0 0 1034280682.4718977 -1948549635.2420425 0 -1948549635.2420425 5343229602.7439251 0 0 0 0 777487012.30024111 -1092951805.2870026 0 -1092951805.2870026 4370138016.1631317 0 0 0 0 -3239554.8604513407 -1268486263.5039139 0 -1268486263.5039139 3746564345.0224152 0 0 0 0 491800131.27286029 -1689160478.4962921 0 -1689160478.4962921 4053680760.2024498 0 0 0 0 732625860.3519907 -1109904368.7986374 0 -1109904368.7986374 3911238966.6090469 0 0 0 0 1151150492.6544869 -1512805088.9426231 0 -1512805088.9426231 1256738976.6156616 0 0 0 0 589284130.14253306 -283694405.82119751 0 -283694405.82119751 173614373.45649719 0 0 0 0 3599828773.4811287 309027066.91414642 0 309027066.91414642 -1290225509.244812 0 0 0 0 3271817.2133459952 3432986.2633774057 0 3432986.2633774057 6193106.4599210992 0 0 0 0 2955352.1950429613 668524.44126759842 0 668524.44126759842 1704110.2478116229 0 0 0 0 -357665011.39819622 -301723384.21021271 0 -301723384.21021271 2657834658.5351868 0 0 0 0 3037476105.1233368 1976128742.7970428 0 1976128742.7970428 -2464735684.3745995 0 0 0 0 991268519.77532387 1213683477.4537201 0 1213683477.4537201 2242013404.5312176 0 0 0 0 1246838032.9904099 1081492661.0256958 0 1081492661.0256958 1734937136.2073059 0 0 0 0 1377701748.9329071 -1934439807.2823334 0 -1934439807.2823334 360804341.37537003 0 0 0 0 2984725727.1651592 362435111.20804596 0 362435111.20804596 262162686.2928772 0 0 0 0 690190425.36847687 -176436070.48796082 0 -176436070.48796082 164946599.27612305 0 0 0 0 1126630790.1785393 159307863.0594902 0 159307863.0594902 -20033576.744400024 0 0 0 0 852204731.48049355 -300767450.53620148 0 -300767450.53620148 -18929923.095542908 0 0 0 0 -86604328.814890981 83438561.471359253 0 83438561.471359253 703487259.51895142 0 0 0 0 97797240.535053253 -275712274.0289917 0 -275712274.0289917 541626991.83877563 0 0 0 0 7443601.8152176002 8500679.3581252396 0 8500679.3581252396 16374328.412613384 0 0 0 0 -695315315.5676887 -647704054.64014411 0 -647704054.64014411 -199543226.88635445 0 0 0 0 -552518968.27716827 -530573663.56620979 0 -530573663.56620979 -377100988.46949577 0 0 0 0 -799436.63790555485 -2859239.7811825504 0 -2859239.7811825504 8844842.9113517683 0 0 0 0 -330111462.97945511 -250361778.56676051 0 -250361778.56676051 -26275245.903129578 0 0 0 0 -328104938.65603638 -45190472.053943634 0 -45190472.053943634 83127.691410064697 0 0 0 0 -483492345.78157043 -455620645.94171667 0 -455620645.94171667 -701494848.8155508 0 0 0 0 -151761922.23349762 -88403625.519802094 0 -88403625.519802094 47747864.232940674 0 0 0 0 -215798921.9491272 -118843591.19248581 0 -118843591.19248581 1078369.8591842651 0 0 0 0 -56233729.247249603 -53114509.519866943 0 -53114509.519866943 -13683344.263029575 0 0 0 0 -113175357.82487202 22563258.562795639 0 22563258.562795639 110304066.90386963 0 0 0 0 -56485065.460203171 -14547960.229190826 0 -14547960.229190826 8756908.6812019348 0 0 0 0 -33308769.926906943 161460459.02230322 0 161460459.02230322 99506433.762191772 0 0 0 0 -47369177.038441658 54718090.028434753 0 54718090.028434753 -20777822.363761902 0 0 0 0 -136975708.34817028 37726977.35708046 0 37726977.35708046 -3422013.5337905884 0 0 0 0 -234023263.04195404 -39804484.272174835 0 -39804484.272174835 13878651.258485794 0 0 0 0 -196373500.4215641 -102537345.33206177 0 -102537345.33206177 -161609587.35526276 0 0 0 0 -220625174.24114609 -97332238.35786438 0 -97332238.35786438 -90216001.685527802 0 0 0 0 -411295662.45819378 -163019887.17727089 0 -163019887.17727089 -18403339.207769394 0 0 0 0 -191677587.56025207 69347884.471615791 0 69347884.471615791 28664704.552223206 0 0 0 0 -253829584.97235584 -16318454.911800385 0 -16318454.911800385 -16147543.472925186 0 0 0 0 -154763539.58014488 -137965242.58893317 0 -137965242.58893317 174740564.70285374 0 0 0 0 -571380126.66119385 2482344.8931147754 0 2482344.8931147754 623585553.71455896 0 0 0 0 -1154846.2526197908 -4759271.2847107127 0 -4759271.2847107127 13776050.796201833 0 0 0 0 -217581342.07554054 -29738244.13991642 0 -29738244.13991642 -133128561.79174042 0 0 0 0 -752896618.51485825 -142278739.52319515 0 -142278739.52319515 -393396691.66930342 0 0 0 0 282309762.08706665 23743593.544575214 0 23743593.544575214 -775582543.18812358 0 0 0 0 45312.838309422135 -219033.47998359567 0 -219033.47998359567 202917.45959639087 0 0 0 0 -85376007.868724823 576040619.01889825 0 576040619.01889825 361252325.92141342 0 0 0 0 409799960.55429077 445258446.32811952 0 445258446.32811952 808763815.32497573 0 0 0 0 -54826936.407157898 79604814.765179276 0 79604814.765179276 619536210.62867618 0 0 0 0 110967155.14009476 -74566640.483163059 0 -74566640.483163059 297740317.16095352 0 0 0 0 -70504335.825443268 216887701.68586141 0 216887701.68586141 598460238.38730788 0 0 0 0 -3087482.2832159605 1492667.4693849487 0 1492667.4693849487 423456.74181542895 0 0 0 0 94569741.3904953 35279507.92136085 0 35279507.92136085 179948428.48816109 0 0 0 0 -24211430.657905579 26313849.007451832 0 26313849.007451832 523140683.7238183 0 0 0 0 10009179.665325165 12373150.180620104 0 12373150.180620104 291757051.09979796 0 0 0 0 21633669.808944702 80639996.920067906 0 80639996.920067906 344278717.85169166 0 0 0 0 5639486.9390335083 9641740.0168697834 0 9641740.0168697834 370427673.19308501 0 0 0 0 2021324.5671005249 24342518.075974345 0 24342518.075974345 144417836.66349328 0 0 0 0 32274481.079627991 92010442.228420198 0 92010442.228420198 142477866.33814979 0 0 0 0 21807929.296157837 73466733.71156168 0 73466733.71156168 269888102.98602432 0 0 0 0 -4139816.3530387878 284180258.62956148 0 284180258.62956148 463123594.64687264 0 0 0 0 31485165.674091339 20171970.128713995 0 20171970.128713995 523469231.46370351 0 0 0 0 -144056658.29281235 26175260.343572907 0 26175260.343572907 241320889.01440549 0 0 0 0 -47172425.403411865 150047205.44714355 0 150047205.44714355 297886190.14078951 0 0 0 0 58758233.011177063 37806645.724346399 0 37806645.724346399 -34336931.776429951 0 0 0 0 8831451.8480224609 194995507.72128963 0 194995507.72128963 69535093.301608965 0 0 0 0 131655156.37868118 251695197.22344494 0 251695197.22344494 242127853.20022878 0 0 0 0 118808590.77573073 -5963016.1195292473 0 -5963016.1195292473 237774179.39630798 0 0 0 0 -10853871.401500702 -3849523.4098064899 0 -3849523.4098064899 3463700.7615556717 0 0 0 0 -2684507.8044929504 19329531.578510523 0 19329531.578510523 -17416809.690258026 0 0 0 0 -15057082.392440796 151361.19373273849 0 151361.19373273849 14365638.390816212 0 0 0 0 -11694692.246120453 1854971.7624232769 0 1854971.7624232769 6694202.0299954414 0 0 0 0 574007.04311735369 -2827880.3373462725 0 -2827880.3373462725 4287521.5353235751 0 0 0 0 -273427854.18563843 -1164908317.919199 0 -1164908317.919199 319817283.09003067 0 0 0 0 -1403406063.8378906 386786445.38848734 0 386786445.38848734 -581659142.86072803 0 0 0 0 -713234.91564011108 -560758.52712754067 0 -560758.52712754067 3191225.1784641403 0 0 0 0 -8965785.3190536499 -1788915.6690161228 0 -1788915.6690161228 -10294569.083471298 0 0 0 0 -52167619.18139267 -11362412.173780441 0 -11362412.173780441 -9375726.1391867995 0 0 0 0 -13060292.075706482 31368445.134020329 0 31368445.134020329 -10506013.176305532 0 0 0 0 -37793800.988876343 23976631.349045277 0 23976631.349045277 3723933.4352679253 0 0 0 0 -46184432.155399323 28406680.088763714 0 28406680.088763714 17448293.625926971 0 0 0 0 -21514335.538225174 37382795.532998681 0 37382795.532998681 14042417.013950348 0 0 0 0 -44574657.034309387 34590557.703406334 0 34590557.703406334 37650635.824034452 0 0 0 0 -71343436.025268555 18914217.495772362 0 18914217.495772362 36108015.389019966 0 0 0 0 -46412609.794331551 25830263.236289978 0 25830263.236289978 15355277.137054443 0 0 0 0 -50922556.86555481 35846825.470850945 0 35846825.470850945 6122639.2884509135 0 0 0 0 -88561213.30361557 39285676.963347316 0 39285676.963347316 37230319.546340942 0 0 0 0 -23901275.200630188 9996093.1410245895 0 9996093.1410245895 29339927.983934402 0 0 0 0 -55154911.479366302 37084439.532029629 0 37084439.532029629 35005381.079870224 0 0 0 0 -29437997.657394409 19786180.112545013 0 19786180.112545013 32372761.05380702 0 0 0 0 -31996276.109867096 -2172872.0753507614 0 -2172872.0753507614 69184610.347141266 0 0 0 0 -26746150.201141357 26986970.083043098 0 26986970.083043098 47268482.83744812 0 0 0 0 -100243075.78610229 628901.60782146454 0 628901.60782146454 33120149.719564438 0 0 0 0 -56567672.327891827 225177986.66868174 0 225177986.66868174 759894125.82406998 0 0 0 0 -841947635.48196411 -954367447.15508842 0 -954367447.15508842 1459690718.8209305 0 0 0 0 301645.31430702005 -2462519.3893348472 0 -2462519.3893348472 6126037.618385422 0 0 0 0 948024376.47098541 -1283149157.0761738 0 -1283149157.0761738 -1813738385.8157485 0 0 0 0 311680475.58049011 -1047829874.6429362 0 -1047829874.6429362 1011229525.2198124 0 0 0 0 -178240822.19813919 -91026427.491919518 0 -91026427.491919518 1341600731.5775242 0 0 0 0 -93724450.724388123 6714365.3049192429 0 6714365.3049192429 581127356.03186226 0 0 0 0 -55907898.776973724 92437123.563351631 0 92437123.563351631 655033702.78140068 0 0 0 0 80147209.965450287 222420864.6216898 0 222420864.6216898 341972724.85059738 0 0 0 0 -71314189.818787158 68995343.749806851 0 68995343.749806851 637140633.10202026 0 0 0 0 -152558008.33924484 155958831.22185612 0 155958831.22185612 564501362.08673286 0 0 0 0 -178261134.77495193 122411145.50851631 0 122411145.50851631 838687771.07692146 0 0 0 0 -185047676.41303873 -23358669.253141165 0 -23358669.253141165 669298727.94221497 0 0 0 0 -56758990.372649193 238515371.48770499 0 238515371.48770499 292785966.23855591 0 0 0 0 -64632890.940666199 258696876.36231232 0 258696876.36231232 235807697.65478897 0 0 0 0 -84371731.739379883 36919431.779058456 0 36919431.779058456 440291604.77022362 0 0 0 0 29155445.135105133 24459519.426279068 0 24459519.426279068 -31310829.984077454 0 0 0 0 -60024240.804862976 -19277973.248685837 0 -19277973.248685837 79678684.686668396 0 0 0 0 -8217076.157787323 203134427.56906891 0 203134427.56906891 -104733855.32840729 0 0 0 0 -60760580.533405304 -225600145.63743973 0 -225600145.63743973 -254394934.53848648 0 0 0 0 71484381.191627502 58654093.01209259 0 58654093.01209259 -302173150.76707649 0 0 0 0 78448528.207508087 107915294.80196095 0 107915294.80196095 117595130.18222046 0 0 0 0 59277347.747747898 200526135.09864092 0 200526135.09864092 347799106.91913223 0 0 0 0 107238603.96367073 62398871.505491257 0 62398871.505491257 98429285.671525717 0 0 0 0 -32144946.82715416 15525778.295041561 0 15525778.295041561 268837690.76829529 0 0 0 0 17356107.55136776 163758304.89553213 0 163758304.89553213 349581273.7518692 0 0 0 0 366885116.75085807 231584595.98345566 0 231584595.98345566 341534075.27719879 0 0 0 0 -15341598.773224831 -6331708.6950912476 0 -6331708.6950912476 614916456.34988213 0 0 0 0 208792707.87467766 -51719477.754893303 0 -51719477.754893303 559662898.5743866 0 0 0 0 -70343515.216079384 97351154.226811051 0 97351154.226811051 854478595.03828812 0 0 0 0 142168150.80031681 382776051.15830469 0 382776051.15830469 722059986.03430939 0 0 0 0 59987496.372357845 187446901.68243647 0 187446901.68243647 539569272.0913887 0 0 0 0 -5973360.1352043152 217796077.27069092 0 217796077.27069092 526162980.00435448 0 0 0 0 43962096.954915047 352489642.06328201 0 352489642.06328201 759046296.96715117 0 0 0 0 54079517.24644804 -97957285.002060413 0 -97957285.002060413 128510411.18312836 0 0 0 0 -475918.04418181867 1126967.6187968338 0 1126967.6187968338 1237285.4653456761 0 0 0 0 90491923.852958083 275933637.90094757 0 275933637.90094757 206527718.80482769 0 0 0 0 180989447.5022099 249928992.91399574 0 249928992.91399574 174439971.04031563 0 0 0 0 137226695.28095615 289793268.37333012 0 289793268.37333012 210156777.11614609 0 0 0 0 95447419.129594803 147952550.63433647 0 147952550.63433647 429226909.32193279 0 0 0 0 86075234.633562192 263870933.24836946 0 263870933.24836946 161076896.6634407 0 0 0 0 -121825041.59803963 37070454.047730923 0 37070454.047730923 91682835.692927361 0 0 0 0 -686590.60382109508 6111817.80157887 0 6111817.80157887 19723836.078092996 0 0 0 0 -63132180.25658226 575417.80693149567 0 575417.80693149567 85679136.241434097 0 0 0 0 1013666.2685441971 80852727.339818001 0 80852727.339818001 393607301.52569771 0 0 0 0 2446538.2208797932 32738979.291434288 0 32738979.291434288 58380524.47949028 0 0 0 0 119178462.71730089 172243254.81728363 0 172243254.81728363 77888364.131083131 0 0 0 0 198511310.59795761 137516328.18045521 0 137516328.18045521 25331097.162166595 0 0 0 0 -388468.04635787604 5741196.773053186 0 5741196.773053186 19360179.100890454 0 0 0 0 69739520.932033554 142759687.1461758 0 142759687.1461758 70237927.147830963 0 0 0 0 74414427.775132298 221602619.1180253 0 221602619.1180253 55691798.317977905 0 0 0 0 246753960.740098 261101822.63135839 0 261101822.63135839 62368646.497724533 0 0 0 0 449273815.6081419 137757923.3336916 0 137757923.3336916 -56056521.007549286 0 0 0 0 -45951.454562219486 4598550.0555053111 0 4598550.0555053111 17953468.685072765 0 0 0 0 -108589807.0159893 226427747.80762482 0 226427747.80762482 90193537.391216278 0 0 0 0 95400669.359164238 178242770.80260658 0 178242770.80260658 75459189.140605927 0 0 0 0 58510263.057422414 302019714.16117048 0 302019714.16117048 120239465.02961349 0 0 0 0 124379291.36195248 225835822.3890152 0 225835822.3890152 166262064.19596672 0 0 0 0 46465545.698879957 248037292.03591537 0 248037292.03591537 72942465.090166092 0 0 0 0 140533531.0128181 350165565.13381577 0 350165565.13381577 17209820.018550873 0 0 0 0 152753384.75478888 292427635.09374046 0 292427635.09374046 29185082.678318977 0 0 0 0 -241454777.99832535 226035205.41178894 0 226035205.41178894 62893461.383854866 0 0 0 0 53583944.192793369 253620202.23057079 0 253620202.23057079 44368877.761581421 0 0 0 0 -173698711.90913653 173684835.44629955 0 173684835.44629955 81556400.635101318 0 0 0 0 -498210776.13989973 61291047.196744919 0 61291047.196744919 79234286.631778717 0 0 0 0 93619560.325960219 375909343.5815506 0 375909343.5815506 14908653.327306747 0 0 0 0 -298026632.53966427 407508939.57133961 0 407508939.57133961 122528394.89390945 0 0 0 0 -319770356.80488682 283836670.41266823 0 283836670.41266823 95562155.031740189 0 0 0 0 279663720.87075734 734196746.47051144 0 734196746.47051144 33826037.594940186 0 0 0 0 -1715769250.21697 352260817.15184402 0 352260817.15184402 252777886.11367035 0 0 0 0 -838829880.36967206 -158527775.106812 0 -158527775.106812 57487450.47851944 0 0 0 0 -1657727027.7365685 -872573155.53629887 0 -872573155.53629887 -373247774.27207184 0 0 0 0 -555802872.36031008 458299737.98346329 0 458299737.98346329 172636735.0938797 0 0 0 0 594512193.07459712 46569177.439535141 0 46569177.439535141 -822128.80813980103 0 0 0 0 497959705.04417586 419251006.83341408 0 419251006.83341408 -112665347.39472198 0 0 0 0 483852215.31519538 252503283.91937256 0 252503283.91937256 105814219.83330917 0 0 0 0 590601.86361382087 3036596.0305615873 0 3036596.0305615873 14622452.557991449 0 0 0 0 691461878.00867033 137448902.35533524 0 137448902.35533524 81885835.532682419 0 0 0 0 1193108754.3830593 3392278.1201763153 0 3392278.1201763153 -42579679.393810272 0 0 0 0 1153209991.6479049 894609509.82922673 0 894609509.82922673 713317405.80147552 0 0 0 0 113464239.17415273 213485503.98581505 0 213485503.98581505 2330115481.6273117 0 0 0 0 -466407257.26851964 81958032.160381317 0 81958032.160381317 2301258305.0459862 0 0 0 0 2753670076.155755 1915674121.1280594 0 1915674121.1280594 1750649750.8761749 0 0 0 0 179247671.34091467 1498794642.7706633 0 1498794642.7706633 5345509486.5734558 0 0 0 0 1418094.6390814094 1802421.5242212308 0 1802421.5242212308 6203984.0258751661 0 0 0 0 -2029471471.1388261 -92329847.282348633 0 -92329847.282348633 403658838.81893921 0 0 0 0 -790868323.60693145 -674726710.88877296 0 -674726710.88877296 -264116957.66825867 0 0 0 0 -5552963.491567608 1971895.2383941971 0 1971895.2383941971 10701829.983721513 0 0 0 0 -623279912.13784528 122686623.23189163 0 122686623.23189163 1410840918.6016359 0 0 0 0 -2013233681.013428 84897643.967071056 0 84897643.967071056 24912064.84287262 0 0 0 0 -1426939.478685342 -304839.78436266445 0 -304839.78436266445 1925505.7337654885 0 0 0 0 -508826277.5077033 322279567.67296028 0 322279567.67296028 -408281772.93787003 0 0 0 0 -496592841.1514442 183088601.88500595 0 183088601.88500595 934881162.18655396 0 0 0 0 154918308.44937253 77608125.248779297 0 77608125.248779297 751094987.64622116 0 0 0 0 -1353642804.3568943 -406672608.88034058 0 -406672608.88034058 5347833209.0675297 0 0 0 0 -1308091342.0990534 -2279973116.0244408 0 -2279973116.0244408 2586991945.0792422 0 0 0 0 -833389088.11136317 -375702158.86284161 0 -375702158.86284161 2510869579.3487549 0 0 0 0 -3851889.8123257677 1447723.1316772774 0 1447723.1316772774 5919295.7681462802 0 0 0 0 -4566656.1488484377 2094991738.5689936 0 2094991738.5689936 5349463266.3286839 0 0 0 0 -1215791206.4788918 -2418299861.2463713 0 -2418299861.2463713 883753914.99961853 0 0 0 0 -373111693.25481606 117269511.51093102 0 117269511.51093102 1403448242.3670654 0 0 0 0 -330800084.44564712 283025218.26721668 0 283025218.26721668 1378380070.3198853 0 0 0 0 -383515376.13310915 -802662285.18544197 0 -802662285.18544197 5343135347.4882689 0 0 0 0 795749144.26470625 -1084982454.6307206 0 -1084982454.6307206 736726531.98761559 0 0 0 0 -15457617.378640056 147703107.12605524 0 147703107.12605524 722342883.05853271 0 0 0 0 499904674.42811024 -404387749.29688549 0 -404387749.29688549 -122026304.93165207 0 0 0 0 -523057605.84592545 266138172.31254768 0 266138172.31254768 1380961418.3835025 0 0 0 0 -79009551.872325897 50500235.003253073 0 50500235.003253073 3533152.0648570061 0 0 0 0 -11133988.770842381 7633674.5886228606 0 7633674.5886228606 2708012.3630324202 0 0 0 0 -650568878.35472584 -214728441.97062302 0 -214728441.97062302 9780711.0070056915 0 0 0 0 -3161886.5271155657 -5541259.2257497674 0 -5541259.2257497674 17887327.793105476 0 0 0 0 21938043.961697578 -43924349.757688895 0 -43924349.757688895 -26281679.764184773 0 0 0 0 7764700.2024579048 36743215.651929066 0 36743215.651929066 -57441967.029449821 0 0 0 0 19257203.683634281 -24270449.356214046 0 -24270449.356214046 22152832.979608059 0 0 0 0 16640554.143188477 -53142269.002327323 0 -53142269.002327323 163790436.45561069 0 0 0 0 -329782818.64216805 -19978643.266872406 0 -19978643.266872406 -12145698.251228333 0 0 0 0 -382262426.86038876 -616562.85499000549 0 -616562.85499000549 29545955.596652985 0 0 0 0 -13274087.643978596 1016170.7951268479 0 1016170.7951268479 -6940381.6130479574 0 0 0 0 -179630934.66094303 -24646070.026207522 0 -24646070.026207522 38758219.694043994 0 0 0 0 -1148203.532506516 722514.42677646969 0 722514.42677646969 134471.23864142853 0 0 0 0 74549347.239608765 -46666384.958622932 0 -46666384.958622932 73021217.3830266 0 0 0 0 69600828.985469818 -35236007.456304431 0 -35236007.456304431 -38237230.396525979 0 0 0 0 -12417609.451538028 8557917.2101273481 0 8557917.2101273481 2087318.3711882718 0 0 0 0 19892366.705913544 41058461.28406626 0 41058461.28406626 -4402282.7308319807 0 0 0 0 104222240.53977203 -3042141.724155426 0 -3042141.724155426 20077011.858310699 0 0 0 0 -105137676.34710646 110123106.3509655 0 110123106.3509655 -107815160.81041145 0 0 0 0 -5614495.9447658788 -3797213.6978724399 0 -3797213.6978724399 15583242.176116269 0 0 0 0 -15074811.488476276 -6506101.8060643077 0 -6506101.8060643077 13801474.207805634 0 0 0 0 -8766478.0227222443 -5141796.8726894855 0 -5141796.8726894855 10055549.957306862 0 0 0 0 -16342484.430398464 -210075.59535634518 0 -210075.59535634518 18369058.272885561 0 0 0 0 -3433563.9988840846 -4603383.2544531049 0 -4603383.2544531049 11560649.370197134 0 0 0 0 -396861102.72717953 -259584519.49577713 0 -259584519.49577713 622280531.97301483 0 0 0 0 44430356.574299097 151389416.13354397 0 151389416.13354397 -116784746.49571323 0 0 0 0 395624808.21753085 -96644965.506574869 0 -96644965.506574869 -553278691.79458046 0 0 0 0 -5637086.4388232008 -1433584.2873850956 0 -1433584.2873850956 -99157.797311335802 0 0 0 0 850781.63816896523 -707367.07728006924 0 -707367.07728006924 9810918.6337615345 0 0 0 0 -1037085.5095287772 -1933976.9695186615 0 -1933976.9695186615 5347625308.6098213 0 0 0 0 -11026555.173894882 -2981614.4830243587 0 -2981614.4830243587 18389863.155861855 0 0 0 0 -6412487.2723811064 -116270.5654339618 0 -116270.5654339618 9234006.0005540513 0 0 0 0 595218417.26026905 1685509696.1750693 0 1685509696.1750693 4758727280.8302555 0 0 0 0 15319591.929640597 960338734.36021519 0 960338734.36021519 5347021921.363409 0 0 0 0 -6359015.5981307263 -223931.33548198873 0 -223931.33548198873 8055696.4375872733 0 0 0 0 -2136937.0971244406 439817843.12624168 0 439817843.12624168 3747325327.6983099 0 0 0 0 377935277.26027334 1895467938.8707333 0 1895467938.8707333 5354170886.7566109 0 0 0 0 -616639.06249978393 -317181.33418604266 0 -317181.33418604266 5296400.4144332996 0 0 0 0 578383241.95656896 738446253.91769981 0 738446253.91769981 2957112985.8532906 0 0 0 0 -2398201.121553421 3900723.7706627846 0 3900723.7706627846 24357872.421546936 0 0 0 0 -6928088.5895080566 2219764.4474577904 0 2219764.4474577904 26484391.324275017 0 0 0 0 -4715608.8084793091 3694499.4077577591 0 3694499.4077577591 17321717.111244678 0 0 0 0 -10625856.12488842 -4419994.7826910019 0 -4419994.7826910019 22275210.94440484 0 0 0 0 -1014659583.1470107 425124972.52501583 0 425124972.52501583 5352610203.3459682 0 0 0 0 -985598736.89696348 -199871207.14351177 0 -199871207.14351177 4839900118.4251862 0 0 0 0 -792792240.79070568 1695355765.2389069 0 1695355765.2389069 5607649363.5912399 0 0 0 0 304633193.63204259 1593173204.2216821 0 1593173204.2216821 5384905859.2863989 0 0 0 0 -304525.05408325797 -381806.99719884247 0 -381806.99719884247 2705672.9804210733 0 0 0 0 -291543918.93469763 -40065043.203176498 0 -40065043.203176498 3592565143.6889768 0 0 0 0 -53492892.532630324 1062573885.5085812 0 1062573885.5085812 3760532040.7679501 0 0 0 0 -9553401.623711586 -3780307.8159884214 0 -3780307.8159884214 34852849.476770401 0 0 0 0 -6686421.6714569526 -1836244.5779138145 0 -1836244.5779138145 9027374.3550285976 0 0 0 0 435171.33332443237 -2787781.1844649315 0 -2787781.1844649315 31162270.323423505 0 0 0 0 -9034439.0030088425 2899552.038598001 0 2899552.038598001 28895576.777431011 0 0 0 0 917707528.33119941 -485397801.54219913 0 -485397801.54219913 2382371255.2504997 0 0 0 0 -7796411.493608308 -3474611.7883662744 0 -3474611.7883662744 11378194.813627815 0 0 0 0 -6162061.1026568413 -2205649.862231493 0 -2205649.862231493 19775477.114859581 0 0 0 0 -1753896.3599853516 9016774.092300415 0 9016774.092300415 5901838.9030871391 0 0 0 0 -7326817.7678260803 12155730.940935135 0 12155730.940935135 23396045.637268543 0 0 0 0 -807067.13478682539 294930.66376302438 0 294930.66376302438 204800.70491726696 0 0 0 0 -9077773.3800792694 2020075.2314443588 0 2020075.2314443588 3424774.3667669296 0 0 0 0 -2473297.7202668004 720664.61900275853 0 720664.61900275853 525836.85705681564 0 0 0 0 -8014915.4515347481 -3370724.7540217638 0 -3370724.7540217638 2170008.0775909424 0 0 0 0 -23969810.419063568 8743726.2677574158 0 8743726.2677574158 7717422.7393903732 0 0 0 0 -5313453.6001114231 -2699766.3813636797 0 -2699766.3813636797 5936234.4171128403 0 0 0 0 -24876259.402117968 -44893820.042176113 0 -44893820.042176113 81196855.275390625 0 0 0 0 -6510378.0264005661 -6697090.9063541889 0 -6697090.9063541889 11678588.509004116 0 0 0 0 -7553184.9421691895 -7498240.7735786438 0 -7498240.7735786438 33516691.854898214 0 0 0 0 2654153.313949585 -13545067.090297699 0 -13545067.090297699 6978917.2368249893 0 0 0 0 -2526468.6884570122 -4927485.1861646175 0 -4927485.1861646175 989197.83225154877 0 0 0 0 -5894097.7689151764 -1895155.1594891548 0 -1895155.1594891548 2470605.7093384266 0 0 0 0 -8247532.5013008118 -6840622.508122921 0 -6840622.508122921 11890228.963145256 0 0 0 0 -8205103.2722587585 -6347354.0974860191 0 -6347354.0974860191 7238122.4990949631 0 0 0 0 -7461580.1401043981 -1739693.6221348853 0 -1739693.6221348853 7632504.3281602627 0 0 0 0 55672060.455307007 12473041.786121279 0 12473041.786121279 -5522125.6209059507 0 0 0 0 -42460245.671461105 53329501.144697905 0 53329501.144697905 236344442.13543171 0 0 0 0 -2270930.914606154 1025462.8252311144 0 1025462.8252311144 181331.39299653211 0 0 0 0 -4589742.9397716522 25483619.289693832 0 25483619.289693832 -31302552.392322063 0 0 0 0 107923974.68330383 133649265.12418866 0 133649265.12418866 192919478.9375875 0 0 0 0 -40088044.197423935 124416697.97294128 0 124416697.97294128 493881822.40114015 0 0 0 0 -77337431.312669754 105325353.6276412 0 105325353.6276412 406428335.28257585 0 0 0 0 -55945424.146526337 150137218.6285758 0 150137218.6285758 279599257.27401805 0 0 0 0 5670228.2922058105 95644481.368292332 0 95644481.368292332 130365575.21947914 0 0 0 0 92735598.318751574 -2794556.2207597196 0 -2794556.2207597196 233194838.23796582 0 0 0 0 -56025494.862480164 65849359.077682018 0 65849359.077682018 289060567.6116004 0 0 0 0 -63050564.329551697 14517912.111874342 0 14517912.111874342 222325783.70375776 0 0 0 0 -18631215.013587952 -16969833.031407475 0 -16969833.031407475 94524910.529834747 0 0 0 0 -18809497.993335724 24432791.180069804 0 24432791.180069804 48878259.671670198 0 0 0 0 -6640761.8493347168 -4432265.6924424171 0 -4432265.6924424171 1751248.6483559608 0 0 0 0 13686027.742413521 -46927314.438877985 0 -46927314.438877985 86180131.480219007 0 0 0 0 -6853165.2779548112 -1119270.0049970415 0 -1119270.0049970415 6127480.8933232436 0 0 0 0 -4037940.4518737793 6024372.3543608785 0 6024372.3543608785 17213604.092840016 0 0 0 0 -742143.6769716572 -82198.42007253971 0 -82198.42007253971 693663.89246984618 0 0 0 0 -7725841.3612194061 -1662528.2748661041 0 -1662528.2748661041 551654.23606014252 0 0 0 0 -2861299.7860660553 -1123433.3526449203 0 -1123433.3526449203 2036911.2873687744 0 0 0 0 -22323519.005955696 -19667915.688726425 0 -19667915.688726425 27258546.123497009 0 0 0 0 -3038864.6322056064 -2752689.8720063102 0 -2752689.8720063102 1959263.0126828495 0 0 0 0 -3259066.41631795 -3200443.4091436183 0 -3200443.4091436183 2993324.0026438651 0 0 0 0 16902425.202804565 -21718078.99164176 0 -21718078.99164176 62675255.921948671 0 0 0 0 -4456976.5774392877 -1819687.0456471154 0 -1819687.0456471154 4219979.976138765 0 0 0 0 69827705.748859406 -33494978.834683418 0 -33494978.834683418 -23445293.026769638 0 0 0 0 59761043.912313223 -105288745.84524059 0 -105288745.84524059 16688751.395069122 0 0 0 0 77291971.795394897 -53398406.969034672 0 -53398406.969034672 35438295.591840744 0 0 0 0 114642834.01074028 -72849342.116184711 0 -72849342.116184711 15519051.687440872 0 0 0 0 -1075278.2953197621 -1011377.3805446401 0 -1011377.3805446401 1188989.195940868 0 0 0 0 100310871.74179077 -43934714.420968771 0 -43934714.420968771 -7064135.2627372742 0 0 0 0 -2052393.7607204607 -1342859.2007767577 0 -1342859.2007767577 3407656.2064045183 0 0 0 0 180321504.79667854 237209615.57494718 0 237209615.57494718 94736793.749030113 0 0 0 0 38407360.602928162 18289471.466156125 0 18289471.466156125 78908981.77588439 0 0 0 0 139296699.86694717 115884645.268327 0 115884645.268327 170521416.36120319 0 0 0 0 27532201.170127869 69777656.170945883 0 69777656.170945883 192471912.76561642 0 0 0 0 -68020113.069046021 191797359.04293346 0 191797359.04293346 166671946.34648991 0 0 0 0 498583271.48369884 277821192.73584723 0 277821192.73584723 165817630.45425224 0 0 0 0 19681190.554088593 322773903.25553429 0 322773903.25553429 98505533.548424721 0 0 0 0 172970093.3728981 -170738822.80410337 0 -170738822.80410337 -163075206.09742117 0 0 0 0 -108338813.13018036 282662161.54841244 0 282662161.54841244 251754632.5978241 0 0 0 0 -520423.23003179533 -437524.28054769523 0 -437524.28054769523 997572.8782526711 0 0 0 0 464805074.76133728 -57204432.049319506 0 -57204432.049319506 -33739606.632311583 0 0 0 0 191670026.29302919 -131263292.73857343 0 -131263292.73857343 -12191603.954231262 0 0 0 0 190991763.60996246 -16334504.540480614 0 -16334504.540480614 -75959.033519268036 0 0 0 0 141175804.06376266 219556360.92120457 0 219556360.92120457 558362060.96380091 0 0 0 0 273335041.86772346 -246965951.6245811 0 -246965951.6245811 121633487.79713917 0 0 0 0 -64427716.663856506 -14447288.723536491 0 -14447288.723536491 351539987.84857655 0 0 0 0 98206794.309280396 -117456616.09906673 0 -117456616.09906673 666205724.90004158 0 0 0 0 59366354.308322906 13060101.692856312 0 13060101.692856312 285965438.47285652 0 0 0 0 -69222261.340827942 -8205946.2589826584 0 -8205946.2589826584 295270148.52933073 0 0 0 0 -76143312.744195461 93402484.525846034 0 93402484.525846034 188664154.05018806 0 0 0 0 -55266723.590446472 65661891.585242748 0 65661891.585242748 141865282.92854166 0 0 0 0 -65965011.772026062 111987833.25705528 0 111987833.25705528 94442905.173434019 0 0 0 0 -46465833.40940094 16721163.024907112 0 16721163.024907112 150731076.7247591 0 0 0 0 -65832061.066352844 31601968.500752449 0 31601968.500752449 183885594.87985325 0 0 0 0 -53160489.900039673 51148402.615445614 0 51148402.615445614 107035571.07501984 0 0 0 0 -24867326.468299866 -17902252.901151657 0 -17902252.901151657 159997042.27493763 0 0 0 0 -33733305.751464844 19066342.013319492 0 19066342.013319492 89967026.710167408 0 0 0 0 -19999068.958551407 7575280.4008425474 0 7575280.4008425474 72702719.269464493 0 0 0 0 -16749810.981964111 44105532.381293297 0 44105532.381293297 44663492.688606739 0 0 0 0 -22328230.390974045 33057174.582670629 0 33057174.582670629 36210705.325530052 0 0 0 0 -17997573.553421021 54533558.493681431 0 54533558.493681431 49672636.449986696 0 0 0 0 -17330676.513395429 25791678.011310227 0 25791678.011310227 62398520.196805 0 0 0 0 -7487777.8459587097 70900759.539444447 0 70900759.539444447 -52346256.073984146 0 0 0 0 -8446113.7873001099 56064360.397863388 0 56064360.397863388 -4406149.0991516113 0 0 0 0 -12920711.234364033 31892907.178744614 0 31892907.178744614 -14025085.378192902 0 0 0 0 -13523941.79794693 36711304.84690094 0 36711304.84690094 -20759382.494419098 0 0 0 0 -26126045.455396652 13434626.107488751 0 13434626.107488751 -36981895.547226906 0 0 0 0 62806038.987380981 28114917.439962387 0 28114917.439962387 -324625495.46906734 0 0 0 0 -926989.75806433335 253248.56882329844 0 253248.56882329844 146494.67115933495 0 0 0 0 -12349898.940439224 281365112.77709246 0 281365112.77709246 -122295017.6493597 0 0 0 0 -42971727.524541855 -34890652.834082603 0 -34890652.834082603 11859610.107570171 0 0 0 0 -86015959.171424866 -13837282.421151638 0 -13837282.421151638 53487053.945618629 0 0 0 0 -62464881.495798111 -44839579.421215534 0 -44839579.421215534 55758390.843604237 0 0 0 0 -121646976.78732491 -65876669.396150589 0 -65876669.396150589 54563020.020716339 0 0 0 0 -36340023.313517332 -120925643.13714337 0 -120925643.13714337 77437642.479500771 0 0 0 0 -446424.42261392716 -856003.61132016685 0 -856003.61132016685 1677134.9643169995 0 0 0 0 -88484587.365861893 -20557989.455004692 0 -20557989.455004692 16847747.587791443 0 0 0 0 -13584658.366413116 -29991623.159012318 0 -29991623.159012318 1988096.3296260834 0 0 0 0 84270001.408948898 25683947.09355402 0 25683947.09355402 -101067747.94585371 0 0 0 0 -356553177.07517433 -28818608.171043873 0 -28818608.171043873 241169095.18518162 0 0 0 0 25945139.961899638 -33389749.462505043 0 -33389749.462505043 -33208203.092777252 0 0 0 0 20728450.674224854 -100126472.13806248 0 -100126472.13806248 86280303.008534431 0 0 0 0 -466552.29834301397 -1027843.2475146959 0 -1027843.2475146959 1402680.5661587808 0 0 0 0 -129499706.09056568 689338.40806740522 0 689338.40806740522 33750807.562999725 0 0 0 0 55733723.277378082 -130468794.75328779 0 -130468794.75328779 -27303784.238599122 0 0 0 0 -58667457.007116318 -94308793.143451214 0 -94308793.143451214 34726458.284562111 0 0 0 0 58837579.225257874 -105721228.47305107 0 -105721228.47305107 6925637.6706514359 0 0 0 0 66742749.973930359 -76991755.093475342 0 -76991755.093475342 30982513.384495258 0 0 0 0 52017922.643198013 -105968013.14514923 0 -105968013.14514923 30128727.786193848 0 0 0 0 -231417.83793329448 -581315.81575954426 0 -581315.81575954426 573265.06144103408 0 0 0 0 195975308.54376793 -164139986.04432487 0 -164139986.04432487 70316533.619912148 0 0 0 0 -126410300.29446983 57945846.988750458 0 57945846.988750458 35953835.525364876 0 0 0 0 -91150075.675367355 9610819.7775735855 0 9610819.7775735855 9297818.0139930248 0 0 0 0 -5843220.8965842929 -5438090.8054486047 0 -5438090.8054486047 9012238.2075958662 0 0 0 0 -92587084.234193325 8910355.3952326775 0 8910355.3952326775 34085506.97545433 0 0 0 0 -120217036.42042828 -370849.53261899948 0 -370849.53261899948 31662803.634876251 0 0 0 0 -4506401.9336776733 39445259.400999069 0 39445259.400999069 79375921.861773968 0 0 0 0 -3277518.4743639156 2870767.0367325731 0 2870767.0367325731 7644909.897891066 0 0 0 0 -123778056.94572401 9011864.2617945671 0 9011864.2617945671 136484196.80120087 0 0 0 0 -20799670.948726654 -89625924.289852142 0 -89625924.289852142 111964388.93089318 0 0 0 0 -9780856.5325602256 -5655405.178375124 0 -5655405.178375124 14928263.711503506 0 0 0 0 -63239884.425312996 -37945483.274986029 0 -37945483.274986029 52947430.184728622 0 0 0 0 -16462198.907993317 10731469.206999779 0 10731469.206999779 63094666.981748581 0 0 0 0 8190967.3169689178 -37991770.310852051 0 -37991770.310852051 19202151.255889893 0 0 0 0 89594.221664428711 -90154125.328180313 0 -90154125.328180313 201873946.53521252 0 0 0 0 59710778.444313049 31605742.597902775 0 31605742.597902775 36489949.544449806 0 0 0 0 741792.83474639058 -35142009.708766341 0 -35142009.708766341 -27466580.638881683 0 0 0 0 -9229819.3981323093 -1675189.7270394736 0 -1675189.7270394736 12030864.10861579 0 0 0 0 -3220068.2793598175 61564332.730361938 0 61564332.730361938 821616.00344264507 0 0 0 0 488467594.37368035 -1463728405.7366238 0 -1463728405.7366238 3154562789.899991 0 0 0 0 1009794698.6191139 -541027124.51986694 0 -541027124.51986694 -551377394.16526031 0 0 0 0 -14667590.192303056 -5215580.0318144122 0 -5215580.0318144122 14812833.274056895 0 0 0 0 -3416523.70452089 2719477.7554364614 0 2719477.7554364614 10255243.276724994 0 0 0 0 1762752868.0187428 693980800.52048779 0 693980800.52048779 6656492430.2532196 0 0 0 0 1393150000.0349886 804694864.18064499 0 804694864.18064499 324278099.3141613 0 0 0 0 454238709.51526606 -1609877805.8079109 0 -1609877805.8079109 5289950356.1761932 0 0 0 0 29215039.185672052 -960477171.68024826 0 -960477171.68024826 5356540513.1186762 0 0 0 0 -679188564.99244952 -59316249.375865936 0 -59316249.375865936 4394682412.0699501 0 0 0 0 -729544568.6415894 500067474.87586021 0 500067474.87586021 3513423518.4288864 0 0 0 0 240518564.31117195 791852412.38700104 0 791852412.38700104 714499773.80196762 0 0 0 0 -404883753.06692475 669091419.38970947 0 669091419.38970947 2039097532.2791824 0 0 0 0 2466593984.3248148 678991851.2773571 0 678991851.2773571 5355962290.8091698 0 0 0 0 -956872516.87276149 1925137707.0642719 0 1925137707.0642719 5687153555.3246632 0 0 0 0 1414080354.0698071 2712429639.9584951 0 2712429639.9584951 2951458188.2939072 0 0 0 0 -865694555.00144804 1073860347.1207371 0 1073860347.1207371 3403959141.0643806 0 0 0 0 -988509139.32195151 800940399.11645126 0 800940399.11645126 5353750402.0341072 0 0 0 0 -542834283.02532208 61306705.507957458 0 61306705.507957458 3960162566.846426 0 0 0 0 -607775050.98967707 832612254.71987534 0 832612254.71987534 3544127725.9495468 0 0 0 0 294288165.91048414 -521597508.78262901 0 -521597508.78262901 833061901.92756271 0 0 0 0 556051590.00263953 667570145.41410255 0 667570145.41410255 627111846.30656052 0 0 0 0 -358114.74539969134 1019048.5526184551 0 1019048.5526184551 4922210.9327106886 0 0 0 0 308763415.23016429 -969447369.08698654 0 -969447369.08698654 4046007714.5478802 0 0 0 0 -396518253.97773319 422686580.44269276 0 422686580.44269276 4660740353.4677429 0 0 0 0 -194277067.90484315 -1039033217.9030495 0 -1039033217.9030495 4564937795.955368 0 0 0 0 422547512.95943409 -338731117.86399651 0 -338731117.86399651 5353493614.9894142 0 0 0 0 -706295704.11284328 -1049209122.7209015 0 -1049209122.7209015 4590640938.1529808 0 0 0 0 -870603205.32445931 -1008038910.8115807 0 -1008038910.8115807 5355304300.1647987 0 0 0 0 -703234750.42253304 -312285894.34514904 0 -312285894.34514904 3873208286.2303314 0 0 0 0 -583786.48696756945 -190536.83437200263 0 -190536.83437200263 4281139.3336173389 0 0 0 0 -80555890.977912813 -48315574.728954315 0 -48315574.728954315 1186170.5788726807 0 0 0 0 -225463285.08209622 -678774113.21198273 0 -678774113.21198273 1436816276.9629974 0 0 0 0 -34381449.203705907 -616676479.13793564 0 -616676479.13793564 746129739.29302979 0 0 0 0 -236224688.16038728 42840480.224822998 0 42840480.224822998 86300585.639099121 0 0 0 0 -639005314.017995 674780475.55737305 0 674780475.55737305 3617322722.4363289 0 0 0 0 -554434.96733522357 10131322.437149171 0 10131322.437149171 21524132.805583503 0 0 0 0 -82752104.114379883 -306814133.64522171 0 -306814133.64522171 -13834184.574668884 0 0 0 0 267866436.73233342 -202252247.50001526 0 -202252247.50001526 -539594348.83031464 0 0 0 0 -36341227.153799057 263600659.1782074 0 263600659.1782074 1285376268.7553101 0 0 0 0 792012446.0016247 297690431.5670929 0 297690431.5670929 -215388299.73808289 0 0 0 0 -409205948.98421168 241162298.91117859 0 241162298.91117859 -98442089.101015091 0 0 0 0 -266444.150587613 316115.38526928425 0 316115.38526928425 1633215.39803672 0 0 0 0 112767772.68039441 137419075.92949677 0 137419075.92949677 -189230642.68815613 0 0 0 0 -149000063.72221828 512142589.05963898 0 512142589.05963898 46339297.005641937 0 0 0 0 -1754656.8664639047 9116610.4956076369 0 9116610.4956076369 18417873.258700944 0 0 0 0 82106319.787284136 -12362448.107479095 0 -12362448.107479095 -79606895.808235168 0 0 0 0 -52988765.036441207 50286983.715126038 0 50286983.715126038 59589310.524345398 0 0 0 0 12760293.654121161 62170508.534269333 0 62170508.534269333 58687734.823226929 0 0 0 0 35651145.076435804 5317444.7917480469 0 5317444.7917480469 -12007152.079685211 0 0 0 0 1338342.4675789082 342784.90024284273 0 342784.90024284273 -2092771.3219771087 0 0 0 0 -24510463.949295521 32325347.553382874 0 32325347.553382874 85104069.40271759 0 0 0 0 -25583436.750251532 36893852.616939545 0 36893852.616939545 72037576.914955139 0 0 0 0 -19695273.462126255 34732972.896842957 0 34732972.896842957 55143706.648048878 0 0 0 0 -41557854.891191483 20441891.015647888 0 20441891.015647888 56372430.343661308 0 0 0 0 -3015500.5338935852 30793092.431407928 0 30793092.431407928 33553475.285223007 0 0 0 0 -21098348.844957352 6508849.4613647461 0 6508849.4613647461 60371976.662582397 0 0 0 0 -7148573.32862892 11625481.752834365 0 11625481.752834365 45633417.827251807 0 0 0 0 -22786748.739795685 8788562.6130065918 0 8788562.6130065918 66928864.747302055 0 0 0 0 -7419686.6985067325 -3439457.2530413102 0 -3439457.2530413102 19549555.152519371 0 0 0 0 -15730629.539617062 9155179.7609262466 0 9155179.7609262466 65973296.157283783 0 0 0 0 -6595051.3301994205 13634198.378035188 0 13634198.378035188 43470473.213576689 0 0 0 0 -3246330.8403167371 10787116.07179077 0 10787116.07179077 24967028.917093933 0 0 0 0 -10454284.534352303 31855977.307491302 0 31855977.307491302 19384366.238967896 0 0 0 0 -1613360.234250054 -888685.21737609431 0 -888685.21737609431 1337919.7588851247 0 0 0 0 974015388.53861642 340178937.03881836 0 340178937.03881836 -142114164.78926086 0 0 0 0 -235417427.45132732 -225528315.60424042 0 -225528315.60424042 299135817.20417786 0 0 0 0 1495597469.3722019 731225484.69109988 0 731225484.69109988 76603941.131713867 0 0 0 0 3380470.173724005 2069204.8092364818 0 2069204.8092364818 1713913.4688375071 0 0 0 0 147754904.42246401 38988566.852490425 0 38988566.852490425 -6084616.8201751709 0 0 0 0 -116796444.16179709 -15251263.526390076 0 -15251263.526390076 5331711739.3079157 0 0 0 0 -281681493.56988335 -97578927.960723877 0 -97578927.960723877 -21924319.265197754 0 0 0 0 -255287138.71589279 -82446165.847518921 0 -82446165.847518921 -17862846.852996826 0 0 0 0 -277570186.4574523 -102090343.67197037 0 -102090343.67197037 -20181780.173706055 0 0 0 0 4302463.9671004172 6237051.2595142871 0 6237051.2595142871 6314842.5217836313 0 0 0 0 -1336359.1290010214 5630292.3079299927 0 5630292.3079299927 105158.35446929932 0 0 0 0 -1332546.8846703768 5816911.873966217 0 5816911.873966217 6633550.1026668549 0 0 0 0 1129053055.0719552 -2989917642.3830147 0 -2989917642.3830147 5350242016.9282761 0 0 0 0 -768399.41250506742 1185070.4956218563 0 1185070.4956218563 3590717.8699162975 0 0 0 0 128122340.58740985 -1434705819.1555748 0 -1434705819.1555748 3136709540.2501526 0 0 0 0 -136887579.38245204 -1512838966.9687729 0 -1512838966.9687729 4546340388.6248703 0 0 0 0 197263386.1983338 -773780012.4753418 0 -773780012.4753418 3159182210.2910528 0 0 0 0 195320849.06057054 -754711034.41254425 0 -754711034.41254425 3032716201.9166794 0 0 0 0 2245951.9268856142 4078292.6114896704 0 4078292.6114896704 2994756.1464322433 0 0 0 0 -252772.86822046351 4344961.7527580522 0 4344961.7527580522 12922408.524211165 0 0 0 0 -251121.68912721661 7109833.1554457583 0 7109833.1554457583 8213069.4620127603 0 0 0 0 10841679.509019852 23892133.073989868 0 23892133.073989868 9698463.4337005615 0 0 0 0 -4555747.823723644 2710082.9235687256 0 2710082.9235687256 35720980.61000061 0 0 0 0 4023397.2533361912 -1770000.4300842285 0 -1770000.4300842285 32388648.687133789 0 0 0 0 -428750.60600090027 638675.41947174072 0 638675.41947174072 7956800.6443481445 0 0 0 0 -182475.19374563923 3927360.247623533 0 3927360.247623533 9590773.9853179455 0 0 0 0 1012495.5618681377 -1478341.5175388642 0 -1478341.5175388642 9417036.9846376628 0 0 0 0 5918226.2028748989 902180.66319274902 0 902180.66319274902 42860408.566986084 0 0 0 0 2777419.0395163726 -2882371.0849475972 0 -2882371.0849475972 5342149.2763560638 0 0 0 0 42500441.68599987 -15600905.596225739 0 -15600905.596225739 -28195672.344047546 0 0 0 0 -1615855.4945524931 10865415.615951538 0 10865415.615951538 64887446.837692261 0 0 0 0 138273.72260135412 8237123.3181762695 0 8237123.3181762695 59901920.110534668 0 0 0 0 430528.72120207548 8236120.8187866211 0 8236120.8187866211 62962353.878845215 0 0 0 0 4150520.6988387252 13769894.713337868 0 13769894.713337868 56383525.634429932 0 0 0 0 1288804.8918329477 3834207.1816253662 0 3834207.1816253662 61462192.762573242 0 0 0 0 986085.90261484124 304081.63367420807 0 304081.63367420807 -1947096.4427004531 0 0 0 0 8703224.1015348434 2526929.7966003418 0 2526929.7966003418 -8144566.0186767578 0 0 0 0 -8749725.1233210824 1192919.542414818 0 1192919.542414818 16377430.571719568 0 0 0 0 261681022.42565918 89382349.532958984 0 89382349.532958984 37603083.101806641 0 0 0 0 8498419.5961073637 15371364.684539795 0 15371364.684539795 60369026.929794312 0 0 0 0 -1124920.4706608143 -210826.12212304398 0 -210826.12212304398 5568569.6503637657 0 0 0 0 -3798429.536526978 -5506096.7152023315 0 -5506096.7152023315 30685463.963020325 0 0 0 0 -4775223.096480608 13268635.142288208 0 13268635.142288208 76742884.021072388 0 0 0 0 -7680082.0100467205 3269271.2225570679 0 3269271.2225570679 78631176.873382568 0 0 0 0 -5810639.5552104861 64987.77399180457 0 64987.77399180457 5170236.2944863234 0 0 0 0 -4178150.6367506385 -5987662.2149124146 0 -5987662.2149124146 61622959.681907654 0 0 0 0 -6415636.2870558202 -3704348.3317966461 0 -3704348.3317966461 74871340.685974121 0 0 0 0 4237766.7852478214 -3726940.5154876634 0 -3726940.5154876634 3655990.8349376172 0 0 0 0 26601286.402709842 7889584.1636314392 0 7889584.1636314392 40090736.514129639 0 0 0 0 -6965892.4874697626 6937931.1108980179 0 6937931.1108980179 36300971.969322205 0 0 0 0 -35474540.461935759 9283697.6480064392 0 9283697.6480064392 199982688.99990845 0 0 0 0 -48023651.882149696 35486552.233310699 0 35486552.233310699 190258825.41690063 0 0 0 0 -59392759.996212959 38890779.031150818 0 38890779.031150818 178915328.141716 0 0 0 0 -13452883.843588352 1979397.8499393463 0 1979397.8499393463 34633599.94052887 0 0 0 0 -32698286.471925974 -17761670.008190155 0 -17761670.008190155 209580447.28388977 0 0 0 0 -7234139.7903532982 56255647.826408386 0 56255647.826408386 180550523.473526 0 0 0 0 5813266.8115801811 45566647.80103302 0 45566647.80103302 186306278.74203491 0 0 0 0 55632404.911108971 183457557.67155457 0 183457557.67155457 350428664.11087227 0 0 0 0 -5589368.6814339161 -76638900.962446213 0 -76638900.962446213 293802211.39098358 0 0 0 0 122407142.56347084 80188790.665248871 0 80188790.665248871 -5503956.7874717712 0 0 0 0 835326.05770079466 -570256.44614477083 0 -570256.44614477083 -1252564.0646385811 0 0 0 0 72398536.686652899 -89897411.3185215 0 -89897411.3185215 33226435.099502563 0 0 0 0 48338541.407647848 -37717847.508365631 0 -37717847.508365631 -26289239.590164185 0 0 0 0 5381988.2497004271 -11191761.684444427 0 -11191761.684444427 24293384.159042358 0 0 0 0 22933293.567522049 -4741130.2042579651 0 -4741130.2042579651 -13326213.599411011 0 0 0 0 -6340953.758355394 -6833811.6359677669 0 -6833811.6359677669 14575107.376653373 0 0 0 0 -4547135.5683031082 -6351360.2816123962 0 -6351360.2816123962 8459587.5741882324 0 0 0 0 -3453610.8361372948 -4460807.6598205566 0 -4460807.6598205566 4839249.9236984253 0 0 0 0 14770118.720817804 -4938681.0314254761 0 -4938681.0314254761 -36699234.064704895 0 0 0 0 -18330785.15104866 -808869.6898651123 0 -808869.6898651123 -12642056.137756348 0 0 0 0 -6598477.4686727542 -7965710.7123551778 0 -7965710.7123551778 11202973.709125975 0 0 0 0 -8260006.1101179123 -9906708.4653410912 0 -9906708.4653410912 7483658.2672729492 0 0 0 0 -10173296.303741932 4508647.4784927368 0 4508647.4784927368 -18134036.448547363 0 0 0 0 -9212862.624958992 -6488324.9416236877 0 -6488324.9416236877 18951935.81788826 0 0 0 0 -11768733.995372772 -3692991.5740966797 0 -3692991.5740966797 -9692752.0728378296 0 0 0 0 -30039969.39002037 -3031089.3446426392 0 -3031089.3446426392 -9254494.4918899536 0 0 0 0 -18693608.181887627 9257198.148727417 0 9257198.148727417 -4537036.6891021729 0 0 0 0 15158476.27366066 38572879.08669281 0 38572879.08669281 181920162.1625824 0 0 0 0 -15726002.880591869 -17723561.573154449 0 -17723561.573154449 -14598112.026016235 0 0 0 0 1390452.1724033356 63193932.441581726 0 63193932.441581726 192118429.5353756 0 0 0 0 1914339.3396033486 -2145879.078335952 0 -2145879.078335952 -3889079.4059734344 0 0 0 0 -2257689.1902633402 -1099446.3063892797 0 -1099446.3063892797 14343665.770933028 0 0 0 0 -6474986.9060717402 -6342415.0187394526 0 -6342415.0187394526 13338974.070050582 0 0 0 0 -7421543.321993947 -8886588.8428478241 0 -8886588.8428478241 -16384897.605010986 0 0 0 0 -6839574.8696136475 -6608974.1126708984 0 -6608974.1126708984 36552433.705963135 0 0 0 0 2899963.3205432892 -887963.34465789795 0 -887963.34465789795 -6825948.2263336182 0 0 0 0 9581.1181183907902 -1115770.9639404274 0 -1115770.9639404274 -264873.13430445641 0 0 0 0 -75295.069364070427 -356184.78606051579 0 -356184.78606051579 169308.90802653693 0 0 0 0 -1234151.8497815132 -1846053.0017356873 0 -1846053.0017356873 2499413.7313632965 0 0 0 0 -498059.17390799522 87458.259214401245 0 87458.259214401245 996179.31642150879 0 0 0 0 -323455.08991432516 -392673.61025360599 0 -392673.61025360599 1106700.613269005 0 0 0 0 -24455365.432551384 1730063.3646774292 0 1730063.3646774292 187126353.43611145 0 0 0 0 -1905392.0585087277 -2657119.3443451598 0 -2657119.3443451598 4520539.7680407446 0 0 0 0 -7994110.5769705772 12818888.245502472 0 12818888.245502472 158412711.44650269 0 0 0 0 -41558919.624688148 39656014.502548218 0 39656014.502548218 -21335809.526429176 0 0 0 0 -21549104.979001045 -6098486.6900787354 0 -6098486.6900787354 69281723.363250732 0 0 0 0 3952239.8805994987 -82641526.318740845 0 -82641526.318740845 -35761672.214868546 0 0 0 0 -790682.79727935791 -41583509.784682274 0 -41583509.784682274 29262495.021049261 0 0 0 0 -87449810.243655205 3075739.6424407959 0 3075739.6424407959 62465015.644088745 0 0 0 0 -44221901.574350357 896058.46698760986 0 896058.46698760986 59013721.224681854 0 0 0 0 -3943903.6157531878 -9924387.6160418838 0 -9924387.6160418838 36100218.037318669 0 0 0 0 -16164723.330379963 15768394.780990601 0 15768394.780990601 51569549.789268494 0 0 0 0 -65297157.569957495 29808668.65754509 0 29808668.65754509 81689243.101593018 0 0 0 0 -18757885.051287174 4203283.6878051758 0 4203283.6878051758 129934647.98067474 0 0 0 0 -1534675.7090291977 64349101.140552521 0 64349101.140552521 113142778.86286926 0 0 0 0 -16472869.603083849 19425966.0025177 0 19425966.0025177 93478320.608459473 0 0 0 0 31535887.181081533 79901649.080986023 0 79901649.080986023 55795917.535096169 0 0 0 0 35178557.097693115 133706395.04332733 0 133706395.04332733 192469562.82400513 0 0 0 0 -40155566.170695662 4243780.0531234741 0 4243780.0531234741 344726306.61135864 0 0 0 0 16570438.458958864 -128561485.90155029 0 -128561485.90155029 196938677.31839752 0 0 0 0 -39336111.879938334 -7526805.1755177975 0 -7526805.1755177975 125991355.26342773 0 0 0 0 -10121647.564548492 -9946021.8245697021 0 -9946021.8245697021 41192702.048217773 0 0 0 0 -5368932.6136231422 -29280864.606262207 0 -29280864.606262207 89470341.609724045 0 0 0 0 -20499492.667057037 -33398660.862030029 0 -33398660.862030029 159548139.76068115 0 0 0 0 -31467201.086853981 -88832917.005981445 0 -88832917.005981445 165517242.92080688 0 0 0 0 -27891718.063221455 -95586649.347167969 0 -95586649.347167969 178209269.8215332 0 0 0 0 9501543.1127791405 -109541793.11208344 0 -109541793.11208344 90637640.697460175 0 0 0 0 958206.28175978467 -1838581.642887 0 -1838581.642887 -4781502.902071543 0 0 0 0 -39962652.995567665 -6149394.6566486359 0 -6149394.6566486359 72810392.480895996 0 0 0 0 -34613190.545257628 -36142249.316890717 0 -36142249.316890717 178541506.00639343 0 0 0 0 -163843650.61553669 98792836.124801636 0 98792836.124801636 -214571413.78127289 0 0 0 0 140933.71882152557 -42249302.570220947 0 -42249302.570220947 66792518.713680267 0 0 0 0 -8367129.5680680871 -48262360.397346497 0 -48262360.397346497 64435933.471801758 0 0 0 0 -6565126.0941147804 -86923616.307891846 0 -86923616.307891846 142263826.22822571 0 0 0 0 4054714.206987381 -17567493.402656555 0 -17567493.402656555 -24780261.943893433 0 0 0 0 35443706.573468685 -21718377.023124695 0 -21718377.023124695 -8229671.3201751709 0 0 0 0 -17472210.301383018 -13899139.216468811 0 -13899139.216468811 -8421524.1733076572 0 0 0 0 3834083.3795038853 -5864502.4842422642 0 -5864502.4842422642 -16378778.741987847 0 0 0 0 -3237994.7090704441 -53943733.266983032 0 -53943733.266983032 -26991912.351935387 0 0 0 0 -65599773.623985529 -40567185.76543808 0 -40567185.76543808 -56334387.35357666 0 0 0 0 -8830094.7705337219 -8524942.4141373038 0 -8524942.4141373038 37006007.503241502 0 0 0 0 -2973034.2621154785 -3706458.5546264648 0 -3706458.5546264648 7614511.6098747253 0 0 0 0 760249.08316590264 -3671271.3261849177 0 -3671271.3261849177 3711068.9692543335 0 0 0 0 3085623.5705490112 -1023883.4072608948 0 -1023883.4072608948 -5916324.5655841827 0 0 0 0 1355689.1586463517 -4561796.8865570314 0 -4561796.8865570314 -8851378.7712365892 0 0 0 0 7058392.0895996094 -13457725.556674957 0 -13457725.556674957 42936135.969669342 0 0 0 0 4902300.9781074524 -6846303.0686864853 0 -6846303.0686864853 81900035.522985935 0 0 0 0 -4624534.547646177 -13419910.929478165 0 -13419910.929478165 26853963.39518629 0 0 0 0 -15476910.161458373 -118160800.10847473 0 -118160800.10847473 -73815903.999267578 0 0 0 0 -6589159.0945529938 3851873.3404202461 0 3851873.3404202461 62578496.089809418 0 0 0 0 4845493.0773696899 24021502.288133621 0 24021502.288133621 24488434.756221771 0 0 0 0 -838904.0313098263 -48229.322552904021 0 -48229.322552904021 2657280.2556234174 0 0 0 0 354697.03703212738 6145167.7373209577 0 6145167.7373209577 25897033.264187038 0 0 0 0 1663094.1007328033 -14157788.680691719 0 -14157788.680691719 50104686.256305695 0 0 0 0 -7299460.5167560577 -16905147.175196171 0 -16905147.175196171 75517471.892310143 0 0 0 0 -2048006.1106859427 1463505.1215711145 0 1463505.1215711145 12580438.998175364 0 0 0 0 5188631.3250732422 468805.94881486893 0 468805.94881486893 31084918.315642357 0 0 0 0 -17393814.378063202 -11261194.88629818 0 -11261194.88629818 28209542.615310669 0 0 0 0 -38266054.015212059 -250342964.13945007 0 -250342964.13945007 228114584.88879395 0 0 0 0 -3713073.258903156 -11861914.620375879 0 -11861914.620375879 31112667.006545138 0 0 0 0 -22373142.561313629 -19544442.441370487 0 -19544442.441370487 39030527.07739234 0 0 0 0 -112874821.27537537 8567911.2453341484 0 8567911.2453341484 83996784.46435976 0 0 0 0 -12339386.869476318 4431584.8898096085 0 4431584.8898096085 56815934.522749424 0 0 0 0 -15762540.13706398 -32531254.028514862 0 -32531254.028514862 11142472.093524456 0 0 0 0 -583847.20676787198 232053.2634426438 0 232053.2634426438 3446870.5253431099 0 0 0 0 -42237344.345085621 26250808.749128759 0 26250808.749128759 179674755.60959435 0 0 0 0 -59059089.930358887 -21666600.974386573 0 -21666600.974386573 128045049.65296936 0 0 0 0 4279988.1516895294 -2582428.6780319214 0 -2582428.6780319214 76170884.424566269 0 0 0 0 -4153790.2047767639 -17482771.805950642 0 -17482771.805950642 118464468.29134619 0 0 0 0 -2291267.3942756653 -17855904.378435135 0 -17855904.378435135 89116892.03968811 0 0 0 0 -10976540.183383942 -12519560.936282158 0 -12519560.936282158 72707663.235579014 0 0 0 0 10197896.711717606 -7985520.7421684265 0 -7985520.7421684265 28298644.984701157 0 0 0 0 -5201997.6346588135 -1416733.8593082428 0 -1416733.8593082428 58357577.460517883 0 0 0 0 -9235516.7852554321 -19320698.888872504 0 -19320698.888872504 35592952.753910065 0 0 0 0 10745325.118667603 -5378623.1205339432 0 -5378623.1205339432 57708789.750091076 0 0 0 0 1389867.7365245819 -411135.494099617 0 -411135.494099617 -1454336.8017883301 0 0 0 0 -2340704.5841408735 -4296613.1379964724 0 -4296613.1379964724 8843503.4985972382 0 0 0 0 1923245.0632344503 -1920516.8664879911 0 -1920516.8664879911 -4854468.6763304714 0 0 0 0 2429535.1192932129 -19681668.585949421 0 -19681668.585949421 -2067090.7118587494 0 0 0 0 -5309380.9535675049 8055509.6200962067 0 8055509.6200962067 34180208.232643127 0 0 0 0 -20288654.594593048 -5281154.8486814499 0 -5281154.8486814499 75239716.218751907 0 0 0 0 -4112212.0388412476 -5333029.0074701309 0 -5333029.0074701309 75051180.358813286 0 0 0 0 -8764860.5778465271 -15160212.677464485 0 -15160212.677464485 83541756.374502182 0 0 0 0 5309655.353931427 -25173293.135883331 0 -25173293.135883331 86121403.621789932 0 0 0 0 -4849803.5510889292 -3083760.5211285204 0 -3083760.5211285204 79110294.85427475 0 0 0 0 10448496.271842957 -9021662.9193344116 0 -9021662.9193344116 85475132.360958099 0 0 0 0 5502874.8131055832 4275589.4153532982 0 4275589.4153532982 58694158.946081161 0 0 0 0 -227848.18645095825 -4836353.9433922768 0 -4836353.9433922768 89058951.638437271 0 0 0 0 -3428442.3046302795 -8430441.0513465405 0 -8430441.0513465405 90734310.053882599 0 0 0 0 -10028699.082191467 9479672.2953276634 0 9479672.2953276634 116116611.50687885 0 0 0 0 -7664695.1958427429 6176388.2183952332 0 6176388.2183952332 97346206.35170126 0 0 0 0 4759704.2428398132 -14143537.565440178 0 -14143537.565440178 89070757.044981241 0 0 0 0 -4353943.6411018372 -13771322.331421852 0 -13771322.331421852 85804196.699272156 0 0 0 0 -7890787.5327796936 -1852201.4531974792 0 -1852201.4531974792 85846706.935638428 0 0 0 0 -3228316.4125556946 -171764.7679977417 0 -171764.7679977417 111738580.26589787 0 0 0 0 -7711665.0993804932 -11158201.455959797 0 -11158201.455959797 110189641.51990509 0 0 0 0 -1465048.454875946 205802.54337215424 0 205802.54337215424 113675887.9333868 0 0 0 0 25275.029388427734 -15904352.951611519 0 -15904352.951611519 138638430.58694363 0 0 0 0 2547425.7532490492 12194681.194119215 0 12194681.194119215 160826040.21455288 0 0 0 0 -21816417.758972168 9699410.3520975113 0 9699410.3520975113 183545052.71314526 0 0 0 0 -19669083.463001251 15548997.731401324 0 15548997.731401324 113694836.37602425 0 0 0 0 -8071962.5101623535 -7145251.2625024319 0 -7145251.2625024319 120525618.50883293 0 0 0 0 -19132940.538139343 11696367.014998436 0 11696367.014998436 139075056.64735413 0 0 0 0 -21701580.01517868 9823072.4930577278 0 9823072.4930577278 141744487.20239544 0 0 0 0 -22304650.313220978 24353277.126249313 0 24353277.126249313 160446967.80691576 0 0 0 0 -32150231.147760391 27709027.692875862 0 27709027.692875862 160925899.95377016 0 0 0 0 -12573154.151546955 20175866.770779967 0 20175866.770779967 277128947.99265289 0 0 0 0 -12965005.814231873 31701503.261229038 0 31701503.261229038 164898738.62230444 0 0 0 0 2347337.5456266403 -31919710.789541274 0 -31919710.789541274 194019888.74930811 0 0 0 0 54934309.339904785 144606985.57354212 0 144606985.57354212 208837061.97712755 0 0 0 0 -2525981.0652452856 6128877.6580126602 0 6128877.6580126602 2938467.5155949565 0 0 0 0 -22624016.564762115 55150162.079359055 0 55150162.079359055 229827835.86694241 0 0 0 0 -31385984.986783981 55919798.594807148 0 55919798.594807148 256742270.36743212 0 0 0 0 -40507485.897821665 64514173.029891372 0 64514173.029891372 227002625.48289394 0 0 0 0 -32881962.229963303 17475127.151952267 0 17475127.151952267 177256866.83120728 0 0 0 0 39535827.100482941 71374557.276980877 0 71374557.276980877 214044586.38804722 0 0 0 0 50499394.664060593 -12028575.305461407 0 -12028575.305461407 172777519.99219227 0 0 0 0 13063190.317958832 30909133.101269245 0 30909133.101269245 149255276.50180316 0 0 0 0 -13374909.600039005 -18591523.949733734 0 -18591523.949733734 28443384.44039917 0 0 0 0 -16396901.267793298 -12945606.170232773 0 -12945606.170232773 46037434.537445068 0 0 0 0 -8368174.5663180351 10364706.803588867 0 10364706.803588867 48449789.751098633 0 0 0 0 6183473.4296770096 600474.35427093506 0 600474.35427093506 41293786.933105469 0 0 0 0 -7834513.7064320445 3622591.0566916466 0 3622591.0566916466 47021031.373016357 0 0 0 0 -6007517.5935927629 -6123362.868976593 0 -6123362.868976593 27892565.625701904 0 0 0 0 -1828567.4347968102 -7921492.0538597107 0 -7921492.0538597107 9853572.426574707 0 0 0 0 -5824947.3137350082 -3091564.0833282471 0 -3091564.0833282471 35102626.229324341 0 0 0 0 -2708313.3521289825 16756384.524765015 0 16756384.524765015 36769982.664794922 0 0 0 0 3685483.3769130707 13027872.189373016 0 13027872.189373016 20051980.663085938 0 0 0 0 -8372612.9167633057 -14193501.829964638 0 -14193501.829964638 -4192767.7701339722 0 0 0 0 -18206352.49417448 -15007784.51247406 0 -15007784.51247406 28633985.27117157 0 0 0 0 -6580323.0598899852 -11903268.034489363 0 -11903268.034489363 13466699.077226531 0 0 0 0 -13046044.947285652 -7964863.0667228699 0 -7964863.0667228699 36474347.409370422 0 0 0 0 57502876.266067505 17076423.603027344 0 17076423.603027344 -33223166.600842714 0 0 0 0 26480248.504764557 -7192594.2425937653 0 -7192594.2425937653 80382998.265468597 0 0 0 0 -4616296.9580688477 6350931.6548957825 0 6350931.6548957825 87148536.660176754 0 0 0 0 -3320836.5040588379 -122078109.3335638 0 -122078109.3335638 -59225512.037563324 0 0 0 0 2596628.2487411499 11797673.802609921 0 11797673.802609921 46655958.485284805 0 0 0 0 1330679.3081127256 -1341255.1236468088 0 -1341255.1236468088 -4576894.4171538949 0 0 0 0 -4965623.1578477686 -5695624.9886087701 0 -5695624.9886087701 22366915.861077271 0 0 0 0 -6862492.6611857414 -9095227.5375919342 0 -9095227.5375919342 6427493.5219039917 0 0 0 0 -5772601.1791135073 -13034026.091114998 0 -13034026.091114998 -2603022.7013702393 0 0 0 0 -2205396.1870962977 -3291573.7685405929 0 -3291573.7685405929 13871659.111500107 0 0 0 0 -1295774.6895122053 -5894328.6985601708 0 -5894328.6985601708 -2127750.7302495111 0 0 0 0 9610587.3047561646 -70619434.77007103 0 -70619434.77007103 -29648991.846158981 0 0 0 0 -5590431.62109375 -10601234.796028137 0 -10601234.796028137 4545964.5121459961 0 0 0 0 5129099.1130561829 -1230162.223449707 0 -1230162.223449707 -11661639.426460266 0 0 0 0 -1416839.3248633198 -6404721.0156084038 0 -6404721.0156084038 -1110214.4454533979 0 0 0 0 -7367485.4027519226 37138610.246359825 0 37138610.246359825 13281620.199399948 0 0 0 0 38604688.473754883 -16012362.423765182 0 -16012362.423765182 65196404.081098557 0 0 0 0 -16253157.32635498 8932562.9425168037 0 8932562.9425168037 86654418.036733627 0 0 0 0 -15643529.109199524 -17523714.076161385 0 -17523714.076161385 39886762.633911133 0 0 0 0 -7014080.7954406738 8662427.805850029 0 8662427.805850029 61186759.842226028 0 0 0 0 -46673831.562458038 2628662.9703738689 0 2628662.9703738689 68050422.334331512 0 0 0 0 -19465356.664710999 6221159.4650468826 0 6221159.4650468826 82767654.934247971 0 0 0 0 -7666584.4601364136 8820258.8063640594 0 8820258.8063640594 81322599.607326031 0 0 0 0 -7135727.718170166 12989249.663167953 0 12989249.663167953 84254714.217412949 0 0 0 0 -7186017.5275764465 27755530.328884125 0 27755530.328884125 105900010.85505676 0 0 0 0 -15152387.835269928 17327957.272294521 0 17327957.272294521 107298578.31004143 0 0 0 0 -9492104.2113609314 23336627.462730169 0 23336627.462730169 98212215.993575096 0 0 0 0 -19430782.351514816 27341242.440536976 0 27341242.440536976 139325697.14079475 0 0 0 0 -23140284.786953926 47114506.792321444 0 47114506.792321444 156377111.47084379 0 0 0 0 -33444654.020994663 33481649.801802158 0 33481649.801802158 138362665.78304672 0 0 0 0 124225349.86153984 79110779.819166183 0 79110779.819166183 76313440.304840803 0 0 0 0 22265280.180898666 28836916.510562658 0 28836916.510562658 57713050.86665535 0 0 0 0 24056258.733810425 33934825.846365452 0 33934825.846365452 69187189.993721008 0 0 0 0 12052779.156799316 22396335.876700878 0 22396335.876700878 90053961.083378792 0 0 0 0 18697715.412597656 56990243.906376362 0 56990243.906376362 115754985.93550587 0 0 0 0 5376300.603351593 22266417.310344219 0 22266417.310344219 93986197.941255569 0 0 0 0 4003844.1025021076 6410421.2302593291 0 6410421.2302593291 72586205.186452866 0 0 0 0 5071937.5394630432 25021370.541278124 0 25021370.541278124 61860370.035312653 0 0 0 0 -3141444.1434419518 -14793743.969237544 0 -14793743.969237544 6819319.3368997555 0 0 0 0 -7772009.9285142422 -33887321.229107618 0 -33887321.229107618 3095590.3444900513 0 0 0 0 -6969824.332020863 -5280407.3715864196 0 -5280407.3715864196 28017756.353924043 0 0 0 0 11292272.408330441 17998974.706512511 0 17998974.706512511 68816073.66100502 0 0 0 0 -917221.6618313184 -4023903.9260276109 0 -4023903.9260276109 2505907.9044479886 0 0 0 0 46395537.922027588 -40860522.18456459 0 -40860522.18456459 18574644.279047608 0 0 0 0 -34486156.037556648 -108293369.06911945 0 -108293369.06911945 86621055.865121841 0 0 0 0 -19461798.106840134 -30556832.170387268 0 -30556832.170387268 18532321.1824518 0 0 0 0 -21602981.970363304 -22343835.446171045 0 -22343835.446171045 51527092.440856934 0 0 0 0 1054192.1166062355 3897402.7291793823 0 3897402.7291793823 14433526.671882629 0 0 0 0 -32379277.570884705 34109367.91129303 0 34109367.91129303 -74931757.737884521 0 0 0 0 -1176180.8154189186 22830811.37045785 0 22830811.37045785 32978484.449323032 0 0 0 0 -14002479.289004326 15473481.605564117 0 15473481.605564117 -82157822.89956665 0 0 0 0 5910377.1678907285 5311973.4418010488 0 5311973.4418010488 -19211325.580464393 0 0 0 0 14865485.890204923 12653918.285792489 0 12653918.285792489 -17072427.604608551 0 0 0 0 -351751301.93518925 -152885058.75368464 0 -152885058.75368464 977786327.21729469 0 0 0 0 -355095155.52136993 248377981.40142536 0 248377981.40142536 108358153.3119545 0 0 0 0 -1019538.6040898873 25360835.272617027 0 25360835.272617027 22207364.848721843 0 0 0 0 -5748251.8423261642 15290979.229398727 0 15290979.229398727 5700604.3844451904 0 0 0 0 271619910.6145196 266956691.20899469 0 266956691.20899469 167522365.95072365 0 0 0 0 208926122.38917923 -130638110.78573656 0 -130638110.78573656 -16415415.459856033 0 0 0 0 -189277176.46014023 -510935906.84415817 0 -510935906.84415817 1461020649.8369493 0 0 0 0 -8014012.1839313507 21628230.933071136 0 21628230.933071136 23234531.872488022 0 0 0 0 -14620550.85644722 11531634.861618042 0 11531634.861618042 48100509.634223938 0 0 0 0 -158775.63697470911 2648381.4094053283 0 2648381.4094053283 5176725.3234935934 0 0 0 0 -633875.32624051534 22502649.427258641 0 22502649.427258641 32990145.507968687 0 0 0 0 807650277.86471176 1240786960.988246 0 1240786960.988246 -1926943568.8085442 0 0 0 0 1327265.5465946198 2242894.6033859253 0 2242894.6033859253 -4481762.7343597412 0 0 0 0 2218345.5596369896 23812621.827555239 0 23812621.827555239 18136676.038839877 0 0 0 0 -2022950.9074886097 2868954.0024045631 0 2868954.0024045631 30079825.549709044 0 0 0 0 52730266.596031189 24591033.408500671 0 24591033.408500671 28143362.405555725 0 0 0 0 -14059507.653213501 7595551.6374053955 0 7595551.6374053955 61749633.406731606 0 0 0 0 -199821.661691783 21994959.688050061 0 21994959.688050061 21607703.795288455 0 0 0 0 -50680.331932734698 809317.86359172314 0 809317.86359172314 1615255.7462795204 0 0 0 0 -11991970.492326736 10053597.876716614 0 10053597.876716614 98862007.042915344 0 0 0 0 -6333837.9299163818 15211664.651168823 0 15211664.651168823 48680492.135925293 0 0 0 0 1730571.7590560913 -214694.98928833008 0 -214694.98928833008 54558395.487390518 0 0 0 0 -28528261.016563416 118509773.27524304 0 118509773.27524304 229736885.47267103 0 0 0 0 74491314.678848267 -186912015.12218952 0 -186912015.12218952 -131196100.03502083 0 0 0 0 -30998471.107597351 31177296.628707886 0 31177296.628707886 83497902.029197693 0 0 0 0 -27135515.663002014 25554512.841988802 0 25554512.841988802 118675610.20680046 0 0 0 0 -74976995.913892746 33703592.256522417 0 33703592.256522417 153315299.47837567 0 0 0 0 -401673.74243109487 21350705.326960713 0 21350705.326960713 9257555.3437679373 0 0 0 0 -1524446.5904426575 24964409.289916992 0 24964409.289916992 59011629.722854614 0 0 0 0 -4602958.7280025482 16168136.623879433 0 16168136.623879433 54357085.006942749 0 0 0 0 -3573929.7279646397 10162905.737251759 0 10162905.737251759 33248256.897125244 0 0 0 0 721262.94289016724 8254212.2403869629 0 8254212.2403869629 46587895.184577942 0 0 0 0 -1760539.0291726589 21774742.630201817 0 21774742.630201817 32489736.755096436 0 0 0 0 -7904979.3269871548 7707546.9910614323 0 7707546.9910614323 29504813.398294736 0 0 0 0 -5759388.7824687958 18083218.2356987 0 18083218.2356987 21349885.101951599 0 0 0 0 -5703277.3275909424 14911358.125324249 0 14911358.125324249 25648839.673873901 0 0 0 0 -6259931.8067926094 16825148.23267702 0 16825148.23267702 43539316.487396009 0 0 0 0 -508954329.79263115 251411517.20133972 0 251411517.20133972 31117496.885223389 0 0 0 0 -533467810.07642365 138302004.42010498 0 138302004.42010498 -97876600.89175415 0 0 0 0 -257119975.70055771 281884706.61802673 0 281884706.61802673 -261353365.20724487 0 0 0 0 -834794.77296186145 1149551.5723525509 0 1149551.5723525509 4497744.0182315595 0 0 0 0 -10988339.429504395 31037031.235788345 0 31037031.235788345 22466149.987831116 0 0 0 0 -153786.46705627441 11964165.086032867 0 11964165.086032867 23871575.270172119 0 0 0 0 -3407600.2845001221 21410711.563842773 0 21410711.563842773 48955112.020586014 0 0 0 0 247597871.02507401 377974007.58905029 0 377974007.58905029 -315193083.41119385 0 0 0 0 331290022.46103191 298482425.5897522 0 298482425.5897522 39883161.992553711 0 0 0 0 407366717.06122589 -64639171.403045654 0 -64639171.403045654 -38435692.623840332 0 0 0 0 -564534098.75016022 -55462371.740615845 0 -55462371.740615845 399187282.98632812 0 0 0 0 -565505806.89608002 191510407.36566162 0 191510407.36566162 238307375.15075684 0 0 0 0 -240474043.53024292 -477452881.61804199 0 -477452881.61804199 529070606.6378479 0 0 0 0 -27328466.269519806 39018516.747131348 0 39018516.747131348 -22693178.941894531 0 0 0 0 -33517424.93428421 174283721.57167053 0 174283721.57167053 -128591802.22027588 0 0 0 0 -168824700.6627388 121360785.10354614 0 121360785.10354614 -23546600.249755859 0 0 0 0 -164450666.67509842 177934685.87533569 0 177934685.87533569 -122366723.52062988 0 0 0 0 -320182047.18353271 269475748.39173889 0 269475748.39173889 -172666614.69281006 0 0 0 0 -123139087.90034485 140445421.53056335 0 140445421.53056335 -75345690.652404785 0 0 0 0 -154666477.15568924 58723752.028717041 0 58723752.028717041 -249237157.71829987 0 0 0 0 49442664.438547134 149332184.52047729 0 149332184.52047729 -81860783.55090332 0 0 0 0 8000145.7656593323 70672733.074066162 0 70672733.074066162 -147080678.51224518 0 0 0 0 97612301.977218151 185757140.20994949 0 185757140.20994949 -43704386.661376953 0 0 0 0 114236805.12628174 111481736.33013916 0 111481736.33013916 -119678117.25210571 0 0 0 0 -24408921.711796522 82106277.130842209 0 82106277.130842209 -26180726.050048828 0 0 0 0 121349136.59325027 172045885.12536621 0 172045885.12536621 -36165859.810943604 0 0 0 0 132821485.21585464 230936047.12585449 0 230936047.12585449 35556475.240264893 0 0 0 0 142137986.85275078 181610842.62565613 0 181610842.62565613 -92786334.770935059 0 0 0 0 102817121.57178116 168159706.89216614 0 168159706.89216614 -19225405.296783447 0 0 0 0 121438069.0240593 153069041.38728333 0 153069041.38728333 -67601514.789886475 0 0 0 0 88906238.647298813 124641123.83093262 0 124641123.83093262 -87617559.845581055 0 0 0 0 142443928.69145584 115306343.03965759 0 115306343.03965759 -39057665.514001369 0 0 0 0 75281411.21133852 131475632.48431396 0 131475632.48431396 -39190086.151916504 0 0 0 0 61370651.762705803 102136915.27128601 0 102136915.27128601 27754045.078079224 0 0 0 0 -21010960.100189924 37924433.256885529 0 37924433.256885529 -21489744.413238525 0 0 0 0 15075520.048778534 56944074.634780884 0 56944074.634780884 -73811056.019607544 0 0 0 0 -33887583.930152893 116136090.59008789 0 116136090.59008789 106913047.41090393 0 0 0 0 28917921.151679993 197903205.15286255 0 197903205.15286255 195283140.06151581 0 0 0 0 1186073.7045526877 1974473.2791496366 0 1974473.2791496366 -5219874.8243770748 0 0 0 0 -38090682.23915863 -4475485.9253969193 0 -4475485.9253969193 15621949.714043617 0 0 0 0 -32997203.011657715 -1359921.1503143311 0 -1359921.1503143311 13114395.488105774 0 0 0 0 -14612353.532214906 8384754.0929932967 0 8384754.0929932967 12366766.731440801 0 0 0 0 -32720307.018074036 5411759.7279653549 0 5411759.7279653549 24358295.750632286 0 0 0 0 -13437858.143872593 11339089.201285873 0 11339089.201285873 32843736.555324525 0 0 0 0 -635229.3563519083 21610551.564414777 0 21610551.564414777 6110095.4912186824 0 0 0 0 24208549.291887283 65337830.160510778 0 65337830.160510778 101878125.83694172 0 0 0 0 -12615532.646522522 19746447.971153259 0 19746447.971153259 61127173.673469543 0 0 0 0 -8528098.2525482178 53078766.169358253 0 53078766.169358253 159282471.35169643 0 0 0 0 7771882.7635326385 26653954.516542435 0 26653954.516542435 47614488.230957031 0 0 0 0 -2384751.0223388672 35028459.301071167 0 35028459.301071167 72524531.606956482 0 0 0 0 -8600457.2031059265 8564133.5343093872 0 8564133.5343093872 38115603.056598663 0 0 0 0 -2383560.025138855 9268218.9073562622 0 9268218.9073562622 38002796.301971436 0 0 0 0 -29393304.851360321 4287112.2108573914 0 4287112.2108573914 40703034.042955399 0 0 0 0 -13970607.563379288 15137129.867738724 0 15137129.867738724 30187494.787483215 0 0 0 0 -9214127.2453084886 9207985.3538680691 0 9207985.3538680691 28241958.443929583 0 0 0 0 -11864832.961127758 5398294.0836391449 0 5398294.0836391449 19745557.799636841 0 0 0 0 -7107052.2634773254 16792284.100406647 0 16792284.100406647 25812100.285728455 0 0 0 0 -6948.4344825744629 23220271.471870422 0 23220271.471870422 44087373.878395081 0 0 0 0 -11708960.994598389 7998096.1175422668 0 7998096.1175422668 20702320.048511505 0 0 0 0 -15159318.422122955 11543277.473493576 0 11543277.473493576 17061111.471572876 0 0 0 0 -9080307.4617554117 12813125.156764571 0 12813125.156764571 26219524.24705996 0 0 0 0 -88347488.484481812 11285334.174323082 0 11285334.174323082 82051008.975358963 0 0 0 0 -27573510.342468262 3943165.6935348511 0 3943165.6935348511 22151066.080310822 0 0 0 0 -66111202.590492249 -7050481.0298185349 0 -7050481.0298185349 19286122.936153412 0 0 0 0 -58236250.197360992 -38439167.533182144 0 -38439167.533182144 136779043.73263168 0 0 0 0 -69727104.494604111 -19502211.464182854 0 -19502211.464182854 28622623.138317108 0 0 0 0 -29211917.644321442 -10288998.43579483 0 -10288998.43579483 -5397396.8995838165 0 0 0 0 -39754431.326320648 -40841288.146352768 0 -40841288.146352768 7067930.3458023071 0 0 0 0 -1885514.603916144 252513.05159896426 0 252513.05159896426 1967038.950547073 0 0 0 0 -45653886.763095856 206107962.20092964 0 206107962.20092964 214164055.65625763 0 0 0 0 -89439805.753097534 -3272824.618183136 0 -3272824.618183136 107459057.84651184 0 0 0 0 -13004803.501464844 -52373892.288009644 0 -52373892.288009644 88925561.368006706 0 0 0 0 10861859.922607422 -103529263.22522736 0 -103529263.22522736 74648835.598163605 0 0 0 0 -125056696.72607231 -91622266.803269386 0 -91622266.803269386 124296821.29034042 0 0 0 0 4783106.6920089722 -68421355.196302414 0 -68421355.196302414 75627707.735423565 0 0 0 0 -34381833.379154205 -50812895.37136364 0 -50812895.37136364 71825196.172454834 0 0 0 0 -111026704.71773195 -18111153.935526848 0 -18111153.935526848 99019962.386270523 0 0 0 0 -4107580.1698808204 -89594.609406139702 0 -89594.609406139702 4089303.8694659453 0 0 0 0 -36560575.691041946 -13131013.895037174 0 -13131013.895037174 4326139.6323013306 0 0 0 0 -65680077.882846832 -8496608.6275272369 0 -8496608.6275272369 97992096.732856035 0 0 0 0 -65077216.560340881 -14186410.808875799 0 -14186410.808875799 28341862.051746368 0 0 0 0 -7816988.4549636841 -32224935.610596657 0 -32224935.610596657 -17753516.059988022 0 0 0 0 -38878463.958869934 -44608185.652699947 0 -44608185.652699947 -13512159.951664329 0 0 0 0 -6750226.2027602531 -885878.0584852919 0 -885878.0584852919 5690098.6451840848 0 0 0 0 -21994888.477315903 -4850444.0465798378 0 -4850444.0465798378 14344566.056162834 0 0 0 0 -12796395.168235779 -4907450.0723724365 0 -4907450.0723724365 2119980.3929178715 0 0 0 0 -17469394.503520966 -14434464.166196346 0 -14434464.166196346 -16045432.48391223 0 0 0 0 26266721.800899506 12040980.815982103 0 12040980.815982103 -5181796.4283237457 0 0 0 0 295284.8917350769 -23761857.463738441 0 -23761857.463738441 -13371183.473529816 0 0 0 0 -12693620.312595367 -8079503.085211277 0 -8079503.085211277 -27256698.05002594 0 0 0 0 29362105.236536026 -2516260.2194066048 0 -2516260.2194066048 -1756048.0286121368 0 0 0 0 -11211456.408657074 -38693572.276526451 0 -38693572.276526451 12522105.653093338 0 0 0 0 14602147.585922241 -24151852.055734634 0 -24151852.055734634 16404049.736000061 0 0 0 0 43692744.330917358 -12303768.256828308 0 -12303768.256828308 4876409.2174491882 0 0 0 0 23150959.553333282 6819784.7124156952 0 6819784.7124156952 4975692.2075891495 0 0 0 0 30710040.014930725 18574774.115617752 0 18574774.115617752 8817836.3281126022 0 0 0 0 35616005.637199402 25323957.60593605 0 25323957.60593605 17998050.105224609 0 0 0 0 22360972.917228699 32128216.334156036 0 32128216.334156036 39466829.697463989 0 0 0 0 -8705086.123462677 313149.26621341705 0 313149.26621341705 13964817.588918686 0 0 0 0 51521858.542434692 26329122.628112793 0 26329122.628112793 16819110.423923492 0 0 0 0 49062426.124465942 53371629.753423691 0 53371629.753423691 43294251.105285645 0 0 0 0 85922513.502929688 44229968.187202454 0 44229968.187202454 20107712.187541962 0 0 0 0 91115974.33251667 -11126263.916671157 0 -11126263.916671157 15259348.380500793 0 0 0 0 164148051.40819168 62648291.493701935 0 62648291.493701935 43327290.918892317 0 0 0 0 55809197.660354614 -57109119.80865097 0 -57109119.80865097 41963014.18378067 0 0 0 0 70086621.458717346 718799.36334228516 0 718799.36334228516 11271446.850915909 0 0 0 0 212172269.59467316 346397.68268966675 0 346397.68268966675 16130166.037665367 0 0 0 0 4171284.9430007935 -56278121.860706329 0 -56278121.860706329 57582971.373981476 0 0 0 0 10827639.393363953 -92854813.673763275 0 -92854813.673763275 175420755.81529617 0 0 0 0 165382212.37889862 -134401542.11837006 0 -134401542.11837006 75201778.921897888 0 0 0 0 225529472.22322845 -88663420.669221878 0 -88663420.669221878 -5668042.6946868896 0 0 0 0 175332303.38110352 -11834877.788433075 0 -11834877.788433075 106256303.39229012 0 0 0 0 131299325.50796509 -104992198.34739685 0 -104992198.34739685 92901587.907745361 0 0 0 0 85234901.957000732 65839281.556894302 0 65839281.556894302 65621896.004608154 0 0 0 0 -1447955.5231024399 969097.22008148581 0 969097.22008148581 1661527.0535880085 0 0 0 0 -1470154.5680685509 95106.051371874288 0 95106.051371874288 1853455.3367408346 0 0 0 0 181808721.62934113 33397928.983791351 0 33397928.983791351 74316861.514411926 0 0 0 0 194187724.51106727 82340574.03271687 0 82340574.03271687 45425331.923988342 0 0 0 0 189954258.17116547 123291893.21510887 0 123291893.21510887 31085707.217636108 0 0 0 0 139551741.12108612 97742211.499198914 0 97742211.499198914 19217121.336250305 0 0 0 0 103988733.31948614 142283571.30086637 0 142283571.30086637 48542285.961372375 0 0 0 0 166051563.66126633 103395343.71743584 0 103395343.71743584 30463159.164585114 0 0 0 0 292496674.28036499 35582488.575380325 0 35582488.575380325 40820481.873876095 0 0 0 0 701110.84895777702 2207236.2550589815 0 2207236.2550589815 544826.28933469392 0 0 0 0 -441288830.1615324 56876634.839899063 0 56876634.839899063 239725427.54147339 0 0 0 0 838087716.89392662 157568188.69763279 0 157568188.69763279 -164507755.09065533 0 0 0 0 8503901.2567710876 2452807.7944283485 0 2452807.7944283485 -6076394.4028949738 0 0 0 0 -2387665.3482205775 1773036.8329975326 0 1773036.8329975326 2910688.6295195315 0 0 0 0 -121992910.56690216 34365458.113189697 0 34365458.113189697 123373415.33607674 0 0 0 0 -2621010.549736511 89792.679841382429 0 89792.679841382429 3725454.9305068068 0 0 0 0 24201067.173676491 28351334.434850216 0 28351334.434850216 29341866.918270111 0 0 0 0 216704513.480896 146060237.51298714 0 146060237.51298714 8902473.9618339539 0 0 0 0 -59050195.678823471 -13290394.020165443 0 -13290394.020165443 -43686198.268714905 0 0 0 0 6878680.1294364929 99458557.762590408 0 99458557.762590408 98044595.382349014 0 0 0 0 -5904278.842757225 -30500068.408236027 0 -30500068.408236027 65228235.681762695 0 0 0 0 -280281919.39680099 111346121.5446949 0 111346121.5446949 -15615047.883243889 0 0 0 0 -170668228.12143707 -56634461.788803101 0 -56634461.788803101 -12759905.294762969 0 0 0 0 -357262582.04761505 -73781809.384358406 0 -73781809.384358406 137235691.55555344 0 0 0 0 -141173973.75094414 13762986.792434692 0 13762986.792434692 150320716.23647881 0 0 0 0 -69889700.847169876 -65218951.41927433 0 -65218951.41927433 127248653.43716145 0 0 0 0 -67120166.729488373 -12848483.278744698 0 -12848483.278744698 138198856.94623756 0 0 0 0 -162013538.26610851 17999258.595413685 0 17999258.595413685 180207879.4511528 0 0 0 0 -175992966.39888573 -9749235.7765045166 0 -9749235.7765045166 143802315.01093102 0 0 0 0 -250105213.34733009 71058339.460764885 0 71058339.460764885 167381487.33200264 0 0 0 0 -111958438.33234346 103966692.1514436 0 103966692.1514436 174039488.12206841 0 0 0 0 4446252.434173584 162189934.70857716 0 162189934.70857716 13530096.76553154 0 0 0 0 -105839896.73657167 41024068.380240798 0 41024068.380240798 76245669.206935883 0 0 0 0 -5460708.7884514332 -21288730.864665985 0 -21288730.864665985 28865560.813604355 0 0 0 0 -32368915.795471191 10820857.21279335 0 10820857.21279335 12843743.570295334 0 0 0 0 -26476451.49641037 -8281599.7691268921 0 -8281599.7691268921 59150249.017852306 0 0 0 0 -49707545.839836121 -765360.06671524048 0 -765360.06671524048 57142835.49398613 0 0 0 0 -2322022.3725536969 1323210.5656325761 0 1323210.5656325761 2571968.1561911907 0 0 0 0 18794645.071926117 16762664.322274208 0 16762664.322274208 18656721.518727303 0 0 0 0 25883420.570035934 28937892.645791054 0 28937892.645791054 28711788.622493744 0 0 0 0 208198292.21979809 603043782.8144002 0 603043782.8144002 27234473.336259842 0 0 0 0 43760025.085006714 -121967082.08147335 0 -121967082.08147335 134726471.39357948 0 0 0 0 706589752.78488541 -295998098.51803207 0 -295998098.51803207 148277852.72663164 0 0 0 0 -170610082.99155045 215122709.77088451 0 215122709.77088451 327597566.11181831 0 0 0 0 -2120384.3825996201 825439.76292408165 0 825439.76292408165 3665789.5490267463 0 0 0 0 -4490332.8084526062 -1796540.1930961609 0 -1796540.1930961609 2078834.6395301819 0 0 0 0 -7342382.093788147 -685663.23879718781 0 -685663.23879718781 1664285.4581851959 0 0 0 0 51509840.721675873 8036952.2470779419 0 8036952.2470779419 -18675305.494159698 0 0 0 0 34360716.005487442 32070215.618434429 0 32070215.618434429 11435147.515563965 0 0 0 0 13619539.236911774 19410447.657017469 0 19410447.657017469 -29758468.336330414 0 0 0 0 14070235.877109528 272799.81437778473 0 272799.81437778473 19706217.352943659 0 0 0 0 26281714.313106537 -17838795.770056725 0 -17838795.770056725 -65196661.907855988 0 0 0 0 -374267.62667391449 -1057638.1218700372 0 -1057638.1218700372 1103034.9794925684 0 0 0 0 -17507969.713817596 -14442714.40510273 0 -14442714.40510273 -7005991.6670558453 0 0 0 0 45882259.738552332 56007596.388735116 0 56007596.388735116 -4358024.03191185 0 0 0 0 -1271149.1795930993 752164.15821208246 0 752164.15821208246 1343275.2612441415 0 0 0 0 -35998736.073356628 51023964.384271622 0 51023964.384271622 37714108.242125511 0 0 0 0 -17081307.998439789 -47219135.579089165 0 -47219135.579089165 210009609.07417679 0 0 0 0 68347155.463571548 -28624468.213388681 0 -28624468.213388681 -8959410.3548986912 0 0 0 0 21445714.157051086 47084657.590498686 0 47084657.590498686 106538878.24801993 0 0 0 0 -11097549.8391819 -5003631.1560041904 0 -5003631.1560041904 4958907.8667273521 0 0 0 0 -11319764.2044487 -3336625.6176729202 0 -3336625.6176729202 21253633.545058966 0 0 0 0 -29623.949140212499 1840048.785216596 0 1840048.785216596 1524225.2015705812 0 0 0 0 -11744531.222757339 8191067.2951748371 0 8191067.2951748371 -53126586.753601193 0 0 0 0 36414677.636990547 13649148.511384249 0 13649148.511384249 -30748635.056605816 0 0 0 0 -7342884.5560924336 -616978.30093207024 0 -616978.30093207024 -7724616.7507815361 0 0 0 0 4256602.8266489822 -1445624.9101475356 0 -1445624.9101475356 8343.7053316703532 0 0 0 0 1533284.6936626434 34047560.1849401 0 34047560.1849401 175398744.95043135 0 0 0 0 31044937.312469482 -39841366.834456682 0 -39841366.834456682 43434307.673697233 0 0 0 0 7228694.7536928225 -2690602.7468679114 0 -2690602.7468679114 1137473.1308024877 0 0 0 0 979156.99202362075 1340782.9495111993 0 1340782.9495111993 -873993.49843134824 0 0 0 0 -800264563.34943199 -334090800.17272377 0 -334090800.17272377 1219767850.5201812 0 0 0 0 -46073083.652122498 117558766.8182478 0 117558766.8182478 518449390.83189297 0 0 0 0 6854769.6263637543 69765170.645424962 0 69765170.645424962 404330554.28314018 0 0 0 0 -35165706.196105957 -43402290.123007059 0 -43402290.123007059 326516717.15233994 0 0 0 0 -74429064.357479095 -56709891.484683037 0 -56709891.484683037 519232241.22926044 0 0 0 0 -166107519.56565094 -89535840.607292652 0 -89535840.607292652 622519098.30763912 0 0 0 0 -48017421.523330688 -68316168.532017946 0 -68316168.532017946 306094079.88655472 0 0 0 0 -7766070.7537002563 -60986619.120651245 0 -60986619.120651245 331498775.25759459 0 0 0 0 -32217208.558792114 -37834054.436407685 0 -37834054.436407685 254713907.23169518 0 0 0 0 -59366611.119792938 -27819737.106290579 0 -27819737.106290579 291830375.63330173 0 0 0 0 -45893180.631210327 -45464109.263950825 0 -45464109.263950825 241531974.34240007 0 0 0 0 -44601666.61895752 -92343507.830230474 0 -92343507.830230474 309165461.95140886 0 0 0 0 -40926899.664730072 -76264636.022625208 0 -76264636.022625208 241072426.2566452 0 0 0 0 -56463037.939033508 -68230741.486388683 0 -68230741.486388683 308211065.28909588 0 0 0 0 -39457967.994468689 -59662434.325124741 0 -59662434.325124741 245247339.08697605 0 0 0 0 -48600311.753502607 -11241616.965731204 0 -11241616.965731204 168936239.03939533 0 0 0 0 -16710161.439647675 -37227327.76547575 0 -37227327.76547575 131342736.86783695 0 0 0 0 -26812182.008453369 -34356668.511223316 0 -34356668.511223316 135976079.0738349 0 0 0 0 -23877449.334889412 -80160499.029743969 0 -80160499.029743969 214463783.31361771 0 0 0 0 -27561168.385948181 -98872172.159078121 0 -98872172.159078121 208233785.87215996 0 0 0 0 -50218969.623939514 -96737209.196554184 0 -96737209.196554184 335817340.36830616 0 0 0 0 94333249.291978836 122883724.45025253 0 122883724.45025253 313772133.94274282 0 0 0 0 3134836.2939682007 -41973694.788267851 0 -41973694.788267851 287888069.08714581 0 0 0 0 -20271059.112596512 -7653392.6093046367 0 -7653392.6093046367 251618107.30662203 0 0 0 0 150182074.33564377 -98501688.35678339 0 -98501688.35678339 290032377.85304737 0 0 0 0 -41504025.956994057 -44573603.973844409 0 -44573603.973844409 385491300.98073483 0 0 0 0 96085682.317159653 90032332.194644094 0 90032332.194644094 229064177.069695 0 0 0 0 589264685.03250313 627054.99008846283 0 627054.99008846283 244592561.3155694 0 0 0 0 -197089.03749488806 -373369.62689416111 0 -373369.62689416111 835208.59194801329 0 0 0 0 -69157499.517860413 338629905.93411231 0 338629905.93411231 323384009.98003578 0 0 0 0 69326366.751247406 172221784.21693563 0 172221784.21693563 508012319.76303005 0 0 0 0 246744751.12976837 14344070.671619415 0 14344070.671619415 368688049.64327955 0 0 0 0 207260224.88323879 288585041.60592806 0 288585041.60592806 473957443.37669849 0 0 0 0 48395674.861338615 98774736.163893163 0 98774736.163893163 334308507.53595543 0 0 0 0 151198657.6628418 322928346.44740486 0 322928346.44740486 512132169.2627275 0 0 0 0 -19063618.244026184 59809067.49740839 0 59809067.49740839 606569495.92523289 0 0 0 0 -17283109.819607913 -34615618.115955651 0 -34615618.115955651 340125022.92921162 0 0 0 0 8945120.2615013123 -147814529.33173323 0 -147814529.33173323 334479607.47705746 0 0 0 0 80131739.153251648 -143996023.15798187 0 -143996023.15798187 78500980.753419876 0 0 0 0 -40306618.267848969 -24694693.597554684 0 -24694693.597554684 58899220.575216055 0 0 0 0 -40958141.50630188 19967503.669312477 0 19967503.669312477 277828852.69933128 0 0 0 0 -171782276.03751373 -77835229.341444492 0 -77835229.341444492 121958852.74068594 0 0 0 0 -160585326.20039427 61959672.594463944 0 61959672.594463944 235905075.5126791 0 0 0 0 -30598792.994258881 85943432.82278204 0 85943432.82278204 218227945.19690704 0 0 0 0 -40338287.699043274 173207193.50130606 0 173207193.50130606 403112109.85429978 0 0 0 0 31508157.884727478 109173693.33677518 0 109173693.33677518 214631072.4394536 0 0 0 0 -86219957.532772064 23346831.482423544 0 23346831.482423544 190692322.92828083 0 0 0 0 -87187966.461154938 95309568.142840147 0 95309568.142840147 252326298.29325461 0 0 0 0 -11482591.550406478 3828979.9710718896 0 3828979.9710718896 6895082.7289235294 0 0 0 0 -27506680.183220387 69426175.254084527 0 69426175.254084527 188093320.73801184 0 0 0 0 5367560.310508728 -23922943.113092899 0 -23922943.113092899 -50924812.354268551 0 0 0 0 -24573835.007358551 15284012.20818758 0 15284012.20818758 -3794704.8484535217 0 0 0 0 -5411910.2879101392 -416787.90546585456 0 -416787.90546585456 2672053.6442178795 0 0 0 0 -4571435.8135649329 1017326.5724914446 0 1017326.5724914446 3590030.4568986651 0 0 0 0 -18363925.464231491 34586068.882320881 0 34586068.882320881 94952979.859853745 0 0 0 0 -18458871.818410873 22627460.477494001 0 22627460.477494001 3491591.971683979 0 0 0 0 -49557110.95241642 -71043613.587921262 0 -71043613.587921262 45677068.547559261 0 0 0 0 -49533242.316028595 -64399638.378971577 0 -64399638.378971577 137985721.47959232 0 0 0 0 144028143.93059349 171908837.82522655 0 171908837.82522655 226461509.76381731 0 0 0 0 -949250.4537959788 146502.48539685458 0 146502.48539685458 696272.33000565134 0 0 0 0 36311557.100189686 126400361.48656869 0 126400361.48656869 208512069.62397194 0 0 0 0 132228534.63433087 186185291.79523468 0 186185291.79523468 461735383.48657227 0 0 0 0 -96153134.990864143 -35237836.164367676 0 -35237836.164367676 151055826.63424683 0 0 0 0 -42216.410054166023 14942.245181486011 0 14942.245181486011 438330.19452247024 0 0 0 0 132041121.6180481 -51835523.46812439 0 -51835523.46812439 -82752547.385467529 0 0 0 0 173861351.64142406 196373884.41433716 0 196373884.41433716 66153063.024982452 0 0 0 0 131520.51507190356 61012772.188179016 0 61012772.188179016 141744425.76356506 0 0 0 0 28508918.314655229 236918587.19419861 0 236918587.19419861 499503679.31622314 0 0 0 0 65552626.746986419 -42880994.043991089 0 -42880994.043991089 -578813.13034820557 0 0 0 0 -53606.757960889023 50882.620923507959 0 50882.620923507959 702354.09249848127 0 0 0 0 76308518.304825321 19645386.62263298 0 19645386.62263298 -1074403.7836303711 0 0 0 0 5792941.6766075268 -29972521.98840332 0 -29972521.98840332 19468147.39352417 0 0 0 0 9626367.11247335 32890826.750854492 0 32890826.750854492 17165146.787658691 0 0 0 0 55842718.394695878 82624838.335796356 0 82624838.335796356 40500318.298156738 0 0 0 0 53876737.558902308 66931716.824317932 0 66931716.824317932 51099474.400939941 0 0 0 0 70430190.398217678 78285813.955078125 0 78285813.955078125 36665772.854248047 0 0 0 0 63321355.033712834 85975298.107177734 0 85975298.107177734 29134359.289916992 0 0 0 0 60016427.294595659 76451387.897476196 0 76451387.897476196 49587492.438690186 0 0 0 0 38751387.171655178 62625750.647033691 0 62625750.647033691 60375005.234924316 0 0 0 0 77485777.007977873 41312457.102844238 0 41312457.102844238 68707742.195800781 0 0 0 0 -6052965.254257679 27802120.631622314 0 27802120.631622314 53038830.074707031 0 0 0 0 -4759611.4202262163 11534138.776702881 0 11534138.776702881 90960519.215892792 0 0 0 0 24610822.782304645 27634937.458129883 0 27634937.458129883 95050710.902488708 0 0 0 0 16581796.906034946 56385687.621353149 0 56385687.621353149 147181047.76757812 0 0 0 0 -16101363.014216542 12763983.183837891 0 12763983.183837891 147878325.91107178 0 0 0 0 63821672.341968894 98663974.375854492 0 98663974.375854492 178048667.54907852 0 0 0 0 36746881.795157194 110169062.22449493 0 110169062.22449493 299767360.13735199 0 0 0 0 67464311.88678968 24553781.234481812 0 24553781.234481812 61102088.511421204 0 0 0 0 76583867.76493153 -37534910.52256012 0 -37534910.52256012 228843725.74768066 0 0 0 0 32915787.738570482 -215351.39668273926 0 -215351.39668273926 178551504.70111084 0 0 0 0 8293513.3485079259 -271756891.04217529 0 -271756891.04217529 243654332.79406738 0 0 0 0 -22018.600229403324 246724.59370912611 0 246724.59370912611 912374.67528671026 0 0 0 0 223338030.56762755 302740058.29971313 0 302740058.29971313 120758373.56845093 0 0 0 0 61462108.605928421 73591406.001312256 0 73591406.001312256 107248393.44406128 0 0 0 0 53067900.070031822 49960778.966747284 0 49960778.966747284 109319920.73297119 0 0 0 0 -6905736.8572415113 37065627.581207275 0 37065627.581207275 132241158.41589355 0 0 0 0 34823871.637800694 35565053.641891479 0 35565053.641891479 98974050.141174316 0 0 0 0 60050828.217904806 197939239.36883163 0 197939239.36883163 772299262.18829346 0 0 0 0 -201611.07852986606 1245847.2375174463 0 1245847.2375174463 2464625.9346240014 0 0 0 0 181551009.73399925 465175949.81750488 0 465175949.81750488 753044724.61679077 0 0 0 0 134894315.81111497 232107781.71760559 0 232107781.71760559 941262069.62634277 0 0 0 0 85232213.961350054 450069600.58999634 0 450069600.58999634 969239103.09774399 0 0 0 0 -27937640.550765134 452651328.58533478 0 452651328.58533478 765286634.64428711 0 0 0 0 167233924.22946674 144060849.32928467 0 144060849.32928467 839635777.43442535 0 0 0 0 186344171.28710043 71374301.711196899 0 71374301.711196899 552144071.52563477 0 0 0 0 -31824.577303876256 80346822.705108643 0 80346822.705108643 579802695.01963043 0 0 0 0 45376878.843047202 271604789.16918755 0 271604789.16918755 1056275496.0764618 0 0 0 0 271549209.11137545 511256290.67723846 0 511256290.67723846 1107954923.7292805 0 0 0 0 1394041.144046674 248085593.13846588 0 248085593.13846588 1780412084.5972443 0 0 0 0 223866181.09026203 164485037.71197701 0 164485037.71197701 1308042943.0727234 0 0 0 0 637904002.3200773 547074142.9791832 0 547074142.9791832 1484694611.9463196 0 0 0 0 -259841.80054461406 525583.44125213474 0 525583.44125213474 3617966.8572102189 0 0 0 0 251978637.35835963 1100396358.9492493 0 1100396358.9492493 2583437766.4452744 0 0 0 0 -465249038.4830699 1439374517.4797363 0 1439374517.4797363 5341342440.8366776 0 0 0 0 2574857.4491467387 242449242.91273564 0 242449242.91273564 2374009571.4430084 0 0 0 0 1072470748.2192734 2142804944.8607264 0 2142804944.8607264 242912441.43777466 0 0 0 0 1903866.6745775077 2991372.4816429839 0 2991372.4816429839 2000520.6644560546 0 0 0 0 970167781.2097218 2631775563.5727234 0 2631775563.5727234 1604835141.3852081 0 0 0 0 -512201.77411196602 -57209.080206133425 0 -57209.080206133425 2303328.6686218381 0 0 0 0 367126738.02395058 1318966893.0359955 0 1318966893.0359955 1945047623.7106781 0 0 0 0 -1156694274.3533292 -524705169.99049377 0 -524705169.99049377 1058074327.8031693 0 0 0 0 549026150.54461145 802107664.70755577 0 802107664.70755577 -1019615781.4106445 0 0 0 0 -235430570.12778628 309765236.9169693 0 309765236.9169693 1621417719.5572205 0 0 0 0 -140355964.13563001 444042544.74027252 0 444042544.74027252 1589754477.7058105 0 0 0 0 -892471175.06320667 448353088.68255615 0 448353088.68255615 1710346067.1860046 0 0 0 0 193231670.13562655 285373823.09178162 0 285373823.09178162 1619733701.8904686 0 0 0 0 9558466.4635621086 239774412.25460815 0 239774412.25460815 1549246240.5326691 0 0 0 0 72353195.592651084 544164902.10012817 0 544164902.10012817 1623260921.173172 0 0 0 0 -22465902.801257372 362374676.60223389 0 362374676.60223389 1381929274.3039856 0 0 0 0 -171324352.9288373 415265897.14918518 0 415265897.14918518 1380614076.5949097 0 0 0 0 423603446.28357935 808052188.66734314 0 808052188.66734314 1224985414.5062561 0 0 0 0 -128614404.27625442 609601346.69782066 0 609601346.69782066 1677345602.2592773 0 0 0 0 -496446.4743262527 2979527.508088313 0 2979527.508088313 4411411.6213011593 0 0 0 0 401498423.35926795 900638079.69958496 0 900638079.69958496 864756439.46299744 0 0 0 0 1888642553.7659979 2110016358.0059814 0 2110016358.0059814 983773551.96611404 0 0 0 0 37015204.423121721 73940697.659015656 0 73940697.659015656 60369889.037612915 0 0 0 0 -29349247.462162018 459403.79307556152 0 459403.79307556152 58772467.474320889 0 0 0 0 590222246.87241578 664593356.32625198 0 664593356.32625198 856707062.27285767 0 0 0 0 -3174448.9650490452 6332062.8367409557 0 6332062.8367409557 8788424.0431030244 0 0 0 0 -15890877.715864658 34574061.70552063 0 34574061.70552063 57827349.327727795 0 0 0 0 413268967.72115946 691207973.57746124 0 691207973.57746124 3702815524.9802856 0 0 0 0 521477193.27327538 2316873738.7608795 0 2316873738.7608795 966787325.31167603 0 0 0 0 1633509025.2040243 1316211662.9595108 0 1316211662.9595108 671844020.36587524 0 0 0 0 507109132.05125046 2817541642.8438873 0 2817541642.8438873 106268459.54345703 0 0 0 0 -1473219939.0523477 506200539.5171051 0 506200539.5171051 2252029129.6835403 0 0 0 0 1895462.9174679792 2753949.582915917 0 2753949.582915917 2281423.9088811427 0 0 0 0 -478398327.7123158 1443131912.852005 0 1443131912.852005 2771359772.5236816 0 0 0 0 1182386932.691895 528678473.05496216 0 528678473.05496216 -1015080184.3306427 0 0 0 0 1101849293.6938314 2624238612.0395966 0 2624238612.0395966 -503533618.31872559 0 0 0 0 1561477609.2941351 2196724314.5650482 0 2196724314.5650482 -112345611.26583862 0 0 0 0 2488629026.1925802 1049402922.9362793 0 1049402922.9362793 458670959.71261597 0 0 0 0 1817132708.1544936 2286984766.4858131 0 2286984766.4858131 1951663355.4078064 0 0 0 0 1269866004.8587103 2624692221.8242874 0 2624692221.8242874 5349629934.1481018 0 0 0 0 -994735316.67445505 116692347.10806274 0 116692347.10806274 2612579421.5214844 0 0 0 0 -2190623646.7094088 -817927570.33602905 0 -817927570.33602905 3577189930.4638672 0 0 0 0 -1359933256.8868408 1003828897.2222443 0 1003828897.2222443 5345880908.3925676 0 0 0 0 -1102804215.2525048 293058356.10611725 0 293058356.10611725 5335748861.8431091 0 0 0 0 632198978.741696 -755077327.78439713 0 -755077327.78439713 969645350.7203064 0 0 0 0 1414402.2930091305 5440862.749654579 0 5440862.749654579 5517540.5349126607 0 0 0 0 5955250505.5936251 3121224256.7581787 0 3121224256.7581787 1664978263.618515 0 0 0 0 606392577.07914937 -1544595578.9224396 0 -1544595578.9224396 2086268195.3644867 0 0 0 0 234940.85165197999 6711903.2582255919 0 6711903.2582255919 13657128.204572111 0 0 0 0 1966420548.2510986 1250990468.9923706 0 1250990468.9923706 380856994.1322403 0 0 0 0 -29486688.074435234 50192260.585945129 0 50192260.585945129 -18676436.215423584 0 0 0 0 -3207382.8170958273 3319967.9874997884 0 3319967.9874997884 7353235.3414066732 0 0 0 0 26771975.392089486 409539468.89640808 0 409539468.89640808 353944373.87084961 0 0 0 0 119404551.52335247 266205724.58911133 0 266205724.58911133 124662499.86754608 0 0 0 0 -765255.32698029943 1018900.4010753557 0 1018900.4010753557 2148337.9959385544 0 0 0 0 44207966.719902158 -8425443.8989715576 0 -8425443.8989715576 -21118865.331634521 0 0 0 0 70813794.762509644 -34808310.806640625 0 -34808310.806640625 2955855.8084106445 0 0 0 0 85376117.388403282 -13133223.626113892 0 -13133223.626113892 -51843062.434661865 0 0 0 0 102376660.36700439 -32253060.976959229 0 -32253060.976959229 -34802593.244171143 0 0 0 0 118875341.77941924 43998832.628192902 0 43998832.628192902 13025242.633026123 0 0 0 0 38386909.093614817 -23280693.86730957 0 -23280693.86730957 12427109.762207031 0 0 0 0 38705232.620221153 -28222268.190911293 0 -28222268.190911293 34188130.066314697 0 0 0 0 -17077454.488096785 -83970724.22618866 0 -83970724.22618866 -16896308.653930664 0 0 0 0 -4580704.6498832703 27535123.100952148 0 27535123.100952148 42973847.223449707 0 0 0 0 25813361.783695459 -15924511.637573242 0 -15924511.637573242 16744859.092102051 0 0 0 0 -3071043.2998818373 2538572.7766083148 0 2538572.7766083148 20685426.900057748 0 0 0 0 42414678.429191589 -12935932.090438843 0 -12935932.090438843 -11970836.962791443 0 0 0 0 39490130.006728172 -26243397.411300659 0 -26243397.411300659 24229755.240447998 0 0 0 0 -1979196.4484624863 9707351.7936706543 0 9707351.7936706543 32214434.041812897 0 0 0 0 -18946366.773962736 -5860975.7477111816 0 -5860975.7477111816 18092384.355712891 0 0 0 0 7571683.7866521627 -31565248.463302612 0 -31565248.463302612 34798688.40524292 0 0 0 0 53298592.912828445 -1936620.5132751465 0 -1936620.5132751465 27701964.086181641 0 0 0 0 27842444.478017569 2662004.0564575195 0 2662004.0564575195 62497941.823791504 0 0 0 0 38180394.710875511 -38364777.205917358 0 -38364777.205917358 -13074747.612304688 0 0 0 0 785439.36397054314 -181286.20410993882 0 -181286.20410993882 108366.15995573997 0 0 0 0 5775377.0072336197 -45761532.838180542 0 -45761532.838180542 56996464.55456543 0 0 0 0 -15516277.277665049 -35680441.80267334 0 -35680441.80267334 41782490.38571167 0 0 0 0 12371575.601940632 -35760250.166351318 0 -35760250.166351318 -4668230.9791870117 0 0 0 0 -641403.07161151315 -601998.51827478781 0 -601998.51827478781 2079041.1315055266 0 0 0 0 23942634.351398706 -1547632.2472686768 0 -1547632.2472686768 20796397.341888428 0 0 0 0 1484067.2741668224 -19284913.263092041 0 -19284913.263092041 -5671698.4397115707 0 0 0 0 5059729.7431359552 -5404113.02551651 0 -5404113.02551651 6458420.6553344727 0 0 0 0 791426.01801246777 319662.36733587831 0 319662.36733587831 33421806.502060823 0 0 0 0 12159195.417012811 5887992.3986358643 0 5887992.3986358643 12533863.808837891 0 0 0 0 -42369553.43182683 44468566.440982819 0 44468566.440982819 22656287.152893066 0 0 0 0 -1849585.8465277706 4660712.22033781 0 4660712.22033781 26271017.966556221 0 0 0 0 -14559370.906829596 -1532948.9489593506 0 -1532948.9489593506 12310619.053985596 0 0 0 0 -11753983.250059277 1586612.8939208984 0 1586612.8939208984 15776002.200241089 0 0 0 0 -4863521.3537879288 -4951920.6897583008 0 -4951920.6897583008 8934060.7786254883 0 0 0 0 2033655.7594828419 -3085401.6958501432 0 -3085401.6958501432 5023720.3328441083 0 0 0 0 -16604280.793692369 -5597031.02780056 0 -5597031.02780056 11315814.850585938 0 0 0 0 -15844266.555398628 -153619.74912261963 0 -153619.74912261963 11861756.72366333 0 0 0 0 -18363730.712394238 48952849.225967407 0 48952849.225967407 14255322.921051025 0 0 0 0 -38839090.993611336 -5909566.4353637695 0 -5909566.4353637695 7115434.8925170898 0 0 0 0 -141040452.01671362 35707545.534912109 0 35707545.534912109 107358848.54464722 0 0 0 0 -3152491.2544627362 -4417826.3568768818 0 -4417826.3568768818 28289975.531705335 0 0 0 0 -34705204.265629768 -22611095.922569275 0 -22611095.922569275 14659536.769012451 0 0 0 0 -97124.583843756991 -172567.5112240985 0 -172567.5112240985 355785.16734668612 0 0 0 0 -53134012.938662052 -21328295.132659912 0 -21328295.132659912 10506077.5078125 0 0 0 0 12783596.226256609 133580880.39263916 0 133580880.39263916 95695676.903717041 0 0 0 0 54892294.33069849 42982914.279129028 0 42982914.279129028 -1825757.3646850586 0 0 0 0 -23340060.517987549 70117585.357872009 0 70117585.357872009 -5418784.3106079102 0 0 0 0 119889.8655709592 5573281.9960078001 0 5573281.9960078001 628139.8087682277 0 0 0 0 -3102408.9210178982 -379157.96799133252 0 -379157.96799133252 19882990.562391639 0 0 0 0 -8265840.2222291231 1072610.5030670166 0 1072610.5030670166 20635039.753417969 0 0 0 0 -30716157.321324348 -11542433.743924141 0 -11542433.743924141 35774753.657653809 0 0 0 0 -12631867.827823639 25767588.676101685 0 25767588.676101685 13974196.393493652 0 0 0 0 471078.52095618891 6223632.4560918361 0 6223632.4560918361 23207591.263495982 0 0 0 0 4746451.6799983978 -2183753.7537994385 0 -2183753.7537994385 3797907.3486785889 0 0 0 0 -91634810.598112166 45420889.496856689 0 45420889.496856689 70504747.191360474 0 0 0 0 1471628.1582963467 -14043951.435516357 0 -14043951.435516357 9888094.3522491455 0 0 0 0 -18072116.359966353 51331269.112638474 0 51331269.112638474 -39004101.073303223 0 0 0 0 -25134.611468157265 944992.44037386775 0 944992.44037386775 4415317.3695114441 0 0 0 0 66992344.865817308 15871536.619674683 0 15871536.619674683 2347557.3433990479 0 0 0 0 -56467095.295726776 -40193631.095840454 0 -40193631.095840454 93734965.505172729 0 0 0 0 -7546427.8234227896 3940702.7919311523 0 3940702.7919311523 126677256.23936462 0 0 0 0 -80373625.784665704 12763045.915607452 0 12763045.915607452 101928033.10284424 0 0 0 0 22460577.675509453 83439095.515106201 0 83439095.515106201 -16834325.214477539 0 0 0 0 128873606.9230032 5983660.7564544678 0 5983660.7564544678 21260974.338111877 0 0 0 0 22938593.270229816 -70256325.312438965 0 -70256325.312438965 158283825.15652466 0 0 0 0 -61815469.584942579 -4782187.467666626 0 -4782187.467666626 221843806.26133728 0 0 0 0 -59411986.109277785 9147563.819934845 0 9147563.819934845 140428403.09860229 0 0 0 0 -45941925.270039558 10994605.83291626 0 10994605.83291626 139982091.65991211 0 0 0 0 -33203911.798737884 -23813907.688369751 0 -23813907.688369751 -2164008.9375305176 0 0 0 0 -42050127.91405797 12599312.484710693 0 12599312.484710693 87507362.310499191 0 0 0 0 -20652727.348858476 31920776.599571228 0 31920776.599571228 90320608.473968506 0 0 0 0 -43483450.094344378 56201079.311447144 0 56201079.311447144 141037976.62521362 0 0 0 0 -26527154.833175182 46000873.766525269 0 46000873.766525269 50484905.261886597 0 0 0 0 -408055.48453038797 -512351.79968971945 0 -512351.79968971945 358621.72726996243 0 0 0 0 8814663.8242025375 3399541.8434753418 0 3399541.8434753418 -9394809.7062778473 0 0 0 0 103572496.9035098 -58597326.101852417 0 -58597326.101852417 21310316.24395752 0 0 0 0 -1134891.7851956869 -731215.7163113486 0 -731215.7163113486 25281973.417164817 0 0 0 0 -3160585.7585574649 7062441.8785497062 0 7062441.8785497062 28077217.665744618 0 0 0 0 -23928086.965999365 4597839.9455184937 0 4597839.9455184937 12608030.043266296 0 0 0 0 -119307375.12497497 -68744201.581733704 0 -68744201.581733704 112627499.48995972 0 0 0 0 -134666364.27483284 -47872816.722136497 0 -47872816.722136497 54756419.545333862 0 0 0 0 -42886347.749210298 12491388.591995239 0 12491388.591995239 17235794.791969299 0 0 0 0 -5345952.1987402597 15271148.150351869 0 15271148.150351869 31326451.355151705 0 0 0 0 -58176787.299566507 -44508806.568405151 0 -44508806.568405151 267791557.39926147 0 0 0 0 -64385311.422802448 -3969397.0063323975 0 -3969397.0063323975 19537085.123031616 0 0 0 0 -3346365.2142310143 39707239.742286682 0 39707239.742286682 187181683.11651611 0 0 0 0 -2152793.0321442485 12899821.247138977 0 12899821.247138977 128787292.84190369 0 0 0 0 -8232752.8745322227 -25361794.63067627 0 -25361794.63067627 131345276.9714818 0 0 0 0 13186018.235199451 -36365007.020057678 0 -36365007.020057678 39295281.577301025 0 0 0 0 -3017560.4647360286 -7855050.8833268024 0 -7855050.8833268024 5299188.6418714374 0 0 0 0 -21529832.164307117 6182970.4796600342 0 6182970.4796600342 58828092.490661621 0 0 0 0 12925175.088977814 -44741842.891418457 0 -44741842.891418457 17051917.49508667 0 0 0 0 -576886.77988147736 14385739.117095947 0 14385739.117095947 71083475.461654663 0 0 0 0 -26162510.040234566 4392560.6021652222 0 4392560.6021652222 100515381.39556122 0 0 0 0 104320558.70654821 59466993.596191406 0 59466993.596191406 81986133.105133057 0 0 0 0 423263274.14397621 234561160.94527435 0 234561160.94527435 -45179089.14894104 0 0 0 0 -664986.2313395309 -1410736.9469798552 0 -1410736.9469798552 1472117.2420462221 0 0 0 0 167522755.54353809 -101457104.86508179 0 -101457104.86508179 -34131856.796714783 0 0 0 0 -324831448.8060112 69554930.246437073 0 69554930.246437073 186667409.94044495 0 0 0 0 -96899840.506827831 -33128215.63483429 0 -33128215.63483429 -133455676.44095612 0 0 0 0 15302383.017872572 163938268.36923218 0 163938268.36923218 137754112.34884644 0 0 0 0 -115238147.73981524 99916431.688034058 0 99916431.688034058 157143485.19944 0 0 0 0 -93819734.837421373 -2489704.1547603607 0 -2489704.1547603607 262953333.50466919 0 0 0 0 -106479009.03244686 164885461.21492004 0 164885461.21492004 71438839.895935059 0 0 0 0 -256810081.15587556 11896109.058883667 0 11896109.058883667 474586136.91702271 0 0 0 0 -1431826.6519324607 -441705.5353022255 0 -441705.5353022255 3664869.3866429329 0 0 0 0 48703644.126780987 192596727.62988281 0 192596727.62988281 -48182166.168106079 0 0 0 0 548061453.67250443 -82316810.396194458 0 -82316810.396194458 -387156140.73051453 0 0 0 0 -191343868.42669129 -184703708.04248238 0 -184703708.04248238 137652356.79571533 0 0 0 0 -165925798.82058144 313669225.54155731 0 313669225.54155731 127933137.86123657 0 0 0 0 48706029.573896885 287657688.30119324 0 287657688.30119324 83233180.276924133 0 0 0 0 377887037.72333527 404415396.41657257 0 404415396.41657257 119212917.24609375 0 0 0 0 -15968492.012151092 340650665.59893799 0 340650665.59893799 546104701.90007019 0 0 0 0 13036362.049910188 -279866954.4016571 0 -279866954.4016571 438378210.235425 0 0 0 0 55074799.143239856 -38332156.560417175 0 -38332156.560417175 171682113.23922729 0 0 0 0 78309608.81212914 459246519.38390207 0 459246519.38390207 31069577.439071655 0 0 0 0 873991.04954632581 -472380.13097922131 0 -472380.13097922131 1719065.0964492559 0 0 0 0 -166788504.30660915 5546325.3158111572 0 5546325.3158111572 -48244684.785335541 0 0 0 0 -160081815.91525149 -162176862.80060577 0 -162176862.80060577 -35693919.043746948 0 0 0 0 -2864490.1649229 -4115267.6160039641 0 -4115267.6160039641 11285956.379511399 0 0 0 0 -200509074.43007135 -195557558.39887238 0 -195557558.39887238 397437538.78846741 0 0 0 0 478843411.1876626 -21140347.755929947 0 -21140347.755929947 -286556058.70134735 0 0 0 0 2021301.6495468006 -4496990.7074762508 0 -4496990.7074762508 6195694.8826223779 0 0 0 0 8891261.3281920552 26553156.126087189 0 26553156.126087189 8144338.5335922241 0 0 0 0 -27968103.931354761 -6682506.9825439453 0 -6682506.9825439453 34200676.860980988 0 0 0 0 -6435881.7765869098 23643778.171794891 0 23643778.171794891 46824409.255203247 0 0 0 0 -7671414.5819962025 -13247104.992523193 0 -13247104.992523193 15505484.973495483 0 0 0 0 2772814.9975709915 -4767001.6201591492 0 -4767001.6201591492 22312996.195983887 0 0 0 0 -4373261.7257064059 -6027490.5738704968 0 -6027490.5738704968 13407942.847548872 0 0 0 0 -349716.39163511409 -427291.54467472807 0 -427291.54467472807 4258900.5104611963 0 0 0 0 -204213410.71792936 -13020804.093406677 0 -13020804.093406677 45963683.514190674 0 0 0 0 -13801734.792320251 308280.58945465088 0 308280.58945465088 36877407.978668213 0 0 0 0 -619660.05365378864 -4193980.715077817 0 -4193980.715077817 587200.47430069 0 0 0 0 -1220959.8704405068 -1341550.6320155449 0 -1341550.6320155449 9435470.6594043225 0 0 0 0 -4101459.6665380597 -5107799.4628143311 0 -5107799.4628143311 11023329.644676208 0 0 0 0 -1820983.5341652231 -6641919.2331500854 0 -6641919.2331500854 5636041.14651943 0 0 0 0 -4212206.9902353287 -5047463.8179473877 0 -5047463.8179473877 3052020.5491294861 0 0 0 0 -3422562.2230237769 -343153.24346667528 0 -343153.24346667528 25214411.526658401 0 0 0 0 13393560.057456493 -17788542.374275208 0 -17788542.374275208 -23996073.015930176 0 0 0 0 -1604681.0215936759 -3021602.9467962198 0 -3021602.9467962198 15442029.179722466 0 0 0 0 -2580491.232213391 -6903387.1839043759 0 -6903387.1839043759 14753232.827839211 0 0 0 0 -5561422.021062851 -5780071.6142959595 0 -5780071.6142959595 11123146.584594727 0 0 0 0 656051.8602627255 -1226550.7640380859 0 -1226550.7640380859 9110764.0681152344 0 0 0 0 -3483845.9481598218 -5751518.687168058 0 -5751518.687168058 18367629.508557983 0 0 0 0 -6345840.525220871 -3273708.3799438477 0 -3273708.3799438477 7828536.9356689453 0 0 0 0 104294.96951239552 -5702319.795696022 0 -5702319.795696022 8059930.6953467131 0 0 0 0 -5653222.7036821842 -5420578.9966583252 0 -5420578.9966583252 12753985.848480225 0 0 0 0 -2478431.0672052726 1290603.6500089616 0 1290603.6500089616 20904032.294807352 0 0 0 0 -3016152.5402419865 -5162294.5146636963 0 -5162294.5146636963 6312146.6116027832 0 0 0 0 1333118.1283081989 829786.28350251913 0 829786.28350251913 20675077.075185183 0 0 0 0 -3742403.4230194092 -888182.12683105469 0 -888182.12683105469 9266694.2360534668 0 0 0 0 71939.974708590395 -6006211.514242027 0 -6006211.514242027 6155086.6789056659 0 0 0 0 -2541847.8704656046 -2501525.2155761719 0 -2501525.2155761719 8868504.8958129883 0 0 0 0 -27075034.740876406 -18251522.587982178 0 -18251522.587982178 20249926.390014648 0 0 0 0 -424257.32121077098 -4239918.5456685647 0 -4239918.5456685647 992858.67863152921 0 0 0 0 -29748550.039139822 -46862645.718183517 0 -46862645.718183517 36852290.020446777 0 0 0 0 -755522.45116462721 -123977.63720279187 0 -123977.63720279187 12253703.5915424 0 0 0 0 -3833079.321618557 540084.97787475586 0 540084.97787475586 5211920.3805103302 0 0 0 0 37241.362183737336 557151.37678728998 0 557151.37678728998 14039183.042451419 0 0 0 0 -4833061.0669658184 5027336.5973091125 0 5027336.5973091125 28466142.159637451 0 0 0 0 -8054681.2895932198 4251909.4998931885 0 4251909.4998931885 30476919.930618286 0 0 0 0 -7252215.4973628521 5821696.8058891296 0 5821696.8058891296 31766580.657592773 0 0 0 0 -5829017.1651306152 3271141.735584259 0 3271141.735584259 26125555.924484253 0 0 0 0 3986639.9833726883 -18282185.33177948 0 -18282185.33177948 30915167.50793457 0 0 0 0 -10937235.964720011 -10277986.863235474 0 -10277986.863235474 64941261.752532959 0 0 0 0 673021.68575108261 -740426.32965781167 0 -740426.32965781167 21908363.675693989 0 0 0 0 -30502017.534835577 13416636.576889038 0 13416636.576889038 73226301.374450684 0 0 0 0 -219322653.53078562 -78287015.219978333 0 -78287015.219978333 14683479.73046875 0 0 0 0 -30445681.676739119 173453.01091003418 0 173453.01091003418 -13736732.870788574 0 0 0 0 -2164893.2875739243 3607714.1790237911 0 3607714.1790237911 2996294.0142589211 0 0 0 0 -22614327.019146323 -161791392.18196869 0 -161791392.18196869 -188577007.84368896 0 0 0 0 -7658953.0961856842 -14174462.63911438 0 -14174462.63911438 21798249.695907593 0 0 0 0 167072030.72934651 174557322.07629395 0 174557322.07629395 -219242842.24891758 0 0 0 0 18857425.518486738 4246706.6607131958 0 4246706.6607131958 -484495.05735778809 0 0 0 0 6407191.8731865883 4873780.7655181885 0 4873780.7655181885 57777788.7408638 0 0 0 0 5159030.102606535 -5734678.9248809814 0 -5734678.9248809814 22534047.898010254 0 0 0 0 4949281.0682184696 -9030975.3260936737 0 -9030975.3260936737 22814459.253036499 0 0 0 0 45482174.572489679 474796186.77629566 0 474796186.77629566 4719577496.0138397 0 0 0 0 5381068.979950428 -9538571.169588089 0 -9538571.169588089 19905237.338684082 0 0 0 0 2095508.1594614466 -4091920.4496180452 0 -4091920.4496180452 10315517.974209998 0 0 0 0 -74402387.449533328 -699583925.13153076 0 -699583925.13153076 5349132390.2851343 0 0 0 0 -146302884.24283129 265536671.67530441 0 265536671.67530441 1088376025.8518066 0 0 0 0 704932.766191239 -2387319.9772393787 0 -2387319.9772393787 19813566.001197979 0 0 0 0 1586552208.3127823 2426450507.1604004 0 2426450507.1604004 451876106.71078491 0 0 0 0 3845321.8356143292 -17436839.505178995 0 -17436839.505178995 5437718.1264288276 0 0 0 0 -872935556.8634069 601248082.65118408 0 601248082.65118408 2013037970.2575378 0 0 0 0 3344583.9784758515 -6336603.6330839563 0 -6336603.6330839563 1809574.7833988592 0 0 0 0 14127773.168869391 -14813339.098228455 0 -14813339.098228455 23879011.546447754 0 0 0 0 1317133817.7056713 -2726316963.9471054 0 -2726316963.9471054 3112506080.0943298 0 0 0 0 2408453554.4212508 -535286738.1601181 0 -535286738.1601181 124093690.83116913 0 0 0 0 -3741683.6155446647 13530732.930912387 0 13530732.930912387 -4027035.4892651718 0 0 0 0 1823699.7283772442 208166.7066591382 0 208166.7066591382 6961527.2737087375 0 0 0 0 11831971.858159781 -8644500.5027236938 0 -8644500.5027236938 8798609.2109050751 0 0 0 0 51251192.612018526 551134313.56833744 0 551134313.56833744 5394142146.2405396 0 0 0 0 5472163.4383060932 -15923770.148651123 0 -15923770.148651123 49715837.043807983 0 0 0 0 6297038.4363976717 -15144053.301849365 0 -15144053.301849365 23902992.023309708 0 0 0 0 30791517.000579417 -52747028.3288517 0 -52747028.3288517 62441379.261383057 0 0 0 0 24484238.81721437 -32806215.386497498 0 -32806215.386497498 41028328.609161377 0 0 0 0 -8762906.2627408504 -16946799.191930771 0 -16946799.191930771 53637636.403671265 0 0 0 0 -24213133.916790843 -5644660.4579734802 0 -5644660.4579734802 46276068.892288208 0 0 0 0 -19528341.241346359 -21505257.168056488 0 -21505257.168056488 59232446.418952942 0 0 0 0 3737559.5026386455 -31178481.576446533 0 -31178481.576446533 54745624.063766479 0 0 0 0 6409657.3655425906 -25964421.777320862 0 -25964421.777320862 55175247.707199097 0 0 0 0 355593.87021455291 -742607.02540262043 0 -742607.02540262043 993639.0145284459 0 0 0 0 92229709.987086296 -128299389.48065948 0 -128299389.48065948 151738962.31396961 0 0 0 0 -53973019.959590673 104533262.89942932 0 104533262.89942932 18306070.755302429 0 0 0 0 224089184.83922839 30520277.212638855 0 30520277.212638855 33850531.214950562 0 0 0 0 -138356900.6334855 298113405.69594193 0 298113405.69594193 186194781.97780609 0 0 0 0 206082954.40904951 -331599675.23825073 0 -331599675.23825073 112056196.45746994 0 0 0 0 1439659.8409424289 -2688245.6715371758 0 -2688245.6715371758 2379681.1486130804 0 0 0 0 942168822.91625094 -1443312387.6102295 0 -1443312387.6102295 555044593.62104797 0 0 0 0 -201717525.0928179 96737725.799175262 0 96737725.799175262 729903798.41847229 0 0 0 0 -60266744.375050426 160567720.2521019 0 160567720.2521019 2003694423.6287537 0 0 0 0 -1198278720.8598545 233623907.85072327 0 233623907.85072327 5356245610.5163975 0 0 0 0 -698375002.54044247 -809017933.80052614 0 -809017933.80052614 2343228491.640625 0 0 0 0 -655519072.03844821 -1088199704.4827375 0 -1088199704.4827375 3545153299.9043274 0 0 0 0 -526483190.25241536 -2135667502.7796173 0 -2135667502.7796173 5345764042.4031324 0 0 0 0 1484038676.1041241 2378396144.1331005 0 2378396144.1331005 2280579866.9187775 0 0 0 0 -840099603.09603631 1788993417.798954 0 1788993417.798954 5344876937.2736969 0 0 0 0 -1066607856.0351299 645694939.18507004 0 645694939.18507004 2755056403.5658951 0 0 0 0 -339471095.70059168 1249809086.5191269 0 1249809086.5191269 2331662735.8121719 0 0 0 0 65419894.575848877 -86155398.806197166 0 -86155398.806197166 572566372.63746643 0 0 0 0 -314716648.65477169 145300899.4575882 0 145300899.4575882 1007761002.7784576 0 0 0 0 -7226953.0131642818 -12418873.10464859 0 -12418873.10464859 15723450.349826813 0 0 0 0 -43906799.847488284 113013446.35942841 0 113013446.35942841 382375937.48803711 0 0 0 0 55332799.945329905 -128376590.54476547 0 -128376590.54476547 105290216.76445007 0 0 0 0 -13140222.322875738 -123699023.51048279 0 -123699023.51048279 105657353.17952347 0 0 0 0 -250447.98699350108 41296.580470781773 0 41296.580470781773 1430300.2215450071 0 0 0 0 43242126.007447839 -67600445.354854584 0 -67600445.354854584 -81080361.345809937 0 0 0 0 -62219975.416225672 16114777.920837402 0 16114777.920837402 166640467.00377655 0 0 0 0 -56476657.659188509 19728465.416256905 0 19728465.416256905 251035687.43028259 0 0 0 0 -106169414.49587154 -28266729.974010468 0 -28266729.974010468 214428344.37617493 0 0 0 0 -52017548.937329292 -183500368.96086121 0 -183500368.96086121 620078719.3306942 0 0 0 0 -82841365.555506706 402415556.62863159 0 402415556.62863159 470279785.90386963 0 0 0 0 5394408.5859607132 -4293382.0001309812 0 -4293382.0001309812 3239426.2410202455 0 0 0 0 25816777.073069572 181304411.70872498 0 181304411.70872498 -218197802.53560638 0 0 0 0 176120574.28026593 -19491747.913993835 0 -19491747.913993835 -140378835.97354889 0 0 0 0 385477019.80007744 -446931567.58998108 0 -446931567.58998108 -206520979.09883881 0 0 0 0 4965383.0017545782 -4663314.7439817637 0 -4663314.7439817637 3966987.7873257995 0 0 0 0 -95388139.502020717 26252309.147697449 0 26252309.147697449 179890453.49293327 0 0 0 0 -266991361.82471323 41182211.124355316 0 41182211.124355316 706951118.04695129 0 0 0 0 -83904.497739178129 -828548.42524463683 0 -828548.42524463683 911635.95993123949 0 0 0 0 70294174.294219971 407314026.32163239 0 407314026.32163239 455808830.75568008 0 0 0 0 141971891.68853426 -64454223.688472748 0 -64454223.688472748 28077705.661560059 0 0 0 0 -7410723.1474283934 -7589566.1204204559 0 -7589566.1204204559 6456466.6097412109 0 0 0 0 -4191209.0819178605 -3073123.4797636755 0 -3073123.4797636755 4691184.4608860165 0 0 0 0 127483684.25647926 8736730.3909378052 0 8736730.3909378052 -5771764.701385498 0 0 0 0 -5116652.9015106773 -1684032.6647879705 0 -1684032.6647879705 9812063.5327336788 0 0 0 0 1468936.4419953274 323959.41861134022 0 323959.41861134022 1098374.7537893411 0 0 0 0 6814331.1773471832 -47883670.860137939 0 -47883670.860137939 54145009.887367249 0 0 0 0 -9357972.734852314 -10749051.028274536 0 -10749051.028274536 -1916441.7317788601 0 0 0 0 -6980972.9526865482 -7055766.4273490906 0 -7055766.4273490906 -2138068.7197418213 0 0 0 0 -1808818.1706614494 -4356319.0634765625 0 -4356319.0634765625 -1896380.336558193 0 0 0 0 -2556621.6956548691 -2944794.8454208374 0 -2944794.8454208374 -1901945.8559495509 0 0 0 0 -2420513.981054306 -3554427.1870040894 0 -3554427.1870040894 -767984.53768539429 0 0 0 0 -165735.01737451553 -3715441.7356796265 0 -3715441.7356796265 -3147909.6904716492 0 0 0 0 -1459951.2701416016 -5066129.42527771 0 -5066129.42527771 -807420.69330573082 0 0 0 0 -1207251.455332756 -1336920.7376899719 0 -1336920.7376899719 25114.272613525391 0 0 0 0 -2895421.7350498824 -3090310.4188243374 0 -3090310.4188243374 3666457.8969788477 0 0 0 0 -33302148.67831099 -51046010.350878239 0 -51046010.350878239 208670580.39910889 0 0 0 0 -2438397.25527215 -4866740.6561431885 0 -4866740.6561431885 5399173.3415374756 0 0 0 0 17758249.558949709 29114808.848964691 0 29114808.848964691 64101299.197433472 0 0 0 0 40988965.153579712 -3719372.0879364014 0 -3719372.0879364014 42341698.352020264 0 0 0 0 -5740113.571187973 -6279822.1231689453 0 -6279822.1231689453 54825207.515701294 0 0 0 0 207135.99630117416 -13666039.584415436 0 -13666039.584415436 17785752.699798584 0 0 0 0 -9020892.2114973068 -22234980.546443939 0 -22234980.546443939 77082870.42603302 0 0 0 0 -157192.6478679704 -134665.87381526828 0 -134665.87381526828 344530.46868631244 0 0 0 0 379114.24352741241 28530713.369277954 0 28530713.369277954 95659523.632726669 0 0 0 0 -79964.932807920966 -510841.75628463551 0 -510841.75628463551 372013.43534597382 0 0 0 0 13652089.505280495 -7424406.8863372803 0 -7424406.8863372803 3996013.835975647 0 0 0 0 -36486.595836155117 -245483.88563762605 0 -245483.88563762605 140692.76034646761 0 0 0 0 -2879095.5873469114 -8664693.530752182 0 -8664693.530752182 -14862563.450889587 0 0 0 0 -12195509.18143177 -14493343.27491951 0 -14493343.27491951 91427825.832275391 0 0 0 0 -9670822.6808457375 -8786563.4016876221 0 -8786563.4016876221 76328378.234947205 0 0 0 0 -8216086.1559267044 -14338253.014270782 0 -14338253.014270782 71727407.735153198 0 0 0 0 6141668.1826210022 -14011241.517375946 0 -14011241.517375946 40217384.231842041 0 0 0 0 -9060598.4215564728 4536841.3839263916 0 4536841.3839263916 44265834.084747314 0 0 0 0 -2365677.6323479414 -1478452.880531311 0 -1478452.880531311 54874970.439880371 0 0 0 0 -4974888.1559963226 12815998.569396973 0 12815998.569396973 45022587.82100296 0 0 0 0 -4016644.980881691 8449361.6719512939 0 8449361.6719512939 43472430.237518311 0 0 0 0 -6082897.4958100319 13624069.744812012 0 13624069.744812012 36781045.637176514 0 0 0 0 -4484515.8147141933 6582777.9934520721 0 6582777.9934520721 39172209.033111572 0 0 0 0 -8275128.5688939095 9981912.881652832 0 9981912.881652832 41585047.037750244 0 0 0 0 -7246231.6949534416 9207495.713760376 0 9207495.713760376 36146554.968078613 0 0 0 0 -6397220.7341570854 13896538.247795105 0 13896538.247795105 94627028.039808273 0 0 0 0 -8375135.0907030106 4064900.1122283936 0 4064900.1122283936 62127103.928474426 0 0 0 0 -7892320.1574172974 4287131.0286483765 0 4287131.0286483765 59911741.521209717 0 0 0 0 -4413021.0758680105 7470515.8649539948 0 7470515.8649539948 61554611.490447998 0 0 0 0 3014649.2276539803 17210470.035362244 0 17210470.035362244 47229139.408416748 0 0 0 0 5220056.593059063 8425174.0281219482 0 8425174.0281219482 40757927.671615601 0 0 0 0 8022617.8464574814 15683139.84577179 0 15683139.84577179 33580620.899543762 0 0 0 0 -4498055.8706877232 14690068.635101318 0 14690068.635101318 34551053.659210205 0 0 0 0 327953.59057331085 9806963.0752105713 0 9806963.0752105713 36040615.207519531 0 0 0 0 -8571643.3537173271 7711114.9144058228 0 7711114.9144058228 22245668.543441772 0 0 0 0 6161506.5696725845 8252058.057258606 0 8252058.057258606 22209886.615570068 0 0 0 0 -8269885.5747871399 12772073.152496338 0 12772073.152496338 26692359.752319336 0 0 0 0 -9548046.2430725098 13402005.017158508 0 13402005.017158508 32252153.364440918 0 0 0 0 -5096732.4451317787 13032522.525085449 0 13032522.525085449 31386819.839996338 0 0 0 0 -9046284.381978035 16334534.219680786 0 16334534.219680786 28016844.43637085 0 0 0 0 -7821134.8590216637 11430745.981781006 0 11430745.981781006 33288238.852396011 0 0 0 0 -3967553.808768034 9605956.6401901245 0 9605956.6401901245 32942824.234436035 0 0 0 0 -12235653.293948174 10940167.375244141 0 10940167.375244141 24930145.676568985 0 0 0 0 -427459.97669649124 14817799.970924377 0 14817799.970924377 25741295.21496582 0 0 0 0 -7028357.6592926979 15517015.824249268 0 15517015.824249268 24455128.573654175 0 0 0 0 -9016627.7245392203 18391506.272672653 0 18391506.272672653 22826311.465988159 0 0 0 0 1187155.7671208382 31055146.061431885 0 31055146.061431885 14828805.600265503 0 0 0 0 -29555131.153832912 2478385.80078125 0 2478385.80078125 38335596.763145447 0 0 0 0 -38770979.17841506 47512913.872344971 0 47512913.872344971 9477524.3375549316 0 0 0 0 -3710718.2777667204 8982065.0953354537 0 8982065.0953354537 19675439.714031346 0 0 0 0 1371312.3336119652 10038277.159973145 0 10038277.159973145 14901006.792831421 0 0 0 0 -11560784.318310261 14199170.493019104 0 14199170.493019104 14303060.873203278 0 0 0 0 -4424270.4746754952 9678014.1947990246 0 9678014.1947990246 19723461.106373731 0 0 0 0 -5018740.3703145534 8690605.8909078836 0 8690605.8909078836 23880867.526547693 0 0 0 0 -5303560.663942337 4695610.6497135162 0 4695610.6497135162 15301668.157089233 0 0 0 0 -8375127.9433460236 11877302.564201355 0 11877302.564201355 22181564.679138184 0 0 0 0 -9309118.496160984 -1050289.2860355377 0 -1050289.2860355377 23572271.799362183 0 0 0 0 -724552.33449363708 6912961.1595993042 0 6912961.1595993042 17588074.539985657 0 0 0 0 -5517091.6320413742 9767887.2867898643 0 9767887.2867898643 24533633.170306593 0 0 0 0 -3790374.9537329674 7005192.1096954346 0 7005192.1096954346 16607267.030845642 0 0 0 0 -18813066.470656395 -566688.69772338867 0 -566688.69772338867 24306125.899765015 0 0 0 0 -15334678.434350967 6745089.1647338867 0 6745089.1647338867 40397597.352775574 0 0 0 0 5350359.9762604833 -5184709.4458651543 0 -5184709.4458651543 22009395.110015869 0 0 0 0 -3447224.9863729477 -24486420.667579651 0 -24486420.667579651 13807194.306770325 0 0 0 0 -2761791.4324923735 -8639852.146525424 0 -8639852.146525424 30381809.911968842 0 0 0 0 -4922455.6587933302 -29909922.407201767 0 -29909922.407201767 20269216.802230835 0 0 0 0 -7813199.9658093452 -11011358.78565979 0 -11011358.78565979 8937088.3333015442 0 0 0 0 -3016989.7677497948 -1687203.9211434908 0 -1687203.9211434908 3688662.8674019203 0 0 0 0 -11285038.106336379 15259949.064330202 0 15259949.064330202 33718622.377220996 0 0 0 0 -11193585.107491016 18834026.762729645 0 18834026.762729645 10362887.733642578 0 0 0 0 -102312534.88464582 -18073114.523237228 0 -18073114.523237228 57933645.051555634 0 0 0 0 -2302367.5679426193 11456240.074638367 0 11456240.074638367 9967178.5200750828 0 0 0 0 -15859654.054880381 12239972.773757935 0 12239972.773757935 63790172.284759521 0 0 0 0 -2595982.2772712708 9690211.4513549805 0 9690211.4513549805 10335326.597511292 0 0 0 0 -972273.98589468002 8616752.8667831421 0 8616752.8667831421 11043338.857185364 0 0 0 0 404253.07227914454 12484403.129913822 0 12484403.129913822 6600933.2724328451 0 0 0 0 20270822.627837181 10777464.44952774 0 10777464.44952774 -49545541.003189087 0 0 0 0 -60363.929449000454 1730205.2167163044 0 1730205.2167163044 4064472.9991585668 0 0 0 0 19298832.739158154 37927246.299926758 0 37927246.299926758 -3506158.7781114578 0 0 0 0 -7113848.9465508461 11934775.372886658 0 11934775.372886658 31353264.885398865 0 0 0 0 -2209199.8133267188 12956097.983207613 0 12956097.983207613 13694328.293949798 0 0 0 0 -341071.7972147027 5579432.6322378591 0 5579432.6322378591 23309952.19369207 0 0 0 0 1791618.3963308334 4659517.8361053467 0 4659517.8361053467 13976114.424690247 0 0 0 0 1519046.9608714283 14263145.440597486 0 14263145.440597486 -12387353.022965461 0 0 0 0 467780.81584727764 21318975.416610718 0 21318975.416610718 -28749915.652801514 0 0 0 0 68555849.105492592 13068636.971038818 0 13068636.971038818 -28722318.223838806 0 0 0 0 -6629649.0013709068 9068693.9181289673 0 9068693.9181289673 -15433308.082958221 0 0 0 0 -1251849.1508435034 2072484.9846048206 0 2072484.9846048206 -9734.3071739524603 0 0 0 0 24905627.404486656 2456926.0426559448 0 2456926.0426559448 -14135688.975345612 0 0 0 0 21438211.906888962 11988091.511047363 0 11988091.511047363 -2348727.2803573608 0 0 0 0 61576272.194380999 -18950461.925964355 0 -18950461.925964355 -37110596.681093216 0 0 0 0 1787065.3780753613 500113.15498352051 0 500113.15498352051 -31411391.177352905 0 0 0 0 2521995.914441918 3897861.0136083886 0 3897861.0136083886 -6879321.7703117877 0 0 0 0 5203798.3424954414 27281363.120918274 0 27281363.120918274 -52526296.428497314 0 0 0 0 -32576148.43775034 51219329.299964905 0 51219329.299964905 48319347.344932556 0 0 0 0 -18437885.549578905 17408656.958839417 0 17408656.958839417 87865163.762374878 0 0 0 0 522627.43675759266 11990490.812912688 0 11990490.812912688 6763073.0332815703 0 0 0 0 9504467.6522922814 7347606.7132148743 0 7347606.7132148743 253869.10691833496 0 0 0 0 17402278.474841833 37378538.992897034 0 37378538.992897034 4101801.6225128174 0 0 0 0 1562688.454364561 11423121.98735534 0 11423121.98735534 4129474.0380959213 0 0 0 0 -1519142.2047624472 397387.46473734081 0 397387.46473734081 5928840.5973093361 0 0 0 0 6042379.5800728798 95891528.111877441 0 95891528.111877441 60775390.243114471 0 0 0 0 93824820.129244924 74072634.577140808 0 74072634.577140808 -47380659.509048462 0 0 0 0 16411543.613980796 18603381.615506649 0 18603381.615506649 19507356.16947937 0 0 0 0 216992.08885432896 4790687.3042641655 0 4790687.3042641655 13034273.096668266 0 0 0 0 -30386032.555441856 -108912412.79109192 0 -108912412.79109192 105064845.54632187 0 0 0 0 15077785.12454164 67463583.227331161 0 67463583.227331161 38203175.166183472 0 0 0 0 -23106271.292734146 36583239.748588562 0 36583239.748588562 28043564.730712891 0 0 0 0 -1802757.4167441726 -57354475.056785583 0 -57354475.056785583 125769761.50915527 0 0 0 0 3252982.5065370956 1567270.2976436168 0 1567270.2976436168 -5640518.1200992912 0 0 0 0 46749982.577915668 10897931.291168213 0 10897931.291168213 -26366203.923553467 0 0 0 0 21745539.362353802 1510834.725440979 0 1510834.725440979 -27163053.958438873 0 0 0 0 4897180.5750987669 11421963.573589571 0 11421963.573589571 3138954.4248507936 0 0 0 0 3670328.8935742378 -689575.23408126831 0 -689575.23408126831 -3545913.7032775879 0 0 0 0 -8841387.0060310364 68782100.842269897 0 68782100.842269897 -91657771.273223877 0 0 0 0 59758547.647628784 27006020.976776123 0 27006020.976776123 -66608344.526794434 0 0 0 0 7022948.4081585519 2865904.4045929871 0 2865904.4045929871 2183256.2672299147 0 0 0 0 51646241.261520386 166588164.02789307 0 166588164.02789307 -11905534.353210449 0 0 0 0 -34167477.959720612 97588509.213973999 0 97588509.213973999 -55853530.877960205 0 0 0 0 7917187.7774118148 9573921.9419644028 0 9573921.9419644028 6137829.8686912432 0 0 0 0 -13279550.887392998 31143240.301101685 0 31143240.301101685 23411463.432479858 0 0 0 0 11156077.73851347 -6364904.728061676 0 -6364904.728061676 -11532808.123352051 0 0 0 0 25178150.851885319 3478594.291305542 0 3478594.291305542 38403428.904006958 0 0 0 0 9203842.0203793701 9155403.5058563203 0 9155403.5058563203 7613396.9306380153 0 0 0 0 -7761244.7439849377 1809957.228225708 0 1809957.228225708 4293565.4843444824 0 0 0 0 1052289.9132333067 2411022.4946978781 0 2411022.4946978781 16326714.12061137 0 0 0 0 -54634926.597937584 -12668936.828289032 0 -12668936.828289032 36684848.094787598 0 0 0 0 -238644.47543144226 1770668.2605895996 0 1770668.2605895996 3722855.8393859863 0 0 0 0 3051064.1993924091 9651359.359584555 0 9651359.359584555 11124520.200981691 0 0 0 0 37013905.016527176 20137414.015945435 0 20137414.015945435 -107312475.96789551 0 0 0 0 38732832.64535141 -2318691.3831634521 0 -2318691.3831634521 -221469225.91949463 0 0 0 0 8934764.9018313233 2089810.6873626411 0 2089810.6873626411 9064668.6710386015 0 0 0 0 1190869.8116283407 566036.67097021267 0 566036.67097021267 86101.811719596386 0 0 0 0 -32633316.952102184 -13500860.017486572 0 -13500860.017486572 11746206.407958984 0 0 0 0 -41643870.921009064 -31407055.248779297 0 -31407055.248779297 63492852.529205322 0 0 0 0 4262621.6003779098 1442810.4957745448 0 1442810.4957745448 12490181.624947846 0 0 0 0 -202822171.06467772 40644962.149597168 0 40644962.149597168 32714771.971008301 0 0 0 0 -2740094.3347589034 -1844880.8971177153 0 -1844880.8971177153 3742682.4542500079 0 0 0 0 2086721.8817610582 4981616.4457092881 0 4981616.4457092881 19223655.48807624 0 0 0 0 -19268173.07563591 25182115.041107178 0 25182115.041107178 28676220.723327637 0 0 0 0 5397616.624376297 12492046.567092896 0 12492046.567092896 20271486.820495605 0 0 0 0 9665341.2033610344 14154256.964427948 0 14154256.964427948 18991557.152618408 0 0 0 0 15821631.585156441 14255798.072875977 0 14255798.072875977 19403216.89389801 0 0 0 0 4119506.8184615909 8610387.4172822461 0 8610387.4172822461 27795874.654270694 0 0 0 0 -524495.41255569458 16102683.142906189 0 16102683.142906189 24097319.314224243 0 0 0 0 -205858293.0728879 133342.78262329102 0 133342.78262329102 50598144.970001221 0 0 0 0 7292390.3842468262 19055536.862693787 0 19055536.862693787 22500004.904037476 0 0 0 0 -19163941.774705887 24180478.91418457 0 24180478.91418457 29815588.109664917 0 0 0 0 1758658.9685334386 10773418.463504918 0 10773418.463504918 32318839.536711767 0 0 0 0 6181096.9944834709 32847049.199508667 0 32847049.199508667 27105860.765274048 0 0 0 0 -14654808.352468491 9257103.2688369751 0 9257103.2688369751 29433190.536849976 0 0 0 0 26042183.295948505 17359376.448272705 0 17359376.448272705 15952915.460449219 0 0 0 0 28452573.725708961 22467333.381591797 0 22467333.381591797 22588731.105178833 0 0 0 0 31285864.906723976 48565091.229782104 0 48565091.229782104 62925593.08984375 0 0 0 0 54975697.720285416 19344303.207305908 0 19344303.207305908 17577784.623687744 0 0 0 0 21250310.087688446 31209211.428009033 0 31209211.428009033 33134900.44644928 0 0 0 0 5688119.5664234161 32340937.721038818 0 32340937.721038818 33669267.008989334 0 0 0 0 15423069.386162758 18227379.759666443 0 18227379.759666443 16493052.506439209 0 0 0 0 7966451.472073555 16370118.244750977 0 16370118.244750977 21121454.330490112 0 0 0 0 11286574.513931751 8034400.7892532349 0 8034400.7892532349 16038269.150344849 0 0 0 0 17675129.748223305 14729183.776573181 0 14729183.776573181 19733641.853766441 0 0 0 0 -3982946.3153177844 8127774.0841442421 0 8127774.0841442421 13520557.658948652 0 0 0 0 -1588948.6367900372 3389157.1183395386 0 3389157.1183395386 -42175676.934657097 0 0 0 0 -141722.05439507961 21538290.079547882 0 21538290.079547882 14974492.622146606 0 0 0 0 -6348458.98604846 8902782.9188995361 0 8902782.9188995361 22046303.11831665 0 0 0 0 -17264982.977885246 14135442.748687744 0 14135442.748687744 24296008.888954163 0 0 0 0 -1226131.7881759547 668350.32170221582 0 668350.32170221582 1839424.8306061998 0 0 0 0 -9782893.825622797 13848547.603275299 0 13848547.603275299 31076494.204055786 0 0 0 0 2368087.0251586302 10353186.150365155 0 10353186.150365155 4606336.0261279941 0 0 0 0 12576208.022361279 12773522.894271851 0 12773522.894271851 15220918.577694893 0 0 0 0 16912085.784288168 -10096974.37443161 0 -10096974.37443161 6704793.747253418 0 0 0 0 -14753952.463704586 -460364.67358779907 0 -460364.67358779907 22770019.966271877 0 0 0 0 112940546.4809013 -3393517.1967697144 0 -3393517.1967697144 22483073.919250488 0 0 0 0 58554527.948903918 77057721.15954423 0 77057721.15954423 105684394.25637817 0 0 0 0 -3665621.4200448343 -5655893.1523788497 0 -5655893.1523788497 17819468.381751187 0 0 0 0 -1494644.3599909861 755607.89222646132 0 755607.89222646132 2235706.7862148732 0 0 0 0 -556699.10459553218 -18139.769712761045 0 -18139.769712761045 1373128.8837952614 0 0 0 0 100156410.27089024 43165552.397666931 0 43165552.397666931 75742035.014892578 0 0 0 0 59052755.521328449 67753474.135345459 0 67753474.135345459 134552244.92201233 0 0 0 0 -12467365.109001398 5943867.8133239746 0 5943867.8133239746 31399040.646224976 0 0 0 0 -8126602.6297447681 12113736.206861496 0 12113736.206861496 28400241.506057739 0 0 0 0 -8361727.3789839745 2733974.7752075195 0 2733974.7752075195 32370506.470726013 0 0 0 0 -13411619.791349158 -28294224.501143456 0 -28294224.501143456 20724113.759284973 0 0 0 0 -3013871.8704599142 213106.9055557251 0 213106.9055557251 18459774.752090454 0 0 0 0 109691431.87103558 90909737.655036926 0 90909737.655036926 118669808.27380371 0 0 0 0 -4495030.8614739515 -3490343.8808969259 0 -3490343.8808969259 13916539.867681757 0 0 0 0 58267789.406967163 42188117.514526367 0 42188117.514526367 75659281.997070312 0 0 0 0 34386394.726284981 30703265.681213379 0 30703265.681213379 81558797.947998047 0 0 0 0 17613638.542272091 68952879.217376709 0 68952879.217376709 122417414.49528503 0 0 0 0 4301863.4277243614 44094118.99067688 0 44094118.99067688 117837525.82720947 0 0 0 0 -6527951.4979350567 7937612.0340881348 0 7937612.0340881348 86871024.65612793 0 0 0 0 29584834.253241539 1171791.9869766235 0 1171791.9869766235 38762498.946395874 0 0 0 0 -3505484.3321595308 1033952.792122744 0 1033952.792122744 10889270.269385681 0 0 0 0 48497350.364965439 16537848.205474854 0 16537848.205474854 55618835.155456543 0 0 0 0 1524239.5640163422 21731327.811523438 0 21731327.811523438 57554008.575828552 0 0 0 0 -1020489.4129638672 15304201.170379639 0 15304201.170379639 67639801.95290184 0 0 0 0 -29734144.948009491 -2832797.9238433838 0 -2832797.9238433838 65877400.276266098 0 0 0 0 -5806691.166795982 5232649.113517914 0 5232649.113517914 21080133.960888125 0 0 0 0 785781228.78334713 -61995490.655952454 0 -61995490.655952454 -156534349.52664185 0 0 0 0 -17609423.879320145 -9234082.3002090454 0 -9234082.3002090454 33238791.361618042 0 0 0 0 -350485931.7886548 -39170836.923347473 0 -39170836.923347473 256286875.93399811 0 0 0 0 -112779146.15544748 597945816.97601318 0 597945816.97601318 243933983.15664673 0 0 0 0 -11582292.716171265 -3259117.8779296875 0 -3259117.8779296875 51837995.370628357 0 0 0 0 -25797842.275837898 -16183328.925642014 0 -16183328.925642014 56717832.062011719 0 0 0 0 -24100212.811432153 11178695.870519161 0 11178695.870519161 72440404.563964844 0 0 0 0 -38715642.992004395 10748233.693717957 0 10748233.693717957 56963828.946716309 0 0 0 0 -24101519.881890714 10957019.911389589 0 10957019.911389589 40803776.788421631 0 0 0 0 -3227342.3620910645 30588165.292663574 0 30588165.292663574 66764247.123565674 0 0 0 0 -646310.91967582703 16007801.893768311 0 16007801.893768311 55991975.904998779 0 0 0 0 1549317.823923111 28342127.89743042 0 28342127.89743042 98166669.146270752 0 0 0 0 33481842.780929565 33359981.989257812 0 33359981.989257812 60513418.611610413 0 0 0 0 116222098.53973597 67252259.886445522 0 67252259.886445522 52501525.702941895 0 0 0 0 40495734.598039627 56130990.428588867 0 56130990.428588867 129962614.98614502 0 0 0 0 33915151.834361076 24764021.848754883 0 24764021.848754883 74668978.181671143 0 0 0 0 44071200.453910828 4293081.444442749 0 4293081.444442749 113622379.02989197 0 0 0 0 1683698.4299221039 9462598.2742767334 0 9462598.2742767334 80118583.13104248 0 0 0 0 87358.588163119683 6471887.8984122127 0 6471887.8984122127 7410248.3695428371 0 0 0 0 -17388517.500566483 29643433.407737732 0 29643433.407737732 28773496.811855316 0 0 0 0 -954771.38109062775 12152471.29460033 0 12152471.29460033 36785897.016926676 0 0 0 0 -12959434.915284157 -343790.85317993164 0 -343790.85317993164 14578995.214164734 0 0 0 0 -9845396.32006073 2176758.8678703308 0 2176758.8678703308 16061627.745162964 0 0 0 0 -418551.61555734329 10128608.177422419 0 10128608.177422419 27241188.435750514 0 0 0 0 786761.64669411059 9177159.2801042181 0 9177159.2801042181 25477657.734007403 0 0 0 0 -22587086.504039764 -29458655.197486877 0 -29458655.197486877 -3861202.1693973541 0 0 0 0 -1476476.0406029532 1612951.6574026532 0 1612951.6574026532 20097867.063319534 0 0 0 0 -60008580.469936609 -35101184.811187744 0 -35101184.811187744 13110701.716209412 0 0 0 0 3547194.1600224972 -10965074.575950623 0 -10965074.575950623 -2315537.920501709 0 0 0 0 -1067724.7586618438 -2732036.2068512365 0 -2732036.2068512365 475045.48325501382 0 0 0 0 -52882154.57853809 -64055113.933128357 0 -64055113.933128357 -56441721.854354858 0 0 0 0 -371020.04124651605 520655.27613940835 0 520655.27613940835 1963338.8762159906 0 0 0 0 -8163209.4262511432 15762409.186630249 0 15762409.186630249 22713081.273910522 0 0 0 0 -350676.9629755193 4464996.4341331944 0 4464996.4341331944 16454406.757493768 0 0 0 0 34289776.511653781 35592150.120761871 0 35592150.120761871 3745007.9117126465 0 0 0 0 -99173.220543562682 2973713.2702002134 0 2973713.2702002134 1877732.2893498689 0 0 0 0 -50991369.996251471 -14953629.579025269 0 -14953629.579025269 55612439.745300293 0 0 0 0 -7762140.0264748186 19509641.107561111 0 19509641.107561111 -15133679.53968811 0 0 0 0 -44508938.782606244 33693033.242996216 0 33693033.242996216 10878382.219398499 0 0 0 0 14478131.798431166 -65916874.414970398 0 -65916874.414970398 91999204.443145752 0 0 0 0 97149.023525708297 600456.99727978371 0 600456.99727978371 438960.03120501339 0 0 0 0 -26041601.922339261 -42565388.396240234 0 -42565388.396240234 185037306.00552368 0 0 0 0 74336709.343500137 50819945.312744141 0 50819945.312744141 29490182.198661804 0 0 0 0 125642301.64843668 96175980.618865967 0 96175980.618865967 -94810121.877746582 0 0 0 0 831713.47961784969 2066126.3704853356 0 2066126.3704853356 3301013.8142279983 0 0 0 0 68556084.607021093 31233824.280563354 0 31233824.280563354 46692155.598388672 0 0 0 0 62217916.490804791 62426220.302124023 0 62426220.302124023 56101011.790328979 0 0 0 0 3699033.4699316025 37717512.656707764 0 37717512.656707764 48043047.78704834 0 0 0 0 19614329.769446284 37496853.723823547 0 37496853.723823547 14125957.138244629 0 0 0 0 64188865.977957428 31223370.280105591 0 31223370.280105591 2565500.5297088623 0 0 0 0 19497964.269342661 37764963.760803223 0 37764963.760803223 17555127.515716553 0 0 0 0 -103753389.16011453 41973481.877914429 0 41973481.877914429 41402241.774108887 0 0 0 0 2601903.8696086407 77336725.773727417 0 77336725.773727417 17135462.215631485 0 0 0 0 -206827921.81598529 5734421.2604560852 0 5734421.2604560852 133198121.19122314 0 0 0 0 -20748533.860927105 -1120110.0367431641 0 -1120110.0367431641 2462103.1588401794 0 0 0 0 18448425.632065296 49191429.848190308 0 49191429.848190308 65502623.643432617 0 0 0 0 84811553.683266163 -24342708.226791382 0 -24342708.226791382 60367268.581726074 0 0 0 0 -73652583.022861481 90403439.754058838 0 90403439.754058838 144894933.79638672 0 0 0 0 23820604.472232342 17959738.021514893 0 17959738.021514893 138672255.25894165 0 0 0 0 -31952611.160274744 8264828.6065979004 0 8264828.6065979004 137107152.18195343 0 0 0 0 7075975.0192061663 -39158219.849006653 0 -39158219.849006653 194716655.27032471 0 0 0 0 -11834434.032032877 90058709.337070465 0 90058709.337070465 307837619.06463623 0 0 0 0 -29344652.484799862 -18895617.265792847 0 -18895617.265792847 145117426.68850708 0 0 0 0 1926256.0698671341 -66740596.22052002 0 -66740596.22052002 215900163.8190918 0 0 0 0 -36199563.244926214 -59149608.56918335 0 -59149608.56918335 82631006.839019775 0 0 0 0 -169069940.42747831 -69911192.940032959 0 -69911192.940032959 202732950.95281982 0 0 0 0 -124072501.46723557 41450604.181854248 0 41450604.181854248 -32336524.549316406 0 0 0 0 19156335.112389803 -100438999.77458191 0 -100438999.77458191 -7901631.4307250977 0 0 0 0 -206879197.93130898 -24306708.113052368 0 -24306708.113052368 149508730.18994141 0 0 0 0 205376511.89337206 -32051518.255241394 0 -32051518.255241394 -33035137.341003418 0 0 0 0 1661996.9668073142 -1465836.8511357605 0 -1465836.8511357605 -681136.05748066306 0 0 0 0 73228978.436257362 -163221851.43185425 0 -163221851.43185425 67679420.202781677 0 0 0 0 -119010199.44502163 -79848774.702545166 0 -79848774.702545166 56764108.789001465 0 0 0 0 74818731.652956963 -2829461.901184082 0 -2829461.901184082 -2728546.6848468781 0 0 0 0 90619500.497825265 -106797310.82443619 0 -106797310.82443619 34604025.973083496 0 0 0 0 -44364842.94326973 -44627792.490447998 0 -44627792.490447998 21592053.36541748 0 0 0 0 13126851.25589668 825579.50827152282 0 825579.50827152282 13334098.313494187 0 0 0 0 5206777.42029953 -18677643.139434814 0 -18677643.139434814 1080023.5950317383 0 0 0 0 15052222.454636574 -18229460.455413818 0 -18229460.455413818 1096830.3101463318 0 0 0 0 24752438.253326416 3681502.6385879517 0 3681502.6385879517 -153081061.64437866 0 0 0 0 18364165.410410881 -44978598.185668945 0 -44978598.185668945 20890412.297790527 0 0 0 0 26108216.082140923 -18126930.970230103 0 -18126930.970230103 -2564890.0430603027 0 0 0 0 28010208.939986229 -9061563.6001586914 0 -9061563.6001586914 -3019826.8419780731 0 0 0 0 20847066.697292328 -22566412.959960938 0 -22566412.959960938 -3959729.6585693359 0 0 0 0 56417682.08007288 -25796933.698013306 0 -25796933.698013306 -3802995.7570800781 0 0 0 0 17917916.674961329 -14770273.539520264 0 -14770273.539520264 1978511.8164367676 0 0 0 0 794234.2591085434 -173431083.56314087 0 -173431083.56314087 59619483.514648438 0 0 0 0 25339139.764564514 -118409825.36407471 0 -118409825.36407471 -126326516.08950806 0 0 0 0 6226763.8635519193 -6073540.5934092477 0 -6073540.5934092477 -3331434.0691190064 0 0 0 0 -2483953.0097928047 -119094390.09527588 0 -119094390.09527588 -44451671.074462891 0 0 0 0 -17985243.607839346 -110784477.11932373 0 -110784477.11932373 24053111.473205566 0 0 0 0 -36347778.568746448 -155894203.46363831 0 -155894203.46363831 -13817939.137145996 0 0 0 0 -23069286.132319331 -167383725.59651184 0 -167383725.59651184 -32213435.162967682 0 0 0 0 -18876168.539422467 23672828.933655739 0 23672828.933655739 -32101334.706634521 0 0 0 0 4312993.4405866219 -210976.00236286968 0 -210976.00236286968 -4369892.7664625347 0 0 0 0 -120952157.37311554 -185442945.89501572 0 -185442945.89501572 -52323507.782104492 0 0 0 0 81426290.423522949 -34897417.545501709 0 -34897417.545501709 -21840417.535644531 0 0 0 0 9026990.386567615 -2946747.7710005995 0 -2946747.7710005995 -7501587.059179917 0 0 0 0 14837817.84588407 -9137770.0998382941 0 -9137770.0998382941 9901270.1494355649 0 0 0 0 693814.40704345703 456407.76937866211 0 456407.76937866211 -5642240.7102966309 0 0 0 0 63823190.513645172 -12687198.184310913 0 -12687198.184310913 -96583380.908111572 0 0 0 0 103184697.97915745 -49163148.58045578 0 -49163148.58045578 -150079999.63745117 0 0 0 0 4296819.2780800769 -3792797.3192900717 0 -3792797.3192900717 3291611.8335661888 0 0 0 0 52381615.963626266 17367645.827590942 0 17367645.827590942 -124846433.23789978 0 0 0 0 2142165.0020303726 -3455470.3967590332 0 -3455470.3967590332 1059241.6951446533 0 0 0 0 2876477.1518422225 -4951398.6270759627 0 -4951398.6270759627 7277531.3005407006 0 0 0 0 3995570.1502010417 -5765429.8785381839 0 -5765429.8785381839 5476367.3357763514 0 0 0 0 1948035.1583795547 -2807465.6691741943 0 -2807465.6691741943 648988.48616409302 0 0 0 0 7702200.3734469507 -6991682.5300812162 0 -6991682.5300812162 8331163.919059068 0 0 0 0 17946362.219787121 -52213275.450761795 0 -52213275.450761795 -20997968.189331055 0 0 0 0 76643029.209062219 -61057589.617324829 0 -61057589.617324829 -172536130.12179565 0 0 0 0 -30299097.551546998 -28883506.747010231 0 -28883506.747010231 -55567854.924194336 0 0 0 0 146551836.7635988 -101442064.63908386 0 -101442064.63908386 -25970878.485610962 0 0 0 0 128885626.2618649 9780307.679901123 0 9780307.679901123 -57222031.660697937 0 0 0 0 -18573356.135070324 9285420.4271469116 0 9285420.4271469116 -53658567.118103027 0 0 0 0 6548355.1699802577 59982617.75643158 0 59982617.75643158 82477901.816101074 0 0 0 0 41127774.75518173 8316112.0224456787 0 8316112.0224456787 76999564.54977417 0 0 0 0 109371688.60157283 129290419.0541153 0 129290419.0541153 291356630.97851562 0 0 0 0 10520780.28546834 -85033453.562606812 0 -85033453.562606812 169772663.18719482 0 0 0 0 67195967.543684125 8594509.7204589844 0 8594509.7204589844 49200488.911865234 0 0 0 0 323946832.36228079 -44713921.37663269 0 -44713921.37663269 59820918.54107666 0 0 0 0 81749488.608182788 -132050397.26609039 0 -132050397.26609039 460284360.39880371 0 0 0 0 49045338.451533556 -21399940.226104736 0 -21399940.226104736 131464928.95471954 0 0 0 0 170476797.74429128 211705156.05194092 0 211705156.05194092 294394358.47155762 0 0 0 0 40455773.563946337 -164500938.07044983 0 -164500938.07044983 201072298.69650269 0 0 0 0 325154.81414084823 504759.78957648948 0 504759.78957648948 1071446.8083180338 0 0 0 0 126791996.26434231 86908395.92250061 0 86908395.92250061 97211773.25227356 0 0 0 0 15687680.746963263 -63862296.046638489 0 -63862296.046638489 192889338.77633667 0 0 0 0 52870791.80887942 -128529865.17744446 0 -128529865.17744446 305237289.66431808 0 0 0 0 -47257173.228156596 -132886605.63633728 0 -132886605.63633728 124791500.08674622 0 0 0 0 41120.877940038539 -71866.341438375413 0 -71866.341438375413 75666.743366947398 0 0 0 0 -10586441.984932601 -55002619.845809937 0 -55002619.845809937 -76116818.454620361 0 0 0 0 -48999368.649816751 -51007639.075256348 0 -51007639.075256348 362805300.00576973 0 0 0 0 -14640245.42648077 -4714020.7822952271 0 -4714020.7822952271 11592722.902191162 0 0 0 0 -43549982.71118021 9945170.0973243713 0 9945170.0973243713 5729973.61378479 0 0 0 0 -43832199.132052422 3642283.6749267578 0 3642283.6749267578 51555673.413375854 0 0 0 0 -6044980.339612484 49097045.550628662 0 49097045.550628662 99701204.59882164 0 0 0 0 18106937.642397463 53895547.128879547 0 53895547.128879547 -25862048.995941162 0 0 0 0 -24775420.323717058 41926599.181442261 0 41926599.181442261 -27477964.818435669 0 0 0 0 1723713.3709729183 -2435411.7471442521 0 -2435411.7471442521 3820543.3394345641 0 0 0 0 1117381.7013202868 -1396414.6725802422 0 -1396414.6725802422 2277896.5449368805 0 0 0 0 1851643.0021560336 -7411568.7392578125 0 -7411568.7392578125 9929979.4542388916 0 0 0 0 1634507.4515122534 -7646085.0591926575 0 -7646085.0591926575 13474340.787155151 0 0 0 0 -587342.92657446116 -1617982.9339977428 0 -1617982.9339977428 1996722.2827772982 0 0 0 0 -6811198.60303564 -3555079.8437957764 0 -3555079.8437957764 34766682.176277161 0 0 0 0 -7084647.6003008056 2197541.4685440063 0 2197541.4685440063 18436452.534225464 0 0 0 0 51257.973389409257 844458.15402984619 0 844458.15402984619 14629138.248977661 0 0 0 0 -6917637.5280246632 -3624293.3008956909 0 -3624293.3008956909 26731778.185546875 0 0 0 0 -351818.30557843577 -3026497.4768676758 0 -3026497.4768676758 11640677.432945251 0 0 0 0 -987132.83101185865 -2442330.693145752 0 -2442330.693145752 11885604.8177948 0 0 0 0 -17183.974064361239 67666.807189941406 0 67666.807189941406 5782591.2384490967 0 0 0 0 95.060166418086737 -2408461.3944320679 0 -2408461.3944320679 5717228.2576904297 0 0 0 0 231979.1763348206 257978.94677734375 0 257978.94677734375 5617551.9824099541 0 0 0 0 714794.46757148765 -995501.67623439431 0 -995501.67623439431 1732509.6703333855 0 0 0 0 182658.94041443415 -200979.71712383628 0 -200979.71712383628 176554.56427280977 0 0 0 0 12341612.898210675 -49253414.732971191 0 -49253414.732971191 171269669.25357056 0 0 0 0 -9793557.0650990307 -5565185.164024353 0 -5565185.164024353 -2088680.9377288818 0 0 0 0 -52120.063182255675 -473347.32086120546 0 -473347.32086120546 1173126.0448033744 0 0 0 0 220256.51003373595 -1330060.7496795654 0 -1330060.7496795654 1552786.8315429688 0 0 0 0 16039451.375776947 -52178277.546356201 0 -52178277.546356201 120894654.22967529 0 0 0 0 1269.4210211737452 -486736.99212646484 0 -486736.99212646484 968505.60256004333 0 0 0 0 477751.33008471358 -553183.36462705582 0 -553183.36462705582 596951.78881269693 0 0 0 0 14517510.131286234 -64849669.667274475 0 -64849669.667274475 134352634.79782104 0 0 0 0 -55644.729357925651 -76630351.893157959 0 -76630351.893157959 126802813.65170288 0 0 0 0 43242165.630640656 -39599758.181274414 0 -39599758.181274414 146755948.1138916 0 0 0 0 542305.07941123261 -51435627.210189819 0 -51435627.210189819 172971593.0227356 0 0 0 0 28178944.755361006 -69880098.646720886 0 -69880098.646720886 91314143.746643066 0 0 0 0 29998004.200169772 -26616117.692245483 0 -26616117.692245483 124266919.17019653 0 0 0 0 15126705.34060964 -71172984.94593811 0 -71172984.94593811 146970308.57022095 0 0 0 0 16614762.038888633 -72421496.585380554 0 -72421496.585380554 138419369.04623413 0 0 0 0 1311140.2074431777 -118847689.10361481 0 -118847689.10361481 148120573.01617432 0 0 0 0 -121885483.67595124 -59977533.725204468 0 -59977533.725204468 153268372.59407711 0 0 0 0 -3599676.5471244156 -124822738.92884064 0 -124822738.92884064 35421477.460571289 0 0 0 0 -1918596.9517834187 -77153309.241592407 0 -77153309.241592407 137621882.48307037 0 0 0 0 26064318.586660683 41550107.147460938 0 41550107.147460938 30753412.091140747 0 0 0 0 -74239651.85798955 60901201.925491333 0 60901201.925491333 33791651.543739319 0 0 0 0 30154647.743466258 -18909937.316207886 0 -18909937.316207886 -39273804.423728943 0 0 0 0 -124332521.23988536 -25117641.074325562 0 -25117641.074325562 58807548.743347168 0 0 0 0 -47641729.151803493 -12227140.060668945 0 -12227140.060668945 33106633.526550293 0 0 0 0 23763681.254551649 51719794.606185913 0 51719794.606185913 56657452.963912964 0 0 0 0 -12917874.237636149 66073460.075389862 0 66073460.075389862 57288031.823883057 0 0 0 0 125762681.75686422 75292428.60345459 0 75292428.60345459 55912091.31854248 0 0 0 0 57868175.211494684 86124336.22240448 0 86124336.22240448 71914610.528930664 0 0 0 0 79088425.178452089 78326168.429748535 0 78326168.429748535 49771227.921852112 0 0 0 0 20429912.233151883 41271990.542831421 0 41271990.542831421 72805775.870330811 0 0 0 0 72624826.85038735 59521915.727180481 0 59521915.727180481 53671024.645355225 0 0 0 0 171344657.78613457 163468175.93256378 0 163468175.93256378 167709615.71157837 0 0 0 0 5722.020062805228 6463853.8128051758 0 6463853.8128051758 -9776476.1854553223 0 0 0 0 -53338.993913040889 181655.44344360754 0 181655.44344360754 407900.31732733548 0 0 0 0 50912159.379223406 49218680.070724487 0 49218680.070724487 263113232.2882843 0 0 0 0 41389723.922649272 -6920886.4627685547 0 -6920886.4627685547 94405108.083786011 0 0 0 0 52814815.985188842 86956882.218437195 0 86956882.218437195 137179842.681427 0 0 0 0 -3207542.2562851086 -11374217.582687378 0 -11374217.582687378 32757249.407531738 0 0 0 0 -1969733.1364624053 -11249035.720550537 0 -11249035.720550537 31813002.891052246 0 0 0 0 -4048456.7450668886 -12630366.259140015 0 -12630366.259140015 33946013.090454102 0 0 0 0 -1396806.3724870607 -14080683.642807007 0 -14080683.642807007 33024002.92350769 0 0 0 0 -1658089.7588934153 -13090478.504562378 0 -13090478.504562378 29841113.733566284 0 0 0 0 -1563491.1047126662 -10560335.868141174 0 -10560335.868141174 32624391.867919922 0 0 0 0 -458.69836480718004 -10249225.492408752 0 -10249225.492408752 30030152.345275879 0 0 0 0 -2296268.2758945636 -11036893.299682617 0 -11036893.299682617 32877433.930671692 0 0 0 0 -3431257.755422093 -9029273.524887085 0 -9029273.524887085 34660005.990257263 0 0 0 0 -2253114.8251530379 -10965969.69568634 0 -10965969.69568634 32931674.036682129 0 0 0 0 -4682917.9712167084 -9500968.2213439941 0 -9500968.2213439941 35390786.923950195 0 0 0 0 -2038422.713778317 -10948731.571380615 0 -10948731.571380615 35757322.21710968 0 0 0 0 -5753619.2652795762 -9841258.7667236328 0 -9841258.7667236328 35349566.409576416 0 0 0 0 -8808842.0367321298 -3633835.2119750977 0 -3633835.2119750977 31231154.308380127 0 0 0 0 -8748297.5992449149 -11436902.720245361 0 -11436902.720245361 35206016.244171143 0 0 0 0 -5459515.8305742741 -9280351.5065002441 0 -9280351.5065002441 25982402.415817261 0 0 0 0 -7814652.2900990471 -2462265.1835479736 0 -2462265.1835479736 38852728.16229248 0 0 0 0 -9022715.7980382275 109007.99316208065 0 109007.99316208065 13413173.012366578 0 0 0 0 -8015141.2352995295 4332155.1077690125 0 4332155.1077690125 20189387.264312744 0 0 0 0 -2460608.4709453583 -4892788.7144470215 0 -4892788.7144470215 11768703.541755676 0 0 0 0 -6751342.0028362274 -7593703.2617874146 0 -7593703.2617874146 20137093.221679688 0 0 0 0 -10728731.303957794 -8143132.4634147435 0 -8143132.4634147435 18006896.976185426 0 0 0 0 -2884472.1286765202 -522754.90518723428 0 -522754.90518723428 3100522.3627621382 0 0 0 0 -14847532.575031728 -4231195.0517578125 0 -4231195.0517578125 34368151.301391602 0 0 0 0 -1646833.2324822135 -16622917.033424377 0 -16622917.033424377 25720865.448608398 0 0 0 0 5848778.9109230042 -3577370.3676452637 0 -3577370.3676452637 -25436136.226013184 0 0 0 0 -5043763.4736046661 -9610156.4346027225 0 -9610156.4346027225 7789152.7090754509 0 0 0 0 -17728785.566162109 -17619054.306625366 0 -17619054.306625366 2614706.4884033203 0 0 0 0 261813519.29872799 431622382.17588806 0 431622382.17588806 130817767.98843384 0 0 0 0 -323888.40382332727 -3462617.3313136771 0 -3462617.3313136771 -207198.73836568301 0 0 0 0 7138683.4653129578 -19216321.914672852 0 -19216321.914672852 -7208471.5697631836 0 0 0 0 -6884767.0171051025 -6220034.7568054199 0 -6220034.7568054199 -15165519.009155273 0 0 0 0 -22992395.626242638 -38582829.935260773 0 -38582829.935260773 -25622353.161254883 0 0 0 0 -87674727.691680908 -36088539.32950592 0 -36088539.32950592 89732228.826080322 0 0 0 0 56515321.160614014 -12392836.971374512 0 -12392836.971374512 -23603402.502929688 0 0 0 0 -13671591.011331951 -2673067.1889903396 0 -2673067.1889903396 17446756.175399438 0 0 0 0 573333767.73832214 36900806.951692581 0 36900806.951692581 16541594.061767578 0 0 0 0 362717.35592280515 2487298.9595621228 0 2487298.9595621228 6514648.4557565749 0 0 0 0 133852654.93139648 -501236695.94352722 0 -501236695.94352722 1818277033.1281357 0 0 0 0 587960886.19195175 998670191.70893097 0 998670191.70893097 1051303036.260025 0 0 0 0 -344481092.41065216 425679874.54649353 0 425679874.54649353 1477778320.2914293 0 0 0 0 -182910055.94329453 1193087067.070137 0 1193087067.070137 2027117101.295929 0 0 0 0 -368974373.10781479 806629035.99403381 0 806629035.99403381 1485192728.5326226 0 0 0 0 -104354597.30517769 697119702.05584717 0 697119702.05584717 1040581690.5458069 0 0 0 0 74051378.691429138 1002668444.9091797 0 1002668444.9091797 1563871491.9625015 0 0 0 0 -347721117.23989677 427742647.13490295 0 427742647.13490295 1944857083.8796234 0 0 0 0 -1498620.5224150997 -5959676.1464833468 0 -5959676.1464833468 -581872.16348236869 0 0 0 0 -8320690.2929679751 8699488.6989021301 0 8699488.6989021301 8960380.694732666 0 0 0 0 -59291613.161528587 -4729911.1351165771 0 -4729911.1351165771 935938033.27401733 0 0 0 0 -59859.267613273114 -10933747.613479614 0 -10933747.613479614 27958962.353881836 0 0 0 0 1037680.1901545695 -5941986.3654257879 0 -5941986.3654257879 5564121.5112663358 0 0 0 0 18994986.023189545 -15002918.538894653 0 -15002918.538894653 -23963081.329833984 0 0 0 0 -115746.31472946002 -11033867.700836182 0 -11033867.700836182 28625170.067596436 0 0 0 0 2758442.981822622 -4248365.2772621214 0 -4248365.2772621214 1879151.8591452241 0 0 0 0 32340.451398598445 -7234014.8740844727 0 -7234014.8740844727 3423965.3211450577 0 0 0 0 132156.77960907971 -4321795.3164761588 0 -4321795.3164761588 2569908.5883807503 0 0 0 0 3056678176.6546798 903692208.20727539 0 903692208.20727539 648983985.52416992 0 0 0 0 -1862608.5573437894 -382429647.75952148 0 -382429647.75952148 2455432667.0337906 0 0 0 0 -160501880.45785427 1572678597.7417297 0 1572678597.7417297 3105740101.8845501 0 0 0 0 126581.69908536682 -2557604.8146993667 0 -2557604.8146993667 5218182.4948786646 0 0 0 0 -936584394.0586797 -504910817.55522156 0 -504910817.55522156 3554787549.8726196 0 0 0 0 191880427.84262586 -176140669.21325493 0 -176140669.21325493 -44703619.675933838 0 0 0 0 -67360259.973916203 -2198056.7081832886 0 -2198056.7081832886 91994094.784240723 0 0 0 0 3123797.8025825853 -7521987.3734099045 0 -7521987.3734099045 11270323.113345668 0 0 0 0 -77640480.551946968 -59412391.943537712 0 -59412391.943537712 -2669137.5932006836 0 0 0 0 737523.76020010188 21498751.227325439 0 21498751.227325439 24703841.630187988 0 0 0 0 -8426807.3592375312 10097004.289108276 0 10097004.289108276 18352588.428356171 0 0 0 0 -28713294.947982982 8297890.3321380615 0 8297890.3321380615 19736596.334609985 0 0 0 0 -21365923.190221421 -8234838.4732208252 0 -8234838.4732208252 12733822.871398926 0 0 0 0 -3811053.9436755409 643602.43382263184 0 643602.43382263184 22225580.230659485 0 0 0 0 -16332361.278003605 -4619600.0352363586 0 -4619600.0352363586 20021967.000915527 0 0 0 0 -211820.41257995533 4800131.693031311 0 4800131.693031311 19245445.119781494 0 0 0 0 -4714654.4116811957 -14894579.980192184 0 -14894579.980192184 12756892.343109131 0 0 0 0 -2685982.8491150588 -9447527.867401123 0 -9447527.867401123 14054540.55821228 0 0 0 0 -596981.73153554648 -9086949.7574768066 0 -9086949.7574768066 13288354.653076172 0 0 0 0 -11682012.358747885 -14807108.935821533 0 -14807108.935821533 22065570.162963867 0 0 0 0 -17506129.539857045 -1605455.9307250977 0 -1605455.9307250977 17253545.941040039 0 0 0 0 -12744155.994472273 -19862957.909976959 0 -19862957.909976959 4047502.086730957 0 0 0 0 -31461458.431009397 -27990467.19972229 0 -27990467.19972229 6543322.2246665955 0 0 0 0 -127959340.31024611 309797379.67924881 0 309797379.67924881 279192731.17044067 0 0 0 0 -64478782.31461513 -1058831665.1020534 0 -1058831665.1020534 -788170666.71255493 0 0 0 0 7380867.1749458499 -10560714.136117365 0 -10560714.136117365 12185089.821019292 0 0 0 0 -30096174.733448621 -8090028.1333312988 0 -8090028.1333312988 15766335.104827881 0 0 0 0 -761122136.32077026 -966485851.74243164 0 -966485851.74243164 707521577.73886108 0 0 0 0 -978751654.46981525 -484456313.12799072 0 -484456313.12799072 2724340379.4718628 0 0 0 0 134550978.24664688 991896184.81624603 0 991896184.81624603 2865810837.1153107 0 0 0 0 1339159121.3493423 172810503.20088196 0 172810503.20088196 -698140954.19805908 0 0 0 0 -203595982.3676815 504408241.14797211 0 504408241.14797211 1731101472.1964417 0 0 0 0 -6261721.9165725708 377889028.63951874 0 377889028.63951874 949279067.7938652 0 0 0 0 -194348428.68977737 550746974.34970093 0 550746974.34970093 1939461716.4968872 0 0 0 0 -99962546.259086609 994126005.93476868 0 994126005.93476868 2736384205.0285645 0 0 0 0 1267684.0801910367 -1628287.747260917 0 -1628287.747260917 2149012.0890337229 0 0 0 0 -55842658.612743378 688948123.72911072 0 688948123.72911072 1699003601.0868835 0 0 0 0 -85276641.709211349 -105054105.02754402 0 -105054105.02754402 993855041.32479858 0 0 0 0 -132494928.27201796 80208648.677681923 0 80208648.677681923 2473593666.3419189 0 0 0 0 378760618.23178291 -186039507.87493134 0 -186039507.87493134 -217866485.82199097 0 0 0 0 180529417.78124619 -435784804.88965225 0 -435784804.88965225 1201942429.4356995 0 0 0 0 -155309692.27173615 -36959183.01612854 0 -36959183.01612854 778720508.9003067 0 0 0 0 31849523.819129944 -31735593.574447632 0 -31735593.574447632 948870124.12283325 0 0 0 0 99865066.290100098 -88235048.560218811 0 -88235048.560218811 153906959.27172852 0 0 0 0 10581693.194172794 -11515032.285466615 0 -11515032.285466615 10419869.024867982 0 0 0 0 -69675245.613231659 -311729204.36300659 0 -311729204.36300659 -430920163.97952271 0 0 0 0 148095026.34072876 281321557.0435257 0 281321557.0435257 -226943517.53570557 0 0 0 0 169125420.05990601 -223252280.30206299 0 -223252280.30206299 -521217230.99137878 0 0 0 0 321048144.40356064 92977343.515136719 0 92977343.515136719 -372538658.63204956 0 0 0 0 577784.57611846924 -50701063.896942139 0 -50701063.896942139 -402468653.39653778 0 0 0 0 149301587.97895813 187726185.07746887 0 187726185.07746887 -294928699.28014374 0 0 0 0 39023676.075653076 153370636.66278076 0 153370636.66278076 -269881284.35777283 0 0 0 0 -6238959.9675216675 -11711260.545822144 0 -11711260.545822144 -53626726.421142578 0 0 0 0 -41937374.729141235 -130066263.85424805 0 -130066263.85424805 -78132394.925506592 0 0 0 0 10264414.753730774 120147731.38230133 0 120147731.38230133 -75367788.289916992 0 0 0 0 76713767.357288361 88313239.855545044 0 88313239.855545044 -167731931.71905518 0 0 0 0 15614244.041564941 -53313566.165878296 0 -53313566.165878296 12229310.560882568 0 0 0 0 -65178073.449619532 -8995108.6837530136 0 -8995108.6837530136 -306057096.15527344 0 0 0 0 589375.30808798969 -711210.3166558817 0 -711210.3166558817 785524.18718962371 0 0 0 0 208601223.11711311 -71055664.35395813 0 -71055664.35395813 -78008119.178710938 0 0 0 0 134242327.5287056 -10718053.688405991 0 -10718053.688405991 74218835.351623535 0 0 0 0 195336177.13229465 -143902692.1509285 0 -143902692.1509285 -93450924.066467285 0 0 0 0 2376566.078408787 -493746.72618568316 0 -493746.72618568316 -2093809.3155395985 0 0 0 0 58695938.071649551 -215550955.97939301 0 -215550955.97939301 294527218.23550415 0 0 0 0 -323366414.49825668 -14270660.933433533 0 -14270660.933433533 208829416.68333435 0 0 0 0 532451669.42685509 145466096.49365234 0 145466096.49365234 55439908.962402344 0 0 0 0 -318067096.48766422 1021111144.6795845 0 1021111144.6795845 406761696.78990173 0 0 0 0 133506840.19455719 527244108.98863983 0 527244108.98863983 243762362.84059334 0 0 0 0 696486094.206604 881359632.66209412 0 881359632.66209412 449378568.43188477 0 0 0 0 -174222660.61558533 275111688.4691925 0 275111688.4691925 1772228059.3541107 0 0 0 0 -169263865.02442646 59417354.050359726 0 59417354.050359726 -153787881.5670929 0 0 0 0 -70277010.991511345 -380138234.15144825 0 -380138234.15144825 357678927.27114868 0 0 0 0 -73376175.444077253 -355462528.59828949 0 -355462528.59828949 301177318.64385986 0 0 0 0 -119695833.85709 -113606103.1603241 0 -113606103.1603241 203166525.55358315 0 0 0 0 206146133.88383865 -299599052.55871582 0 -299599052.55871582 186038603.46522141 0 0 0 0 655099601.85561752 -448169363.8584671 0 -448169363.8584671 40758300.403808594 0 0 0 0 345585331.92448807 -858696963.17816925 0 -858696963.17816925 850462781.09885406 0 0 0 0 45436773.932575226 -115213433.24907684 0 -115213433.24907684 134610007.60803223 0 0 0 0 464108889.99069977 -110746441.55603027 0 -110746441.55603027 -153160154.84365845 0 0 0 0 -165593130.16913417 24833279.420461476 0 24833279.420461476 82739422.801208496 0 0 0 0 -61952377.763637543 639782147.7816391 0 639782147.7816391 1567935562.209259 0 0 0 0 151634838.43017578 -409747763.87008667 0 -409747763.87008667 945956221.07463074 0 0 0 0 906201.93221300095 -5041167.0224078335 0 -5041167.0224078335 8010836.7019933611 0 0 0 0 -167015576.11401257 -129898639.04750443 0 -129898639.04750443 59297600.171081543 0 0 0 0 -9925774.3938312531 -5706502.7784423828 0 -5706502.7784423828 12702949.849411011 0 0 0 0 -9291587.1426849365 274993.11436462402 0 274993.11436462402 12971836.575775146 0 0 0 0 -6114293.3119789902 -5222353.5711925104 0 -5222353.5711925104 15823855.246069208 0 0 0 0 -20689045.697715759 31205079.716369629 0 31205079.716369629 -653884.8975982666 0 0 0 0 -2133462.180265747 1416018.8700129911 0 1416018.8700129911 -198303.53098450601 0 0 0 0 -175815853.66478348 -1886928.9404296875 0 -1886928.9404296875 142760768.42482758 0 0 0 0 125459463.30503845 -497289.35708618164 0 -497289.35708618164 26171602.054489136 0 0 0 0 -4661122.9075965881 252764.21308898926 0 252764.21308898926 12097986.331069946 0 0 0 0 -6714077.4846778074 -1812013.7260441482 0 -1812013.7260441482 17270485.314249702 0 0 0 0 -5712111.2594146729 -3589018.2988739014 0 -3589018.2988739014 15163162.038101196 0 0 0 0 -13133090.565821767 5166828.314956665 0 5166828.314956665 27510797.631759644 0 0 0 0 4149320.7380394936 -26250393.603094101 0 -26250393.603094101 -56126901.844329834 0 0 0 0 -766029.13498671539 -2196679.2093522884 0 -2196679.2093522884 3760957.4868888259 0 0 0 0 -9378497.8705187943 1183985.3571652174 0 1183985.3571652174 12976500.650273964 0 0 0 0 -218320584.57155228 130634125.17372131 0 130634125.17372131 31118490.404067993 0 0 0 0 -155489571.07849503 28129092.542625427 0 28129092.542625427 58702391.42370224 0 0 0 0 -64612203.392549515 44930564.067825317 0 44930564.067825317 56118483.328826904 0 0 0 0 -200726651.37580299 38819120.730384827 0 38819120.730384827 264190288.97616577 0 0 0 0 -138105315.21173859 -129865168.9902916 0 -129865168.9902916 538752589.55200195 0 0 0 0 -87800489.352546692 -135831892.03250122 0 -135831892.03250122 171961270.03373718 0 0 0 0 -18145234.955759048 -56723103.786685944 0 -56723103.786685944 -8579016.1477813721 0 0 0 0 234769566.80560875 247739145.23770905 0 247739145.23770905 335196773.75031662 0 0 0 0 -90185616.836917877 22567728.727012634 0 22567728.727012634 975989041.10127258 0 0 0 0 -89478655.797056198 -70588815.303283691 0 -70588815.303283691 283337463.00340271 0 0 0 0 -65447205.390304565 84834666.156402588 0 84834666.156402588 336868654.88787842 0 0 0 0 66641497.32995224 83581542.980331421 0 83581542.980331421 286656461.61753464 0 0 0 0 131645969.95618248 -76517064.934020996 0 -76517064.934020996 126952606.03092957 0 0 0 0 69033827.165341377 129387515.43383026 0 129387515.43383026 306126332.89416122 0 0 0 0 122470978.74325264 40784910.722385406 0 40784910.722385406 62764543.024246216 0 0 0 0 226186470.0244379 -99027466.392959595 0 -99027466.392959595 546532208.87008667 0 0 0 0 -325306847.3922472 625665890.46391296 0 625665890.46391296 286770186.18836212 0 0 0 0 -85165051.32600379 253770170.64476013 0 253770170.64476013 653625143.58453369 0 0 0 0 -45995472.587246895 300580818.4405365 0 300580818.4405365 664854107.61296082 0 0 0 0 84577433.722176015 171810213.55271149 0 171810213.55271149 700042265.26930237 0 0 0 0 46669206.010075569 6595140.1297302246 0 6595140.1297302246 27059089.60377121 0 0 0 0 147787204.76948929 -549178420.2948761 0 -549178420.2948761 790226578.23789978 0 0 0 0 -1679212.1842637267 -463442.21751943231 0 -463442.21751943231 2932905.6010220349 0 0 0 0 -27716924.429647446 -265481248.55607605 0 -265481248.55607605 335923616.59489441 0 0 0 0 -146011883.02160263 -390613372.8011322 0 -390613372.8011322 408896977.81140137 0 0 0 0 -415492366.31245804 -386807065.1003418 0 -386807065.1003418 621776670.10644531 0 0 0 0 -546553716.75318336 27994257.304695129 0 27994257.304695129 270703051.49818802 0 0 0 0 -2885946.995385834 -552324.72050641477 0 -552324.72050641477 5529194.2435125411 0 0 0 0 -361674427.29921675 -158447592.27385139 0 -158447592.27385139 503550001.5869751 0 0 0 0 -460752637.91100502 140726270.32408905 0 140726270.32408905 252997633.09136963 0 0 0 0 -123112614.1539669 -176368340.17259979 0 -176368340.17259979 312459588.0566082 0 0 0 0 -173297952.10091448 -248393632.72283936 0 -248393632.72283936 469808951.86105347 0 0 0 0 -1608423.9367863983 -321863.43057220429 0 -321863.43057220429 3013528.460836485 0 0 0 0 -62991381.986536026 -381502469.33733749 0 -381502469.33733749 916146209.84773254 0 0 0 0 126227984.7803688 395746755.8674469 0 395746755.8674469 777700208.98991966 0 0 0 0 -26006547.920257568 4303405.3794555664 0 4303405.3794555664 93789777.416351318 0 0 0 0 -17434855.333396912 63147113.060939789 0 63147113.060939789 390195661.45788574 0 0 0 0 236166086.98188019 142182279.33030701 0 142182279.33030701 4817569.5167541504 0 0 0 0 8237057.8903865814 -25364000.220817566 0 -25364000.220817566 21814651.994064331 0 0 0 0 -94232264.37544632 69978732.541957855 0 69978732.541957855 223709252.72920227 0 0 0 0 730202.87026357139 965591.77778191864 0 965591.77778191864 5797852.0721811354 0 0 0 0 2879402.8470964432 -14577154.961975098 0 -14577154.961975098 573559.13574981689 0 0 0 0 -14084026.896391869 -292861681.20238495 0 -292861681.20238495 465339816.39451599 0 0 0 0 -53294249.681059837 -219206844.48536682 0 -219206844.48536682 457520461.15090179 0 0 0 0 -22832833.425136328 -9482884.8364639282 0 -9482884.8364639282 20013891.466018677 0 0 0 0 -1142612.9346989226 137600.84419384599 0 137600.84419384599 5280202.9311432242 0 0 0 0 6763301.510591507 -193551860.45058441 0 -193551860.45058441 435717759.31904793 0 0 0 0 -15961621.312221527 -252382019.80401611 0 -252382019.80401611 318970529.72618103 0 0 0 0 285283936.68901253 -581057447.41147995 0 -581057447.41147995 944710364.06394958 0 0 0 0 163055104.61648893 -22606479.569648743 0 -22606479.569648743 802351748.04576111 0 0 0 0 50934743.496878266 265756275.09126663 0 265756275.09126663 667461464.3175354 0 0 0 0 250596828.00472659 242211715.1840477 0 242211715.1840477 82749344.572402954 0 0 0 0 -907899.87806074321 -156051.32180923596 0 -156051.32180923596 2405114.7334774286 0 0 0 0 38933467.269802809 -77979721.208648682 0 -77979721.208648682 95846707.365468979 0 0 0 0 150424528.02909648 133326657.96006584 0 133326657.96006584 171888600.70069885 0 0 0 0 -14050630.109054446 85232884.651376724 0 85232884.651376724 -59147542.574295044 0 0 0 0 3474775.9418399334 -54724482.458511353 0 -54724482.458511353 19456521.13243103 0 0 0 0 164100767.17200151 -27139618.925659657 0 -27139618.925659657 -10626303.712432861 0 0 0 0 319632167.3786459 -8877906.0457458496 0 -8877906.0457458496 -8687986.7515869141 0 0 0 0 -994720.81318786461 695385.14095421135 0 695385.14095421135 851260.93226928264 0 0 0 0 -53714628.723261178 215151569.33941174 0 215151569.33941174 223609075.94561768 0 0 0 0 158359390.92990875 213183189.97575378 0 213183189.97575378 219160207.40737915 0 0 0 0 -24346015.320502758 44458201.951522827 0 44458201.951522827 647935735.96044159 0 0 0 0 994911.54883824941 1049414.5665292889 0 1049414.5665292889 -581595.25891958177 0 0 0 0 112529716.87016466 188671225.52189112 0 188671225.52189112 206296264.92152405 0 0 0 0 128862145.65289259 -25323836.558021545 0 -25323836.558021545 285410486.97782135 0 0 0 0 71094281.168602288 101759014.02294159 0 101759014.02294159 681863303.53911591 0 0 0 0 -57671526.075090408 -14688451.160057068 0 -14688451.160057068 660424622.70318604 0 0 0 0 -71534073.968107104 145622.03053855896 0 145622.03053855896 751485367.33790588 0 0 0 0 312390390.9350583 -405958058.31782532 0 -405958058.31782532 623716022.79770803 0 0 0 0 203902139.3763051 95978164.183414459 0 95978164.183414459 663229688.24320221 0 0 0 0 479266491.37068844 -68746543.79234314 0 -68746543.79234314 655418442.88018036 0 0 0 0 493509604.13797545 -43980413.735801697 0 -43980413.735801697 559326984.61535645 0 0 0 0 -1337817.8988417271 -524479.61010837555 0 -524479.61010837555 2254091.1805507541 0 0 0 0 76720708.806574076 350679678.82038116 0 350679678.82038116 285680477.31515503 0 0 0 0 17905523.631986141 -50864061.597229004 0 -50864061.597229004 65247959.726402283 0 0 0 0 -27246214.474852562 -20310978.114242554 0 -20310978.114242554 123113120.23283386 0 0 0 0 -91428940.97157073 -51627364.958641052 0 -51627364.958641052 90678774.03037262 0 0 0 0 -109421850.53485775 -15387096.265102386 0 -15387096.265102386 18463388.270446777 0 0 0 0 -104507885.80963099 13880403.209632874 0 13880403.209632874 5618227.6351928711 0 0 0 0 -2209195.3438784904 -215733.9390883185 0 -215733.9390883185 4119964.7443019897 0 0 0 0 132027698.46571195 -250023067.15507889 0 -250023067.15507889 430580148.78166199 0 0 0 0 120024323.78149772 -192327578.0355072 0 -192327578.0355072 238681795.75966811 0 0 0 0 209431411.47959328 -275401410.07960892 0 -275401410.07960892 138100376.38513184 0 0 0 0 23727207.033564568 -170519172.54761124 0 -170519172.54761124 423866928.06144714 0 0 0 0 189650042.72614145 -143000925.08319473 0 -143000925.08319473 79583249.436431885 0 0 0 0 195201860.68561268 -174772593.52016449 0 -174772593.52016449 238098465.18647766 0 0 0 0 -29101140.190309525 -19850896.367492676 0 -19850896.367492676 -6679591.0783843994 0 0 0 0 -14734210.899653912 -35615950.164115906 0 -35615950.164115906 8525350.5772094727 0 0 0 0 7861140.4718313217 -26784971.406833649 0 -26784971.406833649 -4879989.4438018799 0 0 0 0 -25087226.114590645 -29076821.012954712 0 -29076821.012954712 20633293.532928467 0 0 0 0 -9891661.0539131165 -27558693.053894043 0 -27558693.053894043 -29798522.750488281 0 0 0 0 236348.25112912618 573022.28663825989 0 573022.28663825989 1138067.7308444865 0 0 0 0 -9508211.491355896 -27374318.877716064 0 -27374318.877716064 -40857767.368377686 0 0 0 0 -27204279.067616463 -26689634.694633484 0 -26689634.694633484 17941957.579498291 0 0 0 0 -7755865.0469113123 -8060664.4332727175 0 -8060664.4332727175 2507080.2914769277 0 0 0 0 -223570646.26309109 10997979.265838623 0 10997979.265838623 88409535.235977173 0 0 0 0 147799670.25201428 -146609667.5312767 0 -146609667.5312767 -15688000.758651733 0 0 0 0 116758262.05043125 -431867720.58739471 0 -431867720.58739471 268395075.12487793 0 0 0 0 -93647513.114930153 -311859233.22714996 0 -311859233.22714996 205344208.61961365 0 0 0 0 264285477.76448822 -219296544.65534973 0 -219296544.65534973 18464999.195373535 0 0 0 0 -37611.503977694549 141969.40104807913 0 141969.40104807913 1026712.5724511817 0 0 0 0 -28899811.538999349 6009946.1975326538 0 6009946.1975326538 -8553219.0323486328 0 0 0 0 -13865315.909011841 9487098.9035644531 0 9487098.9035644531 45929507.382141113 0 0 0 0 -1090538.9562683864 5516421.6606990658 0 5516421.6606990658 17559671.502428763 0 0 0 0 -41455507.201104641 -70500590.030067444 0 -70500590.030067444 -55510470.023223877 0 0 0 0 -71961957.926255465 -29106458.83115387 0 -29106458.83115387 16871190.747039795 0 0 0 0 -60859502.013395786 -63977746.492546082 0 -63977746.492546082 4933539.0039176941 0 0 0 0 -3262691.0862998962 -49560421.208572388 0 -49560421.208572388 -3176178.0787506104 0 0 0 0 -10510557.383159637 954542.33256530762 0 954542.33256530762 -103730951.27366638 0 0 0 0 -29283570.971744537 -45780374.856842041 0 -45780374.856842041 9976486.2826080322 0 0 0 0 -15303449.182343006 13303204.125823975 0 13303204.125823975 74203766.233009338 0 0 0 0 1318745.8140972925 11470441.428350922 0 11470441.428350922 1315445.6254877523 0 0 0 0 -6117692.2423550813 -5357858.6831932366 0 -5357858.6831932366 25718974.810275748 0 0 0 0 -20954602.048174858 -26191591.23915863 0 -26191591.23915863 1175870.9933166504 0 0 0 0 -43792842.172311783 -23891365.7241745 0 -23891365.7241745 37694097.824523926 0 0 0 0 -42664094.89648819 -18274022.503112793 0 -18274022.503112793 34894803.765441895 0 0 0 0 -18572063.165854931 -32268470.719421387 0 -32268470.719421387 39883325.178688049 0 0 0 0 -4868327.1780342469 -6807003.8613529801 0 -6807003.8613529801 30023828.147041582 0 0 0 0 35706784.30695343 31107131.435844421 0 31107131.435844421 33886408.278045654 0 0 0 0 -32246077.385587692 -38795306.288467407 0 -38795306.288467407 48846091.603363037 0 0 0 0 -25158882.863716125 -25079264.557006836 0 -25079264.557006836 11576380.74609375 0 0 0 0 -41210236.681266308 -27757246.045730591 0 -27757246.045730591 33487747.280883789 0 0 0 0 -38391590.222519398 -20444816.639621735 0 -20444816.639621735 41627525.937286377 0 0 0 0 -38268342.632862091 -16362590.903114319 0 -16362590.903114319 25727561.050170898 0 0 0 0 -129750.17311304245 -800316.03414863488 0 -800316.03414863488 100107.93956065178 0 0 0 0 -31543812.302146912 -26802876.056930542 0 -26802876.056930542 46780201.241912842 0 0 0 0 -35074175.251449585 -19954743.595291138 0 -19954743.595291138 35263826.638710022 0 0 0 0 -38103266.714395523 -27179702.817886353 0 -27179702.817886353 38950917.063354492 0 0 0 0 -36426712.416593552 -18399732.720184326 0 -18399732.720184326 43984374.816192627 0 0 0 0 -37397703.130632401 -17851825.163944244 0 -17851825.163944244 44063365.56854248 0 0 0 0 -34833383.696432114 -12143204.936798096 0 -12143204.936798096 54947517.421302795 0 0 0 0 -23082356.628604889 -14588478.108932495 0 -14588478.108932495 45152729.625778198 0 0 0 0 -4492789.7277355194 -28017369.010879517 0 -28017369.010879517 54660440.609603882 0 0 0 0 -20473049.058645248 -37848187.208892822 0 -37848187.208892822 38485299.240234375 0 0 0 0 3655279.3973712921 -20221534.493835449 0 -20221534.493835449 20313389.647705078 0 0 0 0 -3653759.3413064438 -3723417.3764988985 0 -3723417.3764988985 626849.07986582071 0 0 0 0 35028901.841153145 -52628424.246414185 0 -52628424.246414185 48344896.546409607 0 0 0 0 -4254903.4779062271 -26006706.612158775 0 -26006706.612158775 71287532.934829712 0 0 0 0 2493146.8240623474 -27374993.401092529 0 -27374993.401092529 71208128.690483093 0 0 0 0 -21460935.861765862 -14409517.890701294 0 -14409517.890701294 119753029.83621216 0 0 0 0 -24315982.742582321 -2362455.6179275513 0 -2362455.6179275513 69420102.010894775 0 0 0 0 -29080783.488527298 -5586975.6717033386 0 -5586975.6717033386 72352851.330184937 0 0 0 0 -28440417.44102025 -11992883.520108223 0 -11992883.520108223 77411990.192703247 0 0 0 0 -23542710.921352386 34562132.438079834 0 34562132.438079834 116342827.75546265 0 0 0 0 -23643468.852107227 20197864.542106897 0 20197864.542106897 74710846.052154541 0 0 0 0 -44068341.348724365 16239577.630813599 0 16239577.630813599 100288909.40583801 0 0 0 0 -51434013.721865654 26866720.555549622 0 26866720.555549622 199666654.53948975 0 0 0 0 -51790213.582372189 72701613.401742935 0 72701613.401742935 -42304641.834152222 0 0 0 0 -2944954.5929475073 -136463.94338562712 0 -136463.94338562712 6354939.3348417282 0 0 0 0 28400754.833162308 78544660.91343689 0 78544660.91343689 97838814.430686951 0 0 0 0 -3792935.235884672 5668416.545939073 0 5668416.545939073 5013093.9794583172 0 0 0 0 -20507677.862344742 34305293.273986816 0 34305293.273986816 88341637.998184204 0 0 0 0 -958816.46203231812 42694320.245040894 0 42694320.245040894 54063219.709335327 0 0 0 0 -144902739.64617538 3002842.2999725342 0 3002842.2999725342 103889229.19277954 0 0 0 0 -18080358.628970604 19679760.462822728 0 19679760.462822728 10271233.454588676 0 0 0 0 -267163128.12413883 -514014913.62262154 0 -514014913.62262154 1065824259.8994751 0 0 0 0 -256733961.74438477 94093807.970474243 0 94093807.970474243 32243077.688232422 0 0 0 0 -8770797.8291807212 -7032896.26368827 0 -7032896.26368827 41012837.248128586 0 0 0 0 714486515.90857887 189215990.80127716 0 189215990.80127716 -782029564.97163391 0 0 0 0 2008003894.5159607 17466004.731964111 0 17466004.731964111 718161302.97937012 0 0 0 0 -11416182.515007019 1031523975.9586792 0 1031523975.9586792 354174334.34141541 0 0 0 0 17437557.644447327 44269151.774169922 0 44269151.774169922 17095611.839927673 0 0 0 0 -15454608.696467109 23420659.977408297 0 23420659.977408297 11173031.715522539 0 0 0 0 28449777.203633428 64668415.843884468 0 64668415.843884468 -63755336.512420654 0 0 0 0 28762207.895881653 55932428.159362793 0 55932428.159362793 -65161754.386169434 0 0 0 0 -31589462.715006828 18787905.573852539 0 18787905.573852539 65557908.354846954 0 0 0 0 -18091818.592569828 28803329.91718483 0 28803329.91718483 64153563.126113892 0 0 0 0 -38395850.661608219 23332426.325897217 0 23332426.325897217 66185860.476287842 0 0 0 0 -9330909.6746442821 9700521.6129258946 0 9700521.6129258946 39565275.339957997 0 0 0 0 -30011515.460084915 12534396.332893372 0 12534396.332893372 43710813.02646637 0 0 0 0 -44625847.011680603 -8725455.991897583 0 -8725455.991897583 56912379.378967285 0 0 0 0 -32724555.980054855 12475848.138641357 0 12475848.138641357 75620362.597076416 0 0 0 0 -26206021.225037575 19200715.886543274 0 19200715.886543274 79261879.240432739 0 0 0 0 -33524597.085269928 -795573.6231842041 0 -795573.6231842041 67189561.820053101 0 0 0 0 -33791049.412127912 -6664311.5886418819 0 -6664311.5886418819 52396110.562469482 0 0 0 0 -41576139.425527573 -9545139.0007705688 0 -9545139.0007705688 57404617.138305664 0 0 0 0 -28749718.864931345 -14659140.088136673 0 -14659140.088136673 55084872.326965332 0 0 0 0 -6430483.7129154587 1346642.0112496787 0 1346642.0112496787 37765157.936134063 0 0 0 0 -46916911.562031269 -5298668.2674198151 0 -5298668.2674198151 52046374.052124023 0 0 0 0 -41532618.867715836 -6144305.0222320557 0 -6144305.0222320557 40638647.502360344 0 0 0 0 -42043528.511686325 -7837270.2452697754 0 -7837270.2452697754 35883231.013961792 0 0 0 0 -34059393.944333375 17617296.911338806 0 17617296.911338806 61166555.238800049 0 0 0 0 -6680068.8857250679 6279675.5299694613 0 6279675.5299694613 12561265.446868911 0 0 0 0 -40843201.492141724 119652703.53533936 0 119652703.53533936 11750167.078491211 0 0 0 0 -59217615.72721386 39340564.523223877 0 39340564.523223877 15667848.891151428 0 0 0 0 -166096953.35490036 5812168.2488555908 0 5812168.2488555908 5419851.9846801758 0 0 0 0 -472061238.41668129 -85308955.346694946 0 -85308955.346694946 77362931.227615356 0 0 0 0 -210973565.64391422 185225052.02577972 0 185225052.02577972 44415150.592773438 0 0 0 0 -304076726.57294273 224108711.18592834 0 224108711.18592834 155875588.93588257 0 0 0 0 8011915.9811353683 140934083.69766235 0 140934083.69766235 37122853.007263184 0 0 0 0 -1746169.5835414622 1886996.0152470097 0 1886996.0152470097 3440564.2831481993 0 0 0 0 -282890995.68327045 235733061.79678345 0 235733061.79678345 38281257.447918892 0 0 0 0 -252223235.25139391 -42647465.537265778 0 -42647465.537265778 29725044.290039062 0 0 0 0 4304450.0770235062 25760465.073944092 0 25760465.073944092 35945670.936828613 0 0 0 0 -169230047.27126789 43896890.572982788 0 43896890.572982788 37702135.263143539 0 0 0 0 -56114283.508972764 -12804550.071603775 0 -12804550.071603775 16748804.254333496 0 0 0 0 -448249549.85142517 -14154700.238487244 0 -14154700.238487244 161006177.51080322 0 0 0 0 -159014723.45269859 103834797.85502911 0 103834797.85502911 178665294.14575195 0 0 0 0 -56044212.83596611 -261460567.65974426 0 -261460567.65974426 -168026958.12726593 0 0 0 0 -305363158.86301589 534718845.3942337 0 534718845.3942337 99410421.232421875 0 0 0 0 -238637016.58294106 170876309.40008545 0 170876309.40008545 -43670378.704082489 0 0 0 0 -496872.7075289553 4507119.5396231562 0 4507119.5396231562 4324719.0266275667 0 0 0 0 -202664672.51748276 -122388074.64733124 0 -122388074.64733124 -54651569.42024231 0 0 0 0 188658664.69180012 127411129.88226318 0 127411129.88226318 72049569.556976318 0 0 0 0 107913017.38437414 -50796073.783874512 0 -50796073.783874512 -43376520.4793396 0 0 0 0 -16775.328974980628 543956.05400909111 0 543956.05400909111 1019980.169467032 0 0 0 0 1022735465.3533573 336288486.87611389 0 336288486.87611389 -313617094.94775391 0 0 0 0 -105464.46517867209 379816.1703331545 0 379816.1703331545 1104323.8711137921 0 0 0 0 -167217488.78616333 74343818.93951416 0 74343818.93951416 211256179.2237854 0 0 0 0 204554160.28467941 222374272.29747009 0 222374272.29747009 80449104.291046143 0 0 0 0 255527190.4962225 -22973126.563903809 0 -22973126.563903809 232418887.70928955 0 0 0 0 5594966.5591201782 -15100221.224258423 0 -15100221.224258423 -53403122.164581299 0 0 0 0 -10638437.126092911 12258576.944122314 0 12258576.944122314 2803885.3324737549 0 0 0 0 -2917067.9586777687 21457232.843227386 0 21457232.843227386 -12557867.247894287 0 0 0 0 2351498.2077607224 3872450.6339284107 0 3872450.6339284107 -1215141.8201778382 0 0 0 0 47581669.623355865 -24188377.561752319 0 -24188377.561752319 -128315840.12901306 0 0 0 0 -641923.50777557096 1921213.9090986755 0 1921213.9090986755 3710056.9003212899 0 0 0 0 436633413.74265862 82895945.87840271 0 82895945.87840271 -131484435.35116577 0 0 0 0 319952.25431012642 152964.12629012764 0 152964.12629012764 -7948.8654089570045 0 0 0 0 245544911.52666473 46369045.016845703 0 46369045.016845703 -167299443.55953979 0 0 0 0 284880104.81240273 173237643.72952271 0 173237643.72952271 209192212.21923828 0 0 0 0 100278746.63380051 57436813.630386353 0 57436813.630386353 -26777057.354766846 0 0 0 0 -300883320.34798121 -149043639.70898819 0 -149043639.70898819 149550992.01708984 0 0 0 0 1393290.514234443 2945299.6368103446 0 2945299.6368103446 -1697422.475488618 0 0 0 0 288405906.43958282 -65953682.393951416 0 -65953682.393951416 -40719832.654266357 0 0 0 0 122831596.83097458 261682110.71029663 0 261682110.71029663 50489121.928314209 0 0 0 0 257266389.25666809 -538625266.55102539 0 -538625266.55102539 201970305.03399658 0 0 0 0 33476502.879703522 125082931.01394653 0 125082931.01394653 11984915.845397949 0 0 0 0 58876703.206136703 47677595.184509277 0 47677595.184509277 -3154351.4437255859 0 0 0 0 22663974.818348885 68597163.816726685 0 68597163.816726685 68923287.508605957 0 0 0 0 25431446.68962574 65141345.77091217 0 65141345.77091217 25509887.529205322 0 0 0 0 39206227.093090057 40765817.986480713 0 40765817.986480713 -87752803.052261353 0 0 0 0 88130017.244915009 6688075.3670959473 0 6688075.3670959473 -64377960.350402832 0 0 0 0 68097730.441141129 121056735.60777283 0 121056735.60777283 116889425.04873657 0 0 0 0 228735933.4836998 115885232.23486328 0 115885232.23486328 5589006.6394348145 0 0 0 0 -6671602.0834569931 16221173.426956177 0 16221173.426956177 125632581.10204411 0 0 0 0 153286616.29913521 -54630708.34370327 0 -54630708.34370327 -16752214.519943237 0 0 0 0 87405213.003741264 121610537.88852692 0 121610537.88852692 70466077.218643188 0 0 0 0 -2410554.2085888013 2504601.9096504226 0 2504601.9096504226 1291326.3167901635 0 0 0 0 -38657390.048782349 50909915.798858643 0 50909915.798858643 -18464042.421535492 0 0 0 0 -18575321.097682089 15186984.151953742 0 15186984.151953742 5994616.0000279322 0 0 0 0 -13568599.397819519 69318713.048492432 0 69318713.048492432 -10844939.521133423 0 0 0 0 -179549356.84318256 -174972686.43491364 0 -174972686.43491364 151265091.15304565 0 0 0 0 44900081.394737244 -17849839.428497314 0 -17849839.428497314 -184056818.21512604 0 0 0 0 -41873770.110311508 29675323.318328857 0 29675323.318328857 -63742630.266220093 0 0 0 0 -217575263.10424042 47663431.793167114 0 47663431.793167114 -3982868.3259277344 0 0 0 0 -56373952.958528519 111398731.2713089 0 111398731.2713089 -25547311.037063599 0 0 0 0 -135851069.68891716 90950522.251587868 0 90950522.251587868 12455772.083679199 0 0 0 0 405940.58359164873 1081885.7934866641 0 1081885.7934866641 -355144.28255283833 0 0 0 0 131198590.18090248 129642372.03881836 0 129642372.03881836 -293117107.97357178 0 0 0 0 250205250.00276375 348518760.13996887 0 348518760.13996887 -173085956.47223663 0 0 0 0 -17766772.466279984 47101659.691864014 0 47101659.691864014 -3129298.3494100571 0 0 0 0 -51818002.627391338 36690292.698013306 0 36690292.698013306 62732570.332824707 0 0 0 0 2406596.2173156738 32969535.623153687 0 32969535.623153687 8682292.2106456757 0 0 0 0 -116997004.60646057 65792583.604919434 0 65792583.604919434 8308696.023727417 0 0 0 0 -44675991.61747092 -30214179.054836273 0 -30214179.054836273 6264342.3243713379 0 0 0 0 -76281682.933418274 -23514746.428375244 0 -23514746.428375244 6112132.6898498535 0 0 0 0 -44579508.905695915 -4023669.9280281067 0 -4023669.9280281067 62392940.15536499 0 0 0 0 4104992.9655227661 -10342990.055328369 0 -10342990.055328369 861028.11228179932 0 0 0 0 -24929118.801041603 -14053674.98841095 0 -14053674.98841095 119712475.60997009 0 0 0 0 -29285653.407882214 42321117.420387268 0 42321117.420387268 150003706.49047852 0 0 0 0 5737805.5975241661 5261883.1019363403 0 5261883.1019363403 57268689.180725098 0 0 0 0 -11310860.940411244 14673397.684676249 0 14673397.684676249 -634048.08806345612 0 0 0 0 87338062.073113441 48734537.001182556 0 48734537.001182556 63775021.674468994 0 0 0 0 -104291362.59243584 85611298.200195312 0 85611298.200195312 257042633.26260376 0 0 0 0 97801382.247596741 49408943.917671204 0 49408943.917671204 -166629864.08053589 0 0 0 0 -88408857.042866707 -10793046.173149109 0 -10793046.173149109 -74605057.214859009 0 0 0 0 -5068144.217567957 12571360.804317072 0 12571360.804317072 -1343250.2790355012 0 0 0 0 59902985.799561501 -92777163.077453613 0 -92777163.077453613 -206311442.60919952 0 0 0 0 35795127.803393364 -81538645.901756287 0 -81538645.901756287 -2126222.4695587158 0 0 0 0 40904122.296459436 27340607.457024336 0 27340607.457024336 32420180.163406372 0 0 0 0 218739507.37485981 71113275.499689102 0 71113275.499689102 25260940.331207275 0 0 0 0 131935214.50443459 -24627154.277511597 0 -24627154.277511597 -76040508.536457062 0 0 0 0 22877261.787671089 53329755.451049805 0 53329755.451049805 25943434.75428772 0 0 0 0 11536395.730592728 120342942.34020233 0 120342942.34020233 45654159.951379776 0 0 0 0 100076941.54223919 78562683.192253113 0 78562683.192253113 33509396.0340271 0 0 0 0 -691941.31991195679 87481384.682685852 0 87481384.682685852 -26496089.436141968 0 0 0 0 -53809668.833057404 94908834.320632935 0 94908834.320632935 -23402510.007873535 0 0 0 0 -2076934.6565685272 106420430.68320465 0 106420430.68320465 -33559013.647094727 0 0 0 0 2014665.7695541382 52472575.361190796 0 52472575.361190796 -70908720.869739532 0 0 0 0 50422321.659988403 72046308.668151855 0 72046308.668151855 -74763109.777038574 0 0 0 0 112342293.88807297 75493118.917182922 0 75493118.917182922 -76091047.988739014 0 0 0 0 -64218168.33240509 -33812613.985702515 0 -33812613.985702515 57123454.49382019 0 0 0 0 -162110287.30134583 20358887.663902283 0 20358887.663902283 71830357.648803711 0 0 0 0 -8835997.5259552002 10785131.425304413 0 10785131.425304413 36970481.476150513 0 0 0 0 -19009306.328472137 -24916688.169639587 0 -24916688.169639587 54876819.569149017 0 0 0 0 -16320583.000583649 24497931.322288513 0 24497931.322288513 30399146.7527771 0 0 0 0 -160256707.86639786 121987799.43440247 0 121987799.43440247 19161193.596794128 0 0 0 0 -45658562.630764008 70702958.501998901 0 70702958.501998901 41820827.089126587 0 0 0 0 -24985422.199076653 151684600.56395531 0 151684600.56395531 -68862017.615356445 0 0 0 0 -208589663.17748642 8173909.0982894897 0 8173909.0982894897 58264475.25932312 0 0 0 0 -233568277.78236008 177598605.46326447 0 177598605.46326447 21619196.673534393 0 0 0 0 -252097.37120954879 -2082697.0199268311 0 -2082697.0199268311 6494418.4229664803 0 0 0 0 -165673315.78285599 189942705.35722351 0 189942705.35722351 -17858365.449098587 0 0 0 0 -13769767.80657196 -32613926.780319214 0 -32613926.780319214 56689511.875488281 0 0 0 0 18822443.139757156 -16113363.445793152 0 -16113363.445793152 33638566.4427948 0 0 0 0 -11564216.190909076 -11497910.899024963 0 -11497910.899024963 49004653.345062256 0 0 0 0 -14392620.091034966 -808447.6683447063 0 -808447.6683447063 30024328.521877795 0 0 0 0 -758127.06314819679 -5925626.6611633301 0 -5925626.6611633301 30197684.844909668 0 0 0 0 -15298495.14518184 7235227.8821258545 0 7235227.8821258545 34633504.540161133 0 0 0 0 -13056016.07169988 1293282.0537872314 0 1293282.0537872314 49790622.337463379 0 0 0 0 -537648.57363746036 -1434469.6179490983 0 -1434469.6179490983 4720125.8922695145 0 0 0 0 -12860239.400088876 6327254.0983657837 0 6327254.0983657837 20338678.889221191 0 0 0 0 -1873756.6152530015 -5439063.7675170898 0 -5439063.7675170898 22650705.867607117 0 0 0 0 -91815.167955636964 2660918.187416641 0 2660918.187416641 -470392.35656061769 0 0 0 0 -12826055.406880122 -7431682.9177856445 0 -7431682.9177856445 23298893.411300659 0 0 0 0 7339736.2359395251 27174180.295736313 0 27174180.295736313 -4600656.7604370117 0 0 0 0 -30043.212405661881 12756.743501491845 0 12756.743501491845 30617.857123352587 0 0 0 0 751727.76986809075 32412200.008972168 0 32412200.008972168 -4322795.464849472 0 0 0 0 -9250912.4892275855 21044799.258646011 0 21044799.258646011 29839588.268829346 0 0 0 0 -13284967.044023849 -8235059.8112792969 0 -8235059.8112792969 33242275.432678223 0 0 0 0 -3466227.3389762938 10063564.570831299 0 10063564.570831299 30455031.105560303 0 0 0 0 -12092464.932994619 10510486.70715332 0 10510486.70715332 33757195.067443848 0 0 0 0 -19429913.832582355 11477597.905456543 0 11477597.905456543 36819184.349700928 0 0 0 0 13501071.982186854 -19267203.488555908 0 -19267203.488555908 40664633.441711426 0 0 0 0 2559557.2675968409 -34392413.751243591 0 -34392413.751243591 56823987.599609375 0 0 0 0 -37033053.799358308 -144910.6943359375 0 -144910.6943359375 40635955.807098389 0 0 0 0 -15963667.911104679 -1060564.6836547852 0 -1060564.6836547852 34803898.533599854 0 0 0 0 -1369944.192953676 -19300700.228622437 0 -19300700.228622437 37594417.143249512 0 0 0 0 -2835492.942173373 3873142.2318277359 0 3873142.2318277359 28728370.583251953 0 0 0 0 -20432996.317026973 -18445084.036178589 0 -18445084.036178589 26490236.642822266 0 0 0 0 -16517545.047769219 -9303196.4647979736 0 -9303196.4647979736 44867898.295532227 0 0 0 0 -2673453.887979975 -2257932.1955757141 0 -2257932.1955757141 11971403.417602539 0 0 0 0 -664070.95071406383 -220037.81203345954 0 -220037.81203345954 860394.95495815575 0 0 0 0 -94631691.175721765 29203927.313537598 0 29203927.313537598 25183959.585632324 0 0 0 0 -44516177.672744334 -17181578.885467529 0 -17181578.885467529 5865140.9569091797 0 0 0 0 -15033.201590266166 119105.05514355749 0 119105.05514355749 536853.09551821277 0 0 0 0 -28829414.829720408 5561251.540222168 0 5561251.540222168 28795061.252197266 0 0 0 0 -40784413.772323534 30753780.736289978 0 30753780.736289978 20677022.810058594 0 0 0 0 -41345019.810112834 52555735.797210693 0 52555735.797210693 -30580474.193969727 0 0 0 0 -16694546.322292149 23206688.622283936 0 23206688.622283936 3929707.2643432617 0 0 0 0 -1631821.4810078666 -5394867.7735977173 0 -5394867.7735977173 54630257.636169434 0 0 0 0 1527581.6031525582 -15095228.524658203 0 -15095228.524658203 54825137.711242676 0 0 0 0 -8413853.1532993317 7571180.057144165 0 7571180.057144165 7465214.578414917 0 0 0 0 -4441073.728399232 -1883384.1321845651 0 -1883384.1321845651 5901287.0184799507 0 0 0 0 -7607351.8100398481 -28054260.678817749 0 -28054260.678817749 78601557.435424805 0 0 0 0 -5491052.582472086 11921450.04498291 0 11921450.04498291 74195947.435302734 0 0 0 0 -5582977.2124094367 -14777020.427001953 0 -14777020.427001953 60653498.235778809 0 0 0 0 -9874362.1225204468 -979847.32920837402 0 -979847.32920837402 14417093.489974976 0 0 0 0 -3405544.8620960256 11312248.43204689 0 11312248.43204689 29545344.910797119 0 0 0 0 -6588832.7097599106 -3872916.554358229 0 -3872916.554358229 9791792.5786147863 0 0 0 0 -10889374.343729019 2680162.7646026611 0 2680162.7646026611 17931776.194519043 0 0 0 0 -8662847.574785471 -4850160.8127250671 0 -4850160.8127250671 31811715.505218506 0 0 0 0 -27794377.413869761 19823095.564315796 0 19823095.564315796 17324528.598999023 0 0 0 0 -14210094.988516321 8917986.7507724613 0 8917986.7507724613 22505817.822026268 0 0 0 0 -2697290.2331443243 6926077.9454345703 0 6926077.9454345703 21836133.420837402 0 0 0 0 -20189931.361213684 17448554.760696411 0 17448554.760696411 38637798.240345001 0 0 0 0 -82992285.511829376 50939737.299186707 0 50939737.299186707 31496381.104492188 0 0 0 0 -15227419.773052361 13203798.488706645 0 13203798.488706645 19863609.597975135 0 0 0 0 -12796587.711018562 -1096294.9540405273 0 -1096294.9540405273 20843273.0496521 0 0 0 0 -13214842.316449165 -4194781.470993042 0 -4194781.470993042 77353983.089813232 0 0 0 0 -13521349.287368774 1477948.8341064453 0 1477948.8341064453 27251107.260925293 0 0 0 0 -6539849.3035144806 25265176.588363647 0 25265176.588363647 35391862.477046967 0 0 0 0 -7674248.3326044083 16592460.141662598 0 16592460.141662598 -2798535.5983886719 0 0 0 0 -7168192.7436800003 4770414.2605895996 0 4770414.2605895996 13591725.288421631 0 0 0 0 -11157909.448541641 10412674.499099731 0 10412674.499099731 15438583.361297607 0 0 0 0 2693428.415290324 6097780.8079380654 0 6097780.8079380654 4542207.8817267269 0 0 0 0 2499133.6502254754 21448635.09857142 0 21448635.09857142 -1734119.2276916504 0 0 0 0 6045259.944694519 32153930.82408905 0 32153930.82408905 -8836235.3463745117 0 0 0 0 2689171.7476758957 12832929.690109253 0 12832929.690109253 -25918765.884490967 0 0 0 0 3698169.4040191844 4485982.5241342708 0 4485982.5241342708 -786642.81088903546 0 0 0 0 -559292.46206760406 -369669.57788085938 0 -369669.57788085938 -3330417.5581665039 0 0 0 0 1485447.6751100917 1444168.5616691932 0 1444168.5616691932 512263.31973424554 0 0 0 0 1698533.8862027666 1742439.0557587668 0 1742439.0557587668 1285589.161552228 0 0 0 0 -21086249.41357708 3107394.224395752 0 3107394.224395752 5654651.5958938599 0 0 0 0 -74147700.518380463 37873186.405326843 0 37873186.405326843 120567981.69755554 0 0 0 0 211750519.24253246 -319145044.51947021 0 -319145044.51947021 -242876535.08540344 0 0 0 0 -18969733.678325117 461761277.98246574 0 461761277.98246574 -120133657.32055664 0 0 0 0 -200027936.07919645 -284400948.14700317 0 -284400948.14700317 47226356.361587524 0 0 0 0 604975.94887823216 371833.74850364774 0 371833.74850364774 462536.5579797551 0 0 0 0 57263287.112062395 -5506119.8128967285 0 -5506119.8128967285 -30285865.357833862 0 0 0 0 -81222421.028764188 -303021762.20732117 0 -303021762.20732117 395905981.19389343 0 0 0 0 -21215410.237411201 607248.27647399902 0 607248.27647399902 44793683.723098755 0 0 0 0 105589078.3760519 -82804026.928604126 0 -82804026.928604126 49397945.24786377 0 0 0 0 1037180.495895179 -1785929.1501235962 0 -1785929.1501235962 50518764.005340576 0 0 0 0 4539205.7381279022 2729931.2587280273 0 2729931.2587280273 28348592.336425781 0 0 0 0 7784413.8293617219 2353949.7374191284 0 2353949.7374191284 6931847.6121520996 0 0 0 0 -18454378.919590294 36411599.091323853 0 36411599.091323853 -4713526.1440429688 0 0 0 0 -11083430.29731369 11880757.192871094 0 11880757.192871094 10370231.532714844 0 0 0 0 -25956209.340716422 36330366.518920898 0 36330366.518920898 -3153451.5676269531 0 0 0 0 1596811.1344246666 5930295.9155306779 0 5930295.9155306779 5063598.6535235196 0 0 0 0 6560252.2949783504 4259208.2264099121 0 4259208.2264099121 -5199947.6128692627 0 0 0 0 -12601570.652254701 -6660075.3071632385 0 -6660075.3071632385 24384438.06854248 0 0 0 0 -2163925.9105879515 19257743.480880737 0 19257743.480880737 -1628466.989440918 0 0 0 0 -53225225.256097019 29473442.004425049 0 29473442.004425049 6817679.2533416748 0 0 0 0 -25412499.752837833 39291220.973423004 0 39291220.973423004 -50844167.393981934 0 0 0 0 -28808848.035944313 -7162313.2908172607 0 -7162313.2908172607 -38033706.144775391 0 0 0 0 -21782452.473478183 10090421.677459717 0 10090421.677459717 3986600.1328125 0 0 0 0 2998059.27163288 9618601.9860229492 0 9618601.9860229492 -17913085.151855469 0 0 0 0 1434317.3680930436 6501156.8879089355 0 6501156.8879089355 13793808.05859375 0 0 0 0 14947298.819458559 -524663.18339538574 0 -524663.18339538574 2742720.0833587646 0 0 0 0 779981.57724657655 -4536194.9714813232 0 -4536194.9714813232 24974558.589385986 0 0 0 0 16017285.389285678 -5198124.8502807617 0 -5198124.8502807617 21817510.596893311 0 0 0 0 11142373.120484624 -11635123.831512451 0 -11635123.831512451 38733532.488342285 0 0 0 0 16425209.664452834 -40982948.596874237 0 -40982948.596874237 71421331.23638916 0 0 0 0 27144972.470050022 -26180664.227478027 0 -26180664.227478027 38748226.248967499 0 0 0 0 31353341.850015342 -56805091.995574951 0 -56805091.995574951 72228641.848472595 0 0 0 0 29792386.744146064 -18539090.074127197 0 -18539090.074127197 18097875.070724487 0 0 0 0 16207308.713612758 -25787872.187057495 0 -25787872.187057495 59207879.759429932 0 0 0 0 45722289.463253915 -20863218.058135986 0 -20863218.058135986 32738145.339572906 0 0 0 0 20705762.844725244 -42349044.709716797 0 -42349044.709716797 91238128.321456909 0 0 0 0 47949058.119278833 -133780170.00881195 0 -133780170.00881195 194508142.38549805 0 0 0 0 10608738.402125461 -68642133.259326935 0 -68642133.259326935 147155691.5894928 0 0 0 0 -21256597.551423103 -50357820.26940918 0 -50357820.26940918 221115020.91896057 0 0 0 0 -4086763.1748235095 -35395613.138366699 0 -35395613.138366699 164691509.08421326 0 0 0 0 -23409036.409906272 -47682849.731262207 0 -47682849.731262207 316097895.18322754 0 0 0 0 -14256606.575984895 -24733186.472557068 0 -24733186.472557068 211898266.82069397 0 0 0 0 -14170082.711988525 -26905053.670303345 0 -26905053.670303345 152861438.08162022 0 0 0 0 -54925.260970008574 669879.15048217773 0 669879.15048217773 202632076.36387634 0 0 0 0 -2070859.4104524516 -39428868.542068481 0 -39428868.542068481 154332617.59855747 0 0 0 0 37417.232613066481 -10876896.096427917 0 -10876896.096427917 86485983.354293823 0 0 0 0 -943964.85568574443 -24885761.080001831 0 -24885761.080001831 92807282.562850952 0 0 0 0 13308177.142781241 -12584345.543859482 0 -12584345.543859482 37934098.14163208 0 0 0 0 9635980.4996661246 -17552874.584213257 0 -17552874.584213257 59482331.330360413 0 0 0 0 5509781.5455851927 -27444915.811355591 0 -27444915.811355591 77821583.121463776 0 0 0 0 -5612.6744328539235 -7501372.5765229557 0 -7501372.5765229557 44479242.183929443 0 0 0 0 7352077.8191823019 -11236212.435775757 0 -11236212.435775757 33922472.363994598 0 0 0 0 -805693.98620492127 -1908950.6249084473 0 -1908950.6249084473 18145701.892345428 0 0 0 0 -401.33940884683852 -1339.0784844234586 0 -1339.0784844234586 20594.138173207641 0 0 0 0 -1808747.324835781 3212451.8040924072 0 3212451.8040924072 27501673.360351562 0 0 0 0 2058758.590538552 -8967666.9584960938 0 -8967666.9584960938 39790650.82434082 0 0 0 0 2340350.8218519241 6100610.959777832 0 6100610.959777832 20896131.543151855 0 0 0 0 2576352.8062954545 2620354.1863098145 0 2620354.1863098145 24191928.820640564 0 0 0 0 -365620.37779570371 4789117.8419494629 0 4789117.8419494629 20616248.959014893 0 0 0 0 10574072.639044657 -584138.30081939697 0 -584138.30081939697 19810444.943908691 0 0 0 0 -2338999.6477172226 685284.50765991211 0 685284.50765991211 19876740.900964737 0 0 0 0 -3019843.4615538567 16877366.473495483 0 16877366.473495483 12464629.269470215 0 0 0 0 -14590929.052275337 28633837.119506836 0 28633837.119506836 1387401.3957519531 0 0 0 0 -544694.23230397701 18319289.731140137 0 18319289.731140137 4905763.8265686035 0 0 0 0 7122078.7934956402 6757287.3888931274 0 6757287.3888931274 18702378.407287598 0 0 0 0 -5831580.5030393004 14202226.844345093 0 14202226.844345093 15192112.05166626 0 0 0 0 -9409972.2621178515 13786346.493690491 0 13786346.493690491 25166486.334533691 0 0 0 0 -17746477.701869052 23054352.250778198 0 23054352.250778198 20739111.773071289 0 0 0 0 -9871854.8722908497 14244340.644195557 0 14244340.644195557 28462495.85369873 0 0 0 0 -8286451.05855041 -3222176.2945861816 0 -3222176.2945861816 37542388.521881104 0 0 0 0 -62020.441679977688 37424.219162918627 0 37424.219162918627 68070.295535065234 0 0 0 0 -11161800.224884242 2856053.0873413086 0 2856053.0873413086 32874974.305522919 0 0 0 0 -9029869.7511725873 11130515.166381836 0 11130515.166381836 23444770.320251465 0 0 0 0 -9659954.0871004462 11365823.14642334 0 11365823.14642334 26823906.90246582 0 0 0 0 -9363481.7098919153 8112679.3567810059 0 8112679.3567810059 26468564.340545654 0 0 0 0 -8956977.6862990111 8102204.4643096924 0 8102204.4643096924 15153600.080688477 0 0 0 0 -6492629.6638501883 -2127225.4744262695 0 -2127225.4744262695 19325122.403900146 0 0 0 0 -12072871.045570806 8697359.0596313477 0 8697359.0596313477 15929554.255126953 0 0 0 0 -5860098.1155219525 -3820631.0063781738 0 -3820631.0063781738 3757732.5381774902 0 0 0 0 7905392.7459744811 3603618.3134307861 0 3603618.3134307861 9463394.3124694824 0 0 0 0 2414.2904479034651 4842.4516118690372 0 4842.4516118690372 6721.1730105057359 0 0 0 0 -13268320.154191077 16776443.251098633 0 16776443.251098633 13240894.727935791 0 0 0 0 1528219.6143390164 -2324425.6360473633 0 -2324425.6360473633 7328509.7540054321 0 0 0 0 -12229115.373547023 3637984.9673461914 0 3637984.9673461914 17704076.669189453 0 0 0 0 -742916.40465455502 6711581.1251525879 0 6711581.1251525879 18226609.398956299 0 0 0 0 9161303.7677933723 -12084462.403839111 0 -12084462.403839111 -8353738.8877563477 0 0 0 0 -17232991.346346617 4234494.8141479492 0 4234494.8141479492 18042146.648345947 0 0 0 0 -2134548.7414610758 20092602.429580688 0 20092602.429580688 -11716338.708093643 0 0 0 0 -27803.147602705518 19957.503602817655 0 19957.503602817655 35701.906318984926 0 0 0 0 -5267567.2282801438 -21884389.913757324 0 -21884389.913757324 75385481.382476807 0 0 0 0 -10672195.526000183 -2126629.9258117676 0 -2126629.9258117676 54037525.944595337 0 0 0 0 -1977250.0463883728 1837468.9215698242 0 1837468.9215698242 35692170.46446228 0 0 0 0 8451013.4695046693 -16491027.73525238 0 -16491027.73525238 52268040.07409668 0 0 0 0 1440160.4691104889 -2589778.7199478149 0 -2589778.7199478149 40868526.34753418 0 0 0 0 -13082984.892885309 -4279224.0232543945 0 -4279224.0232543945 55122225.22644043 0 0 0 0 -6814188.2687385567 -8217812.4335327148 0 -8217812.4335327148 41705867.835174561 0 0 0 0 -7504276.3658656254 -2952399.3880767822 0 -2952399.3880767822 65512386.8097229 0 0 0 0 -195765.33054756746 -11337991.022006989 0 -11337991.022006989 44662020.184143066 0 0 0 0 -5799338.3349410892 -3855472.7002410889 0 -3855472.7002410889 51635076.756640434 0 0 0 0 -5567648.3779322505 -6346377.7485656738 0 -6346377.7485656738 42857853.100189209 0 0 0 0 -4317645.649419779 -10213642.631401062 0 -10213642.631401062 41498868.172088623 0 0 0 0 -4403981.5152425133 -332957.98281860352 0 -332957.98281860352 39573414.022541046 0 0 0 0 -6770.614175726887 -7015922.5444202162 0 -7015922.5444202162 33182268.052001953 0 0 0 0 -3730210.5516968137 -2701991.2557678223 0 -2701991.2557678223 30219998.382293701 0 0 0 0 -1572.4189840222402 -4673826.2042018641 0 -4673826.2042018641 24389330.878204346 0 0 0 0 -11153129.672031352 22940862.693328857 0 22940862.693328857 4114327.364364624 0 0 0 0 -6133507.6989322472 -1712525.9132843018 0 -1712525.9132843018 27116760.75213623 0 0 0 0 -3195499.3370786486 -4445900.451171875 0 -4445900.451171875 28860428.194915771 0 0 0 0 -48186751.031910896 -645763250.1963129 0 -645763250.1963129 -236229045.15712738 0 0 0 0 -131695850.52371597 -51398792.467891693 0 -51398792.467891693 116579659.65071487 0 0 0 0 -2832862.9388584411 1532133.687124934 0 1532133.687124934 7644830.5690421611 0 0 0 0 190782917.79496002 115937954.74858665 0 115937954.74858665 285479851.90575409 0 0 0 0 671074850.44508362 -209805103.51156998 0 -209805103.51156998 -416502171.81207848 0 0 0 0 769191351.38459682 149414036.3945961 0 149414036.3945961 -339702016.20308685 0 0 0 0 802094910.0394659 48090615.026808739 0 48090615.026808739 -217523196.00889587 0 0 0 0 999474785.43762016 -29270575.584802628 0 -29270575.584802628 -264503633.89144802 0 0 0 0 730952335.29958344 -18661990.645004272 0 -18661990.645004272 -210587971.00485134 0 0 0 0 -126839132.92451477 -36846296.522499084 0 -36846296.522499084 159342225.7660675 0 0 0 0 -47016848.061233521 -54586138.882904053 0 -54586138.882904053 90342174.34475708 0 0 0 0 16387541.656402588 -217397082.82409668 0 -217397082.82409668 259524666.03345108 0 0 0 0 -184412659.30294037 9223325.8954734802 0 9223325.8954734802 73615502.333236694 0 0 0 0 25167516.302896619 -911711.71840417385 0 -911711.71840417385 66640953.201412201 0 0 0 0 -245266043.79349518 29075681.039489746 0 29075681.039489746 -4783680.3166942596 0 0 0 0 -26638342.331382751 16178711.035369873 0 16178711.035369873 -10941539.361602783 0 0 0 0 -80562556.826934814 -87674742.188762665 0 -87674742.188762665 118386691.43750763 0 0 0 0 -116579860.26856613 -13781737.245094299 0 -13781737.245094299 14986414.725517273 0 0 0 0 -52447183.130414963 -70553750.505238533 0 -70553750.505238533 -40733392.240661621 0 0 0 0 -49569742.804862976 -56499957.229948044 0 -56499957.229948044 20394985.235244751 0 0 0 0 -3658348.2083816323 2204494.5091911033 0 2204494.5091911033 9099195.7795286886 0 0 0 0 -260870225.81716418 174562876.08151782 0 174562876.08151782 -111951498.94820404 0 0 0 0 -293361226.17984223 -97809133.190617561 0 -97809133.190617561 269940725.9196167 0 0 0 0 -584152869.03692627 75004057.452801704 0 75004057.452801704 836444107.73461914 0 0 0 0 -640487931.31965733 -265139378.27598333 0 -265139378.27598333 193820686.29222107 0 0 0 0 731541749.61503601 -51136189.577213287 0 -51136189.577213287 -161391520.59853745 0 0 0 0 764831214.59242821 -663468919.49047661 0 -663468919.49047661 3122541026.9483795 0 0 0 0 595089428.89476013 387111500.00852203 0 387111500.00852203 -679895204.13170624 0 0 0 0 -972434054.15830612 -889364695.26636887 0 -889364695.26636887 917986176.6419487 0 0 0 0 619049050.26877022 174493196.55587578 0 174493196.55587578 443060324.01119995 0 0 0 0 675876363.98607445 248367248.90988922 0 248367248.90988922 533105763.74796295 0 0 0 0 960459997.70630646 329324697.79117584 0 329324697.79117584 -304725507.87458992 0 0 0 0 1011749738.422966 23920233.971923828 0 23920233.971923828 478753361.50508118 0 0 0 0 1280961417.4621906 715064970.2935133 0 715064970.2935133 568654900.11480713 0 0 0 0 2733429755.4895058 1053298188.3382187 0 1053298188.3382187 964776269.60214615 0 0 0 0 499676303.38963127 1498770679.6439705 0 1498770679.6439705 4196004707.2307739 0 0 0 0 86337545.027576447 469995106.74670601 0 469995106.74670601 1735273517.0366211 0 0 0 0 -252802049.02411687 -32452107.618104696 0 -32452107.618104696 1460525596.4346771 0 0 0 0 -258899966.40151978 122195077.45001984 0 122195077.45001984 2637070649.4887238 0 0 0 0 184561197.40846252 682427493.13376236 0 682427493.13376236 1876306253.2871437 0 0 0 0 -216718807.98398209 293486997.25169754 0 293486997.25169754 1750616655.2722101 0 0 0 0 -340948297.09086609 34146244.446029663 0 34146244.446029663 1712890611.0989704 0 0 0 0 -53704119.853702545 -29195982.368703842 0 -29195982.368703842 1562257457.2933807 0 0 0 0 -317147948.95371628 48348186.398399353 0 48348186.398399353 1679551283.8245773 0 0 0 0 -269775972.73517323 148345444.06247711 0 148345444.06247711 1431752211.9023285 0 0 0 0 -215252625.61761093 202912738.75148392 0 202912738.75148392 1230852952.9500656 0 0 0 0 -60736432.142791748 256879087.89702797 0 256879087.89702797 663330066.82833099 0 0 0 0 -253316328.19810867 170858729.03008652 0 170858729.03008652 1223359219.0268841 0 0 0 0 538299346.07674885 -33913749.765953064 0 -33913749.765953064 -39852056.799797058 0 0 0 0 -194199678.83916092 -42240376.830165863 0 -42240376.830165863 925437409.86214256 0 0 0 0 112813449.39562702 374078066.06221199 0 374078066.06221199 1150563764.3044586 0 0 0 0 -177290299.49663162 488509408.06768036 0 488509408.06768036 2595771514.5286636 0 0 0 0 -5155518.5807304382 309724157.90375137 0 309724157.90375137 2431798765.4387207 0 0 0 0 82904124.698671341 448297827.39504242 0 448297827.39504242 2143469181.9534073 0 0 0 0 187847152.65628719 335302071.36166477 0 335302071.36166477 2247840924.1438599 0 0 0 0 -168571961.38116264 441980911.82071686 0 441980911.82071686 2384254476.9040222 0 0 0 0 285226173.52353668 327009414.36523056 0 327009414.36523056 1500799281.9448261 0 0 0 0 16539603.736726761 420176908.63566589 0 420176908.63566589 1777200465.6942692 0 0 0 0 83053689.035430908 652947321.57197571 0 652947321.57197571 2263486873.6131821 0 0 0 0 -92587463.818870544 -103142757.73973465 0 -103142757.73973465 1340649415.0176754 0 0 0 0 -139680136.58498001 -104823127.00491333 0 -104823127.00491333 985125154.66230011 0 0 0 0 -287685772.82102966 77250598.719299316 0 77250598.719299316 473587868.63446045 0 0 0 0 -352429405.45026398 -240617048.58752441 0 -240617048.58752441 1010902880.0984268 0 0 0 0 -358747994.79712677 83931650.605514526 0 83931650.605514526 1102668039.5879517 0 0 0 0 -144721034.65876198 116965818.23247528 0 116965818.23247528 1725566330.9008808 0 0 0 0 -6886041.9161958694 229765106.70248985 0 229765106.70248985 1328025698.9501648 0 0 0 0 152691667.50382519 -62814310.383909225 0 -62814310.383909225 1430836151.2848663 0 0 0 0 4292909.9205892794 502801.50962088443 0 502801.50962088443 336491.54280401859 0 0 0 0 105509043.08011627 115815505.39048004 0 115815505.39048004 1124058105.9895 0 0 0 0 255601082.06026459 156349781.84506226 0 156349781.84506226 1112238253.6250343 0 0 0 0 65884386.552181244 272700151.0765419 0 272700151.0765419 1491886856.8486023 0 0 0 0 -14260759.446870804 106390553.45146179 0 106390553.45146179 1471135020.5903931 0 0 0 0 -8309109.6077594757 235705527.88901138 0 235705527.88901138 1188428996.5777893 0 0 0 0 -169884927.0602951 -135008347.41860962 0 -135008347.41860962 900825342.52526855 0 0 0 0 -329136217.92326736 30561189.939567566 0 30561189.939567566 1184458540.6728668 0 0 0 0 -70968268.164165497 143499019.61442566 0 143499019.61442566 2113164053.0441036 0 0 0 0 -192165426.71027946 216492785.8748188 0 216492785.8748188 -111542066.4720726 0 0 0 0 -61590667.220251083 156241734.93053436 0 156241734.93053436 -109462528.40944672 0 0 0 0 -91232970.819107056 -60597982.897819519 0 -60597982.897819519 -38628335.478820801 0 0 0 0 -49785066.646627426 -62522537.439393997 0 -62522537.439393997 -86134199.89938736 0 0 0 0 148537821.77026367 -33161024.717592239 0 -33161024.717592239 224400533.66160583 0 0 0 0 1503195.1041369941 4985056.9667250952 0 4985056.9667250952 3955735.6248361319 0 0 0 0 110209900.06646729 -268812554.515625 0 -268812554.515625 -327227836.51904297 0 0 0 0 127462.42162058258 178614.48990243673 0 178614.48990243673 -124057.41356296092 0 0 0 0 -27607430.538629532 -61412718.102298737 0 -61412718.102298737 -134518302.77331543 0 0 0 0 -79721244.354228973 -87415943.269018173 0 -87415943.269018173 19843206.154563904 0 0 0 0 -374822367.14691544 -275359140.04419708 0 -275359140.04419708 117186450.5437088 0 0 0 0 -321264886.31490326 -311978999.21341705 0 -311978999.21341705 -5896302.9490966797 0 0 0 0 107112615.59700966 120913494.91013527 0 120913494.91013527 1315384.6098480225 0 0 0 0 -1064842.3236434762 2030693.8940972723 0 2030693.8940972723 880376.67018376291 0 0 0 0 -385647693.31711197 205475218.9157238 0 205475218.9157238 -101607702.67383194 0 0 0 0 -600512422.01666641 47903990.986240387 0 47903990.986240387 63110185.85408783 0 0 0 0 -223275475.53262329 151895232.38023376 0 151895232.38023376 -83701619.921875 0 0 0 0 380260027.96890259 180340280.03267288 0 180340280.03267288 -158078616.2661047 0 0 0 0 743885328.04067612 -42369111.842683792 0 -42369111.842683792 -56019225.764518738 0 0 0 0 1533086.4940489978 -1425672.3581167348 0 -1425672.3581167348 566.18314293771982 0 0 0 0 1823865.9862110922 -1329948.4224789925 0 -1329948.4224789925 1758518.0253099818 0 0 0 0 -39626078.324172974 -87802029.053836823 0 -87802029.053836823 -63960689.501869202 0 0 0 0 79237202.921161652 11757728.340179443 0 11757728.340179443 61176643.319614589 0 0 0 0 -52664453.282219887 -97302764.92121315 0 -97302764.92121315 59468210.043495178 0 0 0 0 -136072634.60231781 20831603.565151215 0 20831603.565151215 -16428801.853941917 0 0 0 0 284013442.87194729 -73578226.058414459 0 -73578226.058414459 631712475.19252014 0 0 0 0 378538785.15061951 -15453817.593006134 0 -15453817.593006134 48796858.077865601 0 0 0 0 204581099.36647797 123382970.59091568 0 123382970.59091568 224870230.96552181 0 0 0 0 315043958.09496498 -181798104.12525558 0 -181798104.12525558 173242655.70220184 0 0 0 0 -94449387.932483673 -100503753.85863495 0 -100503753.85863495 163889285.14611816 0 0 0 0 -25366443.422542572 83316849.46667099 0 83316849.46667099 147139198.76970196 0 0 0 0 27010121.228572845 110154760.3859787 0 110154760.3859787 -83105083.192996979 0 0 0 0 -183551553.20673943 -89213170.641921997 0 -89213170.641921997 32001166.231315613 0 0 0 0 47502746.663131714 188291721.99861526 0 188291721.99861526 174343057.33982944 0 0 0 0 312377220.82589912 71390917.323801041 0 71390917.323801041 16023860.018280029 0 0 0 0 65398335.479531288 -20005528.961626053 0 -20005528.961626053 105085860.04257965 0 0 0 0 -5080723.5206699371 16387603.972520828 0 16387603.972520828 -34116155.420318604 0 0 0 0 -428557777.19496477 -40823387.799614668 0 -40823387.799614668 40703279.364700317 0 0 0 0 -1204887.5547405882 -130239.7446869202 0 -130239.7446869202 1023643.9516376443 0 0 0 0 1502914.5728827668 5583088.4331616731 0 5583088.4331616731 3632937.5122966394 0 0 0 0 -487929794.1674118 377583946.34256554 0 377583946.34256554 -63998909.782488346 0 0 0 0 -318776920.50051594 191765449.89675045 0 191765449.89675045 1466811.0779037476 0 0 0 0 -342063377.78499889 25795773.10615921 0 25795773.10615921 165802714.78203201 0 0 0 0 -229836699.80766487 145193180.52753448 0 145193180.52753448 -107236537.5537796 0 0 0 0 -129783260.18918419 -2857884.0338554382 0 -2857884.0338554382 17223041.008140564 0 0 0 0 -99724818.155462265 2074805.8016586304 0 2074805.8016586304 19670163.522603989 0 0 0 0 576020.46975341067 -489054.88431812078 0 -489054.88431812078 -151237.67562811682 0 0 0 0 -93669734.838842392 12421116.72004509 0 12421116.72004509 -39387866.816679001 0 0 0 0 1457883.3168226411 5590472.9245391702 0 5590472.9245391702 3374702.6056668293 0 0 0 0 -486159259.65731335 205311971.11162663 0 205311971.11162663 119015734.84320068 0 0 0 0 -224407356.56772041 -78090011.122759819 0 -78090011.122759819 -32507578.304656982 0 0 0 0 -577935102.75213242 62771209.877966881 0 62771209.877966881 105708040.43939972 0 0 0 0 -22386842.871902466 120095707.83368206 0 120095707.83368206 -3859308.5145721436 0 0 0 0 10132628.58465004 59678035.260946274 0 59678035.260946274 107196687.80139065 0 0 0 0 342562415.34567547 135649046.74855757 0 135649046.74855757 -51514857.966171265 0 0 0 0 157093782.08084488 147942997.38628387 0 147942997.38628387 -13351767.493606567 0 0 0 0 109092831.96829796 23847711.705942154 0 23847711.705942154 -69343158.715301514 0 0 0 0 -194339057.96092701 155027987.16734695 0 155027987.16734695 69210258.923017502 0 0 0 0 1310182.2719900967 4669978.1628455948 0 4669978.1628455948 2108064.5856210906 0 0 0 0 158395669.64209509 125155059.92151976 0 125155059.92151976 -25426088.789432526 0 0 0 0 206423339.602314 115351770.49319267 0 115351770.49319267 -56195294.581645966 0 0 0 0 301013063.35266876 88471520.983072281 0 88471520.983072281 -60702705.584690094 0 0 0 0 247491145.7256813 53819616.681196213 0 53819616.681196213 34789609.699607849 0 0 0 0 290539682.12151814 45961329.746967793 0 45961329.746967793 -82726853.081993103 0 0 0 0 247826792.13010216 23335482.083917618 0 23335482.083917618 -73866907.995174408 0 0 0 0 287498571.9379921 -15309089.852788448 0 -15309089.852788448 -47614205.9324646 0 0 0 0 293890833.27941895 -46267251.36211586 0 -46267251.36211586 21319034.21282959 0 0 0 0 187510592.22131348 -2105415.0405750275 0 -2105415.0405750275 -91548347.147357941 0 0 0 0 5498740.199883461 -133558033.6289835 0 -133558033.6289835 19030040.09160614 0 0 0 0 243093313.4055481 -81607753.104824066 0 -81607753.104824066 -145713251.38686562 0 0 0 0 427017176.10757828 98486381.877311707 0 98486381.877311707 -75444403.523849487 0 0 0 0 372156410.48443413 -92823081.311658859 0 -92823081.311658859 -117730725.2026825 0 0 0 0 677620038.63982391 299036873.8921814 0 299036873.8921814 154259042.61110306 0 0 0 0 594016565.80110168 -332192348.27409363 0 -332192348.27409363 256188286.14021301 0 0 0 0 92479677.165821075 -23217028.781965256 0 -23217028.781965256 98430975.332836151 0 0 0 0 89357716.656303167 13331290.210709333 0 13331290.210709333 36090111.551261902 0 0 0 0 -300888212.04721355 86606391.124648094 0 86606391.124648094 584419798.21509552 0 0 0 0 -172803628.28244209 273631961.9929781 0 273631961.9929781 114972334.98371506 0 0 0 0 -1345826.3846808253 933686.69839865901 0 933686.69839865901 3193941.9910742678 0 0 0 0 -15352239.060138702 80449543.960582733 0 80449543.960582733 -156607716.90460968 0 0 0 0 975195949.97747993 -208604884.52404976 0 -208604884.52404976 -78585024.939517975 0 0 0 0 648840988.11789322 -351149697.25116539 0 -351149697.25116539 364257174.35888672 0 0 0 0 -61038280.187829018 -213205436.94059896 0 -213205436.94059896 260136808.68335724 0 0 0 0 -119912980.70098877 -22025743.186038971 0 -22025743.186038971 218441683.4367733 0 0 0 0 2184252.4039582331 -1829018.7522208495 0 -1829018.7522208495 -2676338.9389393907 0 0 0 0 -247327690.347229 31046180.410396576 0 31046180.410396576 258805145.97526932 0 0 0 0 3283501.9600008875 -3149700.3507756395 0 -3149700.3507756395 -4393428.4241319466 0 0 0 0 -61585012.681526184 -123434425.79053879 0 -123434425.79053879 238634549.40024757 0 0 0 0 -477455368.59486008 -110227172.61252642 0 -110227172.61252642 249767463.23872757 0 0 0 0 136516472.97185516 -119594089.47664165 0 -119594089.47664165 -332479938.84631729 0 0 0 0 -74216243.707080841 208079277.35518074 0 208079277.35518074 -152580187.03907585 0 0 0 0 -270233332.83746719 -247342738.88879013 0 -247342738.88879013 -43429916.293712616 0 0 0 0 -389605074.99599075 59431223.539190769 0 59431223.539190769 103255240.38471603 0 0 0 0 -104492881.86581802 131317248.24224472 0 131317248.24224472 -229399119.19003677 0 0 0 0 -830988.10525502264 -2129878.1713165641 0 -2129878.1713165641 2750076.8940092265 0 0 0 0 7340319.9120254517 -89114943.682285309 0 -89114943.682285309 25597589.741501808 0 0 0 0 166336376.29935455 -6148185.2498378754 0 -6148185.2498378754 -246330644.53600883 0 0 0 0 73929922.742416382 -270975239.50979042 0 -270975239.50979042 147693656.21089745 0 0 0 0 2149139.1024526283 -1933880.9893234093 0 -1933880.9893234093 -2778316.6782622021 0 0 0 0 -2362511.8365745544 93888910.647503853 0 93888910.647503853 -58708397.836166382 0 0 0 0 -122296986.58420563 -120668457.45463562 0 -120668457.45463562 56675824.643221855 0 0 0 0 40522308.535209656 194919802.52376938 0 194919802.52376938 122195605.43236268 0 0 0 0 -7233551.5599760748 2586039.1214955263 0 2586039.1214955263 15351601.40260753 0 0 0 0 -1195848.349407196 16446147.506763458 0 16446147.506763458 24657001.322631836 0 0 0 0 -15687808.160568237 3548436.7155532837 0 3548436.7155532837 46075668.343643188 0 0 0 0 -10618713.530485477 9344535.082423836 0 9344535.082423836 29056823.061020717 0 0 0 0 -17567560.007944107 6212262.8816204071 0 6212262.8816204071 20644746.884262085 0 0 0 0 100730624.73648834 115867165.2170372 0 115867165.2170372 -167108131.1999588 0 0 0 0 -342133748.81512451 -93633702.458747864 0 -93633702.458747864 162565498.47657776 0 0 0 0 -6478032.7524126479 10883640.382647917 0 10883640.382647917 33743621.432811409 0 0 0 0 -80022332.239883423 -5130242.1631507874 0 -5130242.1631507874 75057679.830558777 0 0 0 0 -214980153.59024811 59842323.476150513 0 59842323.476150513 45148956.894674301 0 0 0 0 -3479232.2756408444 20230339.245507918 0 20230339.245507918 29601161.071735173 0 0 0 0 -29138369.624237061 25185539.224933624 0 25185539.224933624 12474230.022068024 0 0 0 0 -11782745.56964959 7369599.2032856643 0 7369599.2032856643 44902033.308111474 0 0 0 0 -263407643.25145912 79167244.891235352 0 79167244.891235352 157990117.86392212 0 0 0 0 1443008.7466272749 13946281.866359536 0 13946281.866359536 41985342.829510167 0 0 0 0 -88526505.260822296 -76787872.840332031 0 -76787872.840332031 6555220.3531646729 0 0 0 0 -433684368.13109207 -50992235.825431824 0 -50992235.825431824 122456995.09067917 0 0 0 0 -7507406.7130744234 3375561.415733709 0 3375561.415733709 22936170.163951945 0 0 0 0 -213950642.73316956 47392429.404781342 0 47392429.404781342 108408281.26801682 0 0 0 0 -140074072.73667145 78676029.719848633 0 78676029.719848633 98818023.111645699 0 0 0 0 -2301442.7718200684 -52149897.48859787 0 -52149897.48859787 125013050.14225435 0 0 0 0 -270999076.32407379 114420363.87049675 0 114420363.87049675 57701473.33108139 0 0 0 0 -95884412.318256378 76801162.711704254 0 76801162.711704254 65695109.750221252 0 0 0 0 29247569.371712208 12828671.371322632 0 12828671.371322632 209855779.37390137 0 0 0 0 15961904.16251564 -19700309.589424133 0 -19700309.589424133 386647201.41471863 0 0 0 0 269003297.07038379 206672469.59654999 0 206672469.59654999 149638159.45098877 0 0 0 0 117808671.53456879 83120082.453170776 0 83120082.453170776 51723510.832565308 0 0 0 0 184250319.8634547 139194314.76160526 0 139194314.76160526 -31040190.951721191 0 0 0 0 76785755.061382294 107607511.48638916 0 107607511.48638916 -8053170.9707946777 0 0 0 0 124547811.68959522 88457098.411884308 0 88457098.411884308 -24789787.589599609 0 0 0 0 64395745.400671005 138197699.65157318 0 138197699.65157318 28607164.07409668 0 0 0 0 -29062880.309257507 90328488.19720459 0 90328488.19720459 4089557.0157470703 0 0 0 0 75994977.729723454 98283351.929653168 0 98283351.929653168 -101596297.47424316 0 0 0 0 -40972399.971973419 55248703.027084351 0 55248703.027084351 -95327373.905620575 0 0 0 0 -172971355.84532738 189844273.08100128 0 189844273.08100128 -11207462.334533691 0 0 0 0 24157186.111081123 138522337.60301375 0 138522337.60301375 41064325.432159424 0 0 0 0 19776601.599744797 -9111205.6506500244 0 -9111205.6506500244 178443956.58692169 0 0 0 0 -31558760.182582855 -51761582.686157227 0 -51761582.686157227 30980578.194953918 0 0 0 0 -172634158.8954792 184550358.69641113 0 184550358.69641113 216138152.1464386 0 0 0 0 919548.16598531045 1142710.0628327876 0 1142710.0628327876 -691122.66418679804 0 0 0 0 -274127880.35137558 30672587.441177368 0 30672587.441177368 115836530.18975067 0 0 0 0 1349862.7043240331 18246977.563471194 0 18246977.563471194 25100024.580564439 0 0 0 0 -157052816.40785217 89497092.215087891 0 89497092.215087891 46797302.314300537 0 0 0 0 -262022523.94582939 268623163.03362656 0 268623163.03362656 -69787922.176940918 0 0 0 0 -369644542.64622879 120596394.87283325 0 120596394.87283325 -13250855.354309082 0 0 0 0 -161466010.5298233 172397576.78114319 0 172397576.78114319 -170961309.13284302 0 0 0 0 -190281417.3846488 235649645.30185699 0 235649645.30185699 29710929.747711182 0 0 0 0 -23752953.396625519 18599159.532798767 0 18599159.532798767 31787535.102394104 0 0 0 0 -402714.57711791992 13112690.058986664 0 13112690.058986664 11850541.109512329 0 0 0 0 -3663639.6463350765 13061727.832050383 0 13061727.832050383 34298834.038680069 0 0 0 0 -309392651.0271492 278960975.41499329 0 278960975.41499329 49478646.582946777 0 0 0 0 -36275930.571020126 34298304.376764297 0 34298304.376764297 17817388.000152588 0 0 0 0 -235446380.00190353 -15960956.09538269 0 -15960956.09538269 -37357094.180664062 0 0 0 0 -213821419.23990631 199170754.96707153 0 199170754.96707153 -79202649.641998291 0 0 0 0 -223038062.41953373 196819410.22168732 0 196819410.22168732 31661676.472900391 0 0 0 0 -256772230.87815475 105970036.00437927 0 105970036.00437927 6864722.652923584 0 0 0 0 -265692981.84301853 113041791.41055679 0 113041791.41055679 140809074.83322144 0 0 0 0 151092394.74479294 185358332.25700378 0 185358332.25700378 139295936.09266663 0 0 0 0 -503004818.32601261 232837234.06416893 0 232837234.06416893 407170435.63995361 0 0 0 0 471753289.67854118 570824949.39852905 0 570824949.39852905 187378390.8533783 0 0 0 0 37493894.144908905 -94824983.471664429 0 -94824983.471664429 320977629.61703193 0 0 0 0 850498045.18658829 -430976982.9979248 0 -430976982.9979248 323180380.20834839 0 0 0 0 -214372857.74583554 -477950174.65715885 0 -477950174.65715885 1123920937.3231506 0 0 0 0 64138741.328165054 16800138.351696014 0 16800138.351696014 76251167.860565186 0 0 0 0 -32973862.023870468 -107390211.5329895 0 -107390211.5329895 483454271.60438538 0 0 0 0 -260534851.543293 -109123478.78001404 0 -109123478.78001404 843284721.96292114 0 0 0 0 -58721598.072856903 25155675.928741455 0 25155675.928741455 565470626.45826721 0 0 0 0 -63228176.212006569 -47038478.383972168 0 -47038478.383972168 642556825.09314728 0 0 0 0 -40923908.21767807 93781265.038047791 0 93781265.038047791 507032095.70256805 0 0 0 0 1622276.9411332551 1755727.5339054167 0 1755727.5339054167 -1017021.1228525937 0 0 0 0 41860944.994174004 -82530708.127792358 0 -82530708.127792358 244106392.90803528 0 0 0 0 -327185651.12238312 294700856.86766815 0 294700856.86766815 359633207.87759399 0 0 0 0 7822416.6005077362 -249868722.17271423 0 -249868722.17271423 178847134.52694702 0 0 0 0 -364910.6975875849 -1583424.0603457051 0 -1583424.0603457051 953404.81253889203 0 0 0 0 -85068074.275737762 -315864858.67727661 0 -315864858.67727661 723304923.72421646 0 0 0 0 -266737097.04118729 -6095621.0061798096 0 -6095621.0061798096 46563014.178180695 0 0 0 0 -219513619.77051163 10871935.56539917 0 10871935.56539917 29223680.371917725 0 0 0 0 -267915184.123703 -23259797.232215881 0 -23259797.232215881 -127681122.79096985 0 0 0 0 -767029478.25543022 176846908.32517624 0 176846908.32517624 311044034.66819763 0 0 0 0 -491158288.54117393 -285361658.78130341 0 -285361658.78130341 1036630229.7684479 0 0 0 0 528690583.20467377 -1337401524.670433 0 -1337401524.670433 616771355.16343689 0 0 0 0 -293877775.86624527 -1345123008.2135162 0 -1345123008.2135162 1429133149.6812134 0 0 0 0 -220026541.04199135 -97062411.497257233 0 -97062411.497257233 293389781.50015259 0 0 0 0 1122069586.3630428 -594302052.49452209 0 -594302052.49452209 357246327.17358398 0 0 0 0 -1343088.2634906536 -2036968.475002469 0 -2036968.475002469 4810521.8127747178 0 0 0 0 504438541.7326088 -1295917277.6791496 0 -1295917277.6791496 641950971.31295776 0 0 0 0 1165589482.6941376 -1452813340.3784409 0 -1452813340.3784409 348393465.25563049 0 0 0 0 -412093993.8057785 814854391.57092285 0 814854391.57092285 669819880.47276306 0 0 0 0 -404168501.00310183 -53996636.613271713 0 -53996636.613271713 6894780.9329223633 0 0 0 0 -2059575.3245991403 -2345362.9753873367 0 -2345362.9753873367 9272410.6896237731 0 0 0 0 -289781698.05283356 7176235.6062164307 0 7176235.6062164307 32479093.20375061 0 0 0 0 -246358276.98372936 -51544527.478019714 0 -51544527.478019714 -39035501.948196411 0 0 0 0 -677309.19003547507 -2873377.6020625005 0 -2873377.6020625005 1772937.7755589038 0 0 0 0 -281449777.96750641 -58357014.702636719 0 -58357014.702636719 -18768309.441070557 0 0 0 0 46486648.579488754 -190890189.8225708 0 -190890189.8225708 -36881917.084648132 0 0 0 0 -506326055.24455643 -63550107.198143005 0 -63550107.198143005 233192285.45039368 0 0 0 0 9642081.7849302292 -215100584.91288567 0 -215100584.91288567 7643946.1491851807 0 0 0 0 -318274582.88372803 171469536.00158691 0 171469536.00158691 -11834307.409757376 0 0 0 0 2820936.8319547512 4563005.4047209267 0 4563005.4047209267 5887286.2328625172 0 0 0 0 -121304670.04999542 52462048.256967545 0 52462048.256967545 -118186711.52633667 0 0 0 0 -171539691.65361404 11119267.683204651 0 11119267.683204651 -46006367.045410156 0 0 0 0 -125282082.65538788 55429235.052852631 0 55429235.052852631 -2425515.1748580933 0 0 0 0 -45140206.521251678 -23045417.667345047 0 -23045417.667345047 65562004.465545654 0 0 0 0 -9384202.1847011708 -2311268.902752474 0 -2311268.902752474 10482087.897199377 0 0 0 0 1964956537.5163383 -904766404.56858063 0 -904766404.56858063 85449770.360595703 0 0 0 0 835149.25055597071 3847690.3372634239 0 3847690.3372634239 4617420.6085814387 0 0 0 0 11915650.832830429 31616819.164691925 0 31616819.164691925 712134483.58703613 0 0 0 0 -72045214.417549133 94023211.250350952 0 94023211.250350952 38833972.905573845 0 0 0 0 6693106.3247959949 14032524.402607467 0 14032524.402607467 25496075.964925751 0 0 0 0 309391388.62528229 -566293545.58815002 0 -566293545.58815002 315075024.0864563 0 0 0 0 217074958.15520096 -663128566.30155182 0 -663128566.30155182 704377841.05765057 0 0 0 0 443630838.36121845 -735037405.50277519 0 -735037405.50277519 179041430.78106689 0 0 0 0 406244200.39695358 -479093394.24323273 0 -479093394.24323273 -145079415.50588989 0 0 0 0 311669199.00239563 -643007882.43112183 0 -643007882.43112183 268179183.01046753 0 0 0 0 416693565.27595901 -646803085.78404617 0 -646803085.78404617 120619646.53184509 0 0 0 0 527466670.69024658 -473470158.32017517 0 -473470158.32017517 226996562.23898125 0 0 0 0 8628426.9133310821 12998649.156941961 0 12998649.156941961 19327169.562513374 0 0 0 0 -9214611.9405441284 463739684.65908432 0 463739684.65908432 173611063.88408661 0 0 0 0 326204341.56306839 -482907445.93980026 0 -482907445.93980026 226628765.20079041 0 0 0 0 2195060.0911217332 1934526.368721623 0 1934526.368721623 443625.33641587198 0 0 0 0 -519215403.38024139 352315322.86514282 0 352315322.86514282 162168028.3754425 0 0 0 0 8080807.570823878 10522564.643420633 0 10522564.643420633 13939583.549023166 0 0 0 0 -885583988.10829163 1229946945.6621017 0 1229946945.6621017 1033434447.6833344 0 0 0 0 -14920957.425888062 -489440521.3428421 0 -489440521.3428421 -663753620.2340126 0 0 0 0 456313826.49118996 -42747519.313808441 0 -42747519.313808441 818235265.15106201 0 0 0 0 727092131.35535049 196038484.96169662 0 196038484.96169662 411076837.85261536 0 0 0 0 621776326.30214977 -160631035.84266281 0 -160631035.84266281 846657199.70855713 0 0 0 0 700391764.68362427 251906887.79492569 0 251906887.79492569 2619943783.9008484 0 0 0 0 -133739925.75484848 721708199.20401764 0 721708199.20401764 3228849821.7092514 0 0 0 0 1196291279.5334702 848135660.04295349 0 848135660.04295349 1997927956.6153946 0 0 0 0 358902458.31534004 120303057.20109844 0 120303057.20109844 1756295280.1432953 0 0 0 0 1116927927.851738 -101813432.06793213 0 -101813432.06793213 779373889.3598671 0 0 0 0 557791073.10800314 -521460913.77802563 0 -521460913.77802563 291138131.65361023 0 0 0 0 368008831.03373337 -263823490.9283371 0 -263823490.9283371 982532503.46665955 0 0 0 0 -22845678.571565628 -470154599.05908966 0 -470154599.05908966 448620592.51731873 0 0 0 0 395132851.56566238 -194936587.49121857 0 -194936587.49121857 180060656.23213673 0 0 0 0 -723668612.08012962 197912033.59727097 0 197912033.59727097 73581817.603311539 0 0 0 0 358853125.17357635 260592423.78308105 0 260592423.78308105 -66116683.479675293 0 0 0 0 153506427.01454163 846039319.42359161 0 846039319.42359161 983318876.3840332 0 0 0 0 8125843.7614116669 1072466227.0934334 0 1072466227.0934334 654855791.01654816 0 0 0 0 -617618.76108359033 -579785.80266524805 0 -579785.80266524805 3586524.3474257067 0 0 0 0 134436859.71989059 302860152.66947937 0 302860152.66947937 1217422106.4741669 0 0 0 0 230577297.12229156 315783093.86029816 0 315783093.86029816 209206502.2335968 0 0 0 0 147636350.7949295 442632364.56282043 0 442632364.56282043 543416912.60540771 0 0 0 0 631398185.0610733 838819125.19303894 0 838819125.19303894 538932874.51739001 0 0 0 0 246332417.24241638 455928828.95366669 0 455928828.95366669 247854278.59535217 0 0 0 0 360606033.89020348 252886080.3526535 0 252886080.3526535 -142937831.98669434 0 0 0 0 115026644.07049179 -82977779.205833435 0 -82977779.205833435 -89873338.433805466 0 0 0 0 3665053.655427915 1064262.3268606141 0 1064262.3268606141 267276.63513113558 0 0 0 0 337954659.25252151 40783109.743888855 0 40783109.743888855 -20686993.208465576 0 0 0 0 -101008642.42594528 80882209.414894104 0 80882209.414894104 135650996.7984314 0 0 0 0 305060032.37049103 -25777805.376831055 0 -25777805.376831055 -10658829.399131775 0 0 0 0 -4531570.578666687 -191968088.22244644 0 -191968088.22244644 337664712.90718079 0 0 0 0 3431360.7244344987 -537423.93600031734 0 -537423.93600031734 3811036.696087555 0 0 0 0 926218425.35461426 -83523718.176239014 0 -83523718.176239014 -95821432.510360718 0 0 0 0 527567736.68292236 1293442335.4596252 0 1293442335.4596252 1278432800.6998749 0 0 0 0 175323524.51764679 877300390.51174164 0 877300390.51174164 923198620.56259155 0 0 0 0 320935715.9863205 399330792.02322388 0 399330792.02322388 286527482.70294189 0 0 0 0 1384748570.5259151 935006225.09060669 0 935006225.09060669 410209430.18692017 0 0 0 0 -188958880.54593086 -135470338.07894135 0 -135470338.07894135 328120450.65079594 0 0 0 0 -86300786.13335371 -182739310.63565254 0 -182739310.63565254 79863048.601501465 0 0 0 0 78328331.184650421 -392880250.78343201 0 -392880250.78343201 235134634.05123138 0 0 0 0 -23935793.350858688 -406453916.45464325 0 -406453916.45464325 296685571.50584412 0 0 0 0 -392810.06343319605 -1812914.2272934543 0 -1812914.2272934543 900657.59704679251 0 0 0 0 -456562620.65267706 -7559511.878282547 0 -7559511.878282547 130507984.6469574 0 0 0 0 -28771338.92337513 -339594699.16365051 0 -339594699.16365051 235024943.35212326 0 0 0 0 -294516373.08760452 -198711369.16169739 0 -198711369.16169739 353407619.07204437 0 0 0 0 -186127256.10209846 -37085485.277275085 0 -37085485.277275085 44660757.781936646 0 0 0 0 -1573668.1531640394 -1433999.6816202197 0 -1433999.6816202197 8318490.9226088673 0 0 0 0 -158280403.54891539 -106063830.73893547 0 -106063830.73893547 185490131.12634277 0 0 0 0 200186308.54816461 -497983321.78913403 0 -497983321.78913403 645509141.08903503 0 0 0 0 178504539.94886398 492113748.68180084 0 492113748.68180084 1139648095.5605431 0 0 0 0 -56999162.346458435 -110215090.06007385 0 -110215090.06007385 181597259.85574913 0 0 0 0 -132725264.78825426 4379097.8426685333 0 4379097.8426685333 419751741.94398499 0 0 0 0 -43108882.224096537 -254632874.21695757 0 -254632874.21695757 161991356.74662781 0 0 0 0 -246629237.72595692 -226364845.75006104 0 -226364845.75006104 247270417.20487595 0 0 0 0 -186559877.33474541 148037972.83078003 0 148037972.83078003 55518004.100875854 0 0 0 0 -557990269.31117058 127313536.66629791 0 127313536.66629791 108809414.38975525 0 0 0 0 -339610787.94669724 -179733941.02368927 0 -179733941.02368927 322103699.90220642 0 0 0 0 -284544772.14447594 -149062580.82258606 0 -149062580.82258606 144754245.20858765 0 0 0 0 99085064.959020138 -164174409.85993195 0 -164174409.85993195 137838948.47325134 0 0 0 0 -1426915.4708912531 -1264636.1492950711 0 -1264636.1492950711 474990.6507941857 0 0 0 0 -918479562.49554634 195116299.50229645 0 195116299.50229645 244757994.30184937 0 0 0 0 -1878777.047088623 492689537.80335236 0 492689537.80335236 299853493.35835266 0 0 0 0 49444287.922851562 140271594.5592041 0 140271594.5592041 -45374995.24747467 0 0 0 0 125429301.82988596 449452512.41280746 0 449452512.41280746 348009810.43574524 0 0 0 0 405406932.41516495 440660494.64063263 0 440660494.64063263 267197668.67140961 0 0 0 0 331251842.39167023 553161895.29998779 0 553161895.29998779 384934005.06106329 0 0 0 0 501250003.24953938 493904069.01224136 0 493904069.01224136 225858573.59614563 0 0 0 0 273865781.65113449 401532841.22559357 0 401532841.22559357 393724269.10977936 0 0 0 0 423470912.0561142 465518118.84481812 0 465518118.84481812 216162853.54566193 0 0 0 0 14845830.294173418 -5403903.9205294549 0 -5403903.9205294549 -634117.94713194668 0 0 0 0 344962310.75206566 545563452.11984253 0 545563452.11984253 484060341.38270569 0 0 0 0 93463406.626342773 -27802897.901321411 0 -27802897.901321411 -268871769.20742416 0 0 0 0 71119850.187198639 172302376.49751854 0 172302376.49751854 -43655110.956329346 0 0 0 0 121157832.36952209 51898398.355401993 0 51898398.355401993 -101107253.9569397 0 0 0 0 194190783.86961937 254923834.51570129 0 254923834.51570129 117151992.70851135 0 0 0 0 56343526.085495949 145041225.34068298 0 145041225.34068298 -197213314.29336548 0 0 0 0 69795604.92758894 -214253578.04614639 0 -214253578.04614639 -465123721.11000061 0 0 0 0 -123283348.46421623 -168441978.59863281 0 -168441978.59863281 -101633504.67124176 0 0 0 0 316416272.25876236 -90926293.103729248 0 -90926293.103729248 -145682366.97010803 0 0 0 0 231493965.5478735 238635677.1738987 0 238635677.1738987 553864935.73455811 0 0 0 0 453915393.3025074 506452399.11575317 0 506452399.11575317 300702010.23082733 0 0 0 0 502186296.04678154 1085041961.7582245 0 1085041961.7582245 1216474528.8769188 0 0 0 0 6806624.4373897873 -3028062.3652229682 0 -3028062.3652229682 821552.95017968118 0 0 0 0 -130615510.66891134 200775719.46356201 0 200775719.46356201 -341839118.53242874 0 0 0 0 1017891964.1146469 -616173620.27761841 0 -616173620.27761841 -192270877.00524902 0 0 0 0 733883.05508897454 -1684908.8150662668 0 -1684908.8150662668 1380880.9314083233 0 0 0 0 -1487930912.5425072 -284749183.77471924 0 -284749183.77471924 2079705185.2301731 0 0 0 0 -353151283.24765015 1602767733.8513718 0 1602767733.8513718 2400007174.7466068 0 0 0 0 989760361.89355612 108408176.46186447 0 108408176.46186447 -381932759.25286865 0 0 0 0 -467751189.99063492 121628500.716362 0 121628500.716362 185430502.5807991 0 0 0 0 -512529178.58625793 -104530177.48736572 0 -104530177.48736572 445008140.44280243 0 0 0 0 -5581422.637933135 81471843.150732279 0 81471843.150732279 101625047.33389282 0 0 0 0 -1248170.2936966419 -36947235.655660629 0 -36947235.655660629 123278919.08798218 0 0 0 0 106663209.70987701 46515398.640701294 0 46515398.640701294 36573760.13659668 0 0 0 0 -1512768.574129343 9468323.2444496155 0 9468323.2444496155 31002220.536087036 0 0 0 0 10268577.014838519 9840546.7164500169 0 9840546.7164500169 7823294.7651187032 0 0 0 0 13018506.937230607 10409767.123076238 0 10409767.123076238 30878955.302094415 0 0 0 0 32109009.04154712 -651082.37472007424 0 -651082.37472007424 -3757771.6292672902 0 0 0 0 -133891032.18785095 -171010128.13928223 0 -171010128.13928223 -31892716.602264404 0 0 0 0 118498253.54403687 48551513.071716309 0 48551513.071716309 16910722.475830078 0 0 0 0 88850959.676330566 83965194.048690796 0 83965194.048690796 57264250.963104248 0 0 0 0 -1329524.0002887398 -1737116.0738214441 0 -1737116.0738214441 -91335.250616930425 0 0 0 0 -2077656.2911872864 7076221.1225090027 0 7076221.1225090027 39198457.332103729 0 0 0 0 3064620.5660448074 8662869.2944297791 0 8662869.2944297791 49068801.993743896 0 0 0 0 9650213.2176862955 -1787310.7975759506 0 -1787310.7975759506 27868398.367858887 0 0 0 0 9403953.1191987991 -2468496.6352920532 0 -2468496.6352920532 28174023.090248108 0 0 0 0 5858745.0572719574 1425662.653465271 0 1425662.653465271 24065868.491088867 0 0 0 0 125617120.49974442 -901581.91189575195 0 -901581.91189575195 -80819560.061309814 0 0 0 0 18350535.562393181 -1829755.8400068879 0 -1829755.8400068879 18424547.667930979 0 0 0 0 8999017.2896263599 -2528681.5949401855 0 -2528681.5949401855 25599233.452186584 0 0 0 0 9264781.7073261142 -3321947.4570274353 0 -3321947.4570274353 27697812.389892578 0 0 0 0 8914154.9200706482 -53022728.659759521 0 -53022728.659759521 -63595060.454498291 0 0 0 0 15679813.340763699 1886101.8620702997 0 1886101.8620702997 -2080197.9957521409 0 0 0 0 5040970.381187899 654972.17652963474 0 654972.17652963474 -1866678.4508878589 0 0 0 0 -238376540.35268402 -14729614.563194275 0 -14729614.563194275 52393685.349853516 0 0 0 0 -95142742.780385971 307088959.70878601 0 307088959.70878601 347908461.29821777 0 0 0 0 304167139.4734726 207656801.5400238 0 207656801.5400238 211628268.34060669 0 0 0 0 81171957.167320251 -195347472.08644104 0 -195347472.08644104 22847600.817977905 0 0 0 0 377717715.35280609 124300375.35790253 0 124300375.35790253 -8130932.4412536621 0 0 0 0 883619873.90668106 612751781.78382111 0 612751781.78382111 329575443.74320984 0 0 0 0 856615921.76923752 6953285.6074447632 0 6953285.6074447632 276295475.85797882 0 0 0 0 435222443.23639584 380485776.82534409 0 380485776.82534409 212076085.66177368 0 0 0 0 583737372.97104645 325755527.53439331 0 325755527.53439331 171751877.6489563 0 0 0 0 396134220.65282631 25179135.174781799 0 25179135.174781799 40678922.97366333 0 0 0 0 81700642.663093567 115650036.60566711 0 115650036.60566711 159419985.41189623 0 0 0 0 325915699.55994415 -16001261.335372925 0 -16001261.335372925 -67603759.448310852 0 0 0 0 20293948.259676229 -10320423.340899296 0 -10320423.340899296 -1877269.4389434643 0 0 0 0 230110944.44554901 121083490.47238159 0 121083490.47238159 -10717892.541473389 0 0 0 0 -106211594.22779083 -8240824.6636810303 0 -8240824.6636810303 46393434.420650482 0 0 0 0 104613596.33938599 35164771.64868927 0 35164771.64868927 63039472.137359619 0 0 0 0 2995928.0644340161 3103896.7823247621 0 3103896.7823247621 2581500.8574116826 0 0 0 0 12043148.876334442 9797577.9088437222 0 9797577.9088437222 -7615811.9945939183 0 0 0 0 79162305.612960815 56076394.370925903 0 56076394.370925903 50111419.109069824 0 0 0 0 -136678564.01259613 -64443799.404418945 0 -64443799.404418945 108624460.62967682 0 0 0 0 106086650.49209213 21575634.633178711 0 21575634.633178711 -104306748.97975159 0 0 0 0 62685053.044616699 127505681.98789978 0 127505681.98789978 191170652.13023376 0 0 0 0 65176420.470279694 108471623.31628418 0 108471623.31628418 137028921.676651 0 0 0 0 6310613.1037502531 5317830.7822378427 0 5317830.7822378427 -4958846.8126305416 0 0 0 0 164043133.60586739 144243653.26255417 0 144243653.26255417 100022545.78224182 0 0 0 0 37397057.166133881 1140816.3643875122 0 1140816.3643875122 78469241.068473816 0 0 0 0 -6432165.4612824917 -29506656.401767731 0 -29506656.401767731 -32078294.019447327 0 0 0 0 -9420085.1423950195 38328668.202217102 0 38328668.202217102 232843649.82676697 0 0 0 0 -14283614.126577163 -4095182.5188023858 0 -4095182.5188023858 31889875.274829671 0 0 0 0 111834570.97223854 113479617.83175659 0 113479617.83175659 13833623.388549805 0 0 0 0 155703272.90920258 184305666.85581207 0 184305666.85581207 117716439.87377167 0 0 0 0 120395984.5788765 85079974.115077972 0 85079974.115077972 15826966.088134766 0 0 0 0 -32958272.495788574 61993822.699798584 0 61993822.699798584 75507831.381347656 0 0 0 0 -11219456.835374027 1194570.9336242229 0 1194570.9336242229 12489877.603842691 0 0 0 0 148032826.35314369 76985537.365017891 0 76985537.365017891 12517414.723205566 0 0 0 0 141199870.76023769 112985951.88057709 0 112985951.88057709 1113539.5071716309 0 0 0 0 9851055.4560270905 21112578.397087097 0 21112578.397087097 50883827.716629028 0 0 0 0 466076.19784104824 3322629.8711891174 0 3322629.8711891174 42552086.361801147 0 0 0 0 -15820661.340740204 -3624717.5811309814 0 -3624717.5811309814 14674379.063720703 0 0 0 0 -8000083.1173822163 6602339.0807191841 0 6602339.0807191841 33035845.986022837 0 0 0 0 -7757446.9682201305 -650370.91907306761 0 -650370.91907306761 25997223.077708837 0 0 0 0 -3707927.7682054071 1361191.03853973 0 1361191.03853973 14430266.39721524 0 0 0 0 19777079.68215847 19523925.671020508 0 19523925.671020508 5759688.8256225586 0 0 0 0 -16131708.483099937 -3396098.9883956909 0 -3396098.9883956909 16676730.873916626 0 0 0 0 -16364153.618839741 -3416734.8666191101 0 -3416734.8666191101 16748398.968009949 0 0 0 0 -7344420.8725103894 -9438477.3491603769 0 -9438477.3491603769 26602494.682578281 0 0 0 0 -7703446.8472868819 -11833871.365015432 0 -11833871.365015432 4101131.0960728154 0 0 0 0 -58341280.988072157 -37270981.20164299 0 -37270981.20164299 30951225.712283134 0 0 0 0 -18986029.088258505 -4908183.4599761963 0 -4908183.4599761963 15325888.207275391 0 0 0 0 34755010.226416111 26354243.864318848 0 26354243.864318848 -10497497.213705063 0 0 0 0 5873351.4575452805 81458742.519275665 0 81458742.519275665 50758305.065326691 0 0 0 0 -53545136.177229762 -3452417.0277833939 0 -3452417.0277833939 264029848.52843094 0 0 0 0 75164357.782367945 -86863031.813414097 0 -86863031.813414097 -54182299.951049805 0 0 0 0 -21866882.267656088 -28143412.688812256 0 -28143412.688812256 9863100.1983642578 0 0 0 0 5803573.2651457787 5165968.1227416992 0 5165968.1227416992 12068236.931251526 0 0 0 0 32754945.912246704 -33164660.282905579 0 -33164660.282905579 -15687301.963912964 0 0 0 0 -2905612.9065314871 -2809427.8266281169 0 -2809427.8266281169 32045188.856926497 0 0 0 0 996414.91343181673 1129077.4357716143 0 1129077.4357716143 1558565.6814357676 0 0 0 0 -235154692.4437418 -105343495.45786285 0 -105343495.45786285 277548711.12095451 0 0 0 0 39850977.285412788 -123320319.26717758 0 -123320319.26717758 174519206.09824562 0 0 0 0 11850255.406617165 -50150104.431915283 0 -50150104.431915283 238652177.00340462 0 0 0 0 916110.20695364242 1307835.8667266611 0 1307835.8667266611 -2158667.603136491 0 0 0 0 -233266.19114517217 2354854.9318142259 0 2354854.9318142259 -43613.604712791741 0 0 0 0 -1551980.0247387886 -130382374.31186867 0 -130382374.31186867 17810826.141181946 0 0 0 0 43067591.7134161 -2249735.1973695755 0 -2249735.1973695755 262320823.41402054 0 0 0 0 -223471105.09603858 320358808.5064497 0 320358808.5064497 -384604025.98850632 0 0 0 0 -398753221.10962105 -69068488.546164036 0 -69068488.546164036 -41855656.611381531 0 0 0 0 38074966.987812519 126876593.57685661 0 126876593.57685661 -34690102.650047302 0 0 0 0 -80278544.598572731 -48988880.474685669 0 -48988880.474685669 -61093693.945394516 0 0 0 0 -766647110.43535507 564702877.43623328 0 564702877.43623328 -252422878.72621536 0 0 0 0 -669118461.12318206 172356689.56790972 0 172356689.56790972 -2659939.8478431702 0 0 0 0 97571237.676838636 32389755.457706451 0 32389755.457706451 -136937563.00562286 0 0 0 0 -84686511.411111474 29218989.126788616 0 29218989.126788616 64358910.606006622 0 0 0 0 18860596.837720871 56822116.291545868 0 56822116.291545868 31869637.078377724 0 0 0 0 -101039283.32413006 42240696.623058319 0 42240696.623058319 66244596.980731964 0 0 0 0 15007908.359565735 -4654254.5013313293 0 -4654254.5013313293 25175922.172233582 0 0 0 0 10680365.926638842 -6580011.5709609985 0 -6580011.5709609985 35396842.820854187 0 0 0 0 2184810.1006066799 5208885.5127182007 0 5208885.5127182007 60403527.067871094 0 0 0 0 10462908.34180975 -8716386.2005462646 0 -8716386.2005462646 51003973.958026886 0 0 0 0 76811304.407968283 -20918505.672225952 0 -20918505.672225952 -55986035.162302345 0 0 0 0 -1069940.670292848 -5526806.5433997223 0 -5526806.5433997223 30271912.676504079 0 0 0 0 -46290568.701505959 5808753.6335678101 0 5808753.6335678101 76392509.709079742 0 0 0 0 -373152.23546021036 -7254744.9301692285 0 -7254744.9301692285 29487773.342147883 0 0 0 0 -3211173.5889155865 -2799733.9005470276 0 -2799733.9005470276 24123714.77684021 0 0 0 0 13444732.426616669 -1606776.8185424805 0 -1606776.8185424805 21603158.515525699 0 0 0 0 7275166.6463464499 2692751.0159072876 0 2692751.0159072876 23120897.0207901 0 0 0 0 7880939.050532341 866567.0358581543 0 866567.0358581543 21577332.607217073 0 0 0 0 13251979.246086998 -4840715.0931865871 0 -4840715.0931865871 18238486.978765279 0 0 0 0 80525750.129817009 -176693304.22049332 0 -176693304.22049332 -26949279.783004761 0 0 0 0 260452348.76049423 -208260250.77365494 0 -208260250.77365494 19605859.397735596 0 0 0 0 -132033902.71152878 12112142.993804932 0 12112142.993804932 122232504.10134888 0 0 0 0 120255175.60665894 -64274023.762016296 0 -64274023.762016296 -69231821.802505493 0 0 0 0 -63650418.265678406 -166278849.60045624 0 -166278849.60045624 271409803.87451172 0 0 0 0 5885267.2709900141 -6628103.7308349609 0 -6628103.7308349609 19710189.55140686 0 0 0 0 -112394395.21393776 17853719.441764832 0 17853719.441764832 40582427.647171021 0 0 0 0 9789254.7771631144 -4710619.4976231977 0 -4710619.4976231977 21981328.626580466 0 0 0 0 7484980.0762591809 -2990030.9717712402 0 -2990030.9717712402 21598368.476928711 0 0 0 0 -47717958.49657011 -8445662.070142746 0 -8445662.070142746 98926522.807830811 0 0 0 0 -11688865.65246582 -37663132.706865311 0 -37663132.706865311 67851604.024549484 0 0 0 0 -23702857.244142771 -63721925.424479485 0 -63721925.424479485 60758244.453422546 0 0 0 0 12275667.367085934 -25964497.365744591 0 -25964497.365744591 10924199.23620224 0 0 0 0 -11296336.353709221 -29199902.278277397 0 -29199902.278277397 61570252.882476807 0 0 0 0 5685900.2320034504 -7756333.4032096863 0 -7756333.4032096863 13576150.51550293 0 0 0 0 2624321.0944055389 -11765713.827229399 0 -11765713.827229399 26034083.195417851 0 0 0 0 1075083.281067729 -19523849.07572937 0 -19523849.07572937 18861365.704711914 0 0 0 0 -3658391.0337822437 -7166519.7108078003 0 -7166519.7108078003 3962621.8995976448 0 0 0 0 1844707.1268808963 -10464361.242173329 0 -10464361.242173329 30443383.758793391 0 0 0 0 -1490285990.4619331 20710624.014266968 0 20710624.014266968 801040313.94190979 0 0 0 0 5432493.036993118 -7878706.0272385404 0 -7878706.0272385404 16537202.909734935 0 0 0 0 4178150.3964984245 -10672033.576190284 0 -10672033.576190284 21411532.987491589 0 0 0 0 10301963.751333356 -5308059.8830947876 0 -5308059.8830947876 1952842.6032953262 0 0 0 0 -105260066.09047127 74857170.07844162 0 74857170.07844162 247045860.53637695 0 0 0 0 -17844962.789229959 -4622091.1533660889 0 -4622091.1533660889 33583001.636932373 0 0 0 0 9942335.0085327718 -6223297.8545877356 0 -6223297.8545877356 7693709.9929469898 0 0 0 0 522840.41815671272 -61508.359345586039 0 -61508.359345586039 -129958.64827058464 0 0 0 0 -27501035.40184021 -525364194.36569214 0 -525364194.36569214 -68861009.66607666 0 0 0 0 187188534.35231018 18242045.168823242 0 18242045.168823242 82188953.320285797 0 0 0 0 160342259.96339417 -180361974.332901 0 -180361974.332901 247370895.06098938 0 0 0 0 603749.58241744153 351790.92676419392 0 351790.92676419392 -362423.42904621363 0 0 0 0 3299263.4510548348 1986780.6300944556 0 1986780.6300944556 3214936.8465231359 0 0 0 0 2410399765.2098503 2025675740.5403633 0 2025675740.5403633 971100405.33416748 0 0 0 0 1455243295.187149 -1017715529.0932007 0 -1017715529.0932007 731079347.56539917 0 0 0 0 104177417.93221283 -1049373310.438942 0 -1049373310.438942 3311950081.4235268 0 0 0 0 189681647.54088974 -698436086.87192535 0 -698436086.87192535 703218751.83218384 0 0 0 0 -272571593.00515747 1480189674.3594208 0 1480189674.3594208 1901017859.7211075 0 0 0 0 1537976174.7742767 1233860228.7190857 0 1233860228.7190857 379492399.4108963 0 0 0 0 -115485480.24081993 1185881391.7505798 0 1185881391.7505798 1824504784.8554688 0 0 0 0 744089607.26909637 2241812076.3140411 0 2241812076.3140411 3120884219.8075628 0 0 0 0 614635832.58888626 110183700.82212067 0 110183700.82212067 -545701210.69837952 0 0 0 0 -18723746.314237595 1723007518.8929424 0 1723007518.8929424 1155752787.9350281 0 0 0 0 -2459434.3103139196 1976116.0396883078 0 1976116.0396883078 5005850.3699571341 0 0 0 0 913561626.66566467 2227246339.1731415 0 2227246339.1731415 1148912869.4281101 0 0 0 0 105156739.570858 -950209796.9006958 0 -950209796.9006958 -2371925045.6511688 0 0 0 0 -1909617583.6899261 -908568287.57025146 0 -908568287.57025146 375085166.18040085 0 0 0 0 777237356.24985504 -699882231.56166077 0 -699882231.56166077 799387616.79738235 0 0 0 0 -1215526696.7168589 -1769928227.9470959 0 -1769928227.9470959 4270993363.8773956 0 0 0 0 1583363771.0009995 2304826842.3984528 0 2304826842.3984528 320471154.38478851 0 0 0 0 -70653629.071697235 -2214414182.3642883 0 -2214414182.3642883 3680969968.3141327 0 0 0 0 4427019.6142021455 4304993.0630029626 0 4304993.0630029626 4914270.3993889391 0 0 0 0 867986695.82311249 -1231423898.9593506 0 -1231423898.9593506 2868215848.0327759 0 0 0 0 -859073960.99102783 150138582.49771881 0 150138582.49771881 2778496474.6224136 0 0 0 0 -1635307091.8714371 -741535771.4037323 0 -741535771.4037323 3537089967.8107224 0 0 0 0 -1900141193.3469296 2125092017.7213316 0 2125092017.7213316 2699793444.5133057 0 0 0 0 6844148.1458521225 -6381563.0559216477 0 -6381563.0559216477 12586010.361120533 0 0 0 0 6254010500.6818848 2250626007.2941284 0 2250626007.2941284 2178697343.6768627 0 0 0 0 121683352.14170074 4463022740.716095 0 4463022740.716095 4646718300.7711563 0 0 0 0 1298249543.428093 2203750934.3453522 0 2203750934.3453522 976517647.72634888 0 0 0 0 -867981053.31672859 -775387312.86590767 0 -775387312.86590767 -143475810.96353531 0 0 0 0 -605192121.91618347 -935739514.67386627 0 -935739514.67386627 -622373700.64183807 0 0 0 0 -15645918.310218811 -180809445.17360687 0 -180809445.17360687 191845254.73910809 0 0 0 0 11781975.747282855 -12099196.42813901 0 -12099196.42813901 9604183.3535979278 0 0 0 0 -476642257.96662903 -378366378.52778625 0 -378366378.52778625 -508638619.72241879 0 0 0 0 -723234235.18875504 -251896477.47750092 0 -251896477.47750092 416659492.44932556 0 0 0 0 734954533.56138611 72960174.677019119 0 72960174.677019119 -29017062.70640564 0 0 0 0 -692130439.75121689 6970914.5902233124 0 6970914.5902233124 769599860.98586273 0 0 0 0 1817087.8701907997 -1851298.715450637 0 -1851298.715450637 1963360.2835365792 0 0 0 0 -43355698.158639908 29517581.171821594 0 29517581.171821594 -12451957.260677338 0 0 0 0 10697563.909146002 -7569518.8567268634 0 -7569518.8567268634 5370202.1665701196 0 0 0 0 531288722.76093507 -1280491480.243999 0 -1280491480.243999 -1306317961.2378426 0 0 0 0 493357838.98747826 444708678.63925934 0 444708678.63925934 263284611.73888397 0 0 0 0 -214925053.00030136 435676241.30258179 0 435676241.30258179 1482342436.8630257 0 0 0 0 -248457523.40689468 -19251449.733734131 0 -19251449.733734131 1291416011.188591 0 0 0 0 -125092952.39756775 121807523.99346161 0 121807523.99346161 805861214.75053024 0 0 0 0 -80574824.915290833 208074899.29049683 0 208074899.29049683 821558558.15538025 0 0 0 0 79638893.277734756 -820651525.79498291 0 -820651525.79498291 1187761972.2191772 0 0 0 0 -217685011.31878281 52444115.284042358 0 52444115.284042358 1336374530.8088379 0 0 0 0 -3448944.624382019 44766554.322631836 0 44766554.322631836 675312467.6516037 0 0 0 0 -7540275.7996292114 -302728222.56001282 0 -302728222.56001282 948173975.26373291 0 0 0 0 149911285.76319122 -177901367.15907288 0 -177901367.15907288 537045415.1416626 0 0 0 0 -41536333.682594299 -61300511.622329712 0 -61300511.622329712 557616077.8821373 0 0 0 0 92949510.077360153 -316870868.51960373 0 -316870868.51960373 994040722.63827515 0 0 0 0 164423306.87206841 3635796.4283981323 0 3635796.4283981323 -184720764.93753815 0 0 0 0 18568513.131086022 -11609484.135490194 0 -11609484.135490194 6934306.3458207827 0 0 0 0 136730668.67134857 26496793.558303833 0 26496793.558303833 241971650.09350586 0 0 0 0 -423210.86786651611 -141411185.71395493 0 -141411185.71395493 156064565.59317017 0 0 0 0 105808070.06980896 227257110.18938446 0 227257110.18938446 210908619.65065002 0 0 0 0 -30422204.169216156 87513965.122924805 0 87513965.122924805 241671687.98621559 0 0 0 0 34508165.737751007 7187360.5686225891 0 7187360.5686225891 261304157.36090088 0 0 0 0 -378778718.9549408 -381348102.18214798 0 -381348102.18214798 -262779808.8754158 0 0 0 0 -11736238.678401709 -186075401.89326072 0 -186075401.89326072 -262520708.14686584 0 0 0 0 13047590.056502184 -14037064.155549932 0 -14037064.155549932 10755979.637983799 0 0 0 0 -506126227.25827599 -211534926.35736561 0 -211534926.35736561 30560183.793441772 0 0 0 0 -367289678.09752464 -189523980.39714622 0 -189523980.39714622 12594291.635261536 0 0 0 0 -215156081.34950066 -203211078.38785934 0 -203211078.38785934 5457687.6860694885 0 0 0 0 -217040752.49180031 -169825037.24448967 0 -169825037.24448967 11081007.195922852 0 0 0 0 4216680.5362588698 1321900.4716178048 0 1321900.4716178048 -4660804.8928249758 0 0 0 0 -351902469.00459862 -147457791.45274353 0 -147457791.45274353 105249666.76245117 0 0 0 0 -70110162.550714493 -22442336.384590149 0 -22442336.384590149 22781048.570074081 0 0 0 0 55225626.949028015 -30962105.469688416 0 -30962105.469688416 -7040703.200715065 0 0 0 0 3433693.2057037363 -13229450.324502449 0 -13229450.324502449 3325967.8278951012 0 0 0 0 41726070.627408028 -65520960.24195528 0 -65520960.24195528 48126039.519598007 0 0 0 0 -45180054.009016037 -80330330.280729294 0 -80330330.280729294 -24185749.909484863 0 0 0 0 -271398094.25251389 -21772249.440523148 0 -21772249.440523148 12897113.947608948 0 0 0 0 -466057804.25743294 33714815.300514221 0 33714815.300514221 90466400.355583191 0 0 0 0 -382536070.88953018 -123434813.59651566 0 -123434813.59651566 99706478.632267952 0 0 0 0 -403602687.17359734 -101398412.2094593 0 -101398412.2094593 157588548.05709839 0 0 0 0 -278985302.30926323 10585459.437383652 0 10585459.437383652 147477131.99868584 0 0 0 0 -299453694.02148819 -26925950.471765518 0 -26925950.471765518 90852497.369150162 0 0 0 0 -369394011.28873444 -45493242.885107994 0 -45493242.885107994 244055367.46575928 0 0 0 0 -448744854.7917614 -170688260.52031994 0 -170688260.52031994 176732755.68707657 0 0 0 0 -186773622.59749222 5180238.7103118896 0 5180238.7103118896 158959578.2727623 0 0 0 0 -180626802.73528862 -55696542.34693718 0 -55696542.34693718 280935345.10327339 0 0 0 0 -208659147.64257812 -122427167.39795685 0 -122427167.39795685 187438442.46430588 0 0 0 0 174740526.8168602 -49415937.470861435 0 -49415937.470861435 90177557.265424728 0 0 0 0 11407327.742022514 -61477877.971047521 0 -61477877.971047521 70743232.47428894 0 0 0 0 -510473895.97030735 163360417.76878643 0 163360417.76878643 -27293973.282512665 0 0 0 0 -231081363.26924133 -91914567.183449745 0 -91914567.183449745 -55499474.544685364 0 0 0 0 -668295722.20610237 -102513447.56731796 0 -102513447.56731796 115329939.18205452 0 0 0 0 -200225229.28077888 2321678.7024879456 0 2321678.7024879456 183714477.42319679 0 0 0 0 -694550.05529880524 -10996594.412799835 0 -10996594.412799835 87449724.840614319 0 0 0 0 197744263.44597435 -164582873.04607201 0 -164582873.04607201 88104432.053983688 0 0 0 0 -66257654.014408827 -150080843.60050654 0 -150080843.60050654 190855026.0179348 0 0 0 0 2867003.9960133256 -4662894.0644987337 0 -4662894.0644987337 -549794.71728163771 0 0 0 0 -387561719.92754555 -61269346.240665436 0 -61269346.240665436 82551940.129108429 0 0 0 0 998384.90445699729 -1111707.9691572124 0 -1111707.9691572124 -400155.55449508876 0 0 0 0 -895847993.08079147 193244877.047472 0 193244877.047472 125184930.78194427 0 0 0 0 370513825.82625151 -265297456.0488348 0 -265297456.0488348 314461871.26075363 0 0 0 0 -30162.526651443914 -145822.96442708466 0 -145822.96442708466 -430524.05263185315 0 0 0 0 556474270.47390079 -458733973.10441971 0 -458733973.10441971 263679082.58748341 0 0 0 0 -495385931.36592293 479902100.32749939 0 479902100.32749939 3814882.804309845 0 0 0 0 -507355143.05142403 139829253.85237312 0 139829253.85237312 10221280.874286652 0 0 0 0 -958584.73552463483 -687110.67165335827 0 -687110.67165335827 -543061.34341712296 0 0 0 0 -158153052.5299201 114886448.4091053 0 114886448.4091053 179148582.2703476 0 0 0 0 286596934.11382866 -680553882.78887558 0 -680553882.78887558 251628783.62451243 0 0 0 0 -1550310.6917350595 -811458.62575005926 0 -811458.62575005926 -427175.63226813264 0 0 0 0 -334730645.78869629 396882408.26201057 0 396882408.26201057 -45884659.801834106 0 0 0 0 -325442590.77458286 365814387.74680901 0 365814387.74680901 12004540.221698761 0 0 0 0 -85053134.242161036 263620705.93066263 0 263620705.93066263 -1474981.3420791626 0 0 0 0 -274235218.97140694 345252720.77285767 0 345252720.77285767 -50941007.980957031 0 0 0 0 -309877547.37628651 227133732.17674255 0 227133732.17674255 198098439.03010178 0 0 0 0 -116027440.95420074 140193729.71024704 0 140193729.71024704 168209834.77271938 0 0 0 0 -85342442.198627472 -32969183.472812653 0 -32969183.472812653 9215072.4304561615 0 0 0 0 -191025758.03376198 19502847.681524277 0 19502847.681524277 155844427.99247742 0 0 0 0 -134399583.49974632 -45781273.432727814 0 -45781273.432727814 376042495.0790596 0 0 0 0 -140204045.79804611 86950593.547021866 0 86950593.547021866 204059226.06850815 0 0 0 0 27411846.205142975 -184341673.46238327 0 -184341673.46238327 327800934.29994297 0 0 0 0 -78464970.814798355 86324225.671894073 0 86324225.671894073 154642693.43496323 0 0 0 0 25741836.175598145 74760754.933959961 0 74760754.933959961 107654645.48012924 0 0 0 0 -82668175.205253601 26081477.049074173 0 26081477.049074173 258354656.34057426 0 0 0 0 -596451.06607151031 14263977.829332352 0 14263977.829332352 67307174.653273582 0 0 0 0 -694092.64256025106 355275.68768458813 0 355275.68768458813 54411506.249034882 0 0 0 0 2303472.3888339996 -45781213.170581818 0 -45781213.170581818 121214869.6356163 0 0 0 0 399233.20654392242 310927177.2533288 0 310927177.2533288 9802448.0769348145 0 0 0 0 -87029360.923992157 62250637.494033813 0 62250637.494033813 -7737974.2294068336 0 0 0 0 84562801.824819565 -4344756.4371674061 0 -4344756.4371674061 -16675001.867435455 0 0 0 0 -864447.6736338269 171232.76733701117 0 171232.76733701117 -158329.76698860712 0 0 0 0 -2811401.0859252084 1925917.471039813 0 1925917.471039813 716681.95142648183 0 0 0 0 -2218085.7410867861 451529.17520294618 0 451529.17520294618 2450498.8864766788 0 0 0 0 92779993.421463966 -87128501.370932102 0 -87128501.370932102 32371237.79032135 0 0 0 0 -87743073.016840458 126866851.03422546 0 126866851.03422546 -219768592.72585297 0 0 0 0 -453721899.01130009 -250740058.66116714 0 -250740058.66116714 -122578731.2299614 0 0 0 0 -614939301.64964485 -458269075.60808182 0 -458269075.60808182 -281881954.32302094 0 0 0 0 -290507027.239398 386745597.71117973 0 386745597.71117973 -104428568.2348175 0 0 0 0 -858472176.19110572 -104053383.62467527 0 -104053383.62467527 162197572.59225464 0 0 0 0 -705627367.67935944 473122371.89632797 0 473122371.89632797 182638354.39022636 0 0 0 0 -479301099.27631617 108708632.05334473 0 108708632.05334473 112586912.93292999 0 0 0 0 -389938651.25025463 115575751.57489014 0 115575751.57489014 110456214.01754475 0 0 0 0 -419268613.70390129 37237812.401226044 0 37237812.401226044 143266202.4262085 0 0 0 0 -525050983.72511411 -75018201.42912674 0 -75018201.42912674 47045729.468330383 0 0 0 0 -41442590.733408928 -94234934.354866028 0 -94234934.354866028 -90519223.982147217 0 0 0 0 85882454.57938236 -60416148.589817047 0 -60416148.589817047 -147490495.32792664 0 0 0 0 -2723526.9034127383 3960558.6524702506 0 3960558.6524702506 4466657.2234263346 0 0 0 0 -157652360.76204872 88420036.471874237 0 88420036.471874237 49411425.162872314 0 0 0 0 -293810586.4151659 -3364174.9871864319 0 -3364174.9871864319 69002469.409700394 0 0 0 0 -301518291.90972948 35223301.34709549 0 35223301.34709549 35131931.846129417 0 0 0 0 -1677580.1973496999 5826397.7639168929 0 5826397.7639168929 1943551.7768173292 0 0 0 0 -4736955.6367740631 5350372.3176431656 0 5350372.3176431656 3303142.3847961426 0 0 0 0 -15077958.484533608 -7858038.6400794983 0 -7858038.6400794983 7248999.0866699219 0 0 0 0 -36596.805945672211 733785.40730546601 0 733785.40730546601 2465599.3583577126 0 0 0 0 -370271442.57391548 143014361.03306198 0 143014361.03306198 -111257038.03940201 0 0 0 0 -301145182.97659731 37102996.476131439 0 37102996.476131439 17747204.697238922 0 0 0 0 -424320059.24995041 58375211.135915756 0 58375211.135915756 64883864.393608093 0 0 0 0 -48211005.129069805 -73093406.318412781 0 -73093406.318412781 37732979.164230347 0 0 0 0 1783273.605166676 1179606.0528713223 0 1179606.0528713223 175297.03595780581 0 0 0 0 -669496350.84275532 456857227.02352905 0 456857227.02352905 56697270.962833405 0 0 0 0 -47757355.174489021 -36805703.501743317 0 -36805703.501743317 -11264466.213516235 0 0 0 0 -1383979.8267068993 3552033.5212077983 0 3552033.5212077983 9709863.8616296984 0 0 0 0 -1446976.7443403893 -1894226.6417476162 0 -1894226.6417476162 789212.04034856707 0 0 0 0 21418405.135276943 24648422.68214035 0 24648422.68214035 2809547.8195419312 0 0 0 0 -65744162.06780941 34959736.6302948 0 34959736.6302948 29113184.325317383 0 0 0 0 2247753.6596298218 183793001.63568878 0 183793001.63568878 239931979.2610817 0 0 0 0 415562445.60565186 150374924.94664383 0 150374924.94664383 183903871.60030365 0 0 0 0 428553.37654188834 202469.43141906522 0 202469.43141906522 -722367.0467544198 0 0 0 0 21741849.739340782 92627593.952791929 0 92627593.952791929 190168898.4994812 0 0 0 0 2866678.3389362097 -110646317.83476377 0 -110646317.83476377 106091646.56802368 0 0 0 0 -2769464.8943307819 313239.43523672409 0 313239.43523672409 2883682.5683671851 0 0 0 0 -180969684.75429916 -23818020.599754333 0 -23818020.599754333 35438482.480903625 0 0 0 0 -1232533.7323100315 172830.81255826447 0 172830.81255826447 1282196.4312935695 0 0 0 0 -510889219.13729382 -561614.6194190979 0 -561614.6194190979 35846494.521763027 0 0 0 0 5604108.1604101658 192888641.12128448 0 192888641.12128448 236943169.38391113 0 0 0 0 -505374408.46730089 -35327948.357845306 0 -35327948.357845306 -152290259.51087189 0 0 0 0 75299310.62511158 154421914.53010941 0 154421914.53010941 -276130362.46094513 0 0 0 0 -241558377.53468132 300968553.74713898 0 300968553.74713898 253798033.29986382 0 0 0 0 753661680.08945775 793314672.9945817 0 793314672.9945817 358157882.815979 0 0 0 0 159639702.00914574 433970510.63854218 0 433970510.63854218 435153901.5341301 0 0 0 0 135214987.1402359 105472814.20008278 0 105472814.20008278 216116001.83180237 0 0 0 0 195320505.78325462 233421362.21676064 0 233421362.21676064 891766450.72079468 0 0 0 0 191001827.97008705 324502368.86909485 0 324502368.86909485 596107008.26467133 0 0 0 0 34120593.95816803 304381791.37285995 0 304381791.37285995 343230215.87931824 0 0 0 0 669485067.66273785 398254525.11736155 0 398254525.11736155 -155928492.98814392 0 0 0 0 -1922429.4497900931 -481926.6615899452 0 -481926.6615899452 6660422.7460188344 0 0 0 0 15167245.050010681 20446283.308609962 0 20446283.308609962 -8103830.0741691589 0 0 0 0 45169127.771490097 154230767.11549377 0 154230767.11549377 456449454.20361328 0 0 0 0 101315759.74223804 454561695.51755524 0 454561695.51755524 579453796.87260818 0 0 0 0 -528481204.34628105 230096902.60445404 0 230096902.60445404 1330288459.4336166 0 0 0 0 -368810144.65022278 67459938.741212845 0 67459938.741212845 578478413.59606934 0 0 0 0 -218932833.23171043 -312855497.48597717 0 -312855497.48597717 461876858.54656982 0 0 0 0 -132899740.78209877 715572313.95756531 0 715572313.95756531 102113967.34750175 0 0 0 0 1333489.5882227193 673574.93635016866 0 673574.93635016866 -470318.22004497424 0 0 0 0 -95113825.917449474 718715865.38419724 0 718715865.38419724 -476145826.98187256 0 0 0 0 582346.78666995093 -727370.99005560763 0 -727370.99005560763 -792471.3076678589 0 0 0 0 65761832.489494324 89774845.089553833 0 89774845.089553833 290302412.99398041 0 0 0 0 276103033.47909737 -42452395.496139526 0 -42452395.496139526 37989778.914413452 0 0 0 0 19174828.69713372 -74092537.976230145 0 -74092537.976230145 7080778.569984436 0 0 0 0 384513030.75474322 528255206.0163269 0 528255206.0163269 630727148.10236359 0 0 0 0 -283436.04221989692 1388393.5178956215 0 1388393.5178956215 3541454.2152437977 0 0 0 0 -1819877.8630573004 -259024905.20322895 0 -259024905.20322895 905465261.41320038 0 0 0 0 191841806.72411776 197502762.30079651 0 197502762.30079651 133908460.02088547 0 0 0 0 129973719.93996787 368940545.55267715 0 368940545.55267715 515628616.37934113 0 0 0 0 -37099242.548215866 175043875.90202332 0 175043875.90202332 294786474.37044287 0 0 0 0 -186736097.36372566 207495986.13883209 0 207495986.13883209 829654799.47236013 0 0 0 0 -199436328.33196831 275039703.6901741 0 275039703.6901741 831447337.68210602 0 0 0 0 -98573743.918029785 -352742859.77455139 0 -352742859.77455139 748409394.19754553 0 0 0 0 -205527198.6670754 150293693.56555176 0 150293693.56555176 710705382.77186584 0 0 0 0 -219376365.93666491 124885334.39017487 0 124885334.39017487 1713221328.894989 0 0 0 0 223970112.63835788 -920564057.68135834 0 -920564057.68135834 1284387162.5722656 0 0 0 0 135255879.11419582 -520615985.41181374 0 -520615985.41181374 -35633089.902938843 0 0 0 0 48711854.669198036 -287414671.93545532 0 -287414671.93545532 133111323.24206543 0 0 0 0 14180105.406813622 -151820895.26078796 0 -151820895.26078796 40024262.657669067 0 0 0 0 61487541.369126797 -228146015.13307381 0 -228146015.13307381 11317549.729614258 0 0 0 0 -510237722.35377127 275785454.79726219 0 275785454.79726219 1140403164.0083237 0 0 0 0 -496410068.27412593 531875164.42734146 0 531875164.42734146 1691700386.4387321 0 0 0 0 841901457.49896502 721549026.17022705 0 721549026.17022705 540769044.54405212 0 0 0 0 1240587853.6091285 -574826587.23485565 0 -574826587.23485565 -131001016.60482788 0 0 0 0 242979302.82936549 -151063259.80432129 0 -151063259.80432129 -176156135.19778442 0 0 0 0 378911102.86727864 -31375126.256690979 0 -31375126.256690979 -1057802640.9206238 0 0 0 0 553542975.85897708 -397646540.43588257 0 -397646540.43588257 -1532269440.7164612 0 0 0 0 -394396892.02973175 -122602006.09244537 0 -122602006.09244537 -14320891.861465454 0 0 0 0 -157237851.77642035 256187857.41675186 0 256187857.41675186 -641607116.62225342 0 0 0 0 920911.02057302021 -826279.9642825108 0 -826279.9642825108 3084825.8705268353 0 0 0 0 23070950.241306543 32563452.376865387 0 32563452.376865387 -677951569.6833539 0 0 0 0 35688279.440339327 -27995530.414388657 0 -27995530.414388657 11846790.237609863 0 0 0 0 -5681324.4158072472 -4126906.6821479797 0 -4126906.6821479797 7223703.7503013611 0 0 0 0 132746.61035708827 -1054620.700605236 0 -1054620.700605236 74859.244378168136 0 0 0 0 342746249.18651199 535256711.97764587 0 535256711.97764587 -1630102977.3316088 0 0 0 0 -2297895.1587049775 -2052652.4615565445 0 -2052652.4615565445 7061516.6746701039 0 0 0 0 -2322287.8056221008 -4741099.7553215027 0 -4741099.7553215027 4339631.4103393555 0 0 0 0 8600079.2787456512 935222.61149597168 0 935222.61149597168 -200183803.77413177 0 0 0 0 -53585982.630744934 -46767642.518363953 0 -46767642.518363953 -201277271.90493011 0 0 0 0 2207787.7742539775 -6510876.8049129974 0 -6510876.8049129974 1907388.332914453 0 0 0 0 -190628844.78902006 33356129.381164551 0 33356129.381164551 -438630962.83140564 0 0 0 0 -42229450.681011677 394466825.27993774 0 394466825.27993774 -368871684.01919556 0 0 0 0 121388827.98803186 -192211626.6833992 0 -192211626.6833992 -462425390.22859192 0 0 0 0 -169072646.93365002 358316928.01618958 0 358316928.01618958 -836003091.34679413 0 0 0 0 -298923336.91191721 -206696446.9175415 0 -206696446.9175415 -953196224.78527832 0 0 0 0 456274.58381443657 -195784.80363888852 0 -195784.80363888852 -539981.34002773464 0 0 0 0 -3874730.4759542942 -7257200.3971805573 0 -7257200.3971805573 5310046.4823760986 0 0 0 0 18481803.068706036 1448404.6559715271 0 1448404.6559715271 -3328986.5221977234 0 0 0 0 -725514.62880038563 -3953091.4669903144 0 -3953091.4669903144 7486761.0244084671 0 0 0 0 -67195609.788798809 -144115123.68453217 0 -144115123.68453217 -18217011.666378021 0 0 0 0 -6513972.6442451477 -19727861.801951408 0 -19727861.801951408 3336341.5567512512 0 0 0 0 -37776668.969991207 207880698.02324104 0 207880698.02324104 193923278.14753723 0 0 0 0 -26682173.369215012 -215957822.4098053 0 -215957822.4098053 47355869.339622498 0 0 0 0 -77597514.173107386 143777771.62091827 0 143777771.62091827 104303431.49759674 0 0 0 0 307643871.19789886 -312088399.09672928 0 -312088399.09672928 -368826243.50457001 0 0 0 0 -394327349.61446285 124249158.55307007 0 124249158.55307007 1042997501.8498306 0 0 0 0 -47429761.269013643 -234704276.69451332 0 -234704276.69451332 -353603753.76622009 0 0 0 0 402411.93972778239 -851751.50919940416 0 -851751.50919940416 1029133.4219741002 0 0 0 0 78814968.166819334 365410312.59902763 0 365410312.59902763 417080494.10669708 0 0 0 0 -6616381.5049903393 237101305.5832634 0 237101305.5832634 230240791.23868561 0 0 0 0 -64010829.291280746 129920106.44459534 0 129920106.44459534 94148618.792072296 0 0 0 0 79078348.712324977 -29469311.798526764 0 -29469311.798526764 -24525231.120223999 0 0 0 0 40781317.411391139 -39499705.535743713 0 -39499705.535743713 34577850.081054688 0 0 0 0 361707.58609864867 -96708.19293056801 0 -96708.19293056801 1120207.7712810189 0 0 0 0 32235124.813199043 248215078.36129379 0 248215078.36129379 335625148.3844986 0 0 0 0 590757849.75486219 153227854.1024971 0 153227854.1024971 85022940.551986694 0 0 0 0 241692050.10667157 -33999045.495918274 0 -33999045.495918274 -12788846.930603027 0 0 0 0 301341620.30780649 309651382.67922306 0 309651382.67922306 180745644.51745605 0 0 0 0 -100794791.97881383 261323212.85105133 0 261323212.85105133 250486349.42066193 0 0 0 0 32822377.309301615 272874958.11951065 0 272874958.11951065 171493615.09573364 0 0 0 0 -352517861.81881285 217057696.70160294 0 217057696.70160294 401048128.46062088 0 0 0 0 81064791.076931953 -73996787.590276718 0 -73996787.590276718 -48839916.443687439 0 0 0 0 153368511.85866749 -300529447.63661575 0 -300529447.63661575 658729303.23570704 0 0 0 0 343162188.48079073 542843253.5757637 0 542843253.5757637 613230934.74661255 0 0 0 0 412506511.18965995 -179461153.4838295 0 -179461153.4838295 -139578.34407043457 0 0 0 0 -5497932.8021433353 54885623.268554688 0 54885623.268554688 10762724.646221876 0 0 0 0 -482191307.56219292 -360187727.62422562 0 -360187727.62422562 258328261.38203812 0 0 0 0 -34672176.473216057 74562309.548618317 0 74562309.548618317 -46070613.891952515 0 0 0 0 620736.55173243571 -1806574.7978257155 0 -1806574.7978257155 2871798.7005718127 0 0 0 0 -106111840.51479697 276185076.09615326 0 276185076.09615326 97514633.525085449 0 0 0 0 -486992418.97673893 37129668.718214035 0 37129668.718214035 159465651.58277893 0 0 0 0 -198109788.1088016 227270999.20061874 0 227270999.20061874 277972932.86929321 0 0 0 0 -580736121.613168 -435009849.06963921 0 -435009849.06963921 172595947.72790527 0 0 0 0 619225.16278286604 -1816197.2279709354 0 -1816197.2279709354 2796672.3254742213 0 0 0 0 -498614044.43196678 -42346360.585601807 0 -42346360.585601807 264580360.13920403 0 0 0 0 -279684238.64074111 1234468.7450675964 0 1234468.7450675964 233737944.85580444 0 0 0 0 -150019436.28281069 -330041470.71320152 0 -330041470.71320152 1061358934.5256958 0 0 0 0 457514138.60368538 724460340.28761292 0 724460340.28761292 673548358.53940582 0 0 0 0 6839340.0855555534 210572831.64089966 0 210572831.64089966 89475185.123168945 0 0 0 0 6853933.9392538071 210312838.02846527 0 210312838.02846527 64881812.782562256 0 0 0 0 13612123.091206551 162355703.10176086 0 162355703.10176086 192847928.72543335 0 0 0 0 -81094774.318235397 266723576.38392639 0 266723576.38392639 84384231.021949768 0 0 0 0 18973324.248261929 203900290.76570129 0 203900290.76570129 92867414.478126526 0 0 0 0 -81030334.796640038 129393192.61711884 0 129393192.61711884 246692752.09268188 0 0 0 0 103680531.9228791 59157906.660526276 0 59157906.660526276 92640109.228164673 0 0 0 0 90509971.901392311 61914345.115403175 0 61914345.115403175 53610681.279541016 0 0 0 0 -199263.53039255468 -543148.73006349429 0 -543148.73006349429 485707.77054039948 0 0 0 0 -139574264.80080223 74967841.34777832 0 74967841.34777832 319849353.61781311 0 0 0 0 -61787118.625495195 413532303.55986023 0 413532303.55986023 324875543.74459386 0 0 0 0 -155708958.94009304 172331824.68106079 0 172331824.68106079 333167422.66378784 0 0 0 0 -72156285.915291786 21229988.86428833 0 21229988.86428833 204700962.19241333 0 0 0 0 328119.9667396837 -292405.77321575582 0 -292405.77321575582 290614.04364880547 0 0 0 0 280245963.79396296 373994141.52710724 0 373994141.52710724 -36740400.527955532 0 0 0 0 -193801344.94041663 -40974775.996843338 0 -40974775.996843338 186275931.46981812 0 0 0 0 -159289764.14968395 50747601.238098145 0 50747601.238098145 129198343.00444031 0 0 0 0 -2569133.2789678574 -59500983.951202393 0 -59500983.951202393 315804217.40008736 0 0 0 0 108933193.51990128 54873776.641204834 0 54873776.641204834 183084290.20715332 0 0 0 0 205911307.37840146 197331329.91003847 0 197331329.91003847 367458991.64959717 0 0 0 0 200344149.8191579 16490822.033829212 0 16490822.033829212 289649675.76635742 0 0 0 0 -99888186.627279282 -64868525.125 0 -64868525.125 344603160.79733276 0 0 0 0 -63031518.931386948 38797251.748840332 0 38797251.748840332 301015781.33667755 0 0 0 0 42313256.213048935 -204285612.73858643 0 -204285612.73858643 156776413.49314594 0 0 0 0 81837988.776852131 1911222.9326019287 0 1911222.9326019287 -220539219.23419189 0 0 0 0 -41908782.991385579 -90368436.707889557 0 -90368436.707889557 -63239897.799285889 0 0 0 0 -1391208.2220876217 5534852.4942779541 0 5534852.4942779541 28091213.636325836 0 0 0 0 -94917.823776557692 -91995.138168018311 0 -91995.138168018311 3872738.7167776003 0 0 0 0 37168587.630415916 80361392.359550476 0 80361392.359550476 47237487.430122375 0 0 0 0 66238520.016948104 25289832.849374771 0 25289832.849374771 -17426490.226745605 0 0 0 0 -147002.59163842222 438386.78682867554 0 438386.78682867554 504403.40316844732 0 0 0 0 -4616195.2062096596 1429090.1475143433 0 1429090.1475143433 -2582664.530166626 0 0 0 0 170605154.38542235 327018299.68175888 0 327018299.68175888 713674043.63755035 0 0 0 0 -145363693.33475041 -152795334.50895691 0 -152795334.50895691 -240942151.3314743 0 0 0 0 356730.31235410488 -803034.67098110355 0 -803034.67098110355 1147644.5703586861 0 0 0 0 355431905.70520741 -290515299.87526369 0 -290515299.87526369 -310406767.48165894 0 0 0 0 -123956809.45435143 68000058.834785461 0 68000058.834785461 1329065198.3196411 0 0 0 0 -45616892.162288517 239603492.06332421 0 239603492.06332421 845495245.51651001 0 0 0 0 79846039.214118838 369271906.87810898 0 369271906.87810898 702333261.69009399 0 0 0 0 254428781.26553917 205975342.24250793 0 205975342.24250793 308382165.49382019 0 0 0 0 -38232592.086841583 -456750.73822021484 0 -456750.73822021484 361046869.64277077 0 0 0 0 88354010.605604768 -94026313.892356873 0 -94026313.892356873 295573960.39831543 0 0 0 0 108357923.12730503 -635884662.81344604 0 -635884662.81344604 110919125.59187317 0 0 0 0 -405022109.95476103 -219208319.2082901 0 -219208319.2082901 997509276.78987122 0 0 0 0 148666432.17873311 -882394187.0269928 0 -882394187.0269928 153404119.76557159 0 0 0 0 45304420.286005974 -176094781.91737366 0 -176094781.91737366 -899336502.71380615 0 0 0 0 -3573279.7266087532 5682948.7638626099 0 5682948.7638626099 963002.13026428223 0 0 0 0 -300826.39303827286 22486004.215751648 0 22486004.215751648 -8310761.0672264099 0 0 0 0 -153056.46047212736 4403465.4963336643 0 4403465.4963336643 1048646.5073644742 0 0 0 0 -856666.01682161563 1525541.1855889857 0 1525541.1855889857 8985234.8022638597 0 0 0 0 -2309340.3989737034 1640477.077709198 0 1640477.077709198 1200455.6153259277 0 0 0 0 -2753736.2511673137 4154982.2860353347 0 4154982.2860353347 7551095.5373324398 0 0 0 0 -1245670.3460536283 1378455.1992649063 0 1378455.1992649063 3417596.8238685206 0 0 0 0 -3064075.4851527214 3266383.1580429077 0 3266383.1580429077 1907084.8451080322 0 0 0 0 -3979453.3772296906 2879475.7412643433 0 2879475.7412643433 1996259.2219467163 0 0 0 0 -2838819.5679594278 4485295.7826604843 0 4485295.7826604843 3519784.9973602295 0 0 0 0 -1874292.2990591382 3786953.144193463 0 3786953.144193463 12614296.385793805 0 0 0 0 600791.59300154564 3484018.961981535 0 3484018.961981535 15058411.56004313 0 0 0 0 -10832998.968101501 12095543.796669006 0 12095543.796669006 -2053658.081489563 0 0 0 0 -5450763.7839484662 6302137.9495004658 0 6302137.9495004658 15920591.071344193 0 0 0 0 -1122669.2364605665 3034390.3892040253 0 3034390.3892040253 1208300.0307617188 0 0 0 0 -1908101.1496634472 7533834.5918880077 0 7533834.5918880077 861437.39380755275 0 0 0 0 -114783450.83668041 336445440.08721924 0 336445440.08721924 -1068040209.9320107 0 0 0 0 3335843.1267549368 2105318.2364921775 0 2105318.2364921775 4820425.9311031662 0 0 0 0 -74764295.851007938 -70441506.241165161 0 -70441506.241165161 -407409149.49435425 0 0 0 0 -9864021.3338617384 22182476.1223526 0 22182476.1223526 -15558128.635654449 0 0 0 0 -3829626.1188085079 18218186.614608765 0 18218186.614608765 -18170704.774230957 0 0 0 0 64417.211291073007 8442541.8877808247 0 8442541.8877808247 -5923772.1057836339 0 0 0 0 1104306.9365026951 13509663.75693655 0 13509663.75693655 -15967623.380554199 0 0 0 0 200883.03201558226 2569313.6372385928 0 2569313.6372385928 -300707.59129699692 0 0 0 0 23353930.298125505 30275376.369462967 0 30275376.369462967 24138495.857025146 0 0 0 0 -285929.65355873108 5475459.2581672668 0 5475459.2581672668 -662138.33324432373 0 0 0 0 146639.54795455933 41361852.359260559 0 41361852.359260559 55529569.149044037 0 0 0 0 -2099440.3560094833 19110760.155075073 0 19110760.155075073 43992863.109802246 0 0 0 0 1333129.7922605367 4042475.1258700602 0 4042475.1258700602 442919.82237533852 0 0 0 0 3124267.982749939 -6431891.3913650513 0 -6431891.3913650513 -24520375.776855469 0 0 0 0 78798.373626232147 4250819.6511154175 0 4250819.6511154175 17051959.451885223 0 0 0 0 -579768.65684711933 1114882.8646531105 0 1114882.8646531105 21500752.799560547 0 0 0 0 -195098.88453936577 383052.21793556213 0 383052.21793556213 24282636.19593811 0 0 0 0 141188193.94313622 -262370845.39134216 0 -262370845.39134216 -296980676.68951225 0 0 0 0 350224.11704746634 2909843.7457962036 0 2909843.7457962036 20115655.573617935 0 0 0 0 -727885.43712905783 302949.32233517244 0 302949.32233517244 8099868.4549389742 0 0 0 0 938371.90358108282 5110033.73021698 0 5110033.73021698 20851104.760047913 0 0 0 0 2947268.0007162094 4053317.5847797394 0 4053317.5847797394 17704626.179916382 0 0 0 0 -72482.86853178218 650422.44788360596 0 650422.44788360596 16684102.284353256 0 0 0 0 -23666485.782819748 10275859.298530579 0 10275859.298530579 -14364645.199569702 0 0 0 0 1950987.3077194691 3162426.3839035034 0 3162426.3839035034 8022872.7164306641 0 0 0 0 -587377.53350942256 2365450.7421062905 0 2365450.7421062905 21207055.003643356 0 0 0 0 -1327648.7700130939 2734191.0048675537 0 2734191.0048675537 8062180.7228546143 0 0 0 0 -1213902.6190953255 1287427.2242660522 0 1287427.2242660522 15821643.085716248 0 0 0 0 -319378.18426624383 -541052.49355916493 0 -541052.49355916493 530393.76551254839 0 0 0 0 -1890626.5901942253 4718066.3605957031 0 4718066.3605957031 7619274.8874816895 0 0 0 0 -2950955.0390434265 -833983.17479515076 0 -833983.17479515076 5738294.98828125 0 0 0 0 400526.05774201243 1562257.0909475032 0 1562257.0909475032 7432974.7928997874 0 0 0 0 -12597448.08104229 -19102138.850465775 0 -19102138.850465775 -5899307.7205581665 0 0 0 0 4526817.7414821386 3519490.691280365 0 3519490.691280365 13717022.843162537 0 0 0 0 398999.35482692666 -757331.03931844886 0 -757331.03931844886 -715727.11371168494 0 0 0 0 13565216.379272938 -5754025.6277313232 0 -5754025.6277313232 -13095763.500396729 0 0 0 0 41343906.805071831 2376459.4360580444 0 2376459.4360580444 639085.09329032898 0 0 0 0 -2889688.6935873032 -19500311.86743927 0 -19500311.86743927 -2201405.8219366074 0 0 0 0 -10051373.364870608 -12904852.418123245 0 -12904852.418123245 -7190219.1325378418 0 0 0 0 78779265.995418549 81524816.386871338 0 81524816.386871338 93534312.393685341 0 0 0 0 -17139207.24186562 -7462215.2543974109 0 -7462215.2543974109 32218492.846445456 0 0 0 0 83082480.878700733 119603007.53353357 0 119603007.53353357 160114652.25492859 0 0 0 0 -17433244.635084052 -9009797.0314578116 0 -9009797.0314578116 32445178.39575696 0 0 0 0 -23603767.791463673 -69764558.99051857 0 -69764558.99051857 -35817179.728034973 0 0 0 0 -31213445.331058502 -18804331.486820221 0 -18804331.486820221 -3442908.7693862915 0 0 0 0 30022166.860488415 -62525499.248180389 0 -62525499.248180389 27171588.664638519 0 0 0 0 -65121149.016764879 -85556915.347542763 0 -85556915.347542763 -17686251.461784363 0 0 0 0 -28950293.754412651 -22941960.379447937 0 -22941960.379447937 -10673022.395553589 0 0 0 0 5618664.6432085037 23520171.016540527 0 23520171.016540527 43492233.325125694 0 0 0 0 -39360636.148873806 -28086020.24413681 0 -28086020.24413681 28994967.687141418 0 0 0 0 -23581097.901557922 8494828.8648529053 0 8494828.8648529053 102357473.5632782 0 0 0 0 30791307.770980358 -39757660.035942078 0 -39757660.035942078 118694045.5796814 0 0 0 0 34176867.38473177 48392201.569892883 0 48392201.569892883 52669005.95986557 0 0 0 0 19027739.324307919 -41790410.161827087 0 -41790410.161827087 120190041.94804382 0 0 0 0 -90216810.912559986 44057705.24822998 0 44057705.24822998 121229910.77228165 0 0 0 0 12487376.481773376 -35229842.579078674 0 -35229842.579078674 125997546.26008415 0 0 0 0 -157349.28267309431 -1216852.9020621516 0 -1216852.9020621516 978390.77438625507 0 0 0 0 73189217.410106719 -13688185.075634956 0 -13688185.075634956 108107662.87298584 0 0 0 0 -10128873.544887066 -34899622.119247437 0 -34899622.119247437 126198383.16807938 0 0 0 0 -134078.85396336787 -231427.23123575374 0 -231427.23123575374 1304577.0196913276 0 0 0 0 30059319.242388725 22434149.534843445 0 22434149.534843445 35418677.703186035 0 0 0 0 -22010161.116912365 -39712064.752616882 0 -39712064.752616882 120720160.58065224 0 0 0 0 -53918496.287495136 26515462.686424255 0 26515462.686424255 95544584.579357147 0 0 0 0 3013183.6648383141 4452057.3479995728 0 4452057.3479995728 21139928.992435932 0 0 0 0 4509951.3563129902 7755714.0144119263 0 7755714.0144119263 28416638.50189209 0 0 0 0 54525724.850170374 13060766.040777206 0 13060766.040777206 9273251.4649353027 0 0 0 0 26305033.211877823 119983233.22332001 0 119983233.22332001 41675815.609725952 0 0 0 0 87105476.714752197 -77239221.548538208 0 -77239221.548538208 104022101.45275497 0 0 0 0 -3888588.9637718201 -27419167.346969604 0 -27419167.346969604 82193653.30896759 0 0 0 0 -2874755.7625595094 -2257617.7405269742 0 -2257617.7405269742 7164309.4902489483 0 0 0 0 -99563148.62996006 -100509825.2315979 0 -100509825.2315979 101205520.56225586 0 0 0 0 58922931.752566814 -165754126.8122406 0 -165754126.8122406 9795571.5783081055 0 0 0 0 197365503.70985055 -165612903.35014248 0 -165612903.35014248 -19191255.400238037 0 0 0 0 -279236774.07416344 -328408690.52552032 0 -328408690.52552032 -50488802.939910889 0 0 0 0 33550021.354960442 -2903033.6242675781 0 -2903033.6242675781 50930480.767127991 0 0 0 0 -131658632.52093577 239859000.86907005 0 239859000.86907005 163768642.63920593 0 0 0 0 -477322939.32798332 136728215.08335495 0 136728215.08335495 16547222.841552734 0 0 0 0 125399695.01936972 198027496.74375629 0 198027496.74375629 244794701.2775116 0 0 0 0 102278578.44124508 -179714.76937866211 0 -179714.76937866211 191808529.43608093 0 0 0 0 6972586.4822656605 598777.76806629449 0 598777.76806629449 -3450037.0016020238 0 0 0 0 81269528.482749701 138642288.41774464 0 138642288.41774464 186016254.29554749 0 0 0 0 130495807.59152222 124863330.14672089 0 124863330.14672089 171573058.96208954 0 0 0 0 -2281415.5706573022 -1126240.5789824799 0 -1126240.5789824799 3550128.8193266243 0 0 0 0 -42883503.64673233 -103608785.34164429 0 -103608785.34164429 163495966.87672424 0 0 0 0 5862341.3829732984 2571749.7497692369 0 2571749.7497692369 -4172243.2589742541 0 0 0 0 180643445.74782562 55770539.56942749 0 55770539.56942749 316549007.22595215 0 0 0 0 68948615.068536758 221908516.40032959 0 221908516.40032959 70865153.239013672 0 0 0 0 107499383.81810379 147971523.62124634 0 147971523.62124634 175129803.99789429 0 0 0 0 109037597.19395065 119425741.9733963 0 119425741.9733963 138788455.73186493 0 0 0 0 84668497.014129639 99394673.865715027 0 99394673.865715027 157059629.55981445 0 0 0 0 -57361316.298733711 -22239997.763507843 0 -22239997.763507843 24654696.734367371 0 0 0 0 -53751142.579181671 -70178608.520595551 0 -70178608.520595551 -32928907.491439819 0 0 0 0 -16817014.83193668 -9525715.9532519542 0 -9525715.9532519542 33330150.895562857 0 0 0 0 83720991.117183685 81649865.666519165 0 81649865.666519165 176578875.86749268 0 0 0 0 73488226.837114334 129351836.06443691 0 129351836.06443691 235897878.06202698 0 0 0 0 173888305.69074821 164253253.62181091 0 164253253.62181091 174848952.83519888 0 0 0 0 -11597910.680480957 50778661.616119385 0 50778661.616119385 182149846.55035353 0 0 0 0 113082639.87593651 292685058.83800316 0 292685058.83800316 315063645.48791504 0 0 0 0 104385701.46354675 180234169.98165894 0 180234169.98165894 265033367.50212097 0 0 0 0 44379802.566423416 -10094772.268516541 0 -10094772.268516541 78684861.38060379 0 0 0 0 8598950.3398186117 -947829.03611794114 0 -947829.03611794114 -2497305.222182177 0 0 0 0 -81293291.197881699 -101750013.41085815 0 -101750013.41085815 81751563.831314087 0 0 0 0 -12386949.023698516 -6180501.5668712966 0 -6180501.5668712966 38100551.633397847 0 0 0 0 1526575.5837368965 228340916.04695606 0 228340916.04695606 248950538.34088135 0 0 0 0 73574094.189033508 95010200.245773315 0 95010200.245773315 20159580.923629761 0 0 0 0 -15354763.416228872 -8906674.4491199106 0 -8906674.4491199106 35049247.058779046 0 0 0 0 -47797059.845459938 -83662020.489059448 0 -83662020.489059448 -46146558.899932861 0 0 0 0 -7001116.4470348358 -39663870.586963654 0 -39663870.586963654 -26036128.340024948 0 0 0 0 -50940770.138903618 35278861.305786133 0 35278861.305786133 321355838.07748413 0 0 0 0 -332773.37497822102 -875874.87806994095 0 -875874.87806994095 708205.62697244063 0 0 0 0 -36216059.949857712 -21620156.505870819 0 -21620156.505870819 6770145.726852417 0 0 0 0 -3790890.4473581314 -36087934.774188995 0 -36087934.774188995 -11570255.371788025 0 0 0 0 -58808940.203186393 -29187177.110269547 0 -29187177.110269547 2192004.0703659058 0 0 0 0 -25316381.845331669 12087346.305286884 0 12087346.305286884 46593997.509788513 0 0 0 0 -268423.55228244467 -1550039.1390201449 0 -1550039.1390201449 1198854.0077230036 0 0 0 0 -17131716.667451382 135684434.6234436 0 135684434.6234436 363983841.57963562 0 0 0 0 -48120549.387085915 88716850.369304657 0 88716850.369304657 293748172.63946533 0 0 0 0 26813814.043972015 131632327.12229919 0 131632327.12229919 287698259.10314941 0 0 0 0 29488035.020781517 162111962.63870239 0 162111962.63870239 207586654.61155701 0 0 0 0 -3448670.3614590168 90242585.228271484 0 90242585.228271484 240674048.87483215 0 0 0 0 -2016531.4673966202 2663347.6099693049 0 2663347.6099693049 3439463.6981655657 0 0 0 0 -204158348.60433149 -3660518.484539032 0 -3660518.484539032 60651768.687591553 0 0 0 0 120600950.84220695 119705661.89466858 0 119705661.89466858 80817817.644271851 0 0 0 0 231656830.83744335 194935477.46459198 0 194935477.46459198 104928791.41018677 0 0 0 0 64558454.049037933 149617163.92018127 0 149617163.92018127 198409446.0645752 0 0 0 0 90207840.065493584 116106251.34900284 0 116106251.34900284 155488000.1484375 0 0 0 0 55390413.234594345 76408230.810508728 0 76408230.810508728 119499842.94796753 0 0 0 0 57724960.961048126 69665421.694328308 0 69665421.694328308 51957071.410263062 0 0 0 0 16415623.308083057 35525907.735334396 0 35525907.735334396 126979759.03356171 0 0 0 0 -43758302.132717609 54005944.148309231 0 54005944.148309231 260386034.54269409 0 0 0 0 4031558.1088447571 84642357.71736145 0 84642357.71736145 191954794.50939941 0 0 0 0 13326782.952953339 57748426.059566498 0 57748426.059566498 260437080.5511322 0 0 0 0 -4854190.1063957214 -24783132.72661972 0 -24783132.72661972 246621303.48853302 0 0 0 0 -5827976.9652709961 58312932.992164612 0 58312932.992164612 135046487.02138138 0 0 0 0 8977257.2496013641 87315346.297466278 0 87315346.297466278 34517191.765090942 0 0 0 0 -137523956.10833836 38153193.338855743 0 38153193.338855743 121647497.21086311 0 0 0 0 681436.45133519173 -5082408.2395834923 0 -5082408.2395834923 68090363.36492157 0 0 0 0 -120009238.70311409 -346660264.91880989 0 -346660264.91880989 91535830.77117157 0 0 0 0 -75282674.388276428 119537720.32679749 0 119537720.32679749 308068284.04032898 0 0 0 0 -12562087.532895565 379980485.2828064 0 379980485.2828064 784515431.85206795 0 0 0 0 -332213900.45769835 -287421238.25839233 0 -287421238.25839233 944894299.81878376 0 0 0 0 571969651.6451385 -65267346.882717133 0 -65267346.882717133 -442915607.99101257 0 0 0 0 975471.35642777302 -1070326.9202584364 0 -1070326.9202584364 873914.77207835764 0 0 0 0 102872655.51894331 14709192.509284973 0 14709192.509284973 18004251.968589783 0 0 0 0 1095615536.6581874 276968091.95166206 0 276968091.95166206 -397324596.67324066 0 0 0 0 430850.90662469598 -1559842.5784295574 0 -1559842.5784295574 1501413.0914596505 0 0 0 0 -88507606.17054534 67773334.993335724 0 67773334.993335724 107440148.81702423 0 0 0 0 5443271.8314032555 25595010.67666626 0 25595010.67666626 36179554.660182953 0 0 0 0 95907266.465943336 -14374532.501289368 0 -14374532.501289368 -24373746.53503418 0 0 0 0 -34547.104417572729 -1520971.1768439002 0 -1520971.1768439002 1152323.8402046897 0 0 0 0 -15907185.748049259 -19231918.293701172 0 -19231918.293701172 9450824.8419189453 0 0 0 0 -57751368.939064622 88736548.536991119 0 88736548.536991119 101770058.93578339 0 0 0 0 101144627.69351387 -112499573.16212463 0 -112499573.16212463 114112681.105793 0 0 0 0 -84909803.671561718 84549558.410083771 0 84549558.410083771 543529379.23804855 0 0 0 0 -261416.35761834937 -817449.09717328101 0 -817449.09717328101 955304.97680369392 0 0 0 0 -86518693.001395598 120990014.37742233 0 120990014.37742233 357465590.43437195 0 0 0 0 -36568272.796049684 108861128.2714386 0 108861128.2714386 360410704.01743317 0 0 0 0 162378810.05120945 120525305.61994934 0 120525305.61994934 244085403.57155609 0 0 0 0 72339230.074829102 -56847432.923355103 0 -56847432.923355103 341143190.39874268 0 0 0 0 -13555516.939753532 36313182.844192505 0 36313182.844192505 293564856.39959335 0 0 0 0 -50660501.764562607 122611765.32275391 0 122611765.32275391 164323246.87271166 0 0 0 0 22594171.674833298 128368450.58129883 0 128368450.58129883 164531700.58331299 0 0 0 0 57673057.166742802 46261097.974884033 0 46261097.974884033 142489025.65753174 0 0 0 0 -35451325.185129166 33319604.285980225 0 33319604.285980225 140691993.68877411 0 0 0 0 2902125.8126995564 70417099.921250343 0 70417099.921250343 71024448.446716309 0 0 0 0 -84666372.107525826 66203668.064826965 0 66203668.064826965 80409728.738868713 0 0 0 0 -60097445.715553284 105036187.64048004 0 105036187.64048004 31893423.507963181 0 0 0 0 10012975.669775009 51087656.278671265 0 51087656.278671265 161938827.37075806 0 0 0 0 -2646543.5442643166 33921174.40423584 0 33921174.40423584 238822456.68586731 0 0 0 0 26894272.579563737 68044820.987129211 0 68044820.987129211 105522444.02442932 0 0 0 0 -12563920.664141536 11739630.749729156 0 11739630.749729156 136255241.56687927 0 0 0 0 6280695.4615864754 70842506.086433411 0 70842506.086433411 75325295.440185547 0 0 0 0 19694740.583648682 32531314.216705322 0 32531314.216705322 83879196.894882202 0 0 0 0 95790117.492859602 87503914.107948303 0 87503914.107948303 60670149.844043732 0 0 0 0 25982103.323661149 73259802.856298447 0 73259802.856298447 185810457.36573792 0 0 0 0 -27191962.873256952 127978431.97789764 0 127978431.97789764 198630963.04748344 0 0 0 0 46622505.57183104 244380029.16871834 0 244380029.16871834 377634462.49287415 0 0 0 0 -125136325.31435305 135123959.56254005 0 135123959.56254005 378432062.17485046 0 0 0 0 -501343.27891149791 747311.71265696548 0 747311.71265696548 3418442.1304553524 0 0 0 0 363793240.38118052 -463634346.87877274 0 -463634346.87877274 35273860.408111572 0 0 0 0 425636797.39245772 349960987.16260529 0 349960987.16260529 253103404.93972015 0 0 0 0 188620732.42546201 119788698.78297997 0 119788698.78297997 29578634.045188904 0 0 0 0 58049096.765766025 -6049182.1960172653 0 -6049182.1960172653 15930901.158798218 0 0 0 0 -10964448.833314896 -2600389.1042022705 0 -2600389.1042022705 47722808.899726868 0 0 0 0 -30594693.834949493 24750517.571743011 0 24750517.571743011 21711763.06578064 0 0 0 0 -1969022.4759465631 3316315.2213721867 0 3316315.2213721867 9163676.4780301303 0 0 0 0 15130016.365556002 1710207.883190155 0 1710207.883190155 -9053611.6405334473 0 0 0 0 -22864200.326256275 7673101.2994003296 0 7673101.2994003296 -4557805.9266204834 0 0 0 0 -11045187.659788013 22170273.328598022 0 22170273.328598022 -8628804.310218811 0 0 0 0 23470818.249058217 22063948.784690857 0 22063948.784690857 -8944812.6859550476 0 0 0 0 46477572.380503297 32297340.304470062 0 32297340.304470062 -1892612.8526077271 0 0 0 0 5803748.2644764781 21039747.987838745 0 21039747.987838745 2619524.0238189697 0 0 0 0 33669625.175409794 24452905.677963257 0 24452905.677963257 37887999.272750854 0 0 0 0 42030744.23373276 64144085.176920891 0 64144085.176920891 30680055.004486084 0 0 0 0 15566469.610198975 36767055.967697144 0 36767055.967697144 7187023.1665420532 0 0 0 0 -9037647.3783307076 84523608.7420578 0 84523608.7420578 -1768715.8555145264 0 0 0 0 -38474010.301740646 78218480.915328979 0 78218480.915328979 -15629191.833328247 0 0 0 0 -11281831.754288673 27912109.583023071 0 27912109.583023071 22413289.745498657 0 0 0 0 -104282879.70572662 56742835.290023804 0 56742835.290023804 18711029.518554688 0 0 0 0 -1839921.1721177353 7040658.5330891954 0 7040658.5330891954 2408847.1948100552 0 0 0 0 -5398853.850894928 16298816.402885437 0 16298816.402885437 -3141836.4338684082 0 0 0 0 -2816396.8092151172 17920300.763897538 0 17920300.763897538 10372814.162368014 0 0 0 0 -20679526.342485428 49910109.219352722 0 49910109.219352722 19141553.293753624 0 0 0 0 844062.91148090363 14059948.95589447 0 14059948.95589447 7039813.4750061035 0 0 0 0 94766.072571602475 19568646.017963547 0 19568646.017963547 2835028.0740870386 0 0 0 0 -19134163.235053539 38923521.634040833 0 38923521.634040833 -1322925.6576004028 0 0 0 0 11796582.379835486 50808240.15206337 0 50808240.15206337 452409.31973266602 0 0 0 0 2672339.9350111485 33732847.59129715 0 33732847.59129715 -4193133.8481826782 0 0 0 0 17108740.734801292 24439277.682563782 0 24439277.682563782 -50196056.107574463 0 0 0 0 -8596511.840712199 18823454.299878366 0 18823454.299878366 24855395.368871629 0 0 0 0 526961.65282772994 10142086.27583316 0 10142086.27583316 -8279959.9155264199 0 0 0 0 -6871961.6107368469 19866299.291351318 0 19866299.291351318 -17922522.974582672 0 0 0 0 -1916601.4153227671 12603797.669313962 0 12603797.669313962 6142389.3286081403 0 0 0 0 10608635.614854813 37116421.615631104 0 37116421.615631104 -10404793.306671143 0 0 0 0 -3726575.6736655245 12844578.988582656 0 12844578.988582656 12676338.105726425 0 0 0 0 11648295.725766182 14859180.77141571 0 14859180.77141571 3808245.1583938599 0 0 0 0 -26804562.745787144 59274014.590902328 0 59274014.590902328 -4670431.4813537598 0 0 0 0 15528760.402231216 50921089.744293213 0 50921089.744293213 -23868299.640663147 0 0 0 0 -9515827.4055328369 54403731.980628967 0 54403731.980628967 -42594157.762586594 0 0 0 0 -162064220.37350655 121788984.76206207 0 121788984.76206207 16266276.842453003 0 0 0 0 -12616896.28581617 16619437.133054059 0 16619437.133054059 28596426.347157061 0 0 0 0 -3579621.3369677067 14039727.70067215 0 14039727.70067215 -14008657.364242554 0 0 0 0 -15672067.097723007 56434805.895370483 0 56434805.895370483 -17695672.552017212 0 0 0 0 2358073.7651881827 23441208.541011333 0 23441208.541011333 38293531.606268182 0 0 0 0 948747.7507524523 18724107.628635779 0 18724107.628635779 44025391.569172807 0 0 0 0 -128672884.31092834 87508936.602535248 0 87508936.602535248 65091199.543159485 0 0 0 0 25098467.903968811 64740941.95778656 0 64740941.95778656 16062564.446388245 0 0 0 0 25732762.320313692 67853149.760665894 0 67853149.760665894 28392343.440292358 0 0 0 0 -17034277.16718483 88876087.524032593 0 88876087.524032593 15311232.699434996 0 0 0 0 13422044.690930367 57000608.848426819 0 57000608.848426819 11137347.895217896 0 0 0 0 1078498.4745573779 17829472.174806371 0 17829472.174806371 -6944938.8885566443 0 0 0 0 77715228.984066248 81576926.197116852 0 81576926.197116852 17670280.492843628 0 0 0 0 56627684.587551117 65450816.809295654 0 65450816.809295654 15791128.98664093 0 0 0 0 300061.54000922386 -837643.15836094692 0 -837643.15836094692 -2166233.5529920077 0 0 0 0 77504975.742120743 79474141.501312256 0 79474141.501312256 11878634.949554443 0 0 0 0 63925205.77355957 87321084.33505249 0 87321084.33505249 16723809.906951904 0 0 0 0 68446272.64654541 85970448.502700806 0 85970448.502700806 14790318.717071533 0 0 0 0 66448605.057050705 94810713.789100647 0 94810713.789100647 45569429.297775269 0 0 0 0 114251779.42846775 96153114.37802124 0 96153114.37802124 48084941.4637146 0 0 0 0 66479341.70079425 70581397.37496531 0 70581397.37496531 34592324.286682129 0 0 0 0 -3981852.8420262337 29731334.631233215 0 29731334.631233215 13561522.255371094 0 0 0 0 -8484814.3703632355 14742448.357116699 0 14742448.357116699 847763.67660522461 0 0 0 0 -1090750.7724395159 14812200.813094242 0 14812200.813094242 11387068.952445619 0 0 0 0 3402548.8453151202 13211463.251227789 0 13211463.251227789 -13541548.481084689 0 0 0 0 -9313068.8278131485 9895942.9608612061 0 9895942.9608612061 12358393.531265259 0 0 0 0 -10652059.986071587 19598277.043502808 0 19598277.043502808 4442365.3757553101 0 0 0 0 -11783257.349035263 10586777.961700439 0 10586777.961700439 12172608.154220581 0 0 0 0 427034.88522995054 16147432.989652622 0 16147432.989652622 123161.83827739209 0 0 0 0 19138066.265156746 25392058.360015869 0 25392058.360015869 -1459799.5506591797 0 0 0 0 -236198.24591697846 624316.23639368266 0 624316.23639368266 2122505.1259830147 0 0 0 0 -34082866.216655962 35952541.469734192 0 35952541.469734192 31475813.512176514 0 0 0 0 2451107.915699482 33712969.155075073 0 33712969.155075073 18171354.199771881 0 0 0 0 -14395252.702541173 22537335.282806396 0 22537335.282806396 16965711.319396973 0 0 0 0 -18987769.753112435 53574189.764877319 0 53574189.764877319 62841182.258666992 0 0 0 0 50685603.921621799 43317030.057922363 0 43317030.057922363 22078089.943939209 0 0 0 0 -1117052.7048503361 14364878.834270425 0 14364878.834270425 12000725.156804711 0 0 0 0 12558169.053842545 49883011.253829956 0 49883011.253829956 23171028.496734619 0 0 0 0 8466158.1626626868 18703292.660375006 0 18703292.660375006 -19962116.387023367 0 0 0 0 5454481.4902210236 87874515.139381409 0 87874515.139381409 51406197.067596436 0 0 0 0 36802537.134399414 53568459.841533661 0 53568459.841533661 110903.36866760254 0 0 0 0 136740356.67295456 66166621.021270752 0 66166621.021270752 48727067.74168396 0 0 0 0 89214181.720562458 102931087.74679565 0 102931087.74679565 55861107.366729736 0 0 0 0 -35233917.189247131 -92986841.775878906 0 -92986841.775878906 141804302.53497314 0 0 0 0 3195256.117082377 4652384.2102058977 0 4652384.2102058977 1763220.9723201692 0 0 0 0 1812353.8852699278 5035396.1520230174 0 5035396.1520230174 3693574.200556919 0 0 0 0 -5676359.094162941 162297560.81529236 0 162297560.81529236 -142968121.78106689 0 0 0 0 84417607.884895325 -32612170.971740723 0 -32612170.971740723 278554029.75921631 0 0 0 0 98620763.383071899 130542444.80013275 0 130542444.80013275 -134087775.54998779 0 0 0 0 -296837987.37896061 -17625035.259227753 0 -17625035.259227753 43897002.264068604 0 0 0 0 1789825.8396688902 2185300.0751696452 0 2185300.0751696452 -1459393.6220555902 0 0 0 0 -429563941.33864212 74305968.762058258 0 74305968.762058258 223726458.57177734 0 0 0 0 91526588.116752625 -97417158.235137939 0 -97417158.235137939 124491904.4368515 0 0 0 0 -274625538.12622833 483887855.64964294 0 483887855.64964294 149065840.15693188 0 0 0 0 -48236071.818637848 201215484.66473389 0 201215484.66473389 -35887757.658172607 0 0 0 0 1797793.4453837178 869906.70305351913 0 869906.70305351913 -418192.92654848099 0 0 0 0 -214337341.60290527 412149894.30932617 0 412149894.30932617 -234088274.82092285 0 0 0 0 -652179388.97178078 233337609.02598572 0 233337609.02598572 56035391.056182861 0 0 0 0 196794360.84082222 229763619.85886383 0 229763619.85886383 37731135.465393066 0 0 0 0 25425603.56054306 58020027.88923645 0 58020027.88923645 106309576.22154236 0 0 0 0 106537082.31926274 29768371.833518982 0 29768371.833518982 56158866.966583252 0 0 0 0 -20250596.103570461 55720846.178070068 0 55720846.178070068 78863521.909576416 0 0 0 0 -285356792.64011955 202362731.4042511 0 202362731.4042511 78759058.621292114 0 0 0 0 -37470352.452440977 32060949.888424873 0 32060949.888424873 52218522.062103271 0 0 0 0 -68594481.871179581 241227466.46374512 0 241227466.46374512 58529241.702636719 0 0 0 0 -140528468.21030617 82935759.187042236 0 82935759.187042236 31972050.272224426 0 0 0 0 -60013573.066413879 28822889.576568604 0 28822889.576568604 70001829.704105377 0 0 0 0 -68091586.548085213 7325312.6756591797 0 7325312.6756591797 17245983.79699707 0 0 0 0 -38947328.611006677 -13444097.830245972 0 -13444097.830245972 51158451.264457703 0 0 0 0 -14955609.375182163 -7591634.3242015839 0 -7591634.3242015839 29875920.069671631 0 0 0 0 27567611.337251186 37022381.330886841 0 37022381.330886841 32501921.166519165 0 0 0 0 -28777873.94150573 27651291.54699707 0 27651291.54699707 68963414.14491272 0 0 0 0 -29339190.674060985 15701548.285528183 0 15701548.285528183 -8875531.6800231934 0 0 0 0 807098.46319063555 1103473.0525890943 0 1103473.0525890943 1546728.2548092604 0 0 0 0 -103818839.62123013 16362318.796661377 0 16362318.796661377 43564264.802726746 0 0 0 0 -124723798.04042864 -54719831.034187317 0 -54719831.034187317 85874459.947265625 0 0 0 0 637098.6886564577 -798425.54498151131 0 -798425.54498151131 151866.87143695354 0 0 0 0 -42694383.243646681 -38674569.894335747 0 -38674569.894335747 -4897857.5396728516 0 0 0 0 102764792.65651277 152858177.10640335 0 152858177.10640335 123733765.05239868 0 0 0 0 64408018.444969177 -33774094.850152016 0 -33774094.850152016 61946546.980865479 0 0 0 0 66973.749259805307 2111508.069700785 0 2111508.069700785 72390.785662594717 0 0 0 0 -23319314.618782997 107303925.27934265 0 107303925.27934265 -282694859.59280252 0 0 0 0 -10998235.96649909 142916408.98402405 0 142916408.98402405 180404766.21613026 0 0 0 0 -266236668.66925472 61984692.208955765 0 61984692.208955765 -204619488.0118103 0 0 0 0 -100518839.85255337 205483308.31809998 0 205483308.31809998 -38020528.354675293 0 0 0 0 -97059477.12694478 16027677.182701111 0 16027677.182701111 194170881.48274231 0 0 0 0 24431694.222256899 194970385.70120239 0 194970385.70120239 126358581.52938843 0 0 0 0 -100564869.73523235 167328356.93647766 0 167328356.93647766 186798765.89579773 0 0 0 0 -153381522.07080173 133961279.57420349 0 133961279.57420349 84320697.473251343 0 0 0 0 -209716629.99798203 173109659.57519531 0 173109659.57519531 -120581387.30799866 0 0 0 0 -190591627.84165764 18970025.507125854 0 18970025.507125854 -3280400.4328918457 0 0 0 0 -183491060.35499382 131112054.08177185 0 131112054.08177185 -168300689.06002808 0 0 0 0 -110157068.28912354 33005027.624847412 0 33005027.624847412 -52755797.98223877 0 0 0 0 -352606253.7637558 3994939.7803039551 0 3994939.7803039551 3198565.6452026367 0 0 0 0 -126913794.85927963 206122854.01483154 0 206122854.01483154 -71538679.426459312 0 0 0 0 -154963226.60571098 116513079.45210266 0 116513079.45210266 -76238452.814147949 0 0 0 0 -111238692.84957695 178458009.88536072 0 178458009.88536072 -99039201.328796387 0 0 0 0 -181357217.28059292 322786096.7592926 0 322786096.7592926 118703483.18193054 0 0 0 0 112215232.02402413 -48229955.363225937 0 -48229955.363225937 237543937.37643433 0 0 0 0 -168838872.4909296 299262777.87794495 0 299262777.87794495 -36402528.747184753 0 0 0 0 -3712527.139480181 -92614.454267583787 0 -92614.454267583787 4440772.4942629188 0 0 0 0 121344666.76054764 -174359788.25367737 0 -174359788.25367737 284863452.63226318 0 0 0 0 16402808.41872406 -274375209.84788513 0 -274375209.84788513 274790132.30078125 0 0 0 0 141954041.16687012 -198839857.89221191 0 -198839857.89221191 -196320772.45141602 0 0 0 0 142067364.91114044 -207910470.48632812 0 -207910470.48632812 174393443.92584229 0 0 0 0 245216410.72471237 -311545030.68464661 0 -311545030.68464661 217072038.22145081 0 0 0 0 103911167.77746582 -344696388.39050293 0 -344696388.39050293 218495566.05870056 0 0 0 0 104808637.05768967 -336506637.77575684 0 -336506637.77575684 23747192.174865723 0 0 0 0 347953147.98908043 -345801110.06443787 0 -345801110.06443787 266433316.06912231 0 0 0 0 132463436.3072052 -310029632.10839844 0 -310029632.10839844 307043391.43450928 0 0 0 0 358292366.91046715 -342603831.82243347 0 -342603831.82243347 296090490.68894958 0 0 0 0 256236441.57174826 -363630194.61745262 0 -363630194.61745262 309979344.07232666 0 0 0 0 318819594.72964478 -269586102.55627441 0 -269586102.55627441 233199666.49830627 0 0 0 0 -35960031.722572327 -1951573.3890075684 0 -1951573.3890075684 3723072.41015625 0 0 0 0 110457419.61802101 51015646.725631714 0 51015646.725631714 -102491843.82265091 0 0 0 0 -4477818.0878156777 -532500.68845724687 0 -532500.68845724687 4150296.0741429329 0 0 0 0 -994784.93841786589 398483.64393106103 0 398483.64393106103 904505.63878664374 0 0 0 0 -168033420.39189053 -54818241.162368774 0 -54818241.162368774 -4784888.5879821777 0 0 0 0 211271417.8593998 -161374411.05389404 0 -161374411.05389404 254349072.24157715 0 0 0 0 262085076.92328644 -289317138.49038696 0 -289317138.49038696 226362599.21673584 0 0 0 0 -1356773.8369461484 582679.75928626209 0 582679.75928626209 1575912.5100328475 0 0 0 0 -175111436.86383057 -44103855.155014038 0 -44103855.155014038 16221948.403129578 0 0 0 0 -65310618.73279953 147405338.64620972 0 147405338.64620972 291505758.38871384 0 0 0 0 -49589363.94452858 -197608863.97587967 0 -197608863.97587967 -53294051.200683594 0 0 0 0 -406403579.49768829 52267885.755355835 0 52267885.755355835 377654164.60425568 0 0 0 0 101148355.72119427 176454081.12401199 0 176454081.12401199 -66400783.881072998 0 0 0 0 -1879330.5999054275 1830443.6217560507 0 1830443.6217560507 91161.314734503627 0 0 0 0 158989055.59023666 -14960175.815971375 0 -14960175.815971375 -31853115.759007454 0 0 0 0 -49026902.876179695 -595579.28090667725 0 -595579.28090667725 226945122.42242432 0 0 0 0 -41375127.836874008 -18540449.127838135 0 -18540449.127838135 52584906.454170227 0 0 0 0 -12178125.006431103 80104355.66704464 0 80104355.66704464 189875649.90505981 0 0 0 0 -15612003.322746277 55159322.437911987 0 55159322.437911987 66747748.850608826 0 0 0 0 64322798.726060867 61902705.321458817 0 61902705.321458817 45745545.552566528 0 0 0 0 182559596.0181489 178373930.34363174 0 178373930.34363174 142656619.59901428 0 0 0 0 -64324769.977273941 134135463.10623932 0 134135463.10623932 139509276.21845245 0 0 0 0 -76507897.33895874 31076910.673934937 0 31076910.673934937 35366907.901519775 0 0 0 0 -2219000.4952487946 89748119.505336761 0 89748119.505336761 27085226.322906494 0 0 0 0 -41573463.861169815 82101457.04510498 0 82101457.04510498 229301576.95475769 0 0 0 0 105777.06712045334 3509068.4335686639 0 3509068.4335686639 121735.39408262679 0 0 0 0 62743208.935001373 113349818.28090668 0 113349818.28090668 -7026303.3613395691 0 0 0 0 64458344.923639297 43115534.830177307 0 43115534.830177307 -75218822.041717529 0 0 0 0 10742.683756630868 2025760.9004849717 0 2025760.9004849717 74206.8495966685 0 0 0 0 -189519669.94802475 -13030081.932327271 0 -13030081.932327271 173952647.69031096 0 0 0 0 -186952108.94033051 36085465.444076538 0 36085465.444076538 -45256583.575515747 0 0 0 0 34731697.15798378 90932360.143035889 0 90932360.143035889 -217977256.42320251 0 0 0 0 141221305.76958656 92208752.188621521 0 92208752.188621521 -52135035.645584106 0 0 0 0 -334716566.65308952 -189236403.0336647 0 -189236403.0336647 24783178.565887451 0 0 0 0 -214556892.65205765 21290428.5418396 0 21290428.5418396 -53111613.12071991 0 0 0 0 -234504367.27396774 52871199.659912109 0 52871199.659912109 -15318120.082458496 0 0 0 0 -231997003.85461426 55947590.344367981 0 55947590.344367981 -11614195.33770752 0 0 0 0 -30251549.139369965 4079865.7262268066 0 4079865.7262268066 15290066.613830566 0 0 0 0 -113174128.78716278 -55568943.847038269 0 -55568943.847038269 196250060.38140869 0 0 0 0 -4853624.064295874 -8267757.2015890386 0 -8267757.2015890386 22845205.426665574 0 0 0 0 -23429096.080993652 9850661.4045257568 0 9850661.4045257568 16901475.141845703 0 0 0 0 -24978350.099205017 8186718.6898193359 0 8186718.6898193359 15830162.125 0 0 0 0 -15692239.960575104 1842676.5239753723 0 1842676.5239753723 8888414.6017303467 0 0 0 0 -1762927.7615447622 -2562311.6863335036 0 -2562311.6863335036 10525660.263737336 0 0 0 0 -15236415.872344971 1187328.6539154053 0 1187328.6539154053 8241996.0772399902 0 0 0 0 -2454444.4496639706 -2179548.1813710183 0 -2179548.1813710183 10636393.609742388 0 0 0 0 -18479307.776062012 5686055.5939941406 0 5686055.5939941406 9980590.9768066406 0 0 0 0 -8044364.0881649442 6934404.5219033323 0 6934404.5219033323 11362089.172521085 0 0 0 0 -23480544.614006996 5317296.8116149902 0 5317296.8116149902 12387113.287322998 0 0 0 0 -17063921.522893906 -8615765.17760849 0 -8615765.17760849 29882567.143814087 0 0 0 0 -20116523.950704575 7566284.7148284912 0 7566284.7148284912 13125982.663269043 0 0 0 0 -774678.13424200565 -805517.40188370273 0 -805517.40188370273 1161883.4780854359 0 0 0 0 -6245754.1153664254 3182732.0730988458 0 3182732.0730988458 13565733.778071694 0 0 0 0 -20732618.204053879 1704042.6848526001 0 1704042.6848526001 15681338.223297119 0 0 0 0 -4735952.7284627035 -4286742.0827851836 0 -4286742.0827851836 24100539.93651484 0 0 0 0 -41088815.189852238 -1422183.1257390976 0 -1422183.1257390976 21836050.663024902 0 0 0 0 2300505.0660095215 81557383.485374451 0 81557383.485374451 21344076.474243164 0 0 0 0 -5172567.0239851056 6155596.6586567834 0 6155596.6586567834 8221541.862893939 0 0 0 0 -29657557.059593201 -13991233.875320435 0 -13991233.875320435 28415198.175624847 0 0 0 0 -50621552.567988396 9688895.1764907837 0 9688895.1764907837 16126225.886505127 0 0 0 0 -10852074.397533078 14670600.196147315 0 14670600.196147315 19204392.920584619 0 0 0 0 -6600017.335335345 -2454048.4454081003 0 -2454048.4454081003 23781360.771107689 0 0 0 0 -29457826.782264709 -704836.02008056641 0 -704836.02008056641 19719986.149806976 0 0 0 0 -29598603.657478333 1560316.2864494324 0 1560316.2864494324 16501246.703491211 0 0 0 0 -16897856.916785717 -1209099.0362281799 0 -1209099.0362281799 12872448.043716431 0 0 0 0 -3675475.7449135738 -3243335.1993610393 0 -3243335.1993610393 13452478.656261027 0 0 0 0 -13254028.287333965 9174285.8854751587 0 9174285.8854751587 11412676.196243286 0 0 0 0 -11050146.760169983 6713421.5769805908 0 6713421.5769805908 13785003.199226379 0 0 0 0 -6725605.2561290059 7697203.9664562494 0 7697203.9664562494 14481504.655935563 0 0 0 0 -44980823.081890106 4587700.1875 0 4587700.1875 8151647.8000946045 0 0 0 0 -3415248.0177155449 2664098.8119009323 0 2664098.8119009323 9904683.3830434158 0 0 0 0 -3947179.7802948952 5456542.2621059418 0 5456542.2621059418 12335415.67232132 0 0 0 0 -4285440.5769094527 6759508.8671779633 0 6759508.8671779633 23310062.609542847 0 0 0 0 -10391443.714269638 267429.83368301392 0 267429.83368301392 19604225.677078247 0 0 0 0 -6233083.5520017836 3709141.6080832873 0 3709141.6080832873 13145936.928958848 0 0 0 0 -13255205.133914471 7514880.6065444946 0 7514880.6065444946 17774745.209632874 0 0 0 0 -10563725.27161479 1834164.4511833191 0 1834164.4511833191 18016594.000267029 0 0 0 0 -6233094.9461080711 5196203.3752219081 0 5196203.3752219081 14481320.19931002 0 0 0 0 -4131114.2732595042 860188.883511208 0 860188.883511208 13985639.378948823 0 0 0 0 -9876549.0170955658 4170183.4432525635 0 4170183.4432525635 17526009.368138313 0 0 0 0 -5883689.8132209964 2004074.4857900217 0 2004074.4857900217 17734335.691113375 0 0 0 0 -888355.73216724396 5483535.0429077148 0 5483535.0429077148 23818836.426521301 0 0 0 0 -1162031.8607826829 1646398.2939333916 0 1646398.2939333916 17114460.8491745 0 0 0 0 -3908155.9657129105 -330469.22378454451 0 -330469.22378454451 18538671.336376041 0 0 0 0 -46243838.951039314 -65196523.190855026 0 -65196523.190855026 20537699.522953987 0 0 0 0 1765587.3261348945 620143.29334336147 0 620143.29334336147 4793866.5404393524 0 0 0 0 -12916414.362075925 94042949.83005619 0 94042949.83005619 182857089.62850952 0 0 0 0 78281655.499250412 -171560690.23995972 0 -171560690.23995972 30243407.265485764 0 0 0 0 -10682236.90034616 -2116321.2364330292 0 -2116321.2364330292 19724001.884712219 0 0 0 0 46899624.825816154 4072637.6127390862 0 4072637.6127390862 30216621.845115662 0 0 0 0 41836177.287507057 -3535329.7463197708 0 -3535329.7463197708 25298775.349639893 0 0 0 0 12210891.865578651 -23412681.070775986 0 -23412681.070775986 10903178.390741348 0 0 0 0 47727458.157230377 -7605800.8566226959 0 -7605800.8566226959 13396981.666996002 0 0 0 0 9432194.5779256821 6341903.7832126617 0 6341903.7832126617 10321834.728097916 0 0 0 0 145147381.02119446 -137976308.59008503 0 -137976308.59008503 -106339325.49575806 0 0 0 0 1116008.2028070646 112666.93959975243 0 112666.93959975243 779673.67499380559 0 0 0 0 176904321.17542458 -3778208.1280193329 0 -3778208.1280193329 -5895760.2577571869 0 0 0 0 80766375.470680237 -46986194.229779243 0 -46986194.229779243 34257182.558265686 0 0 0 0 66346732.926872253 5410924.3261375427 0 5410924.3261375427 -1920714.0187606812 0 0 0 0 666486674.21060944 -175862029.61263275 0 -175862029.61263275 51742536.841221869 0 0 0 0 -31834838.323031425 -36430324.751914978 0 -36430324.751914978 -8801964.1023406982 0 0 0 0 -1274634.6270712232 403254.22915348969 0 403254.22915348969 2827068.810966121 0 0 0 0 130835265.50058317 -127488912.68427992 0 -127488912.68427992 52648801.265762329 0 0 0 0 -188155859.33582973 643721389.36009026 0 643721389.36009026 47937351.356750488 0 0 0 0 -139768316.82821107 -8117297.1378965378 0 -8117297.1378965378 49495171.175224304 0 0 0 0 110219436.44260406 -37414320.441886902 0 -37414320.441886902 -217960066.48868561 0 0 0 0 -94099565.487897396 126540881.49213505 0 126540881.49213505 8336103.6868972778 0 0 0 0 42961458.056495667 95122814.331422806 0 95122814.331422806 12333455.995159149 0 0 0 0 -3524181.1309757233 -13359642.652332306 0 -13359642.652332306 49559699.941874743 0 0 0 0 13423063.277208328 3185390.333026886 0 3185390.333026886 14044583.440603256 0 0 0 0 -45821438.159820557 -12096655.500593185 0 -12096655.500593185 91615122.465316772 0 0 0 0 -1941864.3091235161 6734551.1355857849 0 6734551.1355857849 19640704.776408881 0 0 0 0 -4132730.213001132 423908.61356508452 0 423908.61356508452 14968725.362210421 0 0 0 0 67617044.274002075 -90459807.539394379 0 -90459807.539394379 -61977737.819049835 0 0 0 0 -7681501.0785632133 -150097.67939376831 0 -150097.67939376831 15447481.815101624 0 0 0 0 -2843418.6320309639 3477892.6021790504 0 3477892.6021790504 12151328.382148743 0 0 0 0 -2675673.7835152149 4855862.4424953461 0 4855862.4424953461 15858291.448546886 0 0 0 0 -5037959.5839860896 1952408.1119879745 0 1952408.1119879745 15663257.434255973 0 0 0 0 -5329162.18104544 1605475.5483031906 0 1605475.5483031906 11861233.081341837 0 0 0 0 1081627.9063497782 7021927.7840926647 0 7021927.7840926647 23893519.547431946 0 0 0 0 420064.37103581429 2548740.3719520569 0 2548740.3719520569 13745073.848194122 0 0 0 0 -766853.98615779122 -672293.13555350341 0 -672293.13555350341 16285487.618977008 0 0 0 0 2232266.6880831718 22062349.595108032 0 22062349.595108032 9423389.9688587189 0 0 0 0 -590581.63749246788 5567156.0835242625 0 5567156.0835242625 21016425.903231021 0 0 0 0 4779854.0688766092 -43140578.42145896 0 -43140578.42145896 35225222.695762634 0 0 0 0 -10722258.303672314 -399116.22678375244 0 -399116.22678375244 49538700.095756531 0 0 0 0 -12119438.976704717 4809338.1553506851 0 4809338.1553506851 32269347.664703369 0 0 0 0 -17483683.577510595 5871014.8580055237 0 5871014.8580055237 32703598.827846527 0 0 0 0 -6558693.9721126556 -8257624.9797954559 0 -8257624.9797954559 58181200.097045898 0 0 0 0 -6904821.6051153895 287506.55676453188 0 287506.55676453188 14515485.593174519 0 0 0 0 -10856096.790081501 -9393395.9913721085 0 -9393395.9913721085 61959898.635394096 0 0 0 0 -3937738.2268285751 -27585070.805242538 0 -27585070.805242538 69943763.979150772 0 0 0 0 -4616263.6383467475 -4351266.2596586049 0 -4351266.2596586049 20665061.294085432 0 0 0 0 13200603.489649773 -32911683.39618969 0 -32911683.39618969 84021970.077095032 0 0 0 0 -2429111.8127879389 3026856.5457465341 0 3026856.5457465341 2954055.2059662435 0 0 0 0 6925984.1412086487 23796597.596698761 0 23796597.596698761 3128514.0601463318 0 0 0 0 1702666.4185018539 24204013.185962677 0 24204013.185962677 21304521.146595955 0 0 0 0 -22142071.955250502 33131551.547225475 0 33131551.547225475 67871246.559402466 0 0 0 0 -6709110.8293857574 6711706.059923172 0 6711706.059923172 -3459992.2122993469 0 0 0 0 -6733514.7559177876 4798648.7749733925 0 4798648.7749733925 36347222.150241852 0 0 0 0 -3297787.4412021637 -15815892.272886276 0 -15815892.272886276 16612992.404706955 0 0 0 0 -9749603.7890644073 -6921835.6854763031 0 -6921835.6854763031 59027224.158176422 0 0 0 0 -2929490.8182464545 -5284556.3242004793 0 -5284556.3242004793 18549732.714733101 0 0 0 0 -9419527.2901353836 -20035895.077648163 0 -20035895.077648163 23593811.407989502 0 0 0 0 -8255364.1642920971 -15695948.474311829 0 -15695948.474311829 25348531.57289505 0 0 0 0 -7741850.3322153091 -20953256.422589302 0 -20953256.422589302 13854884.218266487 0 0 0 0 -13980152.900087357 -1124340.3493881226 0 -1124340.3493881226 21953256.780487061 0 0 0 0 -11849349.562615871 13253437.114190578 0 13253437.114190578 14119828.289352417 0 0 0 0 9065286.0783557892 1781056.7238349915 0 1781056.7238349915 18966984.207580566 0 0 0 0 -1562015.8183717728 5080239.0506420135 0 5080239.0506420135 27479860.212417603 0 0 0 0 -3689675.2369260788 976311.91312026978 0 976311.91312026978 21657763.413028717 0 0 0 0 -16994083.155738831 -32326381.582962036 0 -32326381.582962036 2369537.2178649902 0 0 0 0 -1302767.036990162 -5232576.4382460769 0 -5232576.4382460769 13389564.067616619 0 0 0 0 -29998357.637310028 -18160768.844882965 0 -18160768.844882965 17176884.080631256 0 0 0 0 -439301.20254360908 271897.33609708864 0 271897.33609708864 371294.44324959069 0 0 0 0 -6755307.2436075211 -22786497.418216705 0 -22786497.418216705 -29518121.236289978 0 0 0 0 -1131456.8815629138 874727.3566732686 0 874727.3566732686 3628575.526029598 0 0 0 0 11129279.924968719 -2202926.6379776001 0 -2202926.6379776001 34423952.824447632 0 0 0 0 -7714940.989473952 -2296098.9211330996 0 -2296098.9211330996 22907524.576590173 0 0 0 0 5753130.2666679621 -8502845.236207962 0 -8502845.236207962 4166717.9197463989 0 0 0 0 -4495241.6321397424 -11117619.316869736 0 -11117619.316869736 5894875.2759666443 0 0 0 0 9821986.2338004112 18367548.499738693 0 18367548.499738693 3686279.3516921997 0 0 0 0 16781417.632620811 -26879424.868492126 0 -26879424.868492126 34784595.076095581 0 0 0 0 286471.32498463034 -84177.092185253277 0 -84177.092185253277 137672.0419446528 0 0 0 0 10695016.583595276 7307348.6062431335 0 7307348.6062431335 -4904888.0362663269 0 0 0 0 -17782184.389727235 3735061.0027685165 0 3735061.0027685165 12721814.595619202 0 0 0 0 -13710553.232131958 -5946610.1503257751 0 -5946610.1503257751 27972108.50012207 0 0 0 0 10779911.248763561 -8744848.1063098907 0 -8744848.1063098907 5559828.7965011597 0 0 0 0 20776820.902861118 36061140.384155273 0 36061140.384155273 -7357531.0089492798 0 0 0 0 -229212.04374389583 -1476977.3028756827 0 -1476977.3028756827 1573035.4419587813 0 0 0 0 -797423.02756415668 -625155.29163358174 0 -625155.29163358174 7259633.3625552244 0 0 0 0 46866860.013652802 -12258000.519775391 0 -12258000.519775391 23996803.883644104 0 0 0 0 16045770.949013472 54446780.262054443 0 54446780.262054443 -26164988.836795807 0 0 0 0 43612338.642933875 18027861.789366245 0 18027861.789366245 -62866025.592910767 0 0 0 0 -34531263.406845391 -14435998.853066444 0 -14435998.853066444 17223830.120689392 0 0 0 0 -30602529.127178669 -6414865.8543243408 0 -6414865.8543243408 37406949.267009735 0 0 0 0 -42738268.50341481 -13617569.607633591 0 -13617569.607633591 69276843.917137146 0 0 0 0 -512798.40552289138 1128746.5507234894 0 1128746.5507234894 748792.11505322531 0 0 0 0 -45421021.25914669 -20683539.087530136 0 -20683539.087530136 52731612.4037323 0 0 0 0 -52938458.97374177 -87128094.138408661 0 -87128094.138408661 619180196.86122513 0 0 0 0 -26941537.002793193 1823815.1679534912 0 1823815.1679534912 55209103.298454285 0 0 0 0 209977957.3670516 -277055167.3102951 0 -277055167.3102951 -174729249.75180054 0 0 0 0 -101193281.84270549 122837511.2176342 0 122837511.2176342 -70896519.218647003 0 0 0 0 -3812943.7524992661 13259498.61885556 0 13259498.61885556 11912352.300560407 0 0 0 0 25543018.42713356 110321011.95691681 0 110321011.95691681 -205046635.37869596 0 0 0 0 87390110.826323986 -57816085.249649048 0 -57816085.249649048 -24110724.310604095 0 0 0 0 117641441.43553805 20188989.76600647 0 20188989.76600647 -125948434.78347015 0 0 0 0 -520674.84160602093 18687850.762974739 0 18687850.762974739 3272728.6293258667 0 0 0 0 -5403708.0525362622 4893899.7085925937 0 4893899.7085925937 26270170.471158426 0 0 0 0 -8317677.8999905586 -2542616.9401054382 0 -2542616.9401054382 -53495657.31464386 0 0 0 0 -56637978.135158062 74066049.410449982 0 74066049.410449982 -40031376.461734772 0 0 0 0 -4659730.9056116482 1847360.9882973414 0 1847360.9882973414 7686023.1897246614 0 0 0 0 -9903378.1429853439 1172112.5992889404 0 1172112.5992889404 16438513.953678131 0 0 0 0 -8231035.0417958712 12835452.417264722 0 12835452.417264722 28051281.226581715 0 0 0 0 -62290126.256084204 21987981.122783661 0 21987981.122783661 6429109.1729736328 0 0 0 0 -5221953.5908889771 4736057.8313293457 0 4736057.8313293457 10011401.791732788 0 0 0 0 -12097638.360926151 4596239.289352417 0 4596239.289352417 19900083.931350708 0 0 0 0 -6877157.3501377031 5466443.4048656244 0 5466443.4048656244 15870948.929215692 0 0 0 0 -12589739.66059804 2117110.8991742134 0 2117110.8991742134 16848593.838378906 0 0 0 0 -3701657.2652936811 1435964.3123104908 0 1435964.3123104908 21053793.950376809 0 0 0 0 -7575514.4620752335 1281534.3739242554 0 1281534.3739242554 11867153.904708862 0 0 0 0 1611552.1585147381 10615037.781288147 0 10615037.781288147 5321063.9860839844 0 0 0 0 -1126540.563467616 4168064.0731642283 0 4168064.0731642283 12455289.538792582 0 0 0 0 -948706.19343873276 565591.17326170579 0 565591.17326170579 1126650.7319301218 0 0 0 0 -2908514.6096324129 -1518406.7546286136 0 -1518406.7546286136 15231034.214740448 0 0 0 0 -5844106.303068161 4916873.1227436066 0 4916873.1227436066 16060616.035377502 0 0 0 0 -10407687.616600513 3361012.255027771 0 3361012.255027771 24938425.77223587 0 0 0 0 3250253.7035450935 11766919.2290802 0 11766919.2290802 -4714179.957901001 0 0 0 0 -17891246.948531151 3843454.6391944885 0 3843454.6391944885 32246992.281494141 0 0 0 0 -594997.79557132721 -8256936.4373893738 0 -8256936.4373893738 37094169.46446228 0 0 0 0 -9045594.4439690113 -6507846.2218170166 0 -6507846.2218170166 25244059.322387695 0 0 0 0 -1053513.9603590029 1375668.5543125365 0 1375668.5543125365 1277120.3462641388 0 0 0 0 -3260100.7225905661 1663939.454286797 0 1663939.454286797 9499613.4183508754 0 0 0 0 -3889305.9388485728 5769269.3332113381 0 5769269.3332113381 4819772.3188043572 0 0 0 0 -8885660.9955203533 3234502.5814552307 0 3234502.5814552307 18881848.289886475 0 0 0 0 -3623936.0353591442 25002912.773674011 0 25002912.773674011 22171336.537980556 0 0 0 0 4200012.3696821164 23212481.311302185 0 23212481.311302185 61376196.450897217 0 0 0 0 6448.4714173939119 8964606.2156295776 0 8964606.2156295776 36338939.595458984 0 0 0 0 -751743.28747054085 -1370490.6824724004 0 -1370490.6824724004 5644107.7686800435 0 0 0 0 7668831.985152523 4327439.8953580856 0 4327439.8953580856 24170769.783813477 0 0 0 0 667346.92042963137 2447348.4557482749 0 2447348.4557482749 4003315.8983552568 0 0 0 0 2337226.5112183094 5646433.7733459473 0 5646433.7733459473 20871384.820159912 0 0 0 0 13732.533231441059 -1484706.3870127276 0 -1484706.3870127276 6535800.1915401742 0 0 0 0 226066.61182630062 1627970.8113708496 0 1627970.8113708496 15910251.372894287 0 0 0 0 6951986.4908963088 -2140898.8148403168 0 -2140898.8148403168 23453267.534820557 0 0 0 0 -194235.97023774008 9756714.7805099487 0 9756714.7805099487 45449218.117584229 0 0 0 0 5180475.7452837974 20431553.92086792 0 20431553.92086792 78234170.346572876 0 0 0 0 19784506.639635377 33185602.864334106 0 33185602.864334106 49164005.036933899 0 0 0 0 16347918.43142028 9457042.1855964661 0 9457042.1855964661 17015313.974395752 0 0 0 0 -254962.93268734688 82642.156629785895 0 82642.156629785895 2072377.7626942843 0 0 0 0 35560983.782546312 34737086.328483582 0 34737086.328483582 65359776.434036255 0 0 0 0 15023415.569625836 51843719.330627441 0 51843719.330627441 107687884.59568024 0 0 0 0 2426012.713632131 38792673.016546249 0 38792673.016546249 114062413.59385681 0 0 0 0 35247.026953542205 11456254.321517944 0 11456254.321517944 64769695.028942108 0 0 0 0 -33017.502181398355 15313512.560501099 0 15313512.560501099 170469635.91262817 0 0 0 0 5602497.4706889279 40709950.85358429 0 40709950.85358429 113865407.33627892 0 0 0 0 -5524.7193952512225 745729.19387054443 0 745729.19387054443 202638535.26977539 0 0 0 0 -18976018.894372854 23807041.736351013 0 23807041.736351013 174845126.94497108 0 0 0 0 -19893161.613557391 20622584.911135674 0 20622584.911135674 228439383.4447937 0 0 0 0 -9229355.56846614 -45445031.352966309 0 -45445031.352966309 308308076.69848633 0 0 0 0 -27586702.676022936 44937690.382873535 0 44937690.382873535 352454523.69955444 0 0 0 0 -32848011.698185567 -33350803.186210632 0 -33350803.186210632 261135913.78007507 0 0 0 0 -27600582.74410861 27695904.659599304 0 27695904.659599304 246749264.34530449 0 0 0 0 -5310106.9630577788 76515926.938476562 0 76515926.938476562 236455869.2997818 0 0 0 0 -25630667.467912719 20041879.693347931 0 20041879.693347931 271736729.02835083 0 0 0 0 -2883524.9927652925 48848454.733505249 0 48848454.733505249 199006831.10462952 0 0 0 0 -2761622.9209993482 53340710.831291199 0 53340710.831291199 171309055.99900818 0 0 0 0 1363499.9585243408 35120104.728246689 0 35120104.728246689 156162238.8067627 0 0 0 0 23477072.127626948 73581949.812164307 0 73581949.812164307 140625010.49327087 0 0 0 0 10742065.583897898 42718223.867033005 0 42718223.867033005 126009588.09786987 0 0 0 0 37903366.400465988 75520954.646347046 0 75520954.646347046 118292326.93626404 0 0 0 0 42256565.879082724 31132785.889793396 0 31132785.889793396 51285035.584014893 0 0 0 0 37298349.661645502 55262416.450500488 0 55262416.450500488 116566031.83096313 0 0 0 0 36656489.017649785 25490029.365211487 0 25490029.365211487 67835098.298660278 0 0 0 0 12346002.491219163 5119067.2421722412 0 5119067.2421722412 51945544.02173996 0 0 0 0 76216944.353891969 43280771.08291626 0 43280771.08291626 38548477.993713379 0 0 0 0 124890919.10892329 121127937.0567627 0 121127937.0567627 102931970.19750977 0 0 0 0 23626459.15501114 103060618.63201904 0 103060618.63201904 255654110.85388184 0 0 0 0 20710512.555938292 56486772.405703545 0 56486772.405703545 159136683.7857666 0 0 0 0 25766721.80243104 105810600.3107605 0 105810600.3107605 189297667.89290619 0 0 0 0 -3582167.6516378908 59298889.366389275 0 59298889.366389275 273971424.95089722 0 0 0 0 -4155078.1708602272 54102291.249130249 0 54102291.249130249 270205145.69332123 0 0 0 0 -15367575.818792993 46045300.648948669 0 46045300.648948669 410730111.0871582 0 0 0 0 -20296116.674592391 120567640.43882751 0 120567640.43882751 262402234.01698303 0 0 0 0 6672155.726582285 198584187.97431183 0 198584187.97431183 486716152.70651245 0 0 0 0 -114363656.9120463 110211328.78540421 0 110211328.78540421 457696913.5854187 0 0 0 0 -82637972.97406736 63555398.787612915 0 63555398.787612915 455264316.42678833 0 0 0 0 -32121608.986320034 -98700712.311233521 0 -98700712.311233521 563630380.17056274 0 0 0 0 386472634.11580557 591109930.02481079 0 591109930.02481079 1003807616.1561279 0 0 0 0 -73348127.435740948 -241994207.50794983 0 -241994207.50794983 1274132700.3500443 0 0 0 0 -168866999.62399387 165107251.26528549 0 165107251.26528549 823067567.79669189 0 0 0 0 409308514.38019472 -635122182.7275238 0 -635122182.7275238 782676250.01882935 0 0 0 0 -30672110.981662273 373278496.45458984 0 373278496.45458984 1164366894.1021156 0 0 0 0 291493852.934946 393272494.48188019 0 393272494.48188019 312937579.32751465 0 0 0 0 236100129.40886933 245446905.01856995 0 245446905.01856995 155877279.6277771 0 0 0 0 142709190.48932409 127430119.72642517 0 127430119.72642517 87362531.689987183 0 0 0 0 251914469.88795233 148705123.3020668 0 148705123.3020668 68081918.169250488 0 0 0 0 440300717.32268119 -68639093.469856262 0 -68639093.469856262 277061748.3130188 0 0 0 0 653364492.6281023 -506150944.84729004 0 -506150944.84729004 719303725.86907959 0 0 0 0 -2006907.8416235056 172555.3819732219 0 172555.3819732219 3632474.9389980286 0 0 0 0 -349267356.88349533 -150078516.60583496 0 -150078516.60583496 -65803516.903320312 0 0 0 0 184096164.16406775 12149111.077697754 0 12149111.077697754 -158359269.03393555 0 0 0 0 -138656048.38508832 10042802.70500946 0 10042802.70500946 38524298.876113892 0 0 0 0 -79598.728203035891 4050286.3799397014 0 4050286.3799397014 6964295.3967567086 0 0 0 0 -261925.82910647173 422033.10972906649 0 422033.10972906649 326447.48193582147 0 0 0 0 -76279366.391569495 -182961444.35154724 0 -182961444.35154724 -159419984.12335205 0 0 0 0 -320997564.54649615 152735798.69677734 0 152735798.69677734 -9404485.1648254395 0 0 0 0 67007691.893654227 67813108.766998291 0 67813108.766998291 86635049.254043579 0 0 0 0 34357455.776916742 -9194591.5791015625 0 -9194591.5791015625 2583781.5648193359 0 0 0 0 228357412.53776884 124589248.49273682 0 124589248.49273682 -114793991.55200195 0 0 0 0 90122502.336513162 -14464590.23916626 0 -14464590.23916626 -25971046.317810059 0 0 0 0 -61719691.847318649 -40769918.529418945 0 -40769918.529418945 30365536.678344727 0 0 0 0 48464681.977182627 3160936.8529968262 0 3160936.8529968262 25964696.587661743 0 0 0 0 99295512.797512621 73277754.917737961 0 73277754.917737961 52205065.292480469 0 0 0 0 18250610.258727014 -1681665.2236785889 0 -1681665.2236785889 24830827.956756592 0 0 0 0 39323145.285935819 9734042.1307373047 0 9734042.1307373047 26528146.611175537 0 0 0 0 -27809566.421747804 -20097534.204101562 0 -20097534.204101562 32513690.044561386 0 0 0 0 -23764189.584407449 -876794.80853939056 0 -876794.80853939056 4047743.220703125 0 0 0 0 -82401359.797365442 29393306.733150482 0 29393306.733150482 20617500.405090332 0 0 0 0 -35669078.967458725 -8268551.5512695312 0 -8268551.5512695312 21472713.120582581 0 0 0 0 -16186864.125503421 -9217941.3711395264 0 -9217941.3711395264 17061191.017410278 0 0 0 0 -16868462.908566028 -11148417.531616211 0 -11148417.531616211 11952737.086273193 0 0 0 0 -3348701.827331543 17826614.460243225 0 17826614.460243225 24905041.053947449 0 0 0 0 18955790.599943161 50887587.50353241 0 50887587.50353241 68388778.004089355 0 0 0 0 -6053054.5178770479 -3539872.1554935127 0 -3539872.1554935127 8063805.2824090496 0 0 0 0 -7861448.4538960457 -20395504.474273682 0 -20395504.474273682 1252632.7281951904 0 0 0 0 -14359084.793368399 -10716624.340545654 0 -10716624.340545654 9022474.3651123047 0 0 0 0 -8542611.0118743181 -21431140.7579422 0 -21431140.7579422 24482188.794525146 0 0 0 0 17610387.616121233 -7688997.3324890137 0 -7688997.3324890137 9131014.9512329102 0 0 0 0 3106337.514555838 1523837.2864761353 0 1523837.2864761353 50849678.510253906 0 0 0 0 13239838.950347275 -16233913.490760803 0 -16233913.490760803 9411938.8043518066 0 0 0 0 2841736.7751502469 35385407.333053589 0 35385407.333053589 71489384.856132507 0 0 0 0 -2195825.8826982537 1955590.0677302703 0 1955590.0677302703 8572342.506229084 0 0 0 0 12971950.796451479 5834965.7030944824 0 5834965.7030944824 -11844648.084854126 0 0 0 0 4578717.0534434319 5085043.718963623 0 5085043.718963623 25865710.479568481 0 0 0 0 791956.28972808714 -1092160.3932328075 0 -1092160.3932328075 9473045.1742771193 0 0 0 0 2751499.9338434339 501863.00241088867 0 501863.00241088867 5772441.7896575928 0 0 0 0 3198302.2402667999 881400.91720581055 0 881400.91720581055 9233545.8862609863 0 0 0 0 5509088.2244533803 1282348.5704570748 0 1282348.5704570748 5657135.7421334982 0 0 0 0 -3947913.9828643352 4840973.0774078369 0 4840973.0774078369 30078443.625488281 0 0 0 0 -1927073.1121458262 1247235.3726806641 0 1247235.3726806641 29979369.84538269 0 0 0 0 -115726.19553995982 1644000.1392806545 0 1644000.1392806545 6203977.2702452391 0 0 0 0 2390406.7316555977 2492952.1670837402 0 2492952.1670837402 12217191.61239624 0 0 0 0 6084742.9443471497 -3457955.3287577331 0 -3457955.3287577331 7024734.2616609894 0 0 0 0 14534462.882881165 -47294941.797058105 0 -47294941.797058105 -434319540.79220581 0 0 0 0 -36623313.599906921 -254146686.26286316 0 -254146686.26286316 -352862330.71318054 0 0 0 0 9154677.0096198507 -1578870.458630383 0 -1578870.458630383 4500044.8576897047 0 0 0 0 125075752.54219437 -236262518.18315125 0 -236262518.18315125 -696746055.95059586 0 0 0 0 -85304367.027420044 -73027410.801147461 0 -73027410.801147461 -40942731.077362061 0 0 0 0 3637475.2170605659 1919346.8285827637 0 1919346.8285827637 2444545.9343643188 0 0 0 0 -2889546.7072709464 3517823.8657622933 0 3517823.8657622933 6476840.3823457733 0 0 0 0 12130763.943361282 12956590.728012085 0 12956590.728012085 17249522.001937866 0 0 0 0 6741666.955225097 6602954.2014296055 0 6602954.2014296055 7955894.6850937754 0 0 0 0 5997036.4005599618 1198027.8267822266 0 1198027.8267822266 2155883.0647277832 0 0 0 0 -1574784.8234045422 -1774834.7972792163 0 -1774834.7972792163 5839477.0518331379 0 0 0 0 13525217.644747585 4522590.849701196 0 4522590.849701196 419407.75798447058 0 0 0 0 9221669.2421455383 -100534042.86483765 0 -100534042.86483765 9044664.6559448242 0 0 0 0 2838535.0812911987 297128.86911010742 0 297128.86911010742 -12949124.487228394 0 0 0 0 84600723.849365234 -77241877.775444031 0 -77241877.775444031 -238039010.80480957 0 0 0 0 13117823.978009867 -1594168.0952734053 0 -1594168.0952734053 3269558.1349362507 0 0 0 0 1732134.9654874029 1433886.8766988218 0 1433886.8766988218 -1235438.0473087728 0 0 0 0 -128697494.24511719 206039846.88977051 0 206039846.88977051 -213558508.23878479 0 0 0 0 107694868.20080185 176626845.46398926 0 176626845.46398926 30621467.354644775 0 0 0 0 12270971.908998538 2405808.9540148899 0 2405808.9540148899 3232509.1636392549 0 0 0 0 6961746.1875783205 1617303.1738357544 0 1617303.1738357544 -4062714.0860443115 0 0 0 0 107630488.97589874 143632108.70613098 0 143632108.70613098 -37161768.679290771 0 0 0 0 11596043.279373959 2590240.8207115158 0 2590240.8207115158 3574658.244382048 0 0 0 0 154926909.37728882 155457899.20739746 0 155457899.20739746 -34205767.687866211 0 0 0 0 4982690.2986106873 73329379.203796387 0 73329379.203796387 48911249.39251709 0 0 0 0 227012885.67821884 -157307761.64421082 0 -157307761.64421082 -415534105.48241425 0 0 0 0 186656758.57711411 -74049338.61630249 0 -74049338.61630249 -723038495.09426117 0 0 0 0 -57294494.817733765 42177461.529090881 0 42177461.529090881 -511243342.50320435 0 0 0 0 138949999.45582008 113435915.04402161 0 113435915.04402161 -369819616.91558838 0 0 0 0 8912953.2593154907 45779115.953765869 0 45779115.953765869 -672179699.2979126 0 0 0 0 25675706.395347595 -69969703.12940979 0 -69969703.12940979 -532819454.52644348 0 0 0 0 -29926542.737915039 -32388716.208831787 0 -32388716.208831787 -937014510.74226379 0 0 0 0 -6842729.6596069336 185564130.87544823 0 185564130.87544823 -525838602.24487305 0 0 0 0 -15822945.61479187 79879952.981536865 0 79879952.981536865 -327828003.18121338 0 0 0 0 144141474.72511292 136524053.34724426 0 136524053.34724426 -673808952.95614624 0 0 0 0 14625764.599637115 -789826.85565210134 0 -789826.85565210134 -350885.32234790921 0 0 0 0 132251659.19317627 141275327.35166931 0 141275327.35166931 -552460820.30560493 0 0 0 0 49739172.66809845 230766013.89825439 0 230766013.89825439 -229890429.24221802 0 0 0 0 -47588029.25907135 7932999.4729156494 0 7932999.4729156494 -471295628.85514832 0 0 0 0 23630320.396203995 143946076.25753784 0 143946076.25753784 -551785593.82543945 0 0 0 0 12969459.006053889 3121663.4362825155 0 3121663.4362825155 221448.11887212843 0 0 0 0 78860690.074998856 5174963.1756896973 0 5174963.1756896973 -21429349.207763672 0 0 0 0 137389782.42311859 203894080.79655457 0 203894080.79655457 -392247282.59576416 0 0 0 0 146614310.22586823 300505863.85800171 0 300505863.85800171 -171602131.14620972 0 0 0 0 -36624108.169971466 290821190.10020447 0 290821190.10020447 -161760428.57841492 0 0 0 0 15896281.031708533 1347764.5837519988 0 1347764.5837519988 852994.10670726001 0 0 0 0 6008113.1340093613 -8371703.4563903809 0 -8371703.4563903809 -8427843.958152771 0 0 0 0 24337308.714523315 -23087279.047286987 0 -23087279.047286987 3352145.7180294991 0 0 0 0 59301017.472443104 -5465714.1028060913 0 -5465714.1028060913 -7549050.5385742188 0 0 0 0 33072183.35918808 22275776.653312683 0 22275776.653312683 13161729.629669189 0 0 0 0 34967044.268627167 -44797281.573638916 0 -44797281.573638916 5971248.4037475586 0 0 0 0 -22043649.041060448 -5807932.8509216309 0 -5807932.8509216309 4215635.0575561523 0 0 0 0 6453232.522064209 -9562255.7671203613 0 -9562255.7671203613 8350599.23777771 0 0 0 0 19212849.677288055 42893011.502662659 0 42893011.502662659 4144514.3398895264 0 0 0 0 5875583.821767807 4991308.9099731445 0 4991308.9099731445 -15626943.991592407 0 0 0 0 6779913.807633359 6157400.0193134472 0 6157400.0193134472 27160.834977447987 0 0 0 0 -13258065.278623581 11881225.601898193 0 11881225.601898193 671426.96307373047 0 0 0 0 -117923.86689612688 -358182.39459415525 0 -358182.39459415525 478844.65918622911 0 0 0 0 4364278.9091758728 -54353567.281128883 0 -54353567.281128883 -129056497.60491943 0 0 0 0 58076583.989665985 152242349.13877869 0 152242349.13877869 -67671296.774505615 0 0 0 0 -43084135.460596561 81153920.499809265 0 81153920.499809265 291196333.10974121 0 0 0 0 25383011.175725937 223510168.6023941 0 223510168.6023941 153046142.80978394 0 0 0 0 -2458481.7187806889 206592.96375402808 0 206592.96375402808 2341963.4678878263 0 0 0 0 -6305205.1128501892 51241305.734489441 0 51241305.734489441 143850679.76644897 0 0 0 0 -49772857.319934845 112467938.0446167 0 112467938.0446167 189011515.26312256 0 0 0 0 84523643.739915848 86334551.594444275 0 86334551.594444275 73590279.321044922 0 0 0 0 -1997163.6106758825 1048730.8783811554 0 1048730.8783811554 4007541.1274787188 0 0 0 0 -4580179.4094467163 1475796.9256134033 0 1475796.9256134033 5691010.8748474121 0 0 0 0 24493088.502663612 127253742.11967468 0 127253742.11967468 132935553.01553345 0 0 0 0 198074132.6680336 99670693.834602356 0 99670693.834602356 66733416.041473389 0 0 0 0 32247595.995242119 131783544.12882233 0 131783544.12882233 272270847.49523926 0 0 0 0 1407058.262928009 31802980.456832886 0 31802980.456832886 62625134.767852783 0 0 0 0 10331628.84444046 -18997927.55065918 0 -18997927.55065918 15401224.73223114 0 0 0 0 -7586352.7744456949 -1378787.5951477438 0 -1378787.5951477438 7628697.0981674343 0 0 0 0 30376280.044555664 142164047.46983337 0 142164047.46983337 187744638.81350708 0 0 0 0 -20883210.719230652 -16215325.344650269 0 -16215325.344650269 166892096.36963272 0 0 0 0 -3198286.6206372287 -2665614.7772436775 0 -2665614.7772436775 3290918.7199018449 0 0 0 0 -6581178.7694454193 3964931.2300186157 0 3964931.2300186157 6201399.0955810547 0 0 0 0 -25170831.909812033 1900661.2650604248 0 1900661.2650604248 17758000.503387451 0 0 0 0 -41201455.288947344 3290328.3789367676 0 3290328.3789367676 22574516.030899048 0 0 0 0 -3996944.8215770628 2457583.1117154285 0 2457583.1117154285 12076660.022059098 0 0 0 0 -3811324.3000392914 1981731.4415054321 0 1981731.4415054321 5118084.6577301025 0 0 0 0 -548293.92488098145 2472226.1851959229 0 2472226.1851959229 5127391.2479095459 0 0 0 0 -3775212.4068622589 1438225.7262191772 0 1438225.7262191772 7703786.0748443604 0 0 0 0 352801976.41054821 -39012276.600494385 0 -39012276.600494385 1023413147.7458038 0 0 0 0 -1953955.4113044739 2658871.0880966187 0 2658871.0880966187 8154875.8301086426 0 0 0 0 -541484892.71655083 -791502145.44381714 0 -791502145.44381714 431156373.68411255 0 0 0 0 -8365167.0459723473 2751829.458984375 0 2751829.458984375 7712904.4331665039 0 0 0 0 -5968217.1348111462 3077942.1932669654 0 3077942.1932669654 4712176.2632519081 0 0 0 0 69264922.273035049 96224494.235229492 0 96224494.235229492 250734632.9671936 0 0 0 0 -50754850.86720562 40033806.521636963 0 40033806.521636963 880185920.7572937 0 0 0 0 -23744090.976175308 -72506981.537567139 0 -72506981.537567139 320068654.09289551 0 0 0 0 -468716490.39067066 -877939826.86811733 0 -877939826.86811733 -34334997.351654053 0 0 0 0 -570879910.21502686 -123026629.01490784 0 -123026629.01490784 554124460.77941895 0 0 0 0 -1400914.9817828927 1898639.0080932304 0 1898639.0080932304 73521.153369810432 0 0 0 0 213501310.9412117 -762101912.59422302 0 -762101912.59422302 -904048632.92840576 0 0 0 0 296617311.30272484 -153783259.85626221 0 -153783259.85626221 8243651.7327785492 0 0 0 0 347341904.7853173 273112486.54354477 0 273112486.54354477 1161497676.859436 0 0 0 0 175718936.22605133 404822568.29663467 0 404822568.29663467 914671162.56964111 0 0 0 0 287092188.82448387 -329453751.84490967 0 -329453751.84490967 370650793.41413879 0 0 0 0 -117457098.06831074 -449251212.90130615 0 -449251212.90130615 485734043.90362549 0 0 0 0 345519254.83018684 618739966.8638916 0 618739966.8638916 776542950.78366089 0 0 0 0 -179810423.21766749 387853463.27388978 0 387853463.27388978 1006255993.9972534 0 0 0 0 -103789245.55753899 259317019.65472412 0 259317019.65472412 959379729.29525757 0 0 0 0 169299032.02362257 262195774.02088094 0 262195774.02088094 669690230.65655518 0 0 0 0 181328180.75989056 -349893756.61912537 0 -349893756.61912537 502096484.09307861 0 0 0 0 46980312.34119606 -5618260.2332382202 0 -5618260.2332382202 -30031425.016921997 0 0 0 0 -605257436.76384974 46440717.674102783 0 46440717.674102783 278222310.74473572 0 0 0 0 -319637353.17384338 -160711683.19444275 0 -160711683.19444275 252649657.87989426 0 0 0 0 -130323927.68558788 -129982883.59737396 0 -129982883.59737396 -398896760.84927368 0 0 0 0 -5509623.1663256139 5112504.8967459947 0 5112504.8967459947 1134978.5703741685 0 0 0 0 65479198.46465683 -19226913.076789856 0 -19226913.076789856 493142463.49973297 0 0 0 0 -275982347.96767807 -96378181.721298218 0 -96378181.721298218 -22510368.194610596 0 0 0 0 15659329.134365082 -29786497.657752991 0 -29786497.657752991 751774811.80513 0 0 0 0 21133291.71616745 81967863.791366577 0 81967863.791366577 598998328.87638092 0 0 0 0 -89147065.132253647 -74673129.111045837 0 -74673129.111045837 1235374420.5953522 0 0 0 0 -3467715.17620055 4353463.1937295124 0 4353463.1937295124 3934574.7408106513 0 0 0 0 -238676.95783901215 4499982.4026250839 0 4499982.4026250839 8638119.6130371094 0 0 0 0 -801203.92264938354 3008751.3134918213 0 3008751.3134918213 7626710.9714126587 0 0 0 0 -97784.160296829417 5609175.178030625 0 5609175.178030625 3600696.6466438472 0 0 0 0 597402.35460281372 4866841.7362518311 0 4866841.7362518311 8696398.6706695557 0 0 0 0 -2793383.6786945909 -524557.02582059056 0 -524557.02582059056 1309306.9886533171 0 0 0 0 -285247883.23888397 -178858178.6293335 0 -178858178.6293335 98151603.188796997 0 0 0 0 -178275554.07214928 -416440074.47769928 0 -416440074.47769928 523279724.09494019 0 0 0 0 138707742.82577515 -64492679.868743896 0 -64492679.868743896 50658336.237548828 0 0 0 0 -742742.55463027954 -577411177.80136871 0 -577411177.80136871 -1905864283.9132385 0 0 0 0 -1575482.1625022255 1012435.6123179942 0 1012435.6123179942 1147520.7694296092 0 0 0 0 604618.11092330329 344738.66080787033 0 344738.66080787033 209095.8882066682 0 0 0 0 110624820.62663269 -442316604.34289551 0 -442316604.34289551 -687448610.56817627 0 0 0 0 1865069387.9631481 1402767329.7600937 0 1402767329.7600937 -789351688.20082092 0 0 0 0 -503905.85387453809 -1639735.762901783 0 -1639735.762901783 7870794.2736133635 0 0 0 0 909587693.13195992 1910658662.9896889 0 1910658662.9896889 -721206708.44859314 0 0 0 0 -384435159.30970764 -1583534236.3384857 0 -1583534236.3384857 634037122.40344238 0 0 0 0 42934713.37550354 -258132399.09036255 0 -258132399.09036255 -36917074.269805908 0 0 0 0 -559915733.78775978 -525774423.33117294 0 -525774423.33117294 674884509.98429871 0 0 0 0 2082736.491027832 114755900.36865234 0 114755900.36865234 8918418.4042549133 0 0 0 0 42598819.65447998 -90986555.676193237 0 -90986555.676193237 534377642.84429932 0 0 0 0 42680379.690643311 -99257946.514083862 0 -99257946.514083862 913188620.8495636 0 0 0 0 37535483.158957481 -279344843.1580658 0 -279344843.1580658 485474251.46966553 0 0 0 0 170018086.42671204 -60894715.359298706 0 -60894715.359298706 272014128.36520386 0 0 0 0 187315906.70968628 29624340.015731812 0 29624340.015731812 610387447.28874207 0 0 0 0 -96423166.897926331 40268631.736114502 0 40268631.736114502 702074503.88897705 0 0 0 0 -468066.8410566526 165012.50054458156 0 165012.50054458156 182596.90641580522 0 0 0 0 -26558689.495792389 159696709.43348694 0 159696709.43348694 326741682.2504425 0 0 0 0 4438641.9767403044 5571580.9277738854 0 5571580.9277738854 -2962767.2601327635 0 0 0 0 -5437835.1662139893 50739325.970306396 0 50739325.970306396 549396060.92819214 0 0 0 0 231410977.85860538 359233961.09285164 0 359233961.09285164 480943455.44476318 0 0 0 0 -470354610.12705994 -69290046.418994904 0 -69290046.418994904 452743795.57626343 0 0 0 0 -159785460.98029327 294268014.80458069 0 294268014.80458069 334877544.59277344 0 0 0 0 62810737.344070435 -158124990.83381653 0 -158124990.83381653 145325199.21472168 0 0 0 0 1465401.5187171288 1977074.2159605771 0 1977074.2159605771 -1005153.9904717915 0 0 0 0 39399394.059856415 18813651.89705658 0 18813651.89705658 -129859342.67944336 0 0 0 0 39763666.415325165 3762948.8407669067 0 3762948.8407669067 -48059589.785644531 0 0 0 0 28213460.680931091 -1134598.2036132812 0 -1134598.2036132812 -9782718.7569732666 0 0 0 0 -2229868.5490775127 12795129.221410345 0 12795129.221410345 -592463.60841347277 0 0 0 0 8746498.7530407906 20485810.457794189 0 20485810.457794189 -26391577.457855225 0 0 0 0 221723107.2475884 -34498790.111632347 0 -34498790.111632347 -5776735.9803924561 0 0 0 0 777855701.37513351 791702079.01622772 0 791702079.01622772 -303887789.48240662 0 0 0 0 -2202421.154167572 2258821.8615470715 0 2258821.8615470715 4881661.9220340177 0 0 0 0 543903931.62279129 338597833.7038269 0 338597833.7038269 -277635919.51538086 0 0 0 0 355906600.18018341 1048507534.4194183 0 1048507534.4194183 -453134216.34484863 0 0 0 0 609993925.5284996 547623360.47329712 0 547623360.47329712 318396604.05133057 0 0 0 0 72490168.829917908 -307837781.20980835 0 -307837781.20980835 1664459431.3724976 0 0 0 0 166757056.22502708 -239445139.73694992 0 -239445139.73694992 7351731.6603393555 0 0 0 0 -71811492.913898468 283759583.93716431 0 283759583.93716431 -354153519.98132324 0 0 0 0 22074796.942367554 53466268.672821045 0 53466268.672821045 -61754829.127166748 0 0 0 0 441970226.2306366 -131878997.39553833 0 -131878997.39553833 -943382648.8614502 0 0 0 0 499145984.1366272 692809068.70742798 0 692809068.70742798 -509760497.84555054 0 0 0 0 556111075.66964722 433857180.55560303 0 433857180.55560303 -730129295.60595703 0 0 0 0 304291213.66376495 527359047.06671143 0 527359047.06671143 406052757.7008667 0 0 0 0 485014700.85211945 708800895.16822815 0 708800895.16822815 -399483845.36553192 0 0 0 0 -232472402.19786072 -456254151.50442505 0 -456254151.50442505 432135713.20727539 0 0 0 0 -2612192.4313501362 -5359049.9811406285 0 -5359049.9811406285 24457984.277661458 0 0 0 0 261573171.62431335 348032340.7230835 0 348032340.7230835 842386084.30792236 0 0 0 0 251710045.62533951 435574762.42417908 0 435574762.42417908 309364090.46652222 0 0 0 0 156180064.37281609 -27782151.69475174 0 -27782151.69475174 45374610.854598999 0 0 0 0 -31868107.501838684 14550495.926727295 0 14550495.926727295 52693048.007537842 0 0 0 0 737991713.57036209 362764288.83428955 0 362764288.83428955 70642495.584655762 0 0 0 0 -8815480.5007514954 28946024.013076782 0 28946024.013076782 51373777.043951035 0 0 0 0 24831349.171144485 10833429.09015274 0 10833429.09015274 -18496797.776252747 0 0 0 0 -583922.50894199498 -2326021.7594828457 0 -2326021.7594828457 9198564.1101357937 0 0 0 0 86278745.804187775 59333411.049880981 0 59333411.049880981 817915436.64300537 0 0 0 0 260925.74329353124 2365056.8935824931 0 2365056.8935824931 8542452.6555157006 0 0 0 0 200745273.67262268 43394633.514953613 0 43394633.514953613 1107941515.4225769 0 0 0 0 189776378.78883362 132984982.90237427 0 132984982.90237427 593156664.72073364 0 0 0 0 59402520.696483612 628363830.81918335 0 628363830.81918335 144623589.78189087 0 0 0 0 788344151.42436218 -180903349.56861877 0 -180903349.56861877 933515514.98406982 0 0 0 0 21697540.537511826 1029660.6606292725 0 1029660.6606292725 26655689.918611526 0 0 0 0 -1192542128.3721848 -553459699.65591431 0 -553459699.65591431 -229856585.53474426 0 0 0 0 -914831536.40429688 -357196346.17651367 0 -357196346.17651367 -829123487.10137939 0 0 0 0 -1451730.5745644793 -250335.17396853864 0 -250335.17396853864 1159578.5137317628 0 0 0 0 10008006.364139058 -2297174.708134871 0 -2297174.708134871 -609274.69731388241 0 0 0 0 22823508.326250076 51499275.242050171 0 51499275.242050171 21451958.878646851 0 0 0 0 418837174.34305191 201935320.89169312 0 201935320.89169312 124627686.70593262 0 0 0 0 195976090.47834778 333318343.56716919 0 333318343.56716919 307353885.60092163 0 0 0 0 -37629015.40691781 -36267955.123558998 0 -36267955.123558998 488366982.25686646 0 0 0 0 45874101.131645203 137624662.77842712 0 137624662.77842712 508507914.93463135 0 0 0 0 58072445.100837708 243923316.80613708 0 243923316.80613708 292106956.92242432 0 0 0 0 133873508.63180542 475581314.35642242 0 475581314.35642242 961545930.45281982 0 0 0 0 -26209258.292081833 -143349958.11585999 0 -143349958.11585999 215566738.38963318 0 0 0 0 27159389.979343414 -178373369.76707458 0 -178373369.76707458 107425973.95843124 0 0 0 0 -4358297.1604538299 -7425107.296362821 0 -7425107.296362821 6089652.5366383046 0 0 0 0 514314535.59376717 308518473.30221558 0 308518473.30221558 187313583.07460785 0 0 0 0 209091999.43591455 603438178.80224454 0 603438178.80224454 390706864.8679657 0 0 0 0 -28164862.567548752 629774166.14595032 0 629774166.14595032 21746332.261535645 0 0 0 0 -254660889.49986649 -78113199.399200439 0 -78113199.399200439 13476970.550285339 0 0 0 0 209125949.25346756 582030748.43455505 0 582030748.43455505 671539250.47454834 0 0 0 0 21965373.875334412 15014626.677378774 0 15014626.677378774 11233737.676452637 0 0 0 0 10436114.786252316 1591345.5168521814 0 1591345.5168521814 14229571.23753944 0 0 0 0 -1345194.3667054228 -6213759.6097117886 0 -6213759.6097117886 3209829.8670921475 0 0 0 0 -3729884.5649620295 -3003445.0425961465 0 -3003445.0425961465 1763024.6632137969 0 0 0 0 1154995261.463562 173322592.94744873 0 173322592.94744873 843252412.08520508 0 0 0 0 5060562.8820148949 -3587383.557534717 0 -3587383.557534717 2220742.7362746596 0 0 0 0 -11306434.467605591 -13616732.352081299 0 -13616732.352081299 -7373829.008605957 0 0 0 0 1357166337.1817379 1546447833.0179176 0 1546447833.0179176 541612968.62652588 0 0 0 0 -1496602699.401123 -907927886.54077148 0 -907927886.54077148 2839889074.5844574 0 0 0 0 144725613.57914734 -91678508.613883972 0 -91678508.613883972 -640126480.44997406 0 0 0 0 -920401958.76144409 -659654989.74168396 0 -659654989.74168396 1581426527.8395386 0 0 0 0 4312872.6462001801 -3586142.436706543 0 -3586142.436706543 -986208.80395507812 0 0 0 0 12334267.38927979 -4595633.3926962987 0 -4595633.3926962987 4070756.9592222795 0 0 0 0 11421195.664337158 5013464.410736084 0 5013464.410736084 -5385322.7949523926 0 0 0 0 -806530.67335308436 143324.43027193844 0 143324.43027193844 1966566.0022700131 0 0 0 0 313282168.17819595 268528855.84472656 0 268528855.84472656 403815981.50673819 0 0 0 0 13513166.030982139 3516480.6545343474 0 3516480.6545343474 1917062.9222843945 0 0 0 0 782699829.54920959 512774260.19307709 0 512774260.19307709 8924745.3981933594 0 0 0 0 11770319.107310921 -641174.75658725202 0 -641174.75658725202 1030285.0785768926 0 0 0 0 427745752.16173029 308157614.3573904 0 308157614.3573904 155650312.37161255 0 0 0 0 753915625.81642532 290853506.13345337 0 290853506.13345337 31811124.412445068 0 0 0 0 -1395042.2018728256 13551601.509605408 0 13551601.509605408 20493655.485839844 0 0 0 0 -11088480.921163559 5055493.2680053711 0 5055493.2680053711 12636829.520111084 0 0 0 0 21421158.056773186 -12296881.746414185 0 -12296881.746414185 -13905291.577789307 0 0 0 0 718250993.72920609 205275900.04804993 0 205275900.04804993 50068033.126281738 0 0 0 0 8943864.2211944051 -820646.36848122254 0 -820646.36848122254 897805.35578681529 0 0 0 0 -2191401.1955356598 21515188.836242676 0 21515188.836242676 7929099.8377685547 0 0 0 0 -24786963.648830414 -11276225.283172607 0 -11276225.283172607 5061382.5888366699 0 0 0 0 -189161.0134898047 54136.206923887134 0 54136.206923887134 540116.43922805041 0 0 0 0 -23979145.497073174 14725589.010910034 0 14725589.010910034 15769329.995162964 0 0 0 0 -11597807.229187012 619456521.57983398 0 619456521.57983398 793721275.70147705 0 0 0 0 1162351322.5322495 153222244.10635376 0 153222244.10635376 -36383037.551940918 0 0 0 0 701913223.75473022 426721577.44882202 0 426721577.44882202 386494662.68740845 0 0 0 0 1114945.7205098514 -1782009.2876047492 0 -1782009.2876047492 -594163.72820042633 0 0 0 0 704327805.2396698 -18764000.731445312 0 -18764000.731445312 375469572.23202515 0 0 0 0 674257446.55567932 352871863.31835938 0 352871863.31835938 44400185.375030518 0 0 0 0 1268348108.4455795 458700202.06466675 0 458700202.06466675 50686042.201477051 0 0 0 0 700238348.66259766 875530243.30331421 0 875530243.30331421 505494988.75061035 0 0 0 0 146464684.81912231 489134029.45541382 0 489134029.45541382 295454030.71710205 0 0 0 0 -353225077.94800568 198484394.1439209 0 198484394.1439209 551915444.00134277 0 0 0 0 206969476.38698578 433066925.86248779 0 433066925.86248779 262280555.44995117 0 0 0 0 183777432.18713379 424213966.97998047 0 424213966.97998047 106027704.90197754 0 0 0 0 495209142.57294846 643616366.70684814 0 643616366.70684814 224616028.16235352 0 0 0 0 210270184.74752045 451950791.99325562 0 451950791.99325562 44901094.777038574 0 0 0 0 208850278.75598145 413456006.79998779 0 413456006.79998779 2550835.3293437958 0 0 0 0 -157947570.55702209 28074609.623291016 0 28074609.623291016 156744855.34240723 0 0 0 0 -9749674.3454437256 185770039.83508301 0 185770039.83508301 7186961.6301841736 0 0 0 0 209965489.79646873 226352884.81181335 0 226352884.81181335 241535354.97009277 0 0 0 0 456859630.06178665 145646961.49755859 0 145646961.49755859 72391026.698234558 0 0 0 0 411311301.21995926 215743894.24816895 0 215743894.24816895 193940251.3380127 0 0 0 0 340268946.94469452 77313446.196502686 0 77313446.196502686 106334182.42745972 0 0 0 0 136563189.10136318 96073673.143287659 0 96073673.143287659 63189823.070129395 0 0 0 0 -235147058.23492813 126784467.16137695 0 126784467.16137695 176737332.18089294 0 0 0 0 -267212232.69350052 290238488.93458557 0 290238488.93458557 29242462.024555206 0 0 0 0 -213397288.91813278 126890117.02774048 0 126890117.02774048 7471671.7131958008 0 0 0 0 -3917740.9269376993 14742426.034540787 0 14742426.034540787 48965700.231733456 0 0 0 0 -163793630.47598553 206883936.44643021 0 206883936.44643021 -170398927.26983643 0 0 0 0 -3400989.993925781 1826765.9515304491 0 1826765.9515304491 7207212.7740275711 0 0 0 0 451632413.84074736 161731411.57087421 0 161731411.57087421 -309116765.87786865 0 0 0 0 -302541159.96343231 45459584.117233276 0 45459584.117233276 107834961.09503174 0 0 0 0 -11177002.582824707 175298838.48994446 0 175298838.48994446 91092378.625976562 0 0 0 0 -21928805.946643829 118180807.51008606 0 118180807.51008606 57736423.511917114 0 0 0 0 -197568234.34321594 125557564.81811523 0 125557564.81811523 124966195.61665344 0 0 0 0 -392370740.79832649 39868236.932624817 0 39868236.932624817 95924182.702663422 0 0 0 0 -448324973.51389599 144486328.89957809 0 144486328.89957809 134706461.89614868 0 0 0 0 -241172415.56856728 151024627.87173462 0 151024627.87173462 58390605.500350952 0 0 0 0 -224382610.23043346 69173929.983200073 0 69173929.983200073 145227694.62579346 0 0 0 0 29501939.54548645 90344027.939285278 0 90344027.939285278 83640005.241607666 0 0 0 0 260411408.76322937 131069645.94236755 0 131069645.94236755 70292096.35723877 0 0 0 0 35331020.427148819 116082002.22824097 0 116082002.22824097 151308214.65332031 0 0 0 0 490171319.30586243 100986153.28677368 0 100986153.28677368 84520416.60534668 0 0 0 0 256722406.0052948 177051492.84301758 0 177051492.84301758 67923244.568572998 0 0 0 0 242590715.01194 220662647.80291748 0 220662647.80291748 20236447.644393921 0 0 0 0 412113308.76240158 219142154.43164062 0 219142154.43164062 18952500.639862061 0 0 0 0 11982679.66193676 106776460.87317276 0 106776460.87317276 80208637.416015625 0 0 0 0 200759785.91098022 478259321.68035889 0 478259321.68035889 104560113.24806404 0 0 0 0 470423412.37049866 401943803.20779419 0 401943803.20779419 3672265.1806640625 0 0 0 0 335366535.6129303 433216397.4354248 0 433216397.4354248 4213043.5876994133 0 0 0 0 479755756.66053772 415837477.56787109 0 415837477.56787109 24030187.38583374 0 0 0 0 627479053.65488243 281473330.02453613 0 281473330.02453613 -11224050.532409668 0 0 0 0 364601482.32154846 288548607.85971069 0 288548607.85971069 -10578910.049476624 0 0 0 0 317538525.63628769 307118402.375 0 307118402.375 58940229.631591797 0 0 0 0 290649900.58423615 342641122.64703369 0 342641122.64703369 12271354.142944336 0 0 0 0 424392175.36711884 346470290.1252594 0 346470290.1252594 7112898.4888305664 0 0 0 0 244512448.07008553 391984898.40887451 0 391984898.40887451 87383071.461669922 0 0 0 0 252270979.76276398 409053925.66864014 0 409053925.66864014 38689669.516418457 0 0 0 0 304416873.45686722 394684509.38592529 0 394684509.38592529 42143950.856933594 0 0 0 0 224525295.02857399 432226747.72503662 0 432226747.72503662 43493237.417541504 0 0 0 0 252342749.56366646 407332615.33855152 0 407332615.33855152 37054606.528259277 0 0 0 0 209550237.46627545 383289726.94975567 0 383289726.94975567 86585925.453613281 0 0 0 0 206308488.82307816 339653349.36555481 0 339653349.36555481 166606260.66311646 0 0 0 0 211117359.17576981 306321169.04745483 0 306321169.04745483 104737921.50650024 0 0 0 0 204652585.2094841 282752135.8949585 0 282752135.8949585 59320131.102844238 0 0 0 0 156811615.3423996 295367644.51530457 0 295367644.51530457 227064253.24273682 0 0 0 0 141542976.92788696 253220950.64056396 0 253220950.64056396 141687534.39569092 0 0 0 0 152497542.92987823 320944340.35612488 0 320944340.35612488 160569756.33892822 0 0 0 0 155812788.87769604 340767873.39765167 0 340767873.39765167 275643364.39849854 0 0 0 0 -12992694.875920296 173349549.441082 0 173349549.441082 105789137.08505249 0 0 0 0 175414969.24240112 160689848.84516907 0 160689848.84516907 58610722.505554199 0 0 0 0 218101185.94382477 248412416.97567749 0 248412416.97567749 71558552.079162598 0 0 0 0 191844148.24511814 235634031.32998276 0 235634031.32998276 68601092.020080566 0 0 0 0 144924022.34071732 245163701.15365601 0 245163701.15365601 160877533.62640381 0 0 0 0 103892640.67694855 195515884.04263306 0 195515884.04263306 102951025.32751465 0 0 0 0 105255219.66791153 195512935.03326416 0 195512935.03326416 77465428.825012207 0 0 0 0 -27858250.746253967 147461316.56253052 0 147461316.56253052 123896466.91810608 0 0 0 0 86002129.889252186 148833982.39173126 0 148833982.39173126 65639451.289398193 0 0 0 0 81086256.879154682 143208858.46483421 0 143208858.46483421 226050528.11535645 0 0 0 0 136477072.17256165 15167321.43661499 0 15167321.43661499 172208994.24873352 0 0 0 0 41468236.278060913 64529616.314361572 0 64529616.314361572 143134929.44995117 0 0 0 0 110050089.73690033 165151911.0717926 0 165151911.0717926 144674132.00537872 0 0 0 0 112145391.38265228 188727857.25854492 0 188727857.25854492 270693888.70508575 0 0 0 0 28325376.861408234 47541573.752075195 0 47541573.752075195 438972282.27487183 0 0 0 0 72356436.529083252 208715645.06460571 0 208715645.06460571 339741561.95799255 0 0 0 0 -240371040.69315147 -17182084.37600708 0 -17182084.37600708 446355417.29788208 0 0 0 0 48998598.120284081 2914298.448841095 0 2914298.448841095 338206958.48245239 0 0 0 0 133071352.50845146 -306324824.93902588 0 -306324824.93902588 626628554.07568359 0 0 0 0 -761874.58129575104 -39225.317892819643 0 -39225.317892819643 579528.97416222841 0 0 0 0 230141121.82684326 -95059097.95980835 0 -95059097.95980835 289354285.14965057 0 0 0 0 68413791.652015686 -85793191.903640747 0 -85793191.903640747 245257908.74003601 0 0 0 0 109479583.51576233 75833746.707748413 0 75833746.707748413 106200977.81469727 0 0 0 0 112540650.45959854 -52024071.921569824 0 -52024071.921569824 459686912.68200684 0 0 0 0 152290897.22358322 -78524922.480911255 0 -78524922.480911255 226298218.0925293 0 0 0 0 27135233.756881714 -82600588.43510437 0 -82600588.43510437 111848678.23110962 0 0 0 0 61544620.864870071 155739849.52137756 0 155739849.52137756 -588021698.43399048 0 0 0 0 99259721.773170471 -38834999.972415924 0 -38834999.972415924 -49373336.048278809 0 0 0 0 -223398706.41201973 156417038.31871033 0 156417038.31871033 109395305.25665283 0 0 0 0 -15209616.480487823 201597823.32281494 0 201597823.32281494 -36833959.512939453 0 0 0 0 -217096710.41892052 81359871.910418987 0 81359871.910418987 52226089.587860107 0 0 0 0 -29767959.076387405 160053053.4066658 0 160053053.4066658 68165232.28729248 0 0 0 0 -210989416.19518566 166100045.39587975 0 166100045.39587975 77470404.824127197 0 0 0 0 -594353288.8252449 -171101127.45372009 0 -171101127.45372009 -17140038.722412109 0 0 0 0 -675862829.22680855 259219237.29103088 0 259219237.29103088 68892066.360366821 0 0 0 0 -362622335.17660332 535909418.42938995 0 535909418.42938995 141075282.57974243 0 0 0 0 -336263696.69326782 -524105372.72070312 0 -524105372.72070312 110340928.20605469 0 0 0 0 -207912454.3514452 133333706.55091095 0 133333706.55091095 713993031.96429443 0 0 0 0 262877105.3966198 -504218896.35544586 0 -504218896.35544586 29713124.546966553 0 0 0 0 116774285.16838837 -171235228.53683472 0 -171235228.53683472 -17474019.981445312 0 0 0 0 -91038233.865428925 -144302644.10298157 0 -144302644.10298157 668051249.66207886 0 0 0 0 253018394.90024567 -342396684.95214844 0 -342396684.95214844 331605715.92726135 0 0 0 0 -12838026.79574585 -5358683.8133239746 0 -5358683.8133239746 1654363.2389526367 0 0 0 0 -2246808.0791093782 939871.26301498711 0 939871.26301498711 2522560.4542345032 0 0 0 0 194496605.04755211 -223800315.83062744 0 -223800315.83062744 352446499.11979294 0 0 0 0 8363871.5624160767 -112404710.43530273 0 -112404710.43530273 675787388.23080444 0 0 0 0 23450825.362974167 8872954.5313873291 0 8872954.5313873291 -6090017.7748413086 0 0 0 0 -3884218.3261088673 55905.692073479295 0 55905.692073479295 2332810.4807774052 0 0 0 0 158599618.17160797 -444200913.17153931 0 -444200913.17153931 669302093.76869202 0 0 0 0 -992179.98390921205 164954.68862065673 0 164954.68862065673 1383737.2827848494 0 0 0 0 356857641.78770065 -365085838.27409363 0 -365085838.27409363 377572169.05220795 0 0 0 0 140991444.21386337 -286042778.63435364 0 -286042778.63435364 411079234.62039185 0 0 0 0 129929702.41868973 -356269000.64321899 0 -356269000.64321899 392775593.24829102 0 0 0 0 84543933.665565491 -295199139.41020203 0 -295199139.41020203 434853155.71075439 0 0 0 0 251012463.9455452 -407757858.94396973 0 -407757858.94396973 484251119.59048462 0 0 0 0 279277200.16013718 -333823069.33648682 0 -333823069.33648682 386667550.38780212 0 0 0 0 251311169.05727291 -427220850.60442734 0 -427220850.60442734 540491833.96801758 0 0 0 0 227369770.59793091 -305391908.09599304 0 -305391908.09599304 414820165.45257568 0 0 0 0 322308075.7191658 -545597829.37186146 0 -545597829.37186146 636643745.24453735 0 0 0 0 323627874.46871948 -418806941.65316772 0 -418806941.65316772 464928139.63626099 0 0 0 0 414327490.90124178 -514767321.05284309 0 -514767321.05284309 495114180.55151367 0 0 0 0 258431553.55117416 -458224435.98043823 0 -458224435.98043823 547933256.8028717 0 0 0 0 474889043.81729698 -642558373.50527954 0 -642558373.50527954 624329291.75642395 0 0 0 0 389591130.02017212 -480147924.25889587 0 -480147924.25889587 418444627.17050934 0 0 0 0 246787802.5377121 -315218410.0090332 0 -315218410.0090332 394195415.57626343 0 0 0 0 369230658.42929077 -761865682.99430847 0 -761865682.99430847 898793650.47847748 0 0 0 0 292724568.91094208 -823727473.08877563 0 -823727473.08877563 860402364.8946991 0 0 0 0 483564523.47022057 -699708800.12893295 0 -699708800.12893295 671193258.36953735 0 0 0 0 358599895.88029146 -648095750.52718544 0 -648095750.52718544 782123513.26753235 0 0 0 0 370629689.14360809 -531632473.74827576 0 -531632473.74827576 638344358.58631897 0 0 0 0 284508648.97341537 -432638241.66331482 0 -432638241.66331482 527885957.92468262 0 0 0 0 228329734.36208677 -601657519.20981407 0 -601657519.20981407 715608124.56942749 0 0 0 0 190464984.93523407 -773892326.48114777 0 -773892326.48114777 836877292.20921326 0 0 0 0 195792593.20743561 -553217440.32640076 0 -553217440.32640076 665129632.09242249 0 0 0 0 359839392.51182365 -844727283.19001007 0 -844727283.19001007 834325627.89610291 0 0 0 0 203324551.85182571 -747354289.23475647 0 -747354289.23475647 877020727.64068604 0 0 0 0 -33667314.363891602 -551973696.18235779 0 -551973696.18235779 815912372.17556763 0 0 0 0 93581759.840723038 -428375932.4745636 0 -428375932.4745636 633082376.19158936 0 0 0 0 72874244.69430542 -419864803.27944946 0 -419864803.27944946 644098653.831604 0 0 0 0 138048325.58221817 -316584599.17564392 0 -316584599.17564392 480127458.61122131 0 0 0 0 199330667.56742477 -429416665.7971344 0 -429416665.7971344 558154151.09637451 0 0 0 0 97088602.918552399 -484004913.8500061 0 -484004913.8500061 706738731.81199646 0 0 0 0 48043983.146064758 -305287970.32682419 0 -305287970.32682419 528038609.06079102 0 0 0 0 104700877.07418823 -343057264.64054871 0 -343057264.64054871 406930371.57254028 0 0 0 0 77617527.440437317 -307544190.89640808 0 -307544190.89640808 504892669.02651978 0 0 0 0 6295718.4615783691 3144655.7178955078 0 3144655.7178955078 4194349.0383300781 0 0 0 0 49944428.341567993 -199414382.01347351 0 -199414382.01347351 545516921.37774658 0 0 0 0 -30546252.31741333 -15424742.116119385 0 -15424742.116119385 405129899.73912811 0 0 0 0 146132689.07037354 -247977002.7010498 0 -247977002.7010498 321310511.79312134 0 0 0 0 -1582416.4009916829 -226871.06870175153 0 -226871.06870175153 1006324.6958638951 0 0 0 0 84317428.972253799 -489970026.90542603 0 -489970026.90542603 483930656.12771606 0 0 0 0 -1996467.0182256531 686555.8747844696 0 686555.8747844696 1801041.8157508075 0 0 0 0 128816648.97236633 -292273399.51818848 0 -292273399.51818848 347838990.87113953 0 0 0 0 -127576864.16449261 -441004953.52722931 0 -441004953.52722931 884561369.38540649 0 0 0 0 -12519742.774312973 -222387572.32969666 0 -222387572.32969666 428073187.14697266 0 0 0 0 -83654721.230560303 -227180186.18103027 0 -227180186.18103027 585548584.32691956 0 0 0 0 -41744864.608417511 62871317.172454834 0 62871317.172454834 -92218798.18182373 0 0 0 0 -332805474.18377113 -161307629.24589729 0 -161307629.24589729 771884178.70947266 0 0 0 0 -354013301.43278503 17421841.004898071 0 17421841.004898071 678856823.14556885 0 0 0 0 119372164.80064392 -544598349.48484802 0 -544598349.48484802 973182299.21588898 0 0 0 0 26182023.343254089 -61317243.458892822 0 -61317243.458892822 1179265795.3917465 0 0 0 0 337402556.24560928 -387250529.08857727 0 -387250529.08857727 1344296355.9032898 0 0 0 0 140649607.02817726 -364626199.21988678 0 -364626199.21988678 1628100791.5373077 0 0 0 0 410335255.78178596 -1168719365.9374847 0 -1168719365.9374847 1375699045.549057 0 0 0 0 6273383.5931053162 -382691094.98641968 0 -382691094.98641968 894225312.70327759 0 0 0 0 71756441.991487503 -723698844.58332062 0 -723698844.58332062 1078740610.6001587 0 0 0 0 230918626.69780684 -869682866.6132946 0 -869682866.6132946 917046930.90049744 0 0 0 0 247976274.6411705 -835288924.66047668 0 -835288924.66047668 902396470.71009827 0 0 0 0 285559075.41422272 -939569779.33704376 0 -939569779.33704376 911705417.75354767 0 0 0 0 502576804.74324894 -786764365.38754272 0 -786764365.38754272 554316422.32292175 0 0 0 0 264853726.15060425 -897319098.01732635 0 -897319098.01732635 826133093.7114563 0 0 0 0 375608961.06494141 -880730472.44541931 0 -880730472.44541931 796087742.43656921 0 0 0 0 904105583.5330162 -400592692.79507446 0 -400592692.79507446 110223777.98474503 0 0 0 0 516425315.41292763 -859692329.16013336 0 -859692329.16013336 734286061.72921753 0 0 0 0 658701846.82171631 -950447946.64575958 0 -950447946.64575958 721949075.78354454 0 0 0 0 1870864153.2915497 -745811087.17072296 0 -745811087.17072296 179310597.93489075 0 0 0 0 325835296.60219383 141109331.43865204 0 141109331.43865204 -3299077.5697174072 0 0 0 0 417612.49688485917 -3072755.5122247487 0 -3072755.5122247487 5890849.7372787893 0 0 0 0 1021810617.7000675 -1674211250.1820869 0 -1674211250.1820869 2063700205.5548859 0 0 0 0 426753185.89586449 67227189.597106934 0 67227189.597106934 3222296625.7661285 0 0 0 0 2005550992.7439089 154714425.5772438 0 154714425.5772438 1148460318.2369843 0 0 0 0 800569165.51038933 -295030099.3039093 0 -295030099.3039093 997458267.38035583 0 0 0 0 484303757.93758202 -125132064.84924316 0 -125132064.84924316 545025000.23164368 0 0 0 0 555124143.57822514 68000648.722743988 0 68000648.722743988 764011046.10067749 0 0 0 0 444121786.41943359 128030462.64816284 0 128030462.64816284 694492729.16593933 0 0 0 0 661376623.78728199 137820888.3653183 0 137820888.3653183 249972028.85806274 0 0 0 0 468225515.4949913 320532561.2010498 0 320532561.2010498 500108542.20100403 0 0 0 0 1047755813.3360019 399185016.67348099 0 399185016.67348099 816034911.38845825 0 0 0 0 254587850.46433353 2439704.0216560364 0 2439704.0216560364 766983819.73184204 0 0 0 0 264249073.35607529 159085453.324646 0 159085453.324646 1679477098.3315582 0 0 0 0 135945638.48121262 276660215.98240662 0 276660215.98240662 950286838.74523163 0 0 0 0 126018949.58397865 204435091.11997223 0 204435091.11997223 478497506.61172485 0 0 0 0 -9466000.7665100098 -224148308.06677246 0 -224148308.06677246 477015571.67770386 0 0 0 0 -62804617.639289856 252576452.96559143 0 252576452.96559143 596435154.30627823 0 0 0 0 76468534.435302734 310691117.61633301 0 310691117.61633301 564711940.97340393 0 0 0 0 215659330.36380196 411996336.60381317 0 411996336.60381317 401470167.09906006 0 0 0 0 266110001.4503994 345939883.08906555 0 345939883.08906555 315413451.86642456 0 0 0 0 49738323.965610504 240217625.74768066 0 240217625.74768066 390163105.64788818 0 0 0 0 153844857.30116272 367132029.01901245 0 367132029.01901245 311904288.42802429 0 0 0 0 157919151.12906647 343534872.01998901 0 343534872.01998901 327973970.85449219 0 0 0 0 514900601.75605774 354476589.37976074 0 354476589.37976074 486281161.29391479 0 0 0 0 216441275.48976135 322163709.46212769 0 322163709.46212769 489927094.56310272 0 0 0 0 333302105.69209015 172853244.62491226 0 172853244.62491226 342644994.06439209 0 0 0 0 345771781.60618782 383446509.44363403 0 383446509.44363403 272173304.65446472 0 0 0 0 233734268.38783753 410500149.66385984 0 410500149.66385984 207622236.82989502 0 0 0 0 227790220.32716537 273906903.95499802 0 273906903.95499802 171873924.21029663 0 0 0 0 186191310.46856689 350715612.23855591 0 350715612.23855591 133162308.2489624 0 0 0 0 183152300.33145905 391640298.48257446 0 391640298.48257446 172979843.55044556 0 0 0 0 183649721.43105316 365719670.04162598 0 365719670.04162598 218489951.77819824 0 0 0 0 185303105.09903717 341611119.2281189 0 341611119.2281189 322613938.53155518 0 0 0 0 195089270.2339325 400059175.51034546 0 400059175.51034546 260782247.90689087 0 0 0 0 196285971.83216476 337369307.86936951 0 337369307.86936951 120055210.63818359 0 0 0 0 173958681.18689728 424452140.22735596 0 424452140.22735596 160516750.19226074 0 0 0 0 208988686.40796185 379105769.11137009 0 379105769.11137009 148469500.171875 0 0 0 0 181237465.62613297 422001987.15242004 0 422001987.15242004 104066410.16946411 0 0 0 0 190040599.89359951 388852647.64290619 0 388852647.64290619 94430089.443969727 0 0 0 0 151045782.20143127 428771294.19128418 0 428771294.19128418 57794953.656143188 0 0 0 0 156579919.90438426 337505561.92034626 0 337505561.92034626 -9236677.3975830078 0 0 0 0 19155233.692136765 317105560.63600159 0 317105560.63600159 -9145986.5492553711 0 0 0 0 111451569.92871094 395718915.81550598 0 395718915.81550598 -76249013.87322998 0 0 0 0 125591458.17948914 345866017.45248413 0 345866017.45248413 7356126.0319976807 0 0 0 0 77075019.730365753 335670278.93826294 0 335670278.93826294 14892839.9375 0 0 0 0 176827485.638134 447342220.25436401 0 447342220.25436401 37636060.7237854 0 0 0 0 270016920.05135441 196085033.9026947 0 196085033.9026947 -42041387.173919678 0 0 0 0 87530829.689143658 163174212.84274483 0 163174212.84274483 -39963627.429504395 0 0 0 0 156428349.51364136 253745210.33102417 0 253745210.33102417 -7178563.9139099121 0 0 0 0 137215746.87332535 387795264.92686462 0 387795264.92686462 95740532.908081055 0 0 0 0 127076254.88208961 224586112.43852997 0 224586112.43852997 -230163505.66741943 0 0 0 0 120403472.22650909 330080767.42176819 0 330080767.42176819 -65143121.943344116 0 0 0 0 100945331.42717171 -18808929.854606628 0 -18808929.854606628 -153771990.96389771 0 0 0 0 199591641.01157379 208406018.16783142 0 208406018.16783142 -280421646.18234253 0 0 0 0 350065199.72902489 141288273.18424988 0 141288273.18424988 -86506995.440513611 0 0 0 0 382850724.54076481 -174222007.5766983 0 -174222007.5766983 -101220387.73571777 0 0 0 0 208446519.87273979 -94284842.740776062 0 -94284842.740776062 158431345.7381897 0 0 0 0 538638266.11178303 8460824.5555305481 0 8460824.5555305481 186697392.86233521 0 0 0 0 309600318.67468643 291845910.84020996 0 291845910.84020996 109130745.92416382 0 0 0 0 291835897.17207336 41379708.030487061 0 41379708.030487061 228704625.41213989 0 0 0 0 -94557858.822016716 -138957463.71814728 0 -138957463.71814728 447025019.63867188 0 0 0 0 140451513.25953865 -194717305.3926239 0 -194717305.3926239 23697.360275268555 0 0 0 0 145185386.47183609 -355806497.05632782 0 -355806497.05632782 388000013.0134964 0 0 0 0 187337723.7694416 -49916907.432975769 0 -49916907.432975769 195747097.13963318 0 0 0 0 339626034.97049236 -273622108.83882141 0 -273622108.83882141 463028701.37313843 0 0 0 0 55107034.521697998 -11635098.598945618 0 -11635098.598945618 -167193064.78822327 0 0 0 0 219906258.88237858 -253665443.13985825 0 -253665443.13985825 -340042427.3102417 0 0 0 0 -68225501.370387077 -239587698.15688324 0 -239587698.15688324 9499727.4305725098 0 0 0 0 -21446975.221990585 -159395189.32996368 0 -159395189.32996368 -265462172.09746552 0 0 0 0 -258701720.64820433 -321839174.14292145 0 -321839174.14292145 2951054.716506958 0 0 0 0 1653262.5426087531 -3120755.3425465338 0 -3120755.3425465338 13986039.088767558 0 0 0 0 -1320050.3560892344 4789693.4330978394 0 4789693.4330978394 2280868.8121261597 0 0 0 0 -65310242.94606781 19304422.50869751 0 19304422.50869751 84778528.665344238 0 0 0 0 -88183325.765585214 -327726068.87554502 0 -327726068.87554502 453923816.693573 0 0 0 0 -213080741.56896114 -18018422.585235596 0 -18018422.585235596 -86059807.854469299 0 0 0 0 -311545278.28131104 -143092253.46408081 0 -143092253.46408081 1352266899.59552 0 0 0 0 -338409127.21279907 306455250.527771 0 306455250.527771 705423695.42168427 0 0 0 0 -292422475.80188352 242790473.71566582 0 242790473.71566582 -166251062.15531921 0 0 0 0 94356.334850036481 -2010390.317353975 0 -2010390.317353975 11463231.782343358 0 0 0 0 -429880018.58519185 -89864109.00422287 0 -89864109.00422287 313754440.49076843 0 0 0 0 52590698.577428341 472535931.31684875 0 472535931.31684875 2147914886.7911835 0 0 0 0 224659.64868658734 -971296.36953812838 0 -971296.36953812838 1085380.5604298227 0 0 0 0 -691385016.00257111 246946022.71838379 0 246946022.71838379 2077335028.3874207 0 0 0 0 -581182303.1908741 -79938707.183944702 0 -79938707.183944702 3037736406.8202515 0 0 0 0 -561863852.15248871 47604119.1434021 0 47604119.1434021 1393090616.4842911 0 0 0 0 -161775498.29170418 -356691604.41009521 0 -356691604.41009521 1429580076.1317902 0 0 0 0 -475385257.33102512 -195482132.63525391 0 -195482132.63525391 1999106749.0434113 0 0 0 0 47034616.338970184 -182456548.18621826 0 -182456548.18621826 516924584.56384277 0 0 0 0 -8302086.1954956055 -321398669.43082428 0 -321398669.43082428 704607689.24423218 0 0 0 0 -308229269.12756187 -54073065.968940735 0 -54073065.968940735 1151685060.21875 0 0 0 0 760611910.2556448 -209156809.18194199 0 -209156809.18194199 468789250.02023315 0 0 0 0 300838729.9420681 -571800474.50805664 0 -571800474.50805664 1113837448.5004272 0 0 0 0 -162883413.59327126 -342129718.57819366 0 -342129718.57819366 1343086760.6361465 0 0 0 0 -623441504.79709435 -465365786.77867126 0 -465365786.77867126 2977618396.9416656 0 0 0 0 852849680.94279575 -1169774985.547451 0 -1169774985.547451 1981230629.6669922 0 0 0 0 -476838959.61343646 -175530018.00188828 0 -175530018.00188828 1775677526.337677 0 0 0 0 -645170349.99388504 -142540247.78357697 0 -142540247.78357697 1993558923.5203705 0 0 0 0 -741456718.23537922 -168808466.71534729 0 -168808466.71534729 1807038431.585083 0 0 0 0 -175072278.30165482 718279815.80369568 0 718279815.80369568 2150156807.6083145 0 0 0 0 -71395624.834260941 212753969.02962875 0 212753969.02962875 284075479.16339111 0 0 0 0 -334271697.87402487 -538658452.42875671 0 -538658452.42875671 -569048047.06678772 0 0 0 0 -312508027.72697258 -359661574.46248627 0 -359661574.46248627 148261050.54019928 0 0 0 0 -660131.08463452384 -8455670.7358108349 0 -8455670.7358108349 15279872.104313314 0 0 0 0 -148524788.23776627 -71475004.94789505 0 -71475004.94789505 173150052.45162201 0 0 0 0 -371284898.26599598 249183335.83016205 0 249183335.83016205 -168907584.86349487 0 0 0 0 -991659365.50353813 -45296770.910690308 0 -45296770.910690308 818557907.8477478 0 0 0 0 -421687275.55906963 -314795185.17841339 0 -314795185.17841339 917014560.12621307 0 0 0 0 -334825148.17071247 148160359.11802864 0 148160359.11802864 923372682.90045166 0 0 0 0 -137501308.53895855 -201300581.7243042 0 -201300581.7243042 522578869.76819611 0 0 0 0 -703705756.86697865 37807911.334342957 0 37807911.334342957 1643826728.9937744 0 0 0 0 -600377698.67235184 -157810262.60743713 0 -157810262.60743713 1698265485.5025406 0 0 0 0 -432782172.34188527 -132737349.86407471 0 -132737349.86407471 2184591254.3200684 0 0 0 0 -515279239.49636507 -376014231.43996429 0 -376014231.43996429 2136333291.9880371 0 0 0 0 55662725.709738255 -153613025.73405457 0 -153613025.73405457 2152499797.631958 0 0 0 0 1118470391.361372 -62743273.203201294 0 -62743273.203201294 1927835411.1763234 0 0 0 0 42634698.782289267 49650619.981155396 0 49650619.981155396 1931372473.5301256 0 0 0 0 363921563.18648398 251895383.77886581 0 251895383.77886581 1435420053.3758545 0 0 0 0 -97219997.17460072 -52193690.372817993 0 -52193690.372817993 1999772747.6009064 0 0 0 0 253144827.20344484 346756341.68347168 0 346756341.68347168 2370563647.9060059 0 0 0 0 -9287255.0315613598 124211636.14865494 0 124211636.14865494 1401264401.3226318 0 0 0 0 373251500.60804701 -224016567.73500061 0 -224016567.73500061 1476578989.2837067 0 0 0 0 -229707895.89754581 -146421729.19384766 0 -146421729.19384766 1475287455.6583953 0 0 0 0 -116381156.75065732 95850593.841217041 0 95850593.841217041 665948478.25109863 0 0 0 0 242760823.57480526 -47575421.550552368 0 -47575421.550552368 719902824.76271057 0 0 0 0 146501180.7273106 33786548.950601578 0 33786548.950601578 166573549.93112183 0 0 0 0 93054105.766931653 -137008706.5621891 0 -137008706.5621891 98016494.927703857 0 0 0 0 106013308.24168226 82770940.429504395 0 82770940.429504395 388465665.46166992 0 0 0 0 -5570063.8754611015 -37342873.43850708 0 -37342873.43850708 778586680.82079506 0 0 0 0 141771122.47814995 73239324.643959045 0 73239324.643959045 794989166.45767975 0 0 0 0 70622.120921764683 -119046466.9675827 0 -119046466.9675827 865114442.91505432 0 0 0 0 -150351332.83519006 101324426.15390015 0 101324426.15390015 1814231677.9929962 0 0 0 0 -230495.85184156432 -116776723.56402588 0 -116776723.56402588 1533177423.9685822 0 0 0 0 4744059.5214576125 240897431.66843414 0 240897431.66843414 1178187895.5368423 0 0 0 0 -162488666.25305271 -304344723.8377533 0 -304344723.8377533 1887388372.2657471 0 0 0 0 -34494.459683343783 -223576488.30989793 0 -223576488.30989793 1649201744.2820892 0 0 0 0 440162.64017842704 -1378557.4029340521 0 -1378557.4029340521 2951771.1298088878 0 0 0 0 10346844.858650431 9025172.3960266113 0 9025172.3960266113 -25331350.193367004 0 0 0 0 -159024181.70484424 -244762375.65338612 0 -244762375.65338612 2581869164.1729431 0 0 0 0 634049998.20533967 -893164592.19856262 0 -893164592.19856262 1257269388.8030243 0 0 0 0 316316883.91200197 -790633850.4486084 0 -790633850.4486084 3668839889.7408142 0 0 0 0 290638.18370415218 -788563.2262567766 0 -788563.2262567766 1635302.0503168255 0 0 0 0 316864173.1356163 1082785518.8158112 0 1082785518.8158112 3530402890.9750042 0 0 0 0 268982.92380250327 -2048087.6952561885 0 -2048087.6952561885 4090164.9484464563 0 0 0 0 11904252.184911609 1405542.3755187988 0 1405542.3755187988 -15830092.069259644 0 0 0 0 78322.095827430487 -24408379.331642151 0 -24408379.331642151 28976971.171051025 0 0 0 0 19627427.011126041 -12954795.282714844 0 -12954795.282714844 30404690.420978546 0 0 0 0 90354334.715370893 42297732.481452942 0 42297732.481452942 -36146450.857070923 0 0 0 0 -17081169.328940183 -26054055.031845093 0 -26054055.031845093 22637007.968811035 0 0 0 0 -12352198.663951099 -10491157.153747559 0 -10491157.153747559 94285425.340744019 0 0 0 0 219307.29701440874 -106546.73065759242 0 -106546.73065759242 -56741.392525430769 0 0 0 0 3261304.3233521879 4909407.4428634644 0 4909407.4428634644 -9313164.3804321289 0 0 0 0 -4010592.1453208327 2236493.0371246338 0 2236493.0371246338 1862450.3982086182 0 0 0 0 618947.92274259205 7360.8019788861275 0 7360.8019788861275 -135536.90243334323 0 0 0 0 2136574.456987977 2174864.8163146973 0 2174864.8163146973 -2974889.0857391357 0 0 0 0 -16433551.357370943 -8284010.2224578857 0 -8284010.2224578857 85122424.946468353 0 0 0 0 -318916.59691270499 1079519.0993575752 0 1079519.0993575752 4273228.5946617648 0 0 0 0 109273.63557141463 635335.34954275191 0 635335.34954275191 3679363.1032529064 0 0 0 0 430395.54458285792 2518669.484375 0 2518669.484375 15324018.777893066 0 0 0 0 -106812.76612307243 265359.85854379833 0 265359.85854379833 1977956.8096947856 0 0 0 0 710.16466395059592 510690.35925292969 0 510690.35925292969 1984388.332572937 0 0 0 0 -25418.321557973628 6141708.3330078125 0 6141708.3330078125 17522210.50390625 0 0 0 0 5366147.3009768203 6677020.351348877 0 6677020.351348877 125899893.58779907 0 0 0 0 307790.5453102414 692986.32918520272 0 692986.32918520272 1705163.3893330395 0 0 0 0 -57699.150719354162 -33540499.046302438 0 -33540499.046302438 57117803.959960938 0 0 0 0 14486845.998195916 -38706177.368515015 0 -38706177.368515015 29576559.509063721 0 0 0 0 7248596.9399676332 -7348184.3471975327 0 -7348184.3471975327 46233127.041320801 0 0 0 0 -12774551.500852257 -8212963.1711578369 0 -8212963.1711578369 43945715.615692139 0 0 0 0 10540355.361088451 5471531.2804832458 0 5471531.2804832458 48470660.739868164 0 0 0 0 -133572606.17226407 -112867422.86501312 0 -112867422.86501312 247524188.1373291 0 0 0 0 106222477.96594048 -245309220.58334351 0 -245309220.58334351 -46268457.454404354 0 0 0 0 -48312151.310456604 -267922972.31621552 0 -267922972.31621552 373082718.56307983 0 0 0 0 -377942.14581596327 -125700953.82186127 0 -125700953.82186127 30726800.85508728 0 0 0 0 237682595.00570849 -375699088.81254578 0 -375699088.81254578 351443154.8429985 0 0 0 0 -726948.84054964781 -140848095.17118073 0 -140848095.17118073 784705347.83361816 0 0 0 0 23139104.886700474 -302918515.99630737 0 -302918515.99630737 282933225.17485428 0 0 0 0 -250743223.38237929 -105696392.16561127 0 -105696392.16561127 602717130.73631287 0 0 0 0 -219744838.8251667 -267871257.88335419 0 -267871257.88335419 188020226.60945892 0 0 0 0 -348935772.11719894 158574848.75832367 0 158574848.75832367 31381736.822036743 0 0 0 0 -1331588.2941325447 1394109.1579339877 0 1394109.1579339877 1058403.5568303317 0 0 0 0 -655779708.17015839 135088750.80344009 0 135088750.80344009 -21375490.636566162 0 0 0 0 -309870521.74515057 106925401.44615173 0 106925401.44615173 -106552577.62728882 0 0 0 0 -654777485.98492563 139883954.31971741 0 139883954.31971741 1291168.7955322266 0 0 0 0 -98063502.707014799 -187579541.75810242 0 -187579541.75810242 -31918386.400238037 0 0 0 0 -450464905.24699199 -50182672.306930542 0 -50182672.306930542 -20574256.072589874 0 0 0 0 -412403090.83430076 -271238254.83608246 0 -271238254.83608246 -343190028.88049316 0 0 0 0 -103331419.70919371 -94455598.695541382 0 -94455598.695541382 -262474653.7600708 0 0 0 0 -740446174.97913527 215882252.56087875 0 215882252.56087875 -51963439.669891357 0 0 0 0 -1173638.20845375 -227498.59969440103 0 -227498.59969440103 1584783.8429783061 0 0 0 0 -22878023.515572548 3610933.1236572266 0 3610933.1236572266 3791880.9458618164 0 0 0 0 -406470315.94562852 17639703.247680664 0 17639703.247680664 -30337317.670196533 0 0 0 0 -877756840.66654325 -42453159.557540894 0 -42453159.557540894 -37985409.128822327 0 0 0 0 -593534939.77565551 -360994043.85231018 0 -360994043.85231018 -206637774.43977356 0 0 0 0 -632797803.09078479 -319067967.56395721 0 -319067967.56395721 -238418122.46304321 0 0 0 0 -421722101.91470939 2802693.9290924072 0 2802693.9290924072 -372937258.08576012 0 0 0 0 -131854089.04431821 -120851946.42518997 0 -120851946.42518997 -254676368.92663574 0 0 0 0 -118275139.6813485 -147137820.94241333 0 -147137820.94241333 -43778659.121521235 0 0 0 0 57391042.456252113 -211167281.59066772 0 -211167281.59066772 -237088401.62023926 0 0 0 0 -50037832.741624266 -82289918.084686279 0 -82289918.084686279 -292576016.09355164 0 0 0 0 196378.10913130699 -112619975.53084087 0 -112619975.53084087 -297782702.03765869 0 0 0 0 -26777530.57466498 -83800249.562683105 0 -83800249.562683105 -267777089.66036224 0 0 0 0 -40113379.181130454 -138142157.76674652 0 -138142157.76674652 -289097991.0390625 0 0 0 0 -63255295.081451297 -65841529.27999115 0 -65841529.27999115 -193507353.7376709 0 0 0 0 -40029.228055069791 -130596364.89488983 0 -130596364.89488983 -203938688.26768494 0 0 0 0 59141366.694418371 -66255023.03994751 0 -66255023.03994751 -63673004.928754807 0 0 0 0 -73789903.310296148 -108423526.79891968 0 -108423526.79891968 -65028091.980285645 0 0 0 0 -7911506.732836958 -2754697.302646637 0 -2754697.302646637 156070113.97659302 0 0 0 0 -73019967.707493842 -100600601.58361816 0 -100600601.58361816 337680017.42638016 0 0 0 0 112172.97084108814 -140233727.74633789 0 -140233727.74633789 147054097.70898438 0 0 0 0 -151731932.12988973 -244646463.96408081 0 -244646463.96408081 145398676.17885208 0 0 0 0 -103321454.05930734 -225227685.65272141 0 -225227685.65272141 -120928693.56469727 0 0 0 0 -79010312.839844465 -76670304.167617798 0 -76670304.167617798 207612285.86064148 0 0 0 0 30342580.394516096 -196159449.78548908 0 -196159449.78548908 -47279039.243667603 0 0 0 0 -246756023.39581621 -156665275.37857819 0 -156665275.37857819 -42396328.809555054 0 0 0 0 -223508007.02522323 -330579624.07964993 0 -330579624.07964993 -72785095.125732422 0 0 0 0 -526041458.9079535 -271086830.13291931 0 -271086830.13291931 -84453220.462936401 0 0 0 0 -109678315.33984882 -205460407.9998436 0 -205460407.9998436 -154805835.40888977 0 0 0 0 -126469944.56517664 -157333701.52082539 0 -157333701.52082539 -346474215.24301147 0 0 0 0 -379947109.10938263 -89508808.06262207 0 -89508808.06262207 -197830655.38937378 0 0 0 0 -334411015.54567587 -237377883.85128784 0 -237377883.85128784 -277599848.0045166 0 0 0 0 -427110469.3725872 -416969140.66851807 0 -416969140.66851807 -213230220.43366241 0 0 0 0 -81086873.054294586 -12605418.079803467 0 -12605418.079803467 62490970.547645569 0 0 0 0 -53213756.88347435 -31478995.511901855 0 -31478995.511901855 -57642095.674194336 0 0 0 0 -74417405.586959839 -82298749.97644043 0 -82298749.97644043 76001979.33682251 0 0 0 0 -39993070.420038223 38245899.463043213 0 38245899.463043213 8480741.2100219727 0 0 0 0 -2072974.3576480199 -4260407.5407145768 0 -4260407.5407145768 15322007.056985304 0 0 0 0 8372544.4656105042 29733772.639923096 0 29733772.639923096 -19217831.858459473 0 0 0 0 -269185034.27042055 -227310224.2877655 0 -227310224.2877655 -28757142.483810425 0 0 0 0 -780884056.42037249 -434109037.86429596 0 -434109037.86429596 1705280.2297363281 0 0 0 0 -442477067.96857905 -445840020.26496124 0 -445840020.26496124 -83410869.328430176 0 0 0 0 -490254326.15386403 -328092558.14003754 0 -328092558.14003754 7929155.630279541 0 0 0 0 -342029299.74398947 -536607014.95379639 0 -536607014.95379639 -422677770.35438919 0 0 0 0 -468976976.14384842 122062647.41088104 0 122062647.41088104 -10644131.196006775 0 0 0 0 -8885661.9381086938 -3705187.8456200436 0 -3705187.8456200436 9881699.2986764535 0 0 0 0 -13297505.970814705 -11094143.572231293 0 -11094143.572231293 23329356.469528198 0 0 0 0 39101956.732971191 112129242.5785141 0 112129242.5785141 -45174508.73348999 0 0 0 0 -1322474.1812216518 -2186311.3732866868 0 -2186311.3732866868 3580014.1985528357 0 0 0 0 -21841379.538721085 -12626948.804336548 0 -12626948.804336548 36585837.303848267 0 0 0 0 -3831440.4475761382 -4458860.4000834823 0 -4458860.4000834823 16989866.091682166 0 0 0 0 -4495916.9908540249 -32295.48796081543 0 -32295.48796081543 24809599.797546387 0 0 0 0 -16368954.397237778 -7748229.7050628662 0 -7748229.7050628662 22948656.847564697 0 0 0 0 -11539964.859473228 -13623213.779220581 0 -13623213.779220581 3377607.6357116699 0 0 0 0 -3793402.5498790741 -30158394.140213013 0 -30158394.140213013 -27512825.534988403 0 0 0 0 -16360569.453926086 -5642493.223449707 0 -5642493.223449707 26500.061279296875 0 0 0 0 -9001667.8213119507 -42095918.911895752 0 -42095918.911895752 10643220.754623413 0 0 0 0 -16816339.219079971 -24890386.115814209 0 -24890386.115814209 -7637964.2519836426 0 0 0 0 10130070.147990227 -26767487.007522583 0 -26767487.007522583 -15334058.827697754 0 0 0 0 -22519642.68819809 -6584372.5194091797 0 -6584372.5194091797 -27646015.512390137 0 0 0 0 -66246715.788257122 -58040175.306442261 0 -58040175.306442261 -83961287.459655762 0 0 0 0 -20113347.820267677 -41740232.25069809 0 -41740232.25069809 -93734518.798095703 0 0 0 0 5558.1735041383654 -66369.654033899307 0 -66369.654033899307 67567.517777040601 0 0 0 0 -251336.04746827483 -289715.22790814191 0 -289715.22790814191 439534.67594906688 0 0 0 0 -32900038.019439697 30971568.469116211 0 30971568.469116211 30213170.882873535 0 0 0 0 -19107907.04598999 -51421153.881835938 0 -51421153.881835938 -100030862.07373047 0 0 0 0 -948869.67906770203 312460.40877021104 0 312460.40877021104 1123144.5019333474 0 0 0 0 784653.37178516388 -11323341.530387878 0 -11323341.530387878 9316176.8223266602 0 0 0 0 2496749.0239639282 1190633.0114746094 0 1190633.0114746094 10002982.028007507 0 0 0 0 -2348447.6754621649 -445118.87074315548 0 -445118.87074315548 3275164.9812442362 0 0 0 0 -2735926.1003564699 244855.99118123576 0 244855.99118123576 3689324.8562321141 0 0 0 0 -26346036.048032284 -4620511.1621208191 0 -4620511.1621208191 7685799.1848449707 0 0 0 0 -25621659.297603607 8099885.8778686523 0 8099885.8778686523 34337822.514770508 0 0 0 0 -82633430.106555939 1646732.0643310547 0 1646732.0643310547 13848949.348937988 0 0 0 0 -39475896.079692841 19566248.506317139 0 19566248.506317139 -11570142.829681396 0 0 0 0 116580.33877493348 -1866278.6142784506 0 -1866278.6142784506 1083131.824832283 0 0 0 0 -552190.31131744385 -765717.41229248047 0 -765717.41229248047 505249.10791015625 0 0 0 0 -1735756.6446093526 -2212307.0497244447 0 -2212307.0497244447 11058329.788780719 0 0 0 0 -5049720.9393895864 -12416721.42583859 0 -12416721.42583859 21930870.348754883 0 0 0 0 -137697.67369651794 -4506061.6763763428 0 -4506061.6763763428 467263.7878112793 0 0 0 0 -141018.40369654633 -1796366.5679273717 0 -1796366.5679273717 100064.01030837744 0 0 0 0 -1535521.0774688721 -1880510.2465820312 0 -1880510.2465820312 -1533719.6948242188 0 0 0 0 -870717.27785973717 -879161.71219480038 0 -879161.71219480038 9733.0382295399904 0 0 0 0 -1228233.0056365747 -1002644.3882329538 0 -1002644.3882329538 5420327.1021197625 0 0 0 0 -6145675.3832780719 35090284.670754194 0 35090284.670754194 9929899.1872253418 0 0 0 0 -6010573.6444331072 -8554791.8282396346 0 -8554791.8282396346 9073044.7614749148 0 0 0 0 4430327.5992269516 16317884.611343384 0 16317884.611343384 28534354.931167603 0 0 0 0 -4059003.4869389338 5467897.5602275934 0 5467897.5602275934 12966953.844682992 0 0 0 0 19005387.794135571 4447707.8003005981 0 4447707.8003005981 14979253.182678223 0 0 0 0 -25217874.237565517 23828453.796195984 0 23828453.796195984 12137537.110473633 0 0 0 0 -14550116.765468597 5133208.7227935791 0 5133208.7227935791 7698583.8608856201 0 0 0 0 1022499.9641599655 -7198699.9371795654 0 -7198699.9371795654 30538435.841991425 0 0 0 0 -6592928.5020771027 -2075557.300994873 0 -2075557.300994873 29580664.830322266 0 0 0 0 -42395486.77592206 5667055.481174469 0 5667055.481174469 70545583.920440674 0 0 0 0 -28689823.740190506 33626576.129920959 0 33626576.129920959 -13917537.721008301 0 0 0 0 -1656375.7064393619 -382673.01530203223 0 -382673.01530203223 2979122.1758141667 0 0 0 0 71110385.58121109 -72772828.61026001 0 -72772828.61026001 45982159.474334717 0 0 0 0 -875347.37865070766 84070.26151907444 0 84070.26151907444 1156116.8074312657 0 0 0 0 18599339.270738602 -20225120.529769897 0 -20225120.529769897 -15130875.026428223 0 0 0 0 -78742878.868369102 136357470.73249054 0 136357470.73249054 -57608223.852539062 0 0 0 0 -56771648.829088211 24673931.215698242 0 24673931.215698242 59167042.538970947 0 0 0 0 -47767048.032474518 -121987164.9805603 0 -121987164.9805603 -32098785.801109314 0 0 0 0 14103121.417209625 -5759950.5573272705 0 -5759950.5573272705 -65028520.707397461 0 0 0 0 -788406.03806196991 -160171.04566576332 0 -160171.04566576332 1066417.2129748315 0 0 0 0 -64367315.354627609 -130868678.01765442 0 -130868678.01765442 40927141.612213135 0 0 0 0 -18708038.150604248 13944385.081039429 0 13944385.081039429 15021960.962188721 0 0 0 0 -37238776.141654968 -19374576.413085938 0 -19374576.413085938 3652403.2297363281 0 0 0 0 -3523018.4573076665 -3230725.8484268524 0 -3230725.8484268524 16252846.48268576 0 0 0 0 -3867237.4968249798 -14898696.552345276 0 -14898696.552345276 -112229205.27462769 0 0 0 0 11392423.445109367 13190297.364265442 0 13190297.364265442 8927802.1993103027 0 0 0 0 -947704.01207579626 -2563486.5269257119 0 -2563486.5269257119 44861.98559217155 0 0 0 0 -6759118.7844133377 2070095.5681762695 0 2070095.5681762695 2456358.3118896484 0 0 0 0 -4174049.2623285977 -5025720.9656898081 0 -5025720.9656898081 8805484.1751480326 0 0 0 0 -10420838.709841251 10464323.769729614 0 10464323.769729614 -1274200.7377624512 0 0 0 0 -2651571.4193040775 5972305.8862935193 0 5972305.8862935193 3031272.5280013233 0 0 0 0 -4245694.9950493108 1076196.6067140242 0 1076196.6067140242 4533871.6658780575 0 0 0 0 -4760699.9111709595 -17518132.547393799 0 -17518132.547393799 40849833.998241425 0 0 0 0 -17141373.317199707 -10592430.93536377 0 -10592430.93536377 41647955.852844238 0 0 0 0 -5840430.5239700591 1364931.1994773 0 1364931.1994773 10847518.333704486 0 0 0 0 -5058627.6549396515 -9469171.6599578857 0 -9469171.6599578857 34610755.585281372 0 0 0 0 -10902756.761955261 743469.63146972656 0 743469.63146972656 -32866251.509918213 0 0 0 0 -7878759.7376918793 46550493.769035339 0 46550493.769035339 -4498415.2981719971 0 0 0 0 54389812.788539886 4185172.988494873 0 4185172.988494873 -32927381.322349787 0 0 0 0 -123335457.77074265 142492602.39756012 0 142492602.39756012 -146535150.19396973 0 0 0 0 -40636058.959917068 -12942936.637237549 0 -12942936.637237549 -10910356.855285645 0 0 0 0 -1672436.8195333062 1272349.2448988641 0 1272349.2448988641 2408747.8977548331 0 0 0 0 -18581658.24633646 -42131673.078170776 0 -42131673.078170776 -22183652.030090332 0 0 0 0 94090378.385490417 -24827781.912582397 0 -24827781.912582397 -40551307.301757812 0 0 0 0 136961013.98327637 106123183.03424072 0 106123183.03424072 8995959.9502182007 0 0 0 0 -131789785.70547056 -13391158.663513184 0 -13391158.663513184 412619563.67907715 0 0 0 0 -50053062.954569817 23156810.697937012 0 23156810.697937012 5647161.9753417969 0 0 0 0 -75153632.257040501 10921366.494018555 0 10921366.494018555 340733105.37072754 0 0 0 0 60560084.904911041 -4787741.4144134521 0 -4787741.4144134521 -42042329.031064034 0 0 0 0 -34257791.726982117 32936046.580871582 0 32936046.580871582 19745115.00779438 0 0 0 0 -11186354.314730812 3083661.813061595 0 3083661.813061595 14272895.585853882 0 0 0 0 -96076.175136289559 -1565893.7380057499 0 -1565893.7380057499 1771118.3388744467 0 0 0 0 -27762774.350363255 6669415.1337509155 0 6669415.1337509155 17205686.565299988 0 0 0 0 -9910409.8439970016 6897319.6220664978 0 6897319.6220664978 7395455.0846557617 0 0 0 0 -19454479.88663578 8406580.8126754761 0 8406580.8126754761 26558671.181900024 0 0 0 0 -8206730.1651030444 1014862.9137895703 0 1014862.9137895703 9832606.1459764838 0 0 0 0 -18269209.785087585 -7115775.1488189697 0 -7115775.1488189697 28232534.035720825 0 0 0 0 -46559094.029122353 11342606.351760864 0 11342606.351760864 53262958.530654907 0 0 0 0 -42183373.668374062 3173183.8980331421 0 3173183.8980331421 10718984.11630249 0 0 0 0 15314667.553940773 -17382535.235733032 0 -17382535.235733032 -12457512.898857117 0 0 0 0 -4457781.893996289 7603305.1935689412 0 7603305.1935689412 9925289.0888138413 0 0 0 0 -13576310.006843658 -1486712.5811842456 0 -1486712.5811842456 9439523.7127240486 0 0 0 0 -144372833.39434052 -60648424.311172485 0 -60648424.311172485 -12259764.504521847 0 0 0 0 -7808733.1773048565 -3209396.5900952891 0 -3209396.5900952891 4270779.6890045796 0 0 0 0 -119979614.16425133 172556760.76798248 0 172556760.76798248 -116011810.08171463 0 0 0 0 249251564.64121127 -78347308.185638428 0 -78347308.185638428 -310365951.22146273 0 0 0 0 -135935870.44684029 69641080.412246704 0 69641080.412246704 -27394428.427447796 0 0 0 0 -2508722.0308724539 -1795425.4419157878 0 -1795425.4419157878 1144531.1184695242 0 0 0 0 -308870645.8386308 403536186.79397297 0 403536186.79397297 -160694204.88589478 0 0 0 0 -333769171.06891632 144831029.25382996 0 144831029.25382996 50802488.426467896 0 0 0 0 -193853763.55284333 71876270.53279686 0 71876270.53279686 85159477.579040527 0 0 0 0 -728099061.00455093 -81281261.540252686 0 -81281261.540252686 116608969.52567291 0 0 0 0 -842176195.90409279 575827910.60533142 0 575827910.60533142 304854205.16351318 0 0 0 0 -807783142.7244401 165470365.64280319 0 165470365.64280319 611362519.05081177 0 0 0 0 -118784224.42921448 -123416274.5630722 0 -123416274.5630722 47836139.56993103 0 0 0 0 -178234027.67893791 -134277288.68574524 0 -134277288.68574524 48604539.808105469 0 0 0 0 -212412879.18161774 -56686611.236988068 0 -56686611.236988068 48201573.664520264 0 0 0 0 -95499454.85863018 36238238.701759338 0 36238238.701759338 6139005.8028717041 0 0 0 0 -25762705.171907425 -1091593.8685455322 0 -1091593.8685455322 18021401.35836792 0 0 0 0 -198448691.10540581 43787727.105880737 0 43787727.105880737 18047063.769220352 0 0 0 0 -55325116.49588871 -22362486.555007935 0 -22362486.555007935 -39968882.496109009 0 0 0 0 -42599135.084156036 14263817.987457275 0 14263817.987457275 27826750.822692871 0 0 0 0 15841301.049319267 14068204.51184845 0 14068204.51184845 -12066986.591644287 0 0 0 0 -22004611.071493149 28842795.518188477 0 28842795.518188477 25774918.365005493 0 0 0 0 -13865486.602929946 -3634235.2070218101 0 -3634235.2070218101 8734243.3069326133 0 0 0 0 4128106.016579628 5422681.0098342896 0 5422681.0098342896 44012928.122009277 0 0 0 0 -33395096.679304123 13121242.224319458 0 13121242.224319458 94896741.620864868 0 0 0 0 -33851540.661079407 -59491888.18850708 0 -59491888.18850708 53317289.356944084 0 0 0 0 -16317249.9432621 -48915486.718811035 0 -48915486.718811035 43127213.570728302 0 0 0 0 -24354103.129247665 37695766.338439941 0 37695766.338439941 50173850.414909363 0 0 0 0 -1109488.4427089691 -9968315.7270240784 0 -9968315.7270240784 -13910926.21546936 0 0 0 0 312090.41671437398 -4110965.0195319951 0 -4110965.0195319951 4434752.0332531445 0 0 0 0 3777824.5798492432 -21308031.788009644 0 -21308031.788009644 -10595550.229644775 0 0 0 0 6161978.117261827 -4828620.2586970367 0 -4828620.2586970367 167543.2735344097 0 0 0 0 18498587.62485218 34899460.432491302 0 34899460.432491302 -2309422.5203552246 0 0 0 0 -16625164.323886871 10965690.59727478 0 10965690.59727478 -5236042.99269104 0 0 0 0 7131006.4074707031 -11534192.376220703 0 -11534192.376220703 -22615963.800964355 0 0 0 0 164812.13435266912 -3732046.0232979506 0 -3732046.0232979506 3505802.8635910042 0 0 0 0 4457612.2099759225 -9333082.8476712182 0 -9333082.8476712182 6596683.2357759476 0 0 0 0 -2082672.0163259506 -7015800.7121505737 0 -7015800.7121505737 -2677808.9518127441 0 0 0 0 -2183307.5542831421 -6595524.2754211426 0 -6595524.2754211426 -3405816.9306945801 0 0 0 0 -422741.67811980192 -492956.48221486062 0 -492956.48221486062 -676045.79343436658 0 0 0 0 -4523680.5168151855 -5994139.1778564453 0 -5994139.1778564453 -6232945.2501220703 0 0 0 0 -167450.98938227072 -606399.66884982586 0 -606399.66884982586 -462197.4126201421 0 0 0 0 -10517337.180347443 -15086629.174491882 0 -15086629.174491882 -1335063.4740600586 0 0 0 0 9790557.6160049438 253005.00390625 0 253005.00390625 -23117610.197631836 0 0 0 0 -15863248.216228485 -7651185.010345459 0 -7651185.010345459 9217592.4253540039 0 0 0 0 -11469632.79347229 6011902.8401489258 0 6011902.8401489258 31516955.90536499 0 0 0 0 -17425976.40766716 -9394654.4427337646 0 -9394654.4427337646 23038999.061479568 0 0 0 0 -1347139.4077606201 2614374.7080688477 0 2614374.7080688477 1283367.8064575195 0 0 0 0 -14601967.507442474 -2717782.5502929688 0 -2717782.5502929688 23041603.240692139 0 0 0 0 -19014183.587543488 -12154187.390182495 0 -12154187.390182495 40269183.23828125 0 0 0 0 -15076030.291687012 -4114195.4149169922 0 -4114195.4149169922 56620939.34148407 0 0 0 0 -4768989.0624132156 12997816.623630524 0 12997816.623630524 48540832.169952393 0 0 0 0 259296.97494506836 8272231.8890991211 0 8272231.8890991211 16218813.595306396 0 0 0 0 -17200547.961810112 -19894176.915615082 0 -19894176.915615082 4953025.6307067871 0 0 0 0 -372059.36270142347 -202852.92688087374 0 -202852.92688087374 186373.70122107863 0 0 0 0 -358408.41219069064 -246777.32651599497 0 -246777.32651599497 25279.987740814686 0 0 0 0 58533905.758560181 -3833836.0000305176 0 -3833836.0000305176 40909335.992095947 0 0 0 0 55439885.134010315 -5922390.8852233887 0 -5922390.8852233887 -17585537.323226929 0 0 0 0 36583600.879955292 -39299936.822067261 0 -39299936.822067261 -2009214.7593383789 0 0 0 0 -30975280.572872162 -24015408.655548096 0 -24015408.655548096 2925869.9000854492 0 0 0 0 9608035.9704456329 -66824269.650428772 0 -66824269.650428772 47816249.643432617 0 0 0 0 -5402381.2053719833 -727473.24044905603 0 -727473.24044905603 6227662.443493709 0 0 0 0 297643364.44326591 -131445370.03861237 0 -131445370.03861237 -23226102.697219849 0 0 0 0 60360309.980270386 -128623031.17507172 0 -128623031.17507172 198021633.27145958 0 0 0 0 73194761.649977684 -702530833.9286232 0 -702530833.9286232 954264163.74853516 0 0 0 0 178970148.52159119 -818899991.39807129 0 -818899991.39807129 1069996721.469635 0 0 0 0 194248279.97516537 -589337864.94093704 0 -589337864.94093704 686682183.71496582 0 0 0 0 50167840.946866989 -419582440.20360565 0 -419582440.20360565 543428998.72091436 0 0 0 0 125207632.3174839 -85438031.566635132 0 -85438031.566635132 273752848.85627747 0 0 0 0 -2074339.1979958955 449069.43198800832 0 449069.43198800832 5068002.4495955259 0 0 0 0 -1624843.5314941406 -4508399.3312072754 0 -4508399.3312072754 12218308.562286377 0 0 0 0 -28972412.812279224 -13331235.18078804 0 -13331235.18078804 15211886.865936279 0 0 0 0 -16295858.842041016 -1307241.5516967773 0 -1307241.5516967773 18079667.335876465 0 0 0 0 511679.59523580503 216634.00551922619 0 216634.00551922619 -719354.42993454635 0 0 0 0 6374135.7155761719 -5214892.6979675293 0 -5214892.6979675293 12136588.894042969 0 0 0 0 4648297.5651559886 -5150378.4021286592 0 -5150378.4021286592 1765599.3899095021 0 0 0 0 -68245412.346151352 -107761756.97601318 0 -107761756.97601318 1418504838.0083923 0 0 0 0 -668273313.59377289 -435367112.23130798 0 -435367112.23130798 6084806.0001525879 0 0 0 0 40439.299714753404 -157601.72599980235 0 -157601.72599980235 291589.38293944299 0 0 0 0 -220700700.72766876 -37316428.977615356 0 -37316428.977615356 -34587539.747032166 0 0 0 0 -215718726.07860565 -44053227.633499146 0 -44053227.633499146 -29319991.157226562 0 0 0 0 -875301333.36294556 7927467.3895874023 0 7927467.3895874023 51318019.756912231 0 0 0 0 -71975750.830078125 171339885.25151825 0 171339885.25151825 -64370877.752105713 0 0 0 0 82259228.635818481 -83348709.080413818 0 -83348709.080413818 -50483377.660812378 0 0 0 0 27283965.241641998 12200341.974868774 0 12200341.974868774 -114425148.01316833 0 0 0 0 117375373.88173676 -143997523.07736206 0 -143997523.07736206 -21458213.305648804 0 0 0 0 -13533461.544219971 -83453455.456993103 0 -83453455.456993103 217668646.561203 0 0 0 0 -118722697.38747406 -111979994.04473114 0 -111979994.04473114 22959668.792510986 0 0 0 0 -9279285.5732900482 -1310962.3763719201 0 -1310962.3763719201 4240470.9662952563 0 0 0 0 -875244747.29994202 307229287.21437836 0 307229287.21437836 142904339.52056885 0 0 0 0 -463271408.88447285 -710839666.42181015 0 -710839666.42181015 -758475805.31629944 0 0 0 0 -3418555.683417974 -287530.8819899559 0 -287530.8819899559 1237263.0699010575 0 0 0 0 63735778.068170547 -469913205.49988556 0 -469913205.49988556 -1033792623.9151382 0 0 0 0 -1254585027.342144 -1366593104.000412 0 -1366593104.000412 5511439.5644073486 0 0 0 0 74810926.02686882 -251651538.68791962 0 -251651538.68791962 161140969.92995262 0 0 0 0 415093185.3611145 -1574462722.3530388 0 -1574462722.3530388 295486597.83456421 0 0 0 0 -6179024.4590473175 -871469842.47581863 0 -871469842.47581863 -82016703.301849365 0 0 0 0 -1880550292.134819 -269990927.82092285 0 -269990927.82092285 365713112.72479248 0 0 0 0 -729568218.67429066 -328401194.52825546 0 -328401194.52825546 284773254.67910767 0 0 0 0 -532021895.72431183 -803293484.25497437 0 -803293484.25497437 32848095.318527222 0 0 0 0 -573815955.7961235 -490633323.01272583 0 -490633323.01272583 -30234327.165588379 0 0 0 0 -517190580.64124775 -193917790.07221985 0 -193917790.07221985 -288386213.91098022 0 0 0 0 -20148336.643238068 -866657157.92169189 0 -866657157.92169189 -777667775.07076263 0 0 0 0 1156277.5148914307 -825409.42203657329 0 -825409.42203657329 2027998.4248520583 0 0 0 0 -37755599.371952057 -337485769.53530884 0 -337485769.53530884 2128415626.4704742 0 0 0 0 -161619780.77152634 -430674418.17193604 0 -430674418.17193604 -1093978189.4162445 0 0 0 0 510196541.8221755 -1327399031.9841805 0 -1327399031.9841805 1295506138.9232178 0 0 0 0 529267329.99723434 -1472796055.026474 0 -1472796055.026474 -112760824.32605171 0 0 0 0 682136988.48171985 -668591682.37009323 0 -668591682.37009323 776208734.71865845 0 0 0 0 514734176.41637421 -785407412.93785095 0 -785407412.93785095 734328424.95926285 0 0 0 0 178690564.02556992 -852916352.05870056 0 -852916352.05870056 1930068312.3996887 0 0 0 0 668875392.30098653 -1148910068.2487512 0 -1148910068.2487512 1106563603.4788513 0 0 0 0 620239169.23828506 -665745316.0318222 0 -665745316.0318222 518909966.37662125 0 0 0 0 389684730.41119576 -453672690.60083771 0 -453672690.60083771 483147979.8543396 0 0 0 0 566195910.74471664 -847048468.41660309 0 -847048468.41660309 798723532.91625977 0 0 0 0 452504683.27946663 -651747253.06739044 0 -651747253.06739044 624070243.87187195 0 0 0 0 556409962.93052197 -1149375598.3283653 0 -1149375598.3283653 420140875.76463318 0 0 0 0 495040769.7471199 -553491589.79637527 0 -553491589.79637527 449299120.32011414 0 0 0 0 1089687972.4153275 -506942288.62203217 0 -506942288.62203217 451802951.72927856 0 0 0 0 949577511.94465733 -743798222.09541702 0 -743798222.09541702 259230155.1539917 0 0 0 0 1217217753.6155128 -980591934.91836548 0 -980591934.91836548 163157630.57327271 0 0 0 0 2409623132.6929989 -224368905.43856812 0 -224368905.43856812 205228982.21252728 0 0 0 0 1013173980.3856726 542484291.79438019 0 542484291.79438019 2204167935.1049957 0 0 0 0 372680295.27465153 -536605656.37731552 0 -536605656.37731552 488911337.41875458 0 0 0 0 715547267.53465271 -1356839793.9686956 0 -1356839793.9686956 1889755621.7305145 0 0 0 0 2420399345.2883587 521821084.63909149 0 521821084.63909149 104978759.04042053 0 0 0 0 224071.01090177475 710286.08241805993 0 710286.08241805993 6808378.1956211478 0 0 0 0 1199397190.4489231 -1575864080.8728695 0 -1575864080.8728695 1676951674.9505005 0 0 0 0 -1920044878.6510639 -602800229.91896439 0 -602800229.91896439 1016106443.8054199 0 0 0 0 -791400671.63923454 302594182.53032684 0 302594182.53032684 917236526.20024681 0 0 0 0 -411168554.64480591 226866050.70526505 0 226866050.70526505 625298562.87449646 0 0 0 0 -224746541.97755432 1008491926.5279846 0 1008491926.5279846 2242796606.6492558 0 0 0 0 -982082903.97779846 892991138.98670197 0 892991138.98670197 386372801.74190521 0 0 0 0 -785431987.86096954 256416003.0404129 0 256416003.0404129 747113102.48395538 0 0 0 0 -401677544.74532318 932300526.76483154 0 932300526.76483154 -1171648531.6773834 0 0 0 0 -668026057.62191391 1076902480.5814362 0 1076902480.5814362 -55093514.879364014 0 0 0 0 235460564.58758926 208312647.51182175 0 208312647.51182175 -787879978.1100769 0 0 0 0 1092994333.3116016 117405105.91186523 0 117405105.91186523 -224603014.61816406 0 0 0 0 -97579.516913918545 3096166.4362279866 0 3096166.4362279866 19402245.481082097 0 0 0 0 -289566294.43086052 -276485448.68780613 0 -276485448.68780613 539014899.96315002 0 0 0 0 335852173.67062044 519313736.87761497 0 519313736.87761497 131200872.36459351 0 0 0 0 78062147.858440399 346276522.93836975 0 346276522.93836975 3901218.4285907745 0 0 0 0 84958989.857309818 302125140.69729805 0 302125140.69729805 285021649.70803833 0 0 0 0 -1444832.1730814157 5345999.5674616378 0 5345999.5674616378 31099639.464658186 0 0 0 0 159800125.24771404 401280217.57022667 0 401280217.57022667 39270146.558868408 0 0 0 0 -458030625.05929577 -25630061.820094109 0 -25630061.820094109 6020698.8600463867 0 0 0 0 129564446.9408226 505749649.09326172 0 505749649.09326172 -145418841.24036217 0 0 0 0 56713436.919532776 515986977.22818756 0 515986977.22818756 147335413.11999512 0 0 0 0 15967860.829563141 561377813.10800171 0 561377813.10800171 325441890.22000122 0 0 0 0 -270855654.91910601 171429303.5748291 0 171429303.5748291 657069651.277771 0 0 0 0 -959447603.53088164 389854647.81346512 0 389854647.81346512 679137866.44625854 0 0 0 0 -507738567.98847675 468629203.94070816 0 468629203.94070816 588870957.7734375 0 0 0 0 -134118397.8492012 68225749.945770264 0 68225749.945770264 903827398.49066162 0 0 0 0 -189444340.97542191 258000058.54537964 0 258000058.54537964 410739687.29142761 0 0 0 0 -127370555.58402824 -4047976.5459861755 0 -4047976.5459861755 907858307.06401062 0 0 0 0 305736.66587477177 -2629010.239719674 0 -2629010.239719674 658155.79657945037 0 0 0 0 95805558.876119614 -204191096.7800293 0 -204191096.7800293 268882319.05557251 0 0 0 0 -121330306.14320278 -150967088.60762024 0 -150967088.60762024 592183680.26321411 0 0 0 0 -50461833.704532623 7504894.0304260254 0 7504894.0304260254 658795472.64559937 0 0 0 0 -118944015.80423355 -118322198.83123779 0 -118322198.83123779 746848770.23641968 0 0 0 0 -51987088.798877716 -21187468.735427856 0 -21187468.735427856 511523392.28125 0 0 0 0 1814207.5127823679 -5048908.3267311603 0 -5048908.3267311603 1034718.7595022414 0 0 0 0 -49254565.743122101 105712629.17529678 0 105712629.17529678 -194274442.20437622 0 0 0 0 2070201.7299859915 -3326241.5335141905 0 -3326241.5335141905 -5784858.8933033496 0 0 0 0 -48590925.322080612 -122134531.16104126 0 -122134531.16104126 -131999103.65533447 0 0 0 0 48342898.972995758 -69151145.715103149 0 -69151145.715103149 -88554191.061752319 0 0 0 0 49195257.91736412 -16639969.169807434 0 -16639969.169807434 -163718313.69691658 0 0 0 0 31660668.758422852 -124703703.30602455 0 -124703703.30602455 -139934495.30224609 0 0 0 0 61863499.588151932 -194237606.33307648 0 -194237606.33307648 1455571.1259155273 0 0 0 0 25880853.420017242 -56557632.782333374 0 -56557632.782333374 -81534356.241386414 0 0 0 0 126179977.51302719 -82347610.760681152 0 -82347610.760681152 -122391951.63687134 0 0 0 0 27426912.472213745 -149311690.03727722 0 -149311690.03727722 694958903.93305206 0 0 0 0 98224643.921333313 -28062157.940948486 0 -28062157.940948486 61469665.146699905 0 0 0 0 -4340799.0302856825 6132349.513058098 0 6132349.513058098 42637508.303375281 0 0 0 0 -470072049.54329681 122605519.50711823 0 122605519.50711823 448764452.57658386 0 0 0 0 -1161057592.9098306 -292845051.21270561 0 -292845051.21270561 -147982392.54968262 0 0 0 0 -10691887.247917391 2490889.2455940656 0 2490889.2455940656 54368269.708812594 0 0 0 0 -1636027270.181345 337241903.78270149 0 337241903.78270149 1331658010.5557861 0 0 0 0 -183893726.65867996 -133895828.08544922 0 -133895828.08544922 9087878.8606796265 0 0 0 0 -16571733.629245635 -21630693.624710266 0 -21630693.624710266 10104249.95289265 0 0 0 0 -39486119.010660172 -57804153.559700012 0 -57804153.559700012 8563769.1295013428 0 0 0 0 -138277970.77597773 532702721.96491623 0 532702721.96491623 1699261921.3579941 0 0 0 0 741231312.19956303 -320749292.58639526 0 -320749292.58639526 -955265016.19220161 0 0 0 0 151500061.02330509 -816573394.11986542 0 -816573394.11986542 2692276752.428009 0 0 0 0 -2217285.4983614758 -7010472.9483749764 0 -7010472.9483749764 8447665.2719463259 0 0 0 0 -590183968.87940025 -42395609.591854095 0 -42395609.591854095 5250020115.3601532 0 0 0 0 -460879159.87836444 -368353085.21034336 0 -368353085.21034336 2571596602.1304932 0 0 0 0 -463754548.27725852 1176147838.7316437 0 1176147838.7316437 4299501146.7718887 0 0 0 0 -898736688.4676677 1426521209.5095291 0 1426521209.5095291 5353165160.1486511 0 0 0 0 -252623333.28887865 1484872750.6263695 0 1484872750.6263695 5117886750.8355255 0 0 0 0 -514902054.21461529 927267438.87614822 0 927267438.87614822 4552794941.7252007 0 0 0 0 2833645131.0168653 2550067242.3316956 0 2550067242.3316956 5359299663.5413589 0 0 0 0 2321401540.6949496 2982743001.1942768 0 2982743001.1942768 1762531538.7198181 0 0 0 0 1436946052.7227211 1063205856.2710724 0 1063205856.2710724 -765409601.29644775 0 0 0 0 -289670129.7590211 1982666913.6869507 0 1982666913.6869507 3805700277.8713074 0 0 0 0 -284148877.39050341 2310687121.2783585 0 2310687121.2783585 5371350395.6784439 0 0 0 0 -466849674.02923739 767451443.54088235 0 767451443.54088235 3407479794.8519592 0 0 0 0 159034781.32991707 1316318131.1745605 0 1316318131.1745605 2568242066.3125076 0 0 0 0 487513941.34944135 472703100.94029617 0 472703100.94029617 850076818.92094421 0 0 0 0 327921281.59632778 684971234.57365417 0 684971234.57365417 1551927659.3742085 0 0 0 0 732646167.73912764 174616505.29990387 0 174616505.29990387 193063025.49345398 0 0 0 0 218749041.86084604 -215137709.41803551 0 -215137709.41803551 -89901379.94078064 0 0 0 0 -331997597.63263369 -415578892.91677284 0 -415578892.91677284 -18776501.541801453 0 0 0 0 -58219934.775523379 137237949.06385612 0 137237949.06385612 1079787851.2363129 0 0 0 0 229924109.8798193 -444906616.32453156 0 -444906616.32453156 -159726273.73732758 0 0 0 0 -400082816.06689137 -148782712.35944557 0 -148782712.35944557 1335819300.3836212 0 0 0 0 -11319246.090812357 -25038061.480904683 0 -25038061.480904683 5071526.6259339452 0 0 0 0 -26007258.742076874 5689258.5616149902 0 5689258.5616149902 -60154018.37260437 0 0 0 0 267045347.07040977 11472625.014858246 0 11472625.014858246 -644245120.17826843 0 0 0 0 -7295048.5759797767 -13113447.290809527 0 -13113447.290809527 13392384.42603033 0 0 0 0 -6011355.2268395424 -10236712.591514587 0 -10236712.591514587 3947648.6275062561 0 0 0 0 -4210820.4486840945 -8637183.6203610674 0 -8637183.6203610674 5828687.047698766 0 0 0 0 1120490.1628684998 -37410761.849380493 0 -37410761.849380493 -164808642.67210388 0 0 0 0 -7506756.6406240463 -4930189.2298202515 0 -4930189.2298202515 11696614.891418457 0 0 0 0 -4117317.9755105972 -6664886.3914909363 0 -6664886.3914909363 5494980.8920135498 0 0 0 0 -8349706.0994176865 -5094270.0690536499 0 -5094270.0690536499 7496560.6868896484 0 0 0 0 -6980255.7000035048 -9219553.197259903 0 -9219553.197259903 3261478.4566650391 0 0 0 0 -575218128.96101189 309712268.53703308 0 309712268.53703308 -53931380.231834412 0 0 0 0 -493286087.94747591 -180347536.58472824 0 -180347536.58472824 199845787.60601807 0 0 0 0 -399666106.64914799 17635498.570480347 0 17635498.570480347 405162001.26792908 0 0 0 0 -417815376.67011356 -232806786.09560394 0 -232806786.09560394 338514494.93463135 0 0 0 0 -10599314.480209172 -5606907.4573723525 0 -5606907.4573723525 18804757.690009102 0 0 0 0 -10474869.819206715 -7723063.3730716705 0 -7723063.3730716705 5320360.9158325195 0 0 0 0 -11161490.422587395 -10508239.370201111 0 -10508239.370201111 3988328.9118423462 0 0 0 0 -5560216.2953339992 -8138510.1225642115 0 -8138510.1225642115 18085106.663987949 0 0 0 0 2822157.4916424407 5530306.5252150185 0 5530306.5252150185 12207662.733699877 0 0 0 0 -48986.59470633592 -1380516.3245278299 0 -1380516.3245278299 3277674.4769637287 0 0 0 0 -420259259.96446979 -913309758.72604084 0 -913309758.72604084 4934499168.7911911 0 0 0 0 145097866.64877602 3213372769.0083008 0 3213372769.0083008 5347732806.8200607 0 0 0 0 416406866.25828201 1180474412.7891159 0 1180474412.7891159 3348248850.1209488 0 0 0 0 2105024.4882319821 1740374.8335979208 0 1740374.8335979208 3696616.3516017906 0 0 0 0 -203899084.17053309 -235150115.77807617 0 -235150115.77807617 6986915411.9599075 0 0 0 0 -518458919.89383894 -1649478540.3471222 0 -1649478540.3471222 5344652710.5756073 0 0 0 0 -788388740.7416724 -258156234.04458618 0 -258156234.04458618 2633055238.248642 0 0 0 0 -5346455.5880651474 -4597979.7940368652 0 -4597979.7940368652 4937187.8444213867 0 0 0 0 1112265556.8254819 -1596375586.806572 0 -1596375586.806572 2439919425.6193237 0 0 0 0 4875768567.1419802 -1987164156.7565918 0 -1987164156.7565918 -1879716124.4484863 0 0 0 0 -2255119.8958063959 -6732899.7263658307 0 -6732899.7263658307 1869628.2260676622 0 0 0 0 -2197926.9511361877 -5573500.3538718624 0 -5573500.3538718624 688499.84889569879 0 0 0 0 380796553.42882311 167157989.36439514 0 167157989.36439514 -488209150.05303955 0 0 0 0 -3316565.9358870098 -12509136.050781347 0 -12509136.050781347 7720689.6464715451 0 0 0 0 149504947.58548629 161091368.16376495 0 161091368.16376495 -188262443.0783844 0 0 0 0 -118871223.72231683 -840735926.10821915 0 -840735926.10821915 2257012226.1771088 0 0 0 0 -852965.48640349275 -13215829.272766598 0 -13215829.272766598 5313037.9423513561 0 0 0 0 7434967.9875394106 -17843890.311414719 0 -17843890.311414719 -9610766.8695373535 0 0 0 0 -10792576.198778152 -7486306.7831497192 0 -7486306.7831497192 5156283.3428955078 0 0 0 0 -5950288.5503258444 -7815862.7348138746 0 -7815862.7348138746 14910033.566867247 0 0 0 0 -32859285.716690063 -35732074.611724854 0 -35732074.611724854 22950170.001625061 0 0 0 0 12988795.343628407 -40497739.456838608 0 -40497739.456838608 3945248.9019775391 0 0 0 0 -7595204.1968822479 -6391810.8986968994 0 -6391810.8986968994 8094487.2861289978 0 0 0 0 -136854711.054986 -25298774.461380005 0 -25298774.461380005 91655115.482208252 0 0 0 0 -5545443.2724852078 -2161634.5352482023 0 -2161634.5352482023 14227450.393871799 0 0 0 0 -79563271.514428139 -7014576.1533660889 0 -7014576.1533660889 6159729.1691541672 0 0 0 0 -120095512.89995003 -46773568.79335022 0 -46773568.79335022 94506471.491912842 0 0 0 0 -172999145.5169487 41336915.084106445 0 41336915.084106445 -25948672.561035156 0 0 0 0 60347916.721745729 -22771780.318450928 0 -22771780.318450928 -10035576.912368774 0 0 0 0 8215404.2066405118 -6409902.7982297242 0 -6409902.7982297242 -4740416.731046021 0 0 0 0 18939912.083136559 -100073848.87825012 0 -100073848.87825012 72254160.981140137 0 0 0 0 -36606156.256560326 46875441.005432129 0 46875441.005432129 -342116754.12475586 0 0 0 0 -110692034.91393036 -182791459.01237679 0 -182791459.01237679 -132288312.73797607 0 0 0 0 -129443582.72411585 -34570493.500293732 0 -34570493.500293732 9714728.3387451172 0 0 0 0 -237354415.79769039 631209500.24417877 0 631209500.24417877 415644252.62771606 0 0 0 0 -181149045.82379913 180288687.03987122 0 180288687.03987122 735134902.41667175 0 0 0 0 -98382082.15070343 472640692.89189148 0 472640692.89189148 1027090355.7617188 0 0 0 0 1525576095.9330227 -1531362089.1121674 0 -1531362089.1121674 -468895793.99694824 0 0 0 0 -134481016.27768993 736506212.66880035 0 736506212.66880035 3481689986.7158203 0 0 0 0 2274923652.6148014 667130224.70440674 0 667130224.70440674 -65056650.243377686 0 0 0 0 -409776390.71481323 209086306.42982483 0 209086306.42982483 10850605.826164246 0 0 0 0 1468136.973440602 -2102335.7025259137 0 -2102335.7025259137 2755770.3906668574 0 0 0 0 -166861099.48095065 -1862056480.22752 0 -1862056480.22752 -256332098.87823486 0 0 0 0 431356470.27007246 9208528.0849113464 0 9208528.0849113464 -1596171264.773468 0 0 0 0 -1181035.657007128 -2382559.8230069429 0 -2382559.8230069429 1209221.0880686902 0 0 0 0 251931447.1683712 261387261.9883728 0 261387261.9883728 -376887337.21307373 0 0 0 0 6007153.2732744887 -6059194.9222916588 0 -6059194.9222916588 15158.491559118032 0 0 0 0 131369.56725005069 -1427355.6706768274 0 -1427355.6706768274 -246483.91526134312 0 0 0 0 321738321.77961922 -426419858.3572998 0 -426419858.3572998 -2122688783.6815186 0 0 0 0 -487483139.93593788 -283252533.61228561 0 -283252533.61228561 -137750112.41137695 0 0 0 0 15179.826787818223 -114863.97817421705 0 -114863.97817421705 366730.84891416878 0 0 0 0 3612236.4162467849 -6320009.8278420866 0 -6320009.8278420866 866033.47387038171 0 0 0 0 -1115091.46213126 -7703081.5257663652 0 -7703081.5257663652 2409562.0472471341 0 0 0 0 -20042865.708042145 50738952.694641113 0 50738952.694641113 -159699901.00387573 0 0 0 0 -294334103.22565556 -518008446.52156067 0 -518008446.52156067 235995779.06193542 0 0 0 0 13905451.783168793 83522448.273864746 0 83522448.273864746 -138838127.52150726 0 0 0 0 113836220.9064045 -91475906.204299927 0 -91475906.204299927 -138891986.67086792 0 0 0 0 -71732241.457975388 -19588015.741241455 0 -19588015.741241455 9009969.317199707 0 0 0 0 -94389934.831740856 -187763879.86109924 0 -187763879.86109924 616964600.11959839 0 0 0 0 170041631.06162357 -384801626.10202026 0 -384801626.10202026 499998993.98428345 0 0 0 0 -28845076.790293992 43099671.019042969 0 43099671.019042969 -68479860.374370575 0 0 0 0 50253245.406875983 135155938.03244972 0 135155938.03244972 30869744.954772949 0 0 0 0 350235625.02460098 -256899719.28515625 0 -256899719.28515625 133854236.68300247 0 0 0 0 -522372.30239418265 -1025378.4282159954 0 -1025378.4282159954 2822286.1860338897 0 0 0 0 -598743931.90709352 994965991.0831604 0 994965991.0831604 2620777012.048584 0 0 0 0 -828419966.55519164 237719196.02962494 0 237719196.02962494 2067697597.23526 0 0 0 0 204899820.65166759 -780677222.78582764 0 -780677222.78582764 1194446732.8004456 0 0 0 0 -240770120.72140312 368030267.97782135 0 368030267.97782135 1499030885.65938 0 0 0 0 -46164305.8812778 293676621.91163635 0 293676621.91163635 479561187.63919067 0 0 0 0 453158868.43719459 174281791.677742 0 174281791.677742 457412054.44458008 0 0 0 0 241288056.95565724 -342405395.85146332 0 -342405395.85146332 1190497757.8633881 0 0 0 0 160815488.18339473 235035265.87548065 0 235035265.87548065 374777320.85189819 0 0 0 0 41952151.622600555 -213868078.86024666 0 -213868078.86024666 38902990.271270752 0 0 0 0 -4435513.7151928032 8349041.2129729018 0 8349041.2129729018 14237348.923111096 0 0 0 0 65367453.130990982 -52742966.111160278 0 -52742966.111160278 214927717.02177429 0 0 0 0 -15844870.599915981 -49855653.560287476 0 -49855653.560287476 238263850.04754639 0 0 0 0 -375496170.03351879 -141588951.00308895 0 -141588951.00308895 2065090317.0209656 0 0 0 0 415144486.49398994 -608955181.40818787 0 -608955181.40818787 638043592.72399902 0 0 0 0 427799143.11249161 867327492.56039429 0 867327492.56039429 672216427.72181702 0 0 0 0 -606416.15258335276 3378695.6982439775 0 3378695.6982439775 4751518.8352460712 0 0 0 0 629641597.68871689 -1179498511.9617615 0 -1179498511.9617615 2000860333.2381592 0 0 0 0 -165232415.15788651 63110299.798698425 0 63110299.798698425 842657055.40655518 0 0 0 0 -356514495.37040734 -36865219.093718529 0 -36865219.093718529 911463180.41552734 0 0 0 0 -248696984.53284454 -47804276.203742981 0 -47804276.203742981 898976931.29973602 0 0 0 0 46445495.125436187 -239719168.10999775 0 -239719168.10999775 431377583.75961304 0 0 0 0 -246632796.15126228 -25548608.620437622 0 -25548608.620437622 777366997.40100098 0 0 0 0 -81396507.070446014 109405197.17461395 0 109405197.17461395 443495081.28312683 0 0 0 0 -94004926.013144493 207763340.66928482 0 207763340.66928482 890369655.80975342 0 0 0 0 -224482931.63509619 -251670652.63510895 0 -251670652.63510895 582201765.16662598 0 0 0 0 204429893.9291935 246008386.77976227 0 246008386.77976227 290731829.38786316 0 0 0 0 -625087.37931607035 -192508.69999801088 0 -192508.69999801088 1203105.8710110039 0 0 0 0 250701677.39042678 26957309.377141953 0 26957309.377141953 757404466.381073 0 0 0 0 -108153447.64492905 -15161844.026260376 0 -15161844.026260376 871865593.50286865 0 0 0 0 251797470.12227297 12978750.021835327 0 12978750.021835327 663279021.52868652 0 0 0 0 -136273201.1656971 -41277886.491165161 0 -41277886.491165161 925878855.66959763 0 0 0 0 209930118.61670017 -14356476.84211731 0 -14356476.84211731 663333048.66148663 0 0 0 0 260610583.50881004 58046484.540000916 0 58046484.540000916 566909409.47569275 0 0 0 0 338903633.60041833 -26568441.660362244 0 -26568441.660362244 658242834.7925415 0 0 0 0 425348380.94611883 -175193850.15705872 0 -175193850.15705872 730639471.78517151 0 0 0 0 612118550.32093871 -37930067.435260773 0 -37930067.435260773 467108181.92504883 0 0 0 0 556397436.05878413 -223125708.66252136 0 -223125708.66252136 723359878.91748047 0 0 0 0 -110449816.02002954 222790684.56834412 0 222790684.56834412 567248186.94085693 0 0 0 0 381275047.04684973 -6843692.9466094971 0 -6843692.9466094971 200243309.70329285 0 0 0 0 -112585124.46648693 147789299.90194702 0 147789299.90194702 334425961.57801819 0 0 0 0 -163018179.57621288 14135301.97174263 0 14135301.97174263 606495892.10874939 0 0 0 0 -306646935.05009842 157210262.52700806 0 157210262.52700806 780511878.08628845 0 0 0 0 -315734227.10208607 121160735.02784729 0 121160735.02784729 1086883017.2061157 0 0 0 0 -252902877.65309143 447252331.05406189 0 447252331.05406189 558822986.02087402 0 0 0 0 -184993463.40145874 88431986.944030762 0 88431986.944030762 429686600.19433594 0 0 0 0 -17514946.443809509 -119697588.56253815 0 -119697588.56253815 -95432561.532608032 0 0 0 0 -18527933.289671898 -135354551.84289551 0 -135354551.84289551 -336215071.25047302 0 0 0 0 -578061527.35680866 -283198339.12767029 0 -283198339.12767029 288637096.7628231 0 0 0 0 158102422.81308126 174724133.80352783 0 174724133.80352783 -406867507.26889038 0 0 0 0 -341150107.27658045 -363746813.99258327 0 -363746813.99258327 222943686.88702393 0 0 0 0 -378626390.87551165 -39764192.515296936 0 -39764192.515296936 8383033.186126709 0 0 0 0 4320233.8267932953 -9012036.9959475435 0 -9012036.9959475435 7489669.8620485812 0 0 0 0 461303.82712781429 -2123185.9030735046 0 -2123185.9030735046 1137552.282075271 0 0 0 0 82434546.220691562 -465545299.70169926 0 -465545299.70169926 1398127903.2458496 0 0 0 0 334245419.30725986 2000389451.5355949 0 2000389451.5355949 5346289037.3241272 0 0 0 0 132596247.86623038 1121476647.2170715 0 1121476647.2170715 1805721639.9490948 0 0 0 0 -893415676.73120642 62756889.32157135 0 62756889.32157135 5356939085.859375 0 0 0 0 888636361.78834605 -1319295758.6056519 0 -1319295758.6056519 3429260027.22612 0 0 0 0 -882315671.20641816 -666890915.71833038 0 -666890915.71833038 5328857307.2022705 0 0 0 0 1756967862.4660428 -1286926448.2625897 0 -1286926448.2625897 464789160.19134521 0 0 0 0 1763966132.8306394 -488378081.72419739 0 -488378081.72419739 -295534761.74742126 0 0 0 0 2054324.4377096118 -3060967.333540149 0 -3060967.333540149 3932622.4831726104 0 0 0 0 663542008.1856041 120361148.46659851 0 120361148.46659851 -98897835.08052063 0 0 0 0 1310839332.522114 -424752982.6700592 0 -424752982.6700592 17440797.339385986 0 0 0 0 528888777.00966406 -55207747.958808899 0 -55207747.958808899 -890976506.51687622 0 0 0 0 1288764745.8064904 -767871667.16625595 0 -767871667.16625595 -998222055.19140625 0 0 0 0 936911754.36920261 -847399816.49411774 0 -847399816.49411774 114700045.56300354 0 0 0 0 930740333.3941226 -1009717141.9737091 0 -1009717141.9737091 -347377636.72735596 0 0 0 0 857064239.41749907 -675797000.16149139 0 -675797000.16149139 -120005135.40692139 0 0 0 0 424333155.6454649 -313215142.8707962 0 -313215142.8707962 454959078.55093384 0 0 0 0 628854245.52525568 -203277603.49523926 0 -203277603.49523926 173607138.58096027 0 0 0 0 1051685610.714115 -582718076.44869995 0 -582718076.44869995 502786600.90539551 0 0 0 0 682433561.1170764 -272757142.99017334 0 -272757142.99017334 413843792.43151855 0 0 0 0 2355966478.6065707 -1605926154.7163391 0 -1605926154.7163391 -416580451.05709839 0 0 0 0 744777447.13219309 -552421794.13521576 0 -552421794.13521576 1542802816.253479 0 0 0 0 -523571156.01190817 -184815231.41120911 0 -184815231.41120911 1810906902.2092285 0 0 0 0 -1300860991.5557194 -876109455.50793457 0 -876109455.50793457 3153555397.3557549 0 0 0 0 -558688457.03163433 -81292729.944122314 0 -81292729.944122314 1549648209.8087158 0 0 0 0 765927.0430911429 -477004.70820842683 0 -477004.70820842683 366912.51468078792 0 0 0 0 -1646821688.8093052 1592141780.5407562 0 1592141780.5407562 -986388224.5447998 0 0 0 0 -1140974402.3156519 -506156701.89886475 0 -506156701.89886475 3117779574.6206589 0 0 0 0 1033490218.7527311 -179023827.18454266 0 -179023827.18454266 -219312879.29647827 0 0 0 0 -64079012.77114886 -420112788.95170593 0 -420112788.95170593 1078419373.0815582 0 0 0 0 577899.33020646777 739351.96243222803 0 739351.96243222803 2675254.2857055515 0 0 0 0 634375762.66454995 -1103263364.7166901 0 -1103263364.7166901 849932992.44989014 0 0 0 0 962008337.09344459 -304421052.29119873 0 -304421052.29119873 252654785.90136719 0 0 0 0 -188609238.22040316 203278576.2514267 0 203278576.2514267 -224081660.62963867 0 0 0 0 -179815.86657030496 -2410454.5812531654 0 -2410454.5812531654 2457805.6281650215 0 0 0 0 151780.07840446156 -1048213.2598547488 0 -1048213.2598547488 1058108.725492999 0 0 0 0 -90665558.64651376 -510770709.54052734 0 -510770709.54052734 577979739.1967926 0 0 0 0 -593492086.42363918 338217835.60874939 0 338217835.60874939 615334568.21270752 0 0 0 0 315156700.89838392 -281925989.63682556 0 -281925989.63682556 -541225083.04937744 0 0 0 0 297312715.04485726 -1145493573.0206985 0 -1145493573.0206985 1490917063.4714355 0 0 0 0 395879102.07648182 508463728.31609344 0 508463728.31609344 -148542185.60235596 0 0 0 0 -761731778.97387373 -226205655.08878851 0 -226205655.08878851 5340609665.4732971 0 0 0 0 -84142.071406358868 -1151043.6793997306 0 -1151043.6793997306 1052310.0938349366 0 0 0 0 -241100878.00453162 -1267633636.5560913 0 -1267633636.5560913 5275276355.6671753 0 0 0 0 -179603.9732057795 -2103817.8355573248 0 -2103817.8355573248 1798331.5894782543 0 0 0 0 -1027447816.2516606 352199518.7911911 0 352199518.7911911 3364865951.1545105 0 0 0 0 1183687999.1830947 -1161734701.557457 0 -1161734701.557457 1503833015.5968628 0 0 0 0 -1386006.4757954448 43633611.325286865 0 43633611.325286865 2462489915.1132202 0 0 0 0 -411854.84792222548 -820760.59188032662 0 -820760.59188032662 4382184.4778075814 0 0 0 0 56071688.362175085 -943794879.01721191 0 -943794879.01721191 5333526600.4175415 0 0 0 0 181329137.65556395 958013794.47299957 0 958013794.47299957 2467826672.8088379 0 0 0 0 -766864360.80089641 -116228189.95926952 0 -116228189.95926952 3054089832.4830933 0 0 0 0 -834052077.88454413 571622973.37205505 0 571622973.37205505 5346699664.0802488 0 0 0 0 502114812.81702882 -504837279.7590456 0 -504837279.7590456 -851703390.51724243 0 0 0 0 415482158.78464115 828947129.73641968 0 828947129.73641968 759002432.69303894 0 0 0 0 -202621.12076180693 -15160464.485794067 0 -15160464.485794067 -10448394.395355225 0 0 0 0 1496602626.1125588 -1111992844.0512238 0 -1111992844.0512238 -108534789.24511719 0 0 0 0 -992968.88345202804 2319261.6508780792 0 2319261.6508780792 4944604.3964425325 0 0 0 0 -98559697.046955094 -80103405.701774597 0 -80103405.701774597 -53205960.10005188 0 0 0 0 -606861.90626747312 1473256.4584804699 0 1473256.4584804699 4192957.2331544533 0 0 0 0 -245528.21076764111 -1079300.5943387765 0 -1079300.5943387765 5955234.2705952674 0 0 0 0 -60043393.051211357 59300695.394691467 0 59300695.394691467 -46961625.723587036 0 0 0 0 681967227.56412768 -474840299.94371033 0 -474840299.94371033 147769189.74460411 0 0 0 0 12383461.622448951 236382984.48157406 0 236382984.48157406 211648610.00576782 0 0 0 0 271496.04599348118 -97991011.889984131 0 -97991011.889984131 -114425804.18815613 0 0 0 0 -175456389.66212103 103051690.35590363 0 103051690.35590363 485817579.82116699 0 0 0 0 -145035786.42916104 12415705.804000854 0 12415705.804000854 320760850.82809448 0 0 0 0 -64199905.168244451 148910245.64640808 0 148910245.64640808 63855304.959320068 0 0 0 0 -662072.10302743176 -222139961.5570192 0 -222139961.5570192 681846021.8894043 0 0 0 0 -205736541.6771583 -611221404.39474487 0 -611221404.39474487 318179722.4168396 0 0 0 0 -206417051.51733243 -34180904.593578339 0 -34180904.593578339 1108329108.564209 0 0 0 0 -350958684.68548429 -1216663023.9836731 0 -1216663023.9836731 2180026709.5064697 0 0 0 0 252017758.55936563 -543902905.95992279 0 -543902905.95992279 802598691.81033278 0 0 0 0 -888988.35713765933 -271496.13899901509 0 -271496.13899901509 3783730.3481714576 0 0 0 0 726234395.24704432 296703.93394470215 0 296703.93394470215 1673717234.484314 0 0 0 0 590687029.41424942 -528984941.64440918 0 -528984941.64440918 801739605.52734184 0 0 0 0 27141.322997190051 -870492.19363652635 0 -870492.19363652635 2365114.5524564236 0 0 0 0 736934087.48065841 -656412883.40527344 0 -656412883.40527344 455018505.58880615 0 0 0 0 -638175.2688742067 -130327.23454845697 0 -130327.23454845697 1833780.5933109224 0 0 0 0 -311428871.73375893 336177184.61307144 0 336177184.61307144 599629364.62033081 0 0 0 0 267606595.62444001 -479913090.934021 0 -479913090.934021 141835290.4743576 0 0 0 0 1418356392.792495 -1175214891.4416199 0 -1175214891.4416199 1499923763.3422241 0 0 0 0 1176209259.0224495 -27611433.773880005 0 -27611433.773880005 771524044.46035767 0 0 0 0 208260070.090312 -141598488.88018799 0 -141598488.88018799 625557134.50997555 0 0 0 0 334379307.11425447 -558431378.59460449 0 -558431378.59460449 624483541.45167959 0 0 0 0 650116776.24800873 -234607267.03759766 0 -234607267.03759766 583793790.19552612 0 0 0 0 194025064.52753198 -325792308.80548096 0 -325792308.80548096 867457075.96221924 0 0 0 0 215542228.49227071 -276562852.50322723 0 -276562852.50322723 610754956.07042694 0 0 0 0 230633943.36089897 -624132640.00804901 0 -624132640.00804901 650118881.14978027 0 0 0 0 229005681.75291982 -393564199.00289917 0 -393564199.00289917 662162404.35494995 0 0 0 0 63447557.728151917 -490342317.10224915 0 -490342317.10224915 670160804.22599506 0 0 0 0 65113065.39291358 -517204634.83462524 0 -517204634.83462524 944484143.77871704 0 0 0 0 141828058.27380443 -514663931.03910828 0 -514663931.03910828 923954645.69308472 0 0 0 0 -41468175.024299271 -480887635.08323669 0 -480887635.08323669 1024334699.4856262 0 0 0 0 -100140525.10599124 -274140745.72354126 0 -274140745.72354126 859450788.04640579 0 0 0 0 -239066404.85270438 -331672808.06415558 0 -331672808.06415558 851138561.30151367 0 0 0 0 -22101493.128267862 -335046210.28530884 0 -335046210.28530884 610044203.6966095 0 0 0 0 -67998977.148930103 -222274937.14085388 0 -222274937.14085388 872837263.19909668 0 0 0 0 122863105.52371708 -506219034.63722229 0 -506219034.63722229 901013172.83873367 0 0 0 0 186994333.33702177 -370523009.58590698 0 -370523009.58590698 1129823062.0764465 0 0 0 0 2049585.0010803859 -235538389.5265274 0 -235538389.5265274 1057256761.6017761 0 0 0 0 142864928.75118566 -889009416.70191956 0 -889009416.70191956 1809828938.289444 0 0 0 0 -337419.0043735964 -737347.75101160258 0 -737347.75101160258 3075225.7589509934 0 0 0 0 906440875.42124343 -1408280243.3591461 0 -1408280243.3591461 1432567547.354248 0 0 0 0 704013.77051114175 -308049134.13269806 0 -308049134.13269806 128460208.0496254 0 0 0 0 912250410.59634364 -726894998.65888977 0 -726894998.65888977 843265969.98910522 0 0 0 0 126349393.2516166 -540879948.81816101 0 -540879948.81816101 1109869414.6720581 0 0 0 0 437489836.61492288 -838914740.51799011 0 -838914740.51799011 1231387908.5250549 0 0 0 0 2116158.2084959503 -12567109.286484746 0 -12567109.286484746 44109273.252871931 0 0 0 0 -301561926.08462906 -362293759.22688103 0 -362293759.22688103 544827405.94219971 0 0 0 0 -459866465.61621857 -107671844.99009705 0 -107671844.99009705 170837911.31378174 0 0 0 0 -82879530.847652435 -33502643.067329407 0 -33502643.067329407 79627478.852147102 0 0 0 0 4332784.0577938166 70559084.190341294 0 70559084.190341294 113486623.34854126 0 0 0 0 40641336.039920807 -128582245.78070641 0 -128582245.78070641 69627834.41519022 0 0 0 0 -127196381.56043816 15298029.102890015 0 15298029.102890015 152994160.18870926 0 0 0 0 -54417669.143664837 -20420125.604194641 0 -20420125.604194641 59952689.281524658 0 0 0 0 -309379133.01048279 -135892312.62997437 0 -135892312.62997437 61900647.018951416 0 0 0 0 264003182.31330109 -57656851.146987915 0 -57656851.146987915 -144376246.38311768 0 0 0 0 81421756.735069275 376048232.37302399 0 376048232.37302399 192234694.69915009 0 0 0 0 2505914.6673945505 714082.64531469345 0 714082.64531469345 2939180.5701367036 0 0 0 0 -231766727.03285789 -175975259.13279629 0 -175975259.13279629 13530379.638793945 0 0 0 0 -167174110.89438868 60331648.787909508 0 60331648.787909508 164901285.61238098 0 0 0 0 -120445301.77800941 -273895964.50498581 0 -273895964.50498581 -161185924.24578094 0 0 0 0 2489905.7486911863 -70633.899448685348 0 -70633.899448685348 -969685.63404875249 0 0 0 0 247746874.98551559 -73530880.823135376 0 -73530880.823135376 23047794.920593262 0 0 0 0 -341671834.50295639 147039516.75193787 0 147039516.75193787 10088842.63885498 0 0 0 0 -21734818.639541626 118039014.2599411 0 118039014.2599411 111215467.2723999 0 0 0 0 -279513362.60926819 25351619.837890625 0 25351619.837890625 246089804.15200806 0 0 0 0 -147324908.94320679 195566384.2159729 0 195566384.2159729 400078515.31526184 0 0 0 0 -73722480.669113159 -116779692.19026184 0 -116779692.19026184 327363257.52953339 0 0 0 0 -75654064.956085205 -66665478.908317566 0 -66665478.908317566 -88439924.090148926 0 0 0 0 -95019639.608398438 -23316561.571624756 0 -23316561.571624756 -163749130.2102356 0 0 0 0 -504397273.27975464 60898967.714847565 0 60898967.714847565 406723002.14077759 0 0 0 0 -552520479.19021606 -360037051.94727325 0 -360037051.94727325 186728527.04846954 0 0 0 0 -233976503.10363102 64531100.565493584 0 64531100.565493584 -463425201.25369263 0 0 0 0 5809557.2373490334 -6682237.0801505409 0 -6682237.0801505409 -5944526.8715499118 0 0 0 0 1224175.6327868588 -6432307.6438892409 0 -6432307.6438892409 36394844.976094045 0 0 0 0 240339591.60871175 523204766.80776572 0 523204766.80776572 455833304.06303406 0 0 0 0 -156178443.89947605 -35686078.000947952 0 -35686078.000947952 564841076.03379822 0 0 0 0 -120390548.73577499 46795624.198078156 0 46795624.198078156 -148868742.13922119 0 0 0 0 -46659833.963012695 -184981768.66699982 0 -184981768.66699982 86566568.184692383 0 0 0 0 -631663918.82867813 -372674902.91893005 0 -372674902.91893005 -24767251.778226852 0 0 0 0 12322682.005604789 -13032735.058024019 0 -13032735.058024019 17596711.798760079 0 0 0 0 6564205.2734870911 -3202145.2381591797 0 -3202145.2381591797 15628590.645462036 0 0 0 0 -3406239.7001485825 31471784.596525192 0 31471784.596525192 58609113.831977844 0 0 0 0 8866249.9056434631 4657758.3941345215 0 4657758.3941345215 28876021.751434326 0 0 0 0 1404370.7952559739 3348519.8647341821 0 3348519.8647341821 1378660.9992290512 0 0 0 0 -25750954.755127907 12963267.72032547 0 12963267.72032547 61645896.158050537 0 0 0 0 -35724205.267566681 -7883472.3788719177 0 -7883472.3788719177 52342094.66078186 0 0 0 0 5899947.0314865112 11516145.691473007 0 11516145.691473007 43343239.62219429 0 0 0 0 -30646013.513560295 163575672.13004684 0 163575672.13004684 116286741.91397095 0 0 0 0 -26024805.128278732 77949706.344097137 0 77949706.344097137 14810873.899757385 0 0 0 0 -252822639.42956638 -145318257.11619568 0 -145318257.11619568 362752190.43587494 0 0 0 0 -456450380.06384969 383581862.98888183 0 383581862.98888183 -318420236.28784513 0 0 0 0 40849078.69313395 -44722021.671140432 0 -44722021.671140432 -268802043.47276068 0 0 0 0 513148501.97332835 -993505914.78525496 0 -993505914.78525496 367734969.64363384 0 0 0 0 524238233.4649725 -810697747.93470955 0 -810697747.93470955 900307508.4434433 0 0 0 0 58547.007956677087 714845.42170421826 0 714845.42170421826 3519468.6497891843 0 0 0 0 -144047193.35082114 172268392.27702498 0 172268392.27702498 -175745478.75554466 0 0 0 0 -86527526.873018742 60546235.680247307 0 60546235.680247307 -78875106.78848362 0 0 0 0 142789217.32821059 224787914.13180083 0 224787914.13180083 -506025867.67185974 0 0 0 0 189116732.75109613 -51537976.397500277 0 -51537976.397500277 1087811125.5338557 0 0 0 0 515758939.47764522 218064342.96308923 0 218064342.96308923 -415563127.05156755 0 0 0 0 25465205.991996765 -378200566.81948853 0 -378200566.81948853 648451027.41680908 0 0 0 0 -212507147.42707181 -268334554.31831169 0 -268334554.31831169 767372694.59176636 0 0 0 0 793861.54574512539 -3279571.7376387408 0 -3279571.7376387408 182137.8021857515 0 0 0 0 -7998733.3696583677 9236973.0007876698 0 9236973.0007876698 4647521.1594236717 0 0 0 0 69870020.250888824 63941054.836185455 0 63941054.836185455 -63933618.865905762 0 0 0 0 -977404.21482555266 -6234884.6901775999 0 -6234884.6901775999 37708148.282145053 0 0 0 0 -1051083949.7499161 -212572148.93000007 0 -212572148.93000007 685316519.07817745 0 0 0 0 -364040252.15398765 -1086198770.9458847 0 -1086198770.9458847 1503816608.5348725 0 0 0 0 -164520591.21985722 137522172.87778091 0 137522172.87778091 -526633168.94384003 0 0 0 0 108159427.82051349 236424411.71357191 0 236424411.71357191 329710355.74874115 0 0 0 0 2267401.6005891617 -1497042.7932086606 0 -1497042.7932086606 793055.50141515722 0 0 0 0 481086411.81161308 -744257252.27019358 0 -744257252.27019358 170635495.19064569 0 0 0 0 148064634.03835809 63051114.69190979 0 63051114.69190979 798743971.11438751 0 0 0 0 -62144294.93169117 208142965.82345533 0 208142965.82345533 -324677176.31934011 0 0 0 0 240881688.56802213 -123189701.92995775 0 -123189701.92995775 -142672312.9380908 0 0 0 0 -415173252.76042509 -245431792.05933535 0 -245431792.05933535 -57183639.471817017 0 0 0 0 4587363.013601454 -3399292.3273986573 0 -3399292.3273986573 3442000.9924627631 0 0 0 0 -84911393.979895115 -128200811.32355404 0 -128200811.32355404 -140491391.16257143 0 0 0 0 86757128.171131849 132968703.81471074 0 132968703.81471074 -120522322.02229357 0 0 0 0 341930918.16181159 -35636771.15349865 0 -35636771.15349865 -203049386.13812923 0 0 0 0 26579336.364488125 -97519695.328708649 0 -97519695.328708649 26378412.850466728 0 0 0 0 5625568.9153535366 -128540126.33083153 0 -128540126.33083153 99608907.622724533 0 0 0 0 240939946.31529105 -156589212.03317547 0 -156589212.03317547 -148433199.33509731 0 0 0 0 -76392558.169778824 -12320754.677585244 0 -12320754.677585244 -50830602.127752781 0 0 0 0 8166437.5715212822 28563830.613048553 0 28563830.613048553 98932058.401683807 0 0 0 0 -65774219.920530081 -1114406.5932641029 0 -1114406.5932641029 35500346.761375427 0 0 0 0 -191362322.68799591 -628269731.2271328 0 -628269731.2271328 -1256284206.3998184 0 0 0 0 -1293131.9371619797 170360.60391897347 0 170360.60391897347 1924988.3911097201 0 0 0 0 220608710.92938364 -15025335.877652168 0 -15025335.877652168 -222392092.42320156 0 0 0 0 244785063.45504045 7601730.1990222931 0 7601730.1990222931 -512423118.68243217 0 0 0 0 295409512.46784425 -130595654.71263504 0 -130595654.71263504 -362712985.86415386 0 0 0 0 196332950.69046903 -229272207.38023472 0 -229272207.38023472 -498437009.95605773 0 0 0 0 74910953.761696815 -276406252.2059679 0 -276406252.2059679 -312240319.38894653 0 0 0 0 243639000.10647291 -109894052.97909141 0 -109894052.97909141 -291812995.95467758 0 0 0 0 -50396259.833791256 -185338695.94316483 0 -185338695.94316483 -89890122.356075287 0 0 0 0 85941281.808074892 -202794362.09598112 0 -202794362.09598112 -194480121.34083748 0 0 0 0 239930614.99199677 -108640466.00808525 0 -108640466.00808525 -137695153.22602654 0 0 0 0 52291964.569701672 -64374619.672967911 0 -64374619.672967911 16572617.570131302 0 0 0 0 -2129192.8858290785 5424375.6187290195 0 5424375.6187290195 16546448.14563299 0 0 0 0 322136977.25088352 168597903.55079651 0 168597903.55079651 -34483613.32844162 0 0 0 0 -9039269.802781105 368051339.12901497 0 368051339.12901497 -11300284.903778076 0 0 0 0 -164650698.40361118 -162385578.1691227 0 -162385578.1691227 240814173.2278223 0 0 0 0 -580775500.02875233 611391595.56105995 0 611391595.56105995 -24498960.076229095 0 0 0 0 965581897.60259092 398103638.73771191 0 398103638.73771191 -34654877.100751877 0 0 0 0 -74266507.317740679 202884857.25969338 0 202884857.25969338 131459165.00088501 0 0 0 0 779947053.33099067 -283107733.60018826 0 -283107733.60018826 171867403.8964653 0 0 0 0 -355825.18319420918 1066443.4913558522 0 1066443.4913558522 5089481.3312265929 0 0 0 0 -149360006.08594835 30148897.773890495 0 30148897.773890495 515238181.3200264 0 0 0 0 407635493.3757726 -2161617.4118375778 0 -2161617.4118375778 20430299.129574895 0 0 0 0 310981268.92823815 -351594572.24534917 0 -351594572.24534917 253303281.42737961 0 0 0 0 189342764.34282029 1029712235.2297382 0 1029712235.2297382 -770788050.43073463 0 0 0 0 69668551.14477396 -466841715.37219334 0 -466841715.37219334 1428997685.1443329 0 0 0 0 -759085139.35134554 885374997.00911903 0 885374997.00911903 340107543.62574196 0 0 0 0 761123041.37450933 1179162576.9459534 0 1179162576.9459534 387278416.98944855 0 0 0 0 636935026.77276683 -960688463.32743645 0 -960688463.32743645 -627470223.22080135 0 0 0 0 1907878754.7985296 -777816365.61476994 0 -777816365.61476994 -605391308.91835022 0 0 0 0 -162542832.81960058 -651474613.5237236 0 -651474613.5237236 1436847688.6265106 0 0 0 0 -225241317.60786438 -334261900.39501762 0 -334261900.39501762 67120461.710662842 0 0 0 0 -465595083.2084446 -235545402.5281868 0 -235545402.5281868 31895408.505664825 0 0 0 0 -559052526.79010582 -283205653.76486969 0 -283205653.76486969 771665984.02494049 0 0 0 0 -46128573.622577667 464908980.22446442 0 464908980.22446442 1006709603.2416344 0 0 0 0 9780192.4270448685 186570954.88526535 0 186570954.88526535 161601530.61495972 0 0 0 0 -162088548.73167801 70535890.499809265 0 70535890.499809265 201539648.09025717 0 0 0 0 -384777064.7875433 -141898192.65381432 0 -141898192.65381432 20821062.220859528 0 0 0 0 -78672782.736796379 58159348.814647198 0 58159348.814647198 147479401.40384865 0 0 0 0 -160724241.21862173 183713975.91244507 0 183713975.91244507 200154418.15688133 0 0 0 0 92654011.195034027 -76441466.723087311 0 -76441466.723087311 142438299.38066769 0 0 0 0 292837.93672576034 105445.98801531317 0 105445.98801531317 3384869.3496655636 0 0 0 0 178380406.80702782 -25238826.483629227 0 -25238826.483629227 57732745.538187027 0 0 0 0 90276145.143714458 17240570.673318326 0 17240570.673318326 39761054.02879715 0 0 0 0 90281436.049049377 -39918989.830066681 0 -39918989.830066681 68284043.154193878 0 0 0 0 1289396.6489003554 -1369852.7663922366 0 -1369852.7663922366 10324718.698838882 0 0 0 0 15122044.515287399 -27198930.342214584 0 -27198930.342214584 111177603.88159561 0 0 0 0 14171658.870920837 -20258494.014393449 0 -20258494.014393449 106725954.76465225 0 0 0 0 -2989909.7281293869 2830899.7223205566 0 2830899.7223205566 94778777.565340042 0 0 0 0 11003249.477436066 -14689172.663963318 0 -14689172.663963318 82915569.378725052 0 0 0 0 9681716.7879421711 -8623341.7249403 0 -8623341.7249403 56219967.095703125 0 0 0 0 15375636.168086767 763270.20928001404 0 763270.20928001404 36194261.746768951 0 0 0 0 18406733.747366548 -12712389.59371829 0 -12712389.59371829 30463467.70866394 0 0 0 0 42267607.833982468 -11523911.751502037 0 -11523911.751502037 41801797.970592499 0 0 0 0 40565142.418740749 -9139915.7106499672 0 -9139915.7106499672 50340713.274711609 0 0 0 0 68391013.213301659 -492876.70892333984 0 -492876.70892333984 24514423.186080933 0 0 0 0 46583483.084927559 15695549.134768486 0 15695549.134768486 42416660.801113129 0 0 0 0 453245204.00008559 -63663769.811665535 0 -63663769.811665535 -1244692519.0875168 0 0 0 0 7792771.5497808456 -30089793.170733452 0 -30089793.170733452 115337805.9683609 0 0 0 0 420099.57731470698 -5064837.3533372935 0 -5064837.3533372935 20498527.03705734 0 0 0 0 -4717591.6819076538 -289441.33317565918 0 -289441.33317565918 8679609.5906295776 0 0 0 0 -41490.260684830137 -2019988.7425061893 0 -2019988.7425061893 28019128.832943939 0 0 0 0 -3786460.8914748896 1989883.3287093639 0 1989883.3287093639 12803373.642256618 0 0 0 0 -3823340.0138530731 1830821.4305343628 0 1830821.4305343628 7882091.8162231445 0 0 0 0 7970.7906040688977 -8993667.9111704566 0 -8993667.9111704566 29527914.170942813 0 0 0 0 -2965750.6333883833 -5503533.5150043257 0 -5503533.5150043257 26479178.644846607 0 0 0 0 -368948093.05048501 -410759151.05294383 0 -410759151.05294383 -326166181.29918671 0 0 0 0 -368753247.62290382 -417441420.42446327 0 -417441420.42446327 -131581302.10157776 0 0 0 0 -11460605.699428558 -19743653.930641174 0 -19743653.930641174 124267794.03235435 0 0 0 0 7950090.9649362564 -23907519.037118912 0 -23907519.037118912 122311404.39146042 0 0 0 0 -13566279.888378143 -2170593.2125053406 0 -2170593.2125053406 48062040.619773865 0 0 0 0 148309.80312922876 -1215403.0570646087 0 -1215403.0570646087 7821452.0505382186 0 0 0 0 -6110013.3654489517 11206154.820951462 0 11206154.820951462 77470709.048400879 0 0 0 0 -6826861.4939746857 5259438.5067367554 0 5259438.5067367554 56130730.275745392 0 0 0 0 -4213295.1334962845 4564789.2365226746 0 4564789.2365226746 44781138.349201202 0 0 0 0 -9715655.5795164108 -8108352.2220306396 0 -8108352.2220306396 53772652.329284668 0 0 0 0 6496106.3143482208 5430393.1183624268 0 5430393.1183624268 6796279.5461783409 0 0 0 0 -21173752.571647406 1351819.0060214996 0 1351819.0060214996 45995490.408607483 0 0 0 0 -18885258.91720438 -5727591.0618133545 0 -5727591.0618133545 51147161.405063629 0 0 0 0 -3106568.7708752332 2862000.8346329834 0 2862000.8346329834 16677840.81816395 0 0 0 0 -37746048.413985252 56383155.313018799 0 56383155.313018799 84458589.510735512 0 0 0 0 -9870741.4647026062 -5546834.8039321899 0 -5546834.8039321899 19127733.960836411 0 0 0 0 -5393924.6108269813 267800.34172022808 0 267800.34172022808 23142061.894518044 0 0 0 0 -9585909.2491512299 -2578080.3063659668 0 -2578080.3063659668 29574407.11277771 0 0 0 0 -4463698.0393972397 -310939.29494857788 0 -310939.29494857788 20537895.923873901 0 0 0 0 -1147554.3190736175 -6259885.319548551 0 -6259885.319548551 30576176.349746402 0 0 0 0 1267261.7959289551 -6930878.2504272461 0 -6930878.2504272461 31701071.425872803 0 0 0 0 -1212485.9691162109 -2981603.3726234436 0 -2981603.3726234436 22562968.191184998 0 0 0 0 -3748214.9294540468 1390338.500399854 0 1390338.500399854 14028402.52251976 0 0 0 0 -8099347.2674922943 -285877.33937454224 0 -285877.33937454224 10643222.484558105 0 0 0 0 -8155025.7693147659 43090.971782684326 0 43090.971782684326 8786528.1856689453 0 0 0 0 -7153391.8383444063 7580311.2515782677 0 7580311.2515782677 17487759.981031239 0 0 0 0 -5607770.369135838 -172590.98954918608 0 -172590.98954918608 11047838.493693955 0 0 0 0 -1320472.9902052283 -6150047.7886367068 0 -6150047.7886367068 33698128.299587183 0 0 0 0 86840.923028603196 -6418625.6829955652 0 -6418625.6829955652 33034798.585881867 0 0 0 0 -431543.22843933105 -1035574.0216064453 0 -1035574.0216064453 11927674.42512989 0 0 0 0 -635915.93940162659 -1144190.2827110291 0 -1144190.2827110291 11925266.579223633 0 0 0 0 -1003448.9857295826 -459760.43068816513 0 -459760.43068816513 6089499.6078671068 0 0 0 0 -4164047.5205236254 -1253383.24153995 0 -1253383.24153995 10240499.259889342 0 0 0 0 -13409468.0332582 5512612.9785881042 0 5512612.9785881042 8593677.6229553223 0 0 0 0 -55276978.226276398 43752349.254745483 0 43752349.254745483 56300157.89163208 0 0 0 0 -8718341.3932717163 3729501.9118352188 0 3729501.9118352188 26029915.429493226 0 0 0 0 -12991793.617321014 2333073.852645874 0 2333073.852645874 3456105.2737884521 0 0 0 0 -63186381.41355896 15531190.498184204 0 15531190.498184204 56100576.002197266 0 0 0 0 -1318426.9251891449 -7031301.3528345712 0 -7031301.3528345712 30136749.514438137 0 0 0 0 809408.8162689209 -6415603.0810241699 0 -6415603.0810241699 31828276.579113007 0 0 0 0 -9584059.29271698 -1044438.1273040771 0 -1044438.1273040771 16567654.728675842 0 0 0 0 -9430865.7082138062 -1037995.6119384766 0 -1037995.6119384766 16493291.217575073 0 0 0 0 -7818102.2794265747 2232708.9802398682 0 2232708.9802398682 8233380.1511764526 0 0 0 0 -3055368.3883498302 658749.45034374297 0 658749.45034374297 11216530.309541393 0 0 0 0 -3101744.9489258453 -5052173.8508498762 0 -5052173.8508498762 30458492.394800715 0 0 0 0 -9313407.2489814125 8686055.9450943507 0 8686055.9450943507 21227971.032707192 0 0 0 0 -8296222.8955512121 -3142469.027904477 0 -3142469.027904477 34544527.383087531 0 0 0 0 -468027259.59500027 -208334554.82231712 0 -208334554.82231712 -155146983.24353027 0 0 0 0 -620417663.51657391 -360067797.01221228 0 -360067797.01221228 192810251.51082611 0 0 0 0 -587890639.20189095 -119537438.95160866 0 -119537438.95160866 -125138783.2521019 0 0 0 0 -11528514.806007266 17322559.561842833 0 17322559.561842833 16152289.063501827 0 0 0 0 -34714677.348146439 1108245.8424301147 0 1108245.8424301147 12845790.82119751 0 0 0 0 -3391156.2994993329 -12492448.744568303 0 -12492448.744568303 14987725.99080728 0 0 0 0 -36195235.29574585 1034023.3722839355 0 1034023.3722839355 13516672.213287354 0 0 0 0 -2611142.1478680465 -15818034.209995588 0 -15818034.209995588 40914301.218157172 0 0 0 0 -29159115.601856232 -4219810.8178100586 0 -4219810.8178100586 10513878.914276123 0 0 0 0 -18244349.457229786 13830524.336828683 0 13830524.336828683 36060985.534567505 0 0 0 0 -10794324.31251741 -3953015.8581745662 0 -3953015.8581745662 35791156.659222975 0 0 0 0 -18905322.503631592 1666399.3099365234 0 1666399.3099365234 7150728.2574462891 0 0 0 0 -59565814.804275513 -17301704.115638733 0 -17301704.115638733 43256557.181610107 0 0 0 0 -68899014.514785767 7883853.0145606995 0 7883853.0145606995 76651837.457946777 0 0 0 0 -78560074.836723328 -6628176.955657959 0 -6628176.955657959 65134181.721054077 0 0 0 0 -112074203.47189331 -23628231.118103027 0 -23628231.118103027 83727644.43661499 0 0 0 0 -82165690.954788208 -46829017.355361938 0 -46829017.355361938 35803938.77349472 0 0 0 0 6538218.7929992676 71453281.670358658 0 71453281.670358658 43580264.974822998 0 0 0 0 -11307282.182255283 4704952.249312833 0 4704952.249312833 23613809.073018469 0 0 0 0 -129658912.62393951 -59209406.925369263 0 -59209406.925369263 60695776.086151123 0 0 0 0 -204474125.77092552 53284332.924625397 0 53284332.924625397 184642433.91889954 0 0 0 0 2046902.8747700769 -17690584.094389934 0 -17690584.094389934 51747801.997094564 0 0 0 0 -57680408.568846703 -77233114.462857246 0 -77233114.462857246 57801879.150718689 0 0 0 0 -1726572.1666378933 -5558897.8211181853 0 -5558897.8211181853 6233167.8337900862 0 0 0 0 -904469815.98304081 264611343.74995136 0 264611343.74995136 351015297.65351105 0 0 0 0 -618013564.21481705 -51373387.86775589 0 -51373387.86775589 122039945.16664696 0 0 0 0 -8359370.281462431 -5814253.9467835054 0 -5814253.9467835054 32032849.294194594 0 0 0 0 -585513.87787182722 -17201971.898749623 0 -17201971.898749623 -8865170.833571218 0 0 0 0 -36438232.962125778 4537795.7791099548 0 4537795.7791099548 6460983.9326934814 0 0 0 0 -54809647.336380005 -10559570.984695435 0 -10559570.984695435 65604885.067718506 0 0 0 0 59675000.375312805 29155107.021774292 0 29155107.021774292 55926390.554748535 0 0 0 0 -38115077.543939114 77758900.550495148 0 77758900.550495148 259747315.290802 0 0 0 0 -49211761.598670959 12248151.693374634 0 12248151.693374634 6320001.9691910744 0 0 0 0 -121803858.38570786 22086480.642852783 0 22086480.642852783 51686183.504516602 0 0 0 0 -93768740.027114868 -25418778.677383423 0 -25418778.677383423 70106144.81829834 0 0 0 0 -157080376.78128433 -16518877.702865601 0 -16518877.702865601 78111391.422973633 0 0 0 0 -54946225.050514221 3635260.9698791504 0 3635260.9698791504 55395828.569091797 0 0 0 0 -63246061.148574829 28202242.87310791 0 28202242.87310791 106814476.54325199 0 0 0 0 -107072867.82699585 -5553521.9801177979 0 -5553521.9801177979 107855716.76620483 0 0 0 0 -91338655.290931702 8417215.5897064209 0 8417215.5897064209 101297448.21722412 0 0 0 0 -57076561.929382324 26802018.650695801 0 26802018.650695801 89021231.342559814 0 0 0 0 -42452414.716546059 64482303.377180099 0 64482303.377180099 153070793.89331055 0 0 0 0 -48132306.795806885 23029840.764404297 0 23029840.764404297 100835946.76507568 0 0 0 0 -57970346.848983765 37452705.371032715 0 37452705.371032715 121077843.75866699 0 0 0 0 56109662.307235718 81026885.586090088 0 81026885.586090088 100069940.23187256 0 0 0 0 1016766.4013931435 2873945.7817106172 0 2873945.7817106172 2139283.9119762108 0 0 0 0 127468771.93734741 105709494.2988739 0 105709494.2988739 93208663.042922974 0 0 0 0 -321228947.87512207 -267347178.3513031 0 -267347178.3513031 -82341442.551877975 0 0 0 0 96243660.032444954 196153596.2517662 0 196153596.2517662 147473772.77246094 0 0 0 0 78313086.602062225 43633021.380836487 0 43633021.380836487 74945438.650085449 0 0 0 0 -64370598.950941086 21813257.394815445 0 21813257.394815445 149081759.90420532 0 0 0 0 19338853.290390015 101887303.56278992 0 101887303.56278992 165842543.4859314 0 0 0 0 42997403.116127014 93748921.81048584 0 93748921.81048584 105015324.31329346 0 0 0 0 123640488.58931541 543697823.5777092 0 543697823.5777092 -225939306.5683136 0 0 0 0 -254927360.2382431 -86630364.439056396 0 -86630364.439056396 292223499.51651764 0 0 0 0 40863571.997360229 35307205.987457275 0 35307205.987457275 81708436.929443359 0 0 0 0 -416595774.59697533 15767180.031166077 0 15767180.031166077 1066010058.7667236 0 0 0 0 -106663148.66778564 -59244083.77154541 0 -59244083.77154541 200428597.38882446 0 0 0 0 -159891094.52020264 -68982707.710983276 0 -68982707.710983276 295365394.11102295 0 0 0 0 -128446890.55543518 -8933988.3194122314 0 -8933988.3194122314 132921176.25042725 0 0 0 0 -179888698.60983276 -19509028.335647583 0 -19509028.335647583 255081463.56832886 0 0 0 0 -114920857.00170135 -43546836.692993164 0 -43546836.692993164 201984369.41424561 0 0 0 0 -163057333.82600403 -106236016.5953064 0 -106236016.5953064 175783320.74975586 0 0 0 0 -11417844.709086783 9654263.2299386412 0 9654263.2299386412 17918503.937618017 0 0 0 0 781447.20916748047 63032482.61857605 0 63032482.61857605 61172166.86151123 0 0 0 0 -62311663.868012428 30996578.596530914 0 30996578.596530914 96863393.68145752 0 0 0 0 -36455894.570251465 39055769.916809082 0 39055769.916809082 64923077.063415527 0 0 0 0 6838718.9385223389 45060456.461914062 0 45060456.461914062 80046595.430839539 0 0 0 0 -10300379.843261719 63104737.575561523 0 63104737.575561523 75358908.77432251 0 0 0 0 -9971121.979598999 58816230.861206055 0 58816230.861206055 96093660.654266357 0 0 0 0 -35608087.815214157 46688754.787536621 0 46688754.787536621 90640531.523071289 0 0 0 0 -8441975.9152374268 64966924.980010986 0 64966924.980010986 101674680.53878784 0 0 0 0 -52756522.317977905 34143964.925121307 0 34143964.925121307 55268900.896728516 0 0 0 0 2774113.4735183716 64790150.280288696 0 64790150.280288696 36048424.020065308 0 0 0 0 -32384001.976875305 46669613.50541687 0 46669613.50541687 63237670.049865723 0 0 0 0 -37073011.987335205 52102486.965881348 0 52102486.965881348 70460490.37361908 0 0 0 0 -3858091.7598800659 37824428.764312744 0 37824428.764312744 -7553903.4599914551 0 0 0 0 1134205.185585022 -4407811.9786758423 0 -4407811.9786758423 13635909.300415039 0 0 0 0 -6761041.9045986589 1762220.4965155832 0 1762220.4965155832 34199953.274774626 0 0 0 0 -1357662.4153573522 -7596206.9621960297 0 -7596206.9621960297 30132629.142320167 0 0 0 0 -6278063.6271591187 -807823.9753112793 0 -807823.9753112793 10727182.138961792 0 0 0 0 37064198.151077271 32573537.460083008 0 32573537.460083008 -122548535.78088379 0 0 0 0 64145327.691413879 -1696392.8641815186 0 -1696392.8641815186 -84647944.887634277 0 0 0 0 -33879478.233123779 105181279.5378418 0 105181279.5378418 -154020578.77076721 0 0 0 0 121969.10200802609 -690579.94329117239 0 -690579.94329117239 2478661.0483141392 0 0 0 0 42052182.092132568 1728480.8527526855 0 1728480.8527526855 -13196861.458374023 0 0 0 0 -6500646.7507491186 5001890.9345488884 0 5001890.9345488884 36041399.176789328 0 0 0 0 -9924701.9116134644 367987.56790161133 0 367987.56790161133 13224065.138664246 0 0 0 0 -11008362.550858498 4608021.1468276978 0 4608021.1468276978 11986408.157836914 0 0 0 0 -41750779.94519043 67437266.981811523 0 67437266.981811523 42304422.106292725 0 0 0 0 -8153899.8088645004 6076712.4870207943 0 6076712.4870207943 18540771.562565006 0 0 0 0 -2749975.0951517196 -2768260.6259227507 0 -2768260.6259227507 8432134.9547025859 0 0 0 0 -115181534.514328 -23529378.894500732 0 -23529378.894500732 93284412.885253906 0 0 0 0 -5257532.3070880063 6767519.7032046989 0 6767519.7032046989 7380609.0299511999 0 0 0 0 -62928405.486415863 50191948.450210571 0 50191948.450210571 -23602308.770324707 0 0 0 0 -72756184.967880249 38924624.716156006 0 38924624.716156006 29251439.807739258 0 0 0 0 -88571222.633056641 19523647.798217773 0 19523647.798217773 39087149.456726074 0 0 0 0 -139453051.02867889 109686613.60949707 0 109686613.60949707 71564495.49105835 0 0 0 0 -133435835.79445457 29936297.560264587 0 29936297.560264587 192122993.64263916 0 0 0 0 -121787282.13182068 39849971.155654907 0 39849971.155654907 71795601.515014648 0 0 0 0 -101753568.74130821 -6261474.8874940872 0 -6261474.8874940872 29089847.995239258 0 0 0 0 -96772715.801757812 -4341055.9384765625 0 -4341055.9384765625 -4302541.3491210938 0 0 0 0 -122228174.62072754 12740155.831726074 0 12740155.831726074 129411764.5581665 0 0 0 0 -101738626.04636955 -7105541.9932098389 0 -7105541.9932098389 70565341.10949707 0 0 0 0 -87832998.023956299 16473753.784362793 0 16473753.784362793 35530319.528930664 0 0 0 0 -87418111.192840576 3627704.0137939453 0 3627704.0137939453 16792847.482299805 0 0 0 0 -86603482.680908203 1420716.2666015625 0 1420716.2666015625 -5981776.1181640625 0 0 0 0 -73077887.797424316 16944463.016845703 0 16944463.016845703 -24439856.91796875 0 0 0 0 -72390846.776153564 23579492.794494629 0 23579492.794494629 -7922709.251953125 0 0 0 0 -75283568.0887146 30043169.177764893 0 30043169.177764893 1866221.2984619141 0 0 0 0 -21068000.404204369 -2553871.1869277954 0 -2553871.1869277954 6655910.7392578125 0 0 0 0 -66956251.030792236 31907123.071838379 0 31907123.071838379 -10910719.981124878 0 0 0 0 -69381203.183868408 26371025.343566895 0 26371025.343566895 -16416366.989135742 0 0 0 0 -4848801.368680926 4265321.5798578933 0 4265321.5798578933 24607040.877267256 0 0 0 0 -75364980.520591736 11202938.338134766 0 11202938.338134766 -43943197.209381104 0 0 0 0 -624511.16888280585 199518.95878393203 0 199518.95878393203 4442263.294851955 0 0 0 0 127391787.64451599 -161172810.22915649 0 -161172810.22915649 -124079228.81832886 0 0 0 0 -21460666.440261841 192783989.05722046 0 192783989.05722046 -123616981.01213074 0 0 0 0 -60506171.231941223 31798654.707946777 0 31798654.707946777 -24110129.805480957 0 0 0 0 -2123277.3470697403 287600633.30198669 0 287600633.30198669 190384509.54756165 0 0 0 0 263116.42265932076 238900.85625752434 0 238900.85625752434 558856.07302634418 0 0 0 0 -346093897.99688911 -235719960.14186859 0 -235719960.14186859 -78393288.998117447 0 0 0 0 255382444.79798651 273113708.84184265 0 273113708.84184265 -200251528.36050415 0 0 0 0 -136052473.92436308 194628926.58319902 0 194628926.58319902 375405417.49099731 0 0 0 0 -321822172.48933411 16934843.601867676 0 16934843.601867676 397747503.35105896 0 0 0 0 -270340248.83144093 63407870.746810913 0 63407870.746810913 423674640.0652771 0 0 0 0 -132051545.88328743 -20638824.45904541 0 -20638824.45904541 116595787.08601379 0 0 0 0 -205496749.15377998 37863930.234489441 0 37863930.234489441 178800442.00799942 0 0 0 0 -211280454.15378094 95889821.252281189 0 95889821.252281189 190520970.87393188 0 0 0 0 -365859864.75244021 32178623.132962227 0 32178623.132962227 239571170.2784729 0 0 0 0 -23583252.474721909 38158167.226081848 0 38158167.226081848 127616540.89289856 0 0 0 0 -13152780.746861458 94738077.574539185 0 94738077.574539185 109288582.66889954 0 0 0 0 -7319941.6551499367 142234020.28457069 0 142234020.28457069 135363292.19436646 0 0 0 0 -64410237.078733444 6475963.7636108398 0 6475963.7636108398 339019662.83874512 0 0 0 0 -93521313.808577061 101560117.41196442 0 101560117.41196442 172653922.12130737 0 0 0 0 57184888.845323086 29205544.778671265 0 29205544.778671265 264738742.22099304 0 0 0 0 60423790.469396591 -222540479.64142609 0 -222540479.64142609 402707758.26353073 0 0 0 0 188520129.0539341 -197120193.0628624 0 -197120193.0628624 338007577.34077454 0 0 0 0 70077372.29607296 -90330588.57585907 0 -90330588.57585907 73354749.84324646 0 0 0 0 -285863230.29726648 -31841211.849250793 0 -31841211.849250793 226881531.36134338 0 0 0 0 -571436429.390028 -396602148.38095856 0 -396602148.38095856 7886353.2466278076 0 0 0 0 1710523.0984658301 513917.80151457712 0 513917.80151457712 -833569.30674834549 0 0 0 0 63061129.18978411 265628467.95250982 0 265628467.95250982 369054719.21846008 0 0 0 0 -327791515.57842553 25566015.503414989 0 25566015.503414989 105923643.56509399 0 0 0 0 -209087039.77970695 -86049135.922477722 0 -86049135.922477722 -92799308.562255859 0 0 0 0 -252537127.22343636 -28169957.180374146 0 -28169957.180374146 259184447.58585358 0 0 0 0 408450856.31384778 -232964205.11763763 0 -232964205.11763763 474588815.7480011 0 0 0 0 573261073.48553038 -472920586.84225464 0 -472920586.84225464 403679315.79248047 0 0 0 0 283589623.97465897 -375513171.4513855 0 -375513171.4513855 410434968.03851318 0 0 0 0 289784578.4562149 -215992335.60392761 0 -215992335.60392761 246387358.9936676 0 0 0 0 266164505.8324461 -317099657.5785141 0 -317099657.5785141 428763935.66447449 0 0 0 0 369159538.04541683 -237173102.88049698 0 -237173102.88049698 72779806.679138184 0 0 0 0 254184145.76617002 -358319634.83437347 0 -358319634.83437347 639495450.07774353 0 0 0 0 327133013.16850966 -164867519.58703709 0 -164867519.58703709 689517308.25234985 0 0 0 0 188914270.04029357 -330193171.67390442 0 -330193171.67390442 589612953.9708786 0 0 0 0 -29990685.716231108 223024440.69429016 0 223024440.69429016 -181408076.94817638 0 0 0 0 -1944699.5485158276 -51297.378210276365 0 -51297.378210276365 2442225.081708543 0 0 0 0 -9151743.7027534246 22260167.469371796 0 22260167.469371796 -72992255.529037476 0 0 0 0 -13438729.544362783 314513204.98220825 0 314513204.98220825 109098989.45776367 0 0 0 0 -39787506.57850796 66933951.538806915 0 66933951.538806915 518900499.92733765 0 0 0 0 222026825.5425601 -78812736.670677185 0 -78812736.670677185 491951501.49783325 0 0 0 0 157463679.30338395 -156095690.14888 0 -156095690.14888 412436904.83010864 0 0 0 0 286846061.67884421 -405709507.54187012 0 -405709507.54187012 585089766.01879883 0 0 0 0 312452212.21972764 -345834285.69940948 0 -345834285.69940948 696707361.18118286 0 0 0 0 283830517.31778193 -210789113.97045898 0 -210789113.97045898 728754992.36711502 0 0 0 0 319159555.68469 -161464477.21955109 0 -161464477.21955109 796566261.73640442 0 0 0 0 552711235.68031693 -280370741.04512024 0 -280370741.04512024 657963195.26787186 0 0 0 0 379922380.52402115 -441908998.27750397 0 -441908998.27750397 768959470.11552048 0 0 0 0 521896747.76314831 -322878430.83525848 0 -322878430.83525848 898369181.46532798 0 0 0 0 621844843.8688364 -151740905.90610886 0 -151740905.90610886 894711698.81369019 0 0 0 0 347114942.17062092 -1112386285.5541344 0 -1112386285.5541344 1033944543.8177872 0 0 0 0 215733544.22524023 -882176103.01012802 0 -882176103.01012802 1452183040.7881546 0 0 0 0 417812937.3524487 -262534218.99602699 0 -262534218.99602699 1203754635.7392426 0 0 0 0 307684685.35013413 -803447178.94291306 0 -803447178.94291306 895365358.60300446 0 0 0 0 459198655.21296537 -742399185.42502594 0 -742399185.42502594 756709331.88882923 0 0 0 0 339340550.74271846 -533805962.26350021 0 -533805962.26350021 461016578.62240601 0 0 0 0 628545201.2277298 -809087094.49689484 0 -809087094.49689484 593906988.74072647 0 0 0 0 856765773.23946714 -756403730.49375677 0 -756403730.49375677 548014102.34614563 0 0 0 0 259792209.67246723 -1252398390.3916969 0 -1252398390.3916969 1162679088.7650833 0 0 0 0 803637518.00342715 -1252486749.1237812 0 -1252486749.1237812 784361410.51791382 0 0 0 0 315687376.61436272 -1076800801.9837418 0 -1076800801.9837418 827142147.51329803 0 0 0 0 415637625.6914854 -985617136.13193512 0 -985617136.13193512 785245378.1870575 0 0 0 0 -499819022.75495434 -680189724.04707336 0 -680189724.04707336 895199218.42254639 0 0 0 0 45362797.469773293 -418151346.23415375 0 -418151346.23415375 351054548.33813095 0 0 0 0 -122167844.24753189 -195887018.80821228 0 -195887018.80821228 309867546.53430939 0 0 0 0 98794339.119484425 -303540271.01964569 0 -303540271.01964569 175887605.98170471 0 0 0 0 -105962858.09065247 1868199.4020080566 0 1868199.4020080566 108072776.04981995 0 0 0 0 97573342.507678509 -249149106.10562897 0 -249149106.10562897 337310144.80680847 0 0 0 0 338545806.51922512 -535323647.37570953 0 -535323647.37570953 458755510.42322731 0 0 0 0 397607474.47755432 -486676285.54814911 0 -486676285.54814911 303620903.65395451 0 0 0 0 721493551.78118038 -826547635.17047882 0 -826547635.17047882 533682669.94962692 0 0 0 0 411408727.48970175 -452885420.02419281 0 -452885420.02419281 369645024.14352417 0 0 0 0 629712234.24090004 -822927377.74353409 0 -822927377.74353409 882452802.73394775 0 0 0 0 975440815.60672379 -748863394.87107086 0 -748863394.87107086 261060719.25618744 0 0 0 0 530539473.80234814 -489570720.73303986 0 -489570720.73303986 121519461.59951782 0 0 0 0 643945326.3109436 -258185236.74617004 0 -258185236.74617004 16066604.764900208 0 0 0 0 265765277.25934267 -107807353.56048536 0 -107807353.56048536 186197083.93505859 0 0 0 0 224785934.51526165 -459338333.64877319 0 -459338333.64877319 439966552.15570068 0 0 0 0 263599358.95378494 -61338004.543479919 0 -61338004.543479919 27230177.530853271 0 0 0 0 273395210.56485367 -103811126.88344574 0 -103811126.88344574 180721137.81783295 0 0 0 0 243944149.15729141 -259033279.41479492 0 -259033279.41479492 -32458254.696365356 0 0 0 0 324579863.68832588 3057000.2768707275 0 3057000.2768707275 -60301602.853240967 0 0 0 0 81235558.282263279 -464214323.77419186 0 -464214323.77419186 -179586433.23149109 0 0 0 0 29853643.211963654 -71055434.924915314 0 -71055434.924915314 232734905.30224228 0 0 0 0 881355341.04482651 149859131.78070831 0 149859131.78070831 -58537425.490791321 0 0 0 0 664325792.16523266 -271162510.18118858 0 -271162510.18118858 -138911136.56642151 0 0 0 0 1560187649.152277 -529609698.84484863 0 -529609698.84484863 -90066913.639968872 0 0 0 0 1312828130.337662 -871238188.25231552 0 -871238188.25231552 -124439831.0741539 0 0 0 0 1445442642.624383 -1510310072.654798 0 -1510310072.654798 -157463338.97937775 0 0 0 0 2603909789.0978756 -1041709402.1909943 0 -1041709402.1909943 -304817004.29805565 0 0 0 0 1343388265.9778512 -800675437.80870247 0 -800675437.80870247 -263887848.47601318 0 0 0 0 3192580771.7932644 -1892075155.3389816 0 -1892075155.3389816 743735665.02781677 0 0 0 0 1122213125.9986532 -1257622961.2940712 0 -1257622961.2940712 1628625622.7086334 0 0 0 0 1740062451.2406783 139708012.02194595 0 139708012.02194595 3122773131.5093822 0 0 0 0 1766424631.7741566 -2132925338.2908134 0 -2132925338.2908134 2569218316.2916412 0 0 0 0 1475332458.4651384 -2336928277.7948036 0 -2336928277.7948036 3016897343.2812366 0 0 0 0 -191927003.97888613 -105082788.69181061 0 -105082788.69181061 3148015140.0762963 0 0 0 0 479612515.40130544 -82616979.273000717 0 -82616979.273000717 6471417.6677856445 0 0 0 0 2802701906.704463 321671944.24041653 0 321671944.24041653 -360912708.36352539 0 0 0 0 6028523.4549560966 -3162299.6929542422 0 -3162299.6929542422 2350208.695921272 0 0 0 0 -905952766.7829113 -41420124.251426697 0 -41420124.251426697 98112566.749641418 0 0 0 0 -520149163.21060944 64783129.965164185 0 64783129.965164185 207754100.50293159 0 0 0 0 -167895950.15886366 -294630194.02046585 0 -294630194.02046585 -203656005.63632202 0 0 0 0 3448900.4295479176 -4120418.2098419182 0 -4120418.2098419182 603807.20408295095 0 0 0 0 -850003411.93096828 -509753334.78371048 0 -509753334.78371048 -204487604.17492154 0 0 0 0 16059960.871283531 -257825110.17880249 0 -257825110.17880249 -927671447.36314964 0 0 0 0 2629097.8487042142 -2582454.9143588059 0 -2582454.9143588059 -184332.3755248487 0 0 0 0 812194604.82542384 -1805099029.7443924 0 -1805099029.7443924 -436118503.51646423 0 0 0 0 -798858287.21260595 -360420253.56702042 0 -360420253.56702042 1145565771.329535 0 0 0 0 776754910.94299936 -1750523371.6762581 0 -1750523371.6762581 644163323.76090145 0 0 0 0 496426215.44203281 -1154971076.7609711 0 -1154971076.7609711 434489980.62316895 0 0 0 0 1174628749.2172804 -1274175202.0450134 0 -1274175202.0450134 357362210.59841919 0 0 0 0 535863645.11465812 -489178718.16098022 0 -489178718.16098022 1800419971.6446152 0 0 0 0 -580644535.04754043 -154574431.52126694 0 -154574431.52126694 1847424446.34198 0 0 0 0 -593700576.65106893 -681809856.43221664 0 -681809856.43221664 1111771055.982666 0 0 0 0 -1557099476.2297649 -1378127714.775526 0 -1378127714.775526 499335299.96730042 0 0 0 0 -1111149220.1654291 -3540495.7078094482 0 -3540495.7078094482 267147956.87593842 0 0 0 0 -2004627822.8028688 -421471704.40707779 0 -421471704.40707779 -218043774.4441452 0 0 0 0 1550254.2835719832 -1860153.0104736499 0 -1860153.0104736499 38361.092429049313 0 0 0 0 -1040831135.4242535 268413606.86830139 0 268413606.86830139 1312132452.5661469 0 0 0 0 -675307195.31341076 -285114630.47572517 0 -285114630.47572517 -314895374.79440308 0 0 0 0 -923090651.05993462 -445600865.07358551 0 -445600865.07358551 -386624467.0393219 0 0 0 0 223404779.14270189 91920513.994098663 0 91920513.994098663 83333405.704330444 0 0 0 0 -3741259.5597939542 -154657.16611085087 0 -154657.16611085087 5761407.2469618581 0 0 0 0 -3267030913.538991 392028924.54114532 0 392028924.54114532 1332033744.7100449 0 0 0 0 -940204906.3719101 -458430055.5844574 0 -458430055.5844574 217008866.83869934 0 0 0 0 -2800442160.7833672 1663924867.2980957 0 1663924867.2980957 -1388302939.453228 0 0 0 0 -2292186586.0156479 -602652605.41221428 0 -602652605.41221428 361404605.29381561 0 0 0 0 -1065423446.4968333 -78300697.548095703 0 -78300697.548095703 577427726.23351288 0 0 0 0 -1149253672.9946232 1990599605.7111435 0 1990599605.7111435 54767622.430866241 0 0 0 0 -605835297.35884452 1219196937.3113365 0 1219196937.3113365 1989229480.8880177 0 0 0 0 -558682566.64680052 273067292.18682671 0 273067292.18682671 1582264310.4045143 0 0 0 0 -775988016.75808477 438867887.28840828 0 438867887.28840828 1460403509.5092621 0 0 0 0 -326333208.50758576 674845418.70205688 0 674845418.70205688 2271970870.301178 0 0 0 0 26446017.506754637 393980732.65767384 0 393980732.65767384 3025763966.8911514 0 0 0 0 -1263057167.1244216 -161744569.80969429 0 -161744569.80969429 2897584859.6070709 0 0 0 0 -1527230815.0597913 226165648.07177925 0 226165648.07177925 5356722415.5762939 0 0 0 0 -1593545538.4421508 991587025.38611221 0 991587025.38611221 3684547236.416481 0 0 0 0 -1115577061.5779557 997391652.35575485 0 997391652.35575485 3666119939.5209579 0 0 0 0 355307775.42259306 820962108.96988678 0 820962108.96988678 5353785760.3305759 0 0 0 0 -1722855216.4023271 114340629.73034763 0 114340629.73034763 5706330377.7703018 0 0 0 0 -2046706550.247426 2004019722.9438057 0 2004019722.9438057 4246376919.2744675 0 0 0 0 695329588.12065256 -1661457763.9810295 0 -1661457763.9810295 3115293491.31427 0 0 0 0 1178879407.969275 -1558560317.4800262 0 -1558560317.4800262 2125145665.5766468 0 0 0 0 1833694141.4204512 -1938699342.0959969 0 -1938699342.0959969 2093272406.2676463 0 0 0 0 1000427041.5553923 -2184279336.6704426 0 -2184279336.6704426 2463394173.986969 0 0 0 0 1550323705.2410784 -2249828609.3960724 0 -2249828609.3960724 2371448989.3572693 0 0 0 0 480370488.54161549 -1767196663.1066113 0 -1767196663.1066113 2848436235.231575 0 0 0 0 3058544152.7484288 -682492955.00357628 0 -682492955.00357628 2987493392.538475 0 0 0 0 705161640.86875343 -933077287.1687355 0 -933077287.1687355 2817030805.1932907 0 0 0 0 -90003354.065484524 104753734.5675354 0 104753734.5675354 3578154988.6150436 0 0 0 0 -214441858.81896204 1642367728.332798 0 1642367728.332798 2257793966.9967804 0 0 0 0 481034114.53838366 -2227283458.8982162 0 -2227283458.8982162 2267031127.7919922 0 0 0 0 -2644.8146750019769 -829644.06084186293 0 -829644.06084186293 4050569.4589207992 0 0 0 0 1364216371.5890217 -1742022932.2177906 0 -1742022932.2177906 553758350.64970779 0 0 0 0 138625313.54220951 491268559.04062748 0 491268559.04062748 717616385.49920654 0 0 0 0 341075428.21587586 -2106247201.2782478 0 -2106247201.2782478 2259760325.0012684 0 0 0 0 -1012372862.2561514 -1025577437.3170872 0 -1025577437.3170872 5344301737.9595337 0 0 0 0 -20069.456834897053 -1435797.7473655038 0 -1435797.7473655038 4086847.930055581 0 0 0 0 -361781324.30939561 1488308605.4109011 0 1488308605.4109011 1793417472.427124 0 0 0 0 -46560716.505703412 -400203949.55224228 0 -400203949.55224228 5341417129.2784519 0 0 0 0 1244564568.1975515 -1848280065.2909145 0 -1848280065.2909145 2918128292.0222778 0 0 0 0 154263992.45786351 -1647384296.0432606 0 -1647384296.0432606 5355382397.0652809 0 0 0 0 -10251869.812331416 -517843039.93510246 0 -517843039.93510246 2778714634.8396225 0 0 0 0 201768338.3241871 -1829901649.0911016 0 -1829901649.0911016 3539194142.1999512 0 0 0 0 1190469896.0137353 -2880904823.0426188 0 -2880904823.0426188 3222930691.276516 0 0 0 0 329096945.38025934 -2599272181.6065912 0 -2599272181.6065912 5357155039.9812088 0 0 0 0 927017050.9996202 -1950886022.2358284 0 -1950886022.2358284 2660510075.1878872 0 0 0 0 927990573.80071986 -2331779731.741642 0 -2331779731.741642 3094399466.323513 0 0 0 0 3604564.6630947781 -3144642.523502694 0 -3144642.523502694 9343007.6062553711 0 0 0 0 1472191662.3123419 -3697617979.7913151 0 -3697617979.7913151 5341909520.1314096 0 0 0 0 4900123329.8157425 -3377956852.593297 0 -3377956852.593297 1530779206.2442169 0 0 0 0 2200255.3759899503 -5014363.5343547696 0 -5014363.5343547696 23528868.566144742 0 0 0 0 44354660.307605743 -910611290.38245773 0 -910611290.38245773 611152998.1764679 0 0 0 0 1330191576.5747459 -436265603.9865799 0 -436265603.9865799 170884203.27800274 0 0 0 0 55104786.742372513 260240469.8665123 0 260240469.8665123 158078723.13147163 0 0 0 0 942855215.56074953 -1941144288.847496 0 -1941144288.847496 2450269829.7041397 0 0 0 0 952322222.99704051 -1907167551.310962 0 -1907167551.310962 2485546385.7047272 0 0 0 0 1043578827.2871667 -1264288474.3536758 0 -1264288474.3536758 835022926.23057938 0 0 0 0 1416706336.5795584 -2160123280.0158992 0 -2160123280.0158992 2050085577.668808 0 0 0 0 300035916.05153084 -523940831.33496094 0 -523940831.33496094 1120628792.3705692 0 0 0 0 509438533.26438022 -1030243502.576715 0 -1030243502.576715 1482722475.1617889 0 0 0 0 700310707.30796814 -1005135894.4662037 0 -1005135894.4662037 1330422991.646759 0 0 0 0 27428377.827018261 -189054432.80195999 0 -189054432.80195999 1291966270.3757782 0 0 0 0 9987655.0315132141 300128695.88757515 0 300128695.88757515 513801383.74980164 0 0 0 0 2103475.7679802179 -374718.05641571246 0 -374718.05641571246 -665840.01192290336 0 0 0 0 308470081.5106163 -226691627.28583527 0 -226691627.28583527 -96693844.007743835 0 0 0 0 -1848993.8824310303 -177460596.65197754 0 -177460596.65197754 15341268.748184204 0 0 0 0 424688459.21137595 -5552380.8513717651 0 -5552380.8513717651 108493543.65343475 0 0 0 0 286902398.48678684 149948323.73356628 0 149948323.73356628 7175586.0349197388 0 0 0 0 407588810.51870203 -3726267.6760482788 0 -3726267.6760482788 -83216998.394454956 0 0 0 0 595435982.24718571 -479743105.83872414 0 -479743105.83872414 443497922.0162735 0 0 0 0 176744013.76879692 210025544.51709747 0 210025544.51709747 263059818.2042923 0 0 0 0 -774378189.20750809 -130025279.64117622 0 -130025279.64117622 363603709.72486877 0 0 0 0 1075757.4272945928 -5588284.6610179218 0 -5588284.6610179218 29835524.377926514 0 0 0 0 -77801493.424567699 171109655.05245781 0 171109655.05245781 -79847306.717247009 0 0 0 0 9091495.4330718517 17837210.140518188 0 17837210.140518188 56657006.526679993 0 0 0 0 157516948.84659195 96311698.032894135 0 96311698.032894135 -39403844.57333374 0 0 0 0 -33165929.083379745 209501238.41436005 0 209501238.41436005 174215.02054405212 0 0 0 0 -505701790.71236801 122409765.78773117 0 122409765.78773117 108870627.54333496 0 0 0 0 -173612231.40404367 -4130811.4805698395 0 -4130811.4805698395 9354270.5861663818 0 0 0 0 -63602296.998466969 94452970.632966995 0 94452970.632966995 -13145645.111236572 0 0 0 0 126316332.6342845 119809122.5090332 0 119809122.5090332 -35750787.840629578 0 0 0 0 -34814868.83886528 37615130.437995911 0 37615130.437995911 96332386.102012634 0 0 0 0 132202765.44607449 102200139.08643341 0 102200139.08643341 -11888619.914916992 0 0 0 0 7236422.0776706384 -1749240.0611750595 0 -1749240.0611750595 4739831.6815102398 0 0 0 0 11770856.581245422 -1501110.0294647217 0 -1501110.0294647217 13855332.415290833 0 0 0 0 7572942.2260957388 -3207708.9843795169 0 -3207708.9843795169 -384963.76442301273 0 0 0 0 -517157084.32030487 -331808888.20742798 0 -331808888.20742798 -61914774.233259201 0 0 0 0 -90229619.636817932 -88636849.998657227 0 -88636849.998657227 -121427202.70750427 0 0 0 0 2860521.4307899475 -34599822.728069305 0 -34599822.728069305 -177122771.30262756 0 0 0 0 10578289.306319963 -9601221.5958820581 0 -9601221.5958820581 6726698.9052654877 0 0 0 0 -13320004.70161438 -13684355.531997681 0 -13684355.531997681 -7721564.4963378906 0 0 0 0 9718331.4521231651 -194533416.12172318 0 -194533416.12172318 -8939084.549407959 0 0 0 0 124548695.99382782 38968148.632644653 0 38968148.632644653 -2853596.1121826172 0 0 0 0 7681877.738123402 -2105821.4503912628 0 -2105821.4503912628 -3398474.3925965577 0 0 0 0 25202257.447955132 -43270088.71988678 0 -43270088.71988678 -52411940.581512451 0 0 0 0 12807296.335024104 -8313726.3060711622 0 -8313726.3060711622 8587815.9334427677 0 0 0 0 176782713.51480436 -39484923.352710724 0 -39484923.352710724 -158685909.16352844 0 0 0 0 3159095.9521461097 -2337262.9312476944 0 -2337262.9312476944 10617304.602487009 0 0 0 0 3925603.192099994 -1898674.9058738314 0 -1898674.9058738314 -2390749.0329010785 0 0 0 0 147459583.25207567 72090546.492828369 0 72090546.492828369 -10381721.007995605 0 0 0 0 39037555.720718145 -19916325.009376526 0 -19916325.009376526 -43147995.765426636 0 0 0 0 152556986.60845661 76443489.027667999 0 76443489.027667999 -32878120.578289032 0 0 0 0 -225088553.31995201 229445134.8298285 0 229445134.8298285 -96227139.845538378 0 0 0 0 -189565707.52343869 184786146.8325634 0 184786146.8325634 -175890036.00589705 0 0 0 0 816288.543747694 2375504.2993791979 0 2375504.2993791979 7704517.65679802 0 0 0 0 624981669.26061249 -265864383.63364887 0 -265864383.63364887 167812186.45414352 0 0 0 0 339411307.96696997 -109088108.10042286 0 -109088108.10042286 101301051.18287277 0 0 0 0 222261926.08874458 -159768082.68858147 0 -159768082.68858147 358356863.27035522 0 0 0 0 80801782.385325909 -49632695.649699211 0 -49632695.649699211 536181721.74168396 0 0 0 0 274068002.31842566 -158151985.62069321 0 -158151985.62069321 348872288.69458389 0 0 0 0 894911654.73729515 -269821519.12431908 0 -269821519.12431908 60252454.354766846 0 0 0 0 625038114.96708024 -274033145.35448611 0 -274033145.35448611 169569409.21794128 0 0 0 0 445839395.4234376 -651721996.01474762 0 -651721996.01474762 1037437605.4034901 0 0 0 0 382178308.44152689 -423361983.42160892 0 -423361983.42160892 793038296.55831242 0 0 0 0 -224346544.40036491 218941631.1900557 0 218941631.1900557 -8877333.2234802246 0 0 0 0 2730130753.0657902 -1582370718.5174141 0 -1582370718.5174141 -115361018.25013018 0 0 0 0 -141829554.56791687 16691005.947245598 0 16691005.947245598 23070403.045953751 0 0 0 0 -220337459.73072624 99828617.414277077 0 99828617.414277077 105782608.65544951 0 0 0 0 -226082470.77735138 175869238.62686157 0 175869238.62686157 95991945.77260685 0 0 0 0 -212474423.78482151 207872639.70161057 0 207872639.70161057 -26578604.379025936 0 0 0 0 -169698052.79755783 108230798.72005892 0 108230798.72005892 27750824.350332737 0 0 0 0 -197398806.11467123 176971509.36289918 0 176971509.36289918 -101096279.139328 0 0 0 0 -334371058.52501643 300352167.47546721 0 300352167.47546721 -124108304.13457394 0 0 0 0 -244526136.27794337 183382847.36853528 0 183382847.36853528 -42230216.254173279 0 0 0 0 -232596248.51168346 237968805.71825504 0 237968805.71825504 -77796377.993756294 0 0 0 0 -324297670.17885756 227910373.74353075 0 227910373.74353075 -39535089.768770218 0 0 0 0 -211277683.23002434 225622905.81333399 0 225622905.81333399 -69791431.085621834 0 0 0 0 -237668633.86865729 210464767.64103502 0 210464767.64103502 -4368709.0624275208 0 0 0 0 3142817.400797064 -14778142.408580635 0 -14778142.408580635 351571.6995447278 0 0 0 0 -735082620.1128664 222215552.05251539 0 222215552.05251539 13930289.172463894 0 0 0 0 -197041293.60109806 66592144.949314117 0 66592144.949314117 81251124.265499115 0 0 0 0 -533046.82875145308 -5133199.630903203 0 -5133199.630903203 35259950.508270696 0 0 0 0 -589412593.49852204 109097994.72636926 0 109097994.72636926 30205133.823007107 0 0 0 0 -357911454.52879119 70313186.408150673 0 70313186.408150673 5681907.8540148735 0 0 0 0 -130572912.38764578 43755455.542095423 0 43755455.542095423 -25625099.462563038 0 0 0 0 2689889.0620419942 -14607149.963707725 0 -14607149.963707725 -515002.7706097262 0 0 0 0 -173892263.25478792 -41755293.530644417 0 -41755293.530644417 133128037.2690506 0 0 0 0 583187.78066676424 -5514429.407796015 0 -5514429.407796015 32943757.575323336 0 0 0 0 -178015276.38758564 36905684.574542761 0 36905684.574542761 2619583.9917240143 0 0 0 0 -164322437.69000393 46410979.720596075 0 46410979.720596075 -3312008.4452476501 0 0 0 0 -219849624.77939272 205289475.04622459 0 205289475.04622459 -96388531.032511711 0 0 0 0 -290290166.63617373 135292507.02972221 0 135292507.02972221 -39876087.933853984 0 0 0 0 -217372129.40466446 192193503.29680586 0 192193503.29680586 -27688030.846302032 0 0 0 0 -130617752.08778608 77236313.761069298 0 77236313.761069298 -27172289.676365852 0 0 0 0 -184672184.48079562 161761557.09846115 0 161761557.09846115 -69286177.839572906 0 0 0 0 -194722601.07182986 149497813.01691413 0 149497813.01691413 -83986941.718009949 0 0 0 0 -90651936.989427686 59086188.588058949 0 59086188.588058949 -71716337.931801856 0 0 0 0 -124330535.2022559 27196582.358115196 0 27196582.358115196 514952.88013458252 0 0 0 0 -174954336.24812746 133139623.29788923 0 133139623.29788923 -102363769.99523258 0 0 0 0 -45076461.197859883 5605573.7029414177 0 5605573.7029414177 21903758.408467293 0 0 0 0 696302.48899398872 -3314438.8250781959 0 -3314438.8250781959 -51359.558830678929 0 0 0 0 -186274582.61050272 77115782.075576305 0 77115782.075576305 -564637805.0960083 0 0 0 0 -65377852.70188728 -16224442.469847679 0 -16224442.469847679 -1493961.3818292022 0 0 0 0 -74597345.766284227 -28921868.090608597 0 -28921868.090608597 -26487773.609940052 0 0 0 0 -239089787.82393655 -294804542.04810548 0 -294804542.04810548 31236281.272737503 0 0 0 0 -345617769.35968387 -158728898.1576457 0 -158728898.1576457 440021325.23989487 0 0 0 0 -103717360.26554561 -153870381.28477573 0 -153870381.28477573 146449515.72559142 0 0 0 0 -75174972.082320243 -51276645.361134529 0 -51276645.361134529 159581650.38506508 0 0 0 0 -79534783.550779462 -178545383.28513718 0 -178545383.28513718 -15255147.346298218 0 0 0 0 -5172810.0234131813 10223740.184899569 0 10223740.184899569 -90228519.035551071 0 0 0 0 -45035749.621781051 -1845704.6388320923 0 -1845704.6388320923 -38691478.82771492 0 0 0 0 2046622.3796813488 -107042922.38827133 0 -107042922.38827133 42977054.529187202 0 0 0 0 95812680.23328495 -101729797.66391182 0 -101729797.66391182 18703643.1889081 0 0 0 0 105069733.29495311 63460337.464874744 0 63460337.464874744 -56969479.312391758 0 0 0 0 -184483427.08267879 202152200.67018366 0 202152200.67018366 -64920147.178829193 0 0 0 0 -65804928.37079668 135024578.88589263 0 135024578.88589263 -191310609.47258568 0 0 0 0 -124161712.35646129 84763002.215889454 0 84763002.215889454 -43917412.045150995 0 0 0 0 -396937711.63497025 214387686.4994272 0 214387686.4994272 -90311194.062425613 0 0 0 0 -213114741.06199551 87292390.383345604 0 87292390.383345604 -133964601.39754629 0 0 0 0 296725675.74991465 -241474374.17470932 0 -241474374.17470932 103019299.54625511 0 0 0 0 916031.04884190916 3180438.4520145468 0 3180438.4520145468 10583607.726316994 0 0 0 0 845599935.63081551 -456149889.23395157 0 -456149889.23395157 -288337533.58547974 0 0 0 0 -389655208.84413314 410187005.16915184 0 410187005.16915184 -207753556.91570759 0 0 0 0 804990528.21088791 -296205668.49520874 0 -296205668.49520874 295594823.36315918 0 0 0 0 -99641848.291099787 6717614.4408602715 0 6717614.4408602715 -212304887.80420971 0 0 0 0 -125261108.64036894 236178336.69145679 0 236178336.69145679 -404537642.24863815 0 0 0 0 -115907343.58410859 -70581169.418582439 0 -70581169.418582439 -67008932.521967426 0 0 0 0 -542708724.70429885 447077540.63094413 0 447077540.63094413 350358359.40087223 0 0 0 0 -141946282.94953489 35912596.139885902 0 35912596.139885902 333735159.84577179 0 0 0 0 117792586.6226182 91456387.81977129 0 91456387.81977129 342170282.58284545 0 0 0 0 -240993662.62757689 -272091285.54686224 0 -272091285.54686224 2130686057.4498644 0 0 0 0 47056323.478254929 -150454707.89118731 0 -150454707.89118731 59272267.139584541 0 0 0 0 244211821.23516428 -10952508.737183571 0 -10952508.737183571 -125028871.12701792 0 0 0 0 -13293284.890814602 -275551445.67499065 0 -275551445.67499065 -142360420.52468586 0 0 0 0 128384288.20275962 -120949102.25738907 0 -120949102.25738907 -44430182.44640851 0 0 0 0 233269658.12005073 217395202.15825367 0 217395202.15825367 156305784.38929665 0 0 0 0 57537085.835211277 -43893836.277230024 0 -43893836.277230024 177795779.04517555 0 0 0 0 -5429318.9046111107 -34527644.470911741 0 -34527644.470911741 974228846.25925636 0 0 0 0 -346946113.98022467 183896379.94350845 0 183896379.94350845 768028978.70678997 0 0 0 0 121263685.56927299 24640865.462395668 0 24640865.462395668 802932094.91123962 0 0 0 0 482266522.29878616 956344899.412274 0 956344899.412274 1587815783.8586111 0 0 0 0 -916580033.42516732 1373117047.1918592 0 1373117047.1918592 5355777573.6994343 0 0 0 0 1759663558.2371671 2650965905.1270823 0 2650965905.1270823 2311083529.928072 0 0 0 0 -915732848.0826062 1368460349.2024679 0 1368460349.2024679 5343593670.4118004 0 0 0 0 -739007854.97613204 100875500.67541099 0 100875500.67541099 3274463472.395587 0 0 0 0 -775264871.47036242 -98990163.854767084 0 -98990163.854767084 2235758586.29458 0 0 0 0 -782739786.21608007 -1045020703.5708573 0 -1045020703.5708573 5354872482.383544 0 0 0 0 -47218475.744620979 -923465954.65376592 0 -923465954.65376592 1693684919.7466915 0 0 0 0 -367270.98427801137 -788715.53494973201 0 -788715.53494973201 7069306.503056284 0 0 0 0 974171363.62669706 -2863317431.4627695 0 -2863317431.4627695 5345544683.6306601 0 0 0 0 84445446.905859053 1143362238.0179334 0 1143362238.0179334 1115667428.8275223 0 0 0 0 -460835537.8564806 678591399.33566189 0 678591399.33566189 5343410701.9073391 0 0 0 0 -298790598.55930114 -1213581016.2633467 0 -1213581016.2633467 5344566179.6207695 0 0 0 0 -369569282.06008291 -257185111.84394932 0 -257185111.84394932 1839638901.6657543 0 0 0 0 327918429.75820082 -225689515.28210926 0 -225689515.28210926 1840690940.7580204 0 0 0 0 739137269.17735541 -444175578.72660255 0 -444175578.72660255 437887146.09786034 0 0 0 0 332481292.74375057 -482181528.80859661 0 -482181528.80859661 -79006002.485857964 0 0 0 0 620096639.33750916 -14865043.49318409 0 -14865043.49318409 420819393.07459831 0 0 0 0 150686227.19085371 -275809137.7174015 0 -275809137.7174015 -39329704.267781258 0 0 0 0 662611010.32035553 -399440889.13558388 0 -399440889.13558388 -10804761.82542038 0 0 0 0 106372102.62392139 96275536.341665268 0 96275536.341665268 -62131199.611949921 0 0 0 0 686649426.48717046 120634290.89729381 0 120634290.89729381 -141710527.85666084 0 0 0 0 429670402.2812736 -89960735.096827507 0 -89960735.096827507 -2872142.4623794556 0 0 0 0 9301723.0120887756 -5433502.8686227798 0 -5433502.8686227798 785096.58818084002 0 0 0 0 133480317.38668287 -288359473.74102068 0 -288359473.74102068 113853717.02986717 0 0 0 0 54713378.733317375 -161506045.73348427 0 -161506045.73348427 150981688.77573967 0 0 0 0 155843916.70448777 -260819595.56339312 0 -260819595.56339312 130739427.8018074 0 0 0 0 625874.14326989627 3202201.8882069672 0 3202201.8882069672 12491170.283828093 0 0 0 0 258002563.4282701 -322349179.68682003 0 -322349179.68682003 167749352.63833427 0 0 0 0 258905062.54862309 -345182203.44650936 0 -345182203.44650936 380285537.92128754 0 0 0 0 -352390675.34971642 -260223329.30537748 0 -260223329.30537748 1800115062.6550059 0 0 0 0 161034.27411376178 1963436.1509246496 0 1963436.1509246496 12003635.87502731 0 0 0 0 -340818870.97423679 -206590311.76848316 0 -206590311.76848316 240614341.33872318 0 0 0 0 -4547830.5666973591 65165781.873010635 0 65165781.873010635 114623282.68384933 0 0 0 0 260819441.80145577 -259799879.27281952 0 -259799879.27281952 150511650.85887527 0 0 0 0 4835234.496518706 3596685.7498916071 0 3596685.7498916071 6012490.8369890377 0 0 0 0 547650.50503364671 -607229.20771909098 0 -607229.20771909098 2272333.0267801434 0 0 0 0 62487300.43681775 -1129698713.8360977 0 -1129698713.8360977 2624063035.7512054 0 0 0 0 -484406113.8859942 769476754.80180931 0 769476754.80180931 5297810636.8031311 0 0 0 0 969546094.29783511 182336119.06421661 0 182336119.06421661 -543082272.94646835 0 0 0 0 82201654.58718878 74420390.304279327 0 74420390.304279327 -550952631.66430402 0 0 0 0 -967082279.50131524 -95418954.631771088 0 -95418954.631771088 5332803438.1626797 0 0 0 0 1510983.786982147 -492075.3500832608 0 -492075.3500832608 4059632.3568946794 0 0 0 0 238913126.82132724 1037545801.8226452 0 1037545801.8226452 3045895963.4634361 0 0 0 0 782345011.60318184 -1461395716.5026736 0 -1461395716.5026736 1334616190.8629913 0 0 0 0 429520576.02335298 304806630.15666771 0 304806630.15666771 -383613246.54658413 0 0 0 0 -614211546.47864914 26151236.436954975 0 26151236.436954975 228227883.877388 0 0 0 0 93529152.250347912 59052671.867907524 0 59052671.867907524 -108203331.28855515 0 0 0 0 -25986048.042350531 194840172.79864979 0 194840172.79864979 -38673213.713273525 0 0 0 0 -10146390.683394784 11461700.716663361 0 11461700.716663361 95206579.875319481 0 0 0 0 80074.34468735788 4478374.8808793481 0 4478374.8808793481 11968843.979303842 0 0 0 0 1522052.583514964 -481405.37508379575 0 -481405.37508379575 8740284.3130077161 0 0 0 0 18172894.052232094 -15804351.958963394 0 -15804351.958963394 -351382763.36264038 0 0 0 0 -58774208.832804486 -38711301.405633926 0 -38711301.405633926 82160579.056610107 0 0 0 0 97268608.394940853 57270768.369660378 0 57270768.369660378 27216098.219261169 0 0 0 0 1051651.079531695 371427.99600235489 0 371427.99600235489 3807232.4928252958 0 0 0 0 -52294701.236481637 97633902.419393539 0 97633902.419393539 -301532742.50214386 0 0 0 0 2237439.0888329097 3826124.3465570356 0 3826124.3465570356 2446859.6510911621 0 0 0 0 14977386.525469303 18203136.559959412 0 18203136.559959412 -2044683.8753986359 0 0 0 0 4930531.9545921087 13184167.7382164 0 13184167.7382164 8643611.6784553528 0 0 0 0 -11610869.495894624 8069396.9336673766 0 8069396.9336673766 37660974.449234009 0 0 0 0 -11566327.842780828 3265306.9322433472 0 3265306.9322433472 33362781.929481506 0 0 0 0 -6713248.4502900541 6945141.8027200699 0 6945141.8027200699 25830666.819396973 0 0 0 0 -7228397.2523661852 5440300.2331705093 0 5440300.2331705093 31973568.112411499 0 0 0 0 942668.18016536674 6558240.0101669896 0 6558240.0101669896 20736660.345120549 0 0 0 0 -777201.39882681309 426915.00714039057 0 426915.00714039057 17460938.170224667 0 0 0 0 -4448656.5449968874 1147316.4656147957 0 1147316.4656147957 2567575.9128112793 0 0 0 0 -4151577.2916886806 4893400.8019599915 0 4893400.8019599915 31906401.978729248 0 0 0 0 -648037.88693278399 415459.87097460008 0 415459.87097460008 17005329.035817321 0 0 0 0 440526.28510833607 1193397.6593418922 0 1193397.6593418922 14925104.386362687 0 0 0 0 -132246618.58154726 35814900.507274628 0 35814900.507274628 25746364.66904068 0 0 0 0 -108545441.5429759 21905492.13315773 0 21905492.13315773 24166551.305024147 0 0 0 0 35174927.074528217 44976857.291005135 0 44976857.291005135 -22625640.133243561 0 0 0 0 5593987.8467664719 49017714.845703125 0 49017714.845703125 -23086562.113030434 0 0 0 0 -9168159.5986820459 105116006.80355835 0 105116006.80355835 -30586955.841018677 0 0 0 0 -35541669.710323334 122261833.9039917 0 122261833.9039917 -37125649.25254631 0 0 0 0 -158867834.27959228 209115509.34876823 0 209115509.34876823 -47934096.396598816 0 0 0 0 -298782575.53623462 229008326.35041809 0 229008326.35041809 -74845469.100717545 0 0 0 0 -242984063.17589545 -156513285.89910984 0 -156513285.89910984 220300174.70198822 0 0 0 0 18258657.458548814 16529876.913906097 0 16529876.913906097 4316525.2892379761 0 0 0 0 -398782.11474454834 146362.56785951741 0 146362.56785951741 918572.75447810814 0 0 0 0 -374978405.89964581 -160480045.88405609 0 -160480045.88405609 138902608.16784668 0 0 0 0 180037772.76203305 89284647.452842712 0 89284647.452842712 -127068944.80751801 0 0 0 0 73448047.336724758 165949252.41355133 0 165949252.41355133 -126183666.34010696 0 0 0 0 124882301.68115377 -55876299.752099991 0 -55876299.752099991 -6005331.8355903625 0 0 0 0 54120660.091062069 -46652837.757595062 0 -46652837.757595062 44219076.471546173 0 0 0 0 80631426.869093776 81838336.990603447 0 81838336.990603447 77144719.737602234 0 0 0 0 781728.10469166236 -150028.37179245427 0 -150028.37179245427 228.50611134129576 0 0 0 0 195472583.08876038 -1535961.0839803219 0 -1535961.0839803219 -78933076.078041077 0 0 0 0 50178648.648158073 -4307291.7134170532 0 -4307291.7134170532 -24957781.431915283 0 0 0 0 67485117.673442841 9213248.3799934387 0 9213248.3799934387 -24854341.894935608 0 0 0 0 55066921.817625046 51623758.285234451 0 51623758.285234451 -59234554.911225319 0 0 0 0 36785518.025140762 19349838.392723083 0 19349838.392723083 -28111786.657701492 0 0 0 0 43324035.882479906 1636509.770157814 0 1636509.770157814 -16766605.915569305 0 0 0 0 39152674.500696778 6313143.6043977737 0 6313143.6043977737 -4776611.6341400146 0 0 0 0 23269036.524866223 13873496.062353611 0 13873496.062353611 -6585743.0163192749 0 0 0 0 25996132.220412817 34411457.305678517 0 34411457.305678517 -17832170.394866943 0 0 0 0 21710284.08131218 20013458.254699707 0 20013458.254699707 -3818184.7349777222 0 0 0 0 26108272.651126862 21009598.053524017 0 21009598.053524017 -8932230.4823532104 0 0 0 0 13560039.736077309 9909200.5307540894 0 9909200.5307540894 16042675.327636719 0 0 0 0 2441978.1511678696 10920795.121383667 0 10920795.121383667 26327929.808288574 0 0 0 0 -48970085.251461506 -69857222.47912097 0 -69857222.47912097 11541734.749717712 0 0 0 0 -41212611.515823364 -47795998.996514499 0 -47795998.996514499 12559673.813095093 0 0 0 0 -38132859.397954941 -28668076.888872147 0 -28668076.888872147 -690089.66669368744 0 0 0 0 -41740942.983886898 -57058376.464808047 0 -57058376.464808047 -22734125.944576263 0 0 0 0 -492905.70457754191 443854.18339026556 0 443854.18339026556 2814569.4869783004 0 0 0 0 -45224615.90126133 -74941246.43900919 0 -74941246.43900919 -18847931.622152328 0 0 0 0 -120518768.85260391 253599978.1243515 0 253599978.1243515 -93572783.949831963 0 0 0 0 -2698674.1077594757 15849290.417989731 0 15849290.417989731 22237363.671394348 0 0 0 0 -6457956.8665475845 16475280.777919769 0 16475280.777919769 28667067.97661972 0 0 0 0 2944359.0032133907 -175337.24471424846 0 -175337.24471424846 11398961.533121029 0 0 0 0 -201695.91587710381 18756502.869709015 0 18756502.869709015 26204805.47681427 0 0 0 0 66431471.207870483 47760049.150848389 0 47760049.150848389 125568802.61472321 0 0 0 0 -2860229.0799554246 878874.80124823423 0 878874.80124823423 10308068.969921973 0 0 0 0 9290185.5275480747 14002619.803577423 0 14002619.803577423 21503016.967803955 0 0 0 0 2613251.6864804924 3770676.5731067657 0 3770676.5731067657 18117175.161087036 0 0 0 0 -4239405.6776616573 15029689.577943802 0 15029689.577943802 24025600.298713684 0 0 0 0 -15655154.537435532 10520507.343414307 0 10520507.343414307 21909324.363348007 0 0 0 0 -9300382.611274004 20361880.089694977 0 20361880.089694977 19669699.164691925 0 0 0 0 -6738991.4483349323 29204885.309761047 0 29204885.309761047 7802851.3335342407 0 0 0 0 5416754.9199354649 18580670.112775803 0 18580670.112775803 9671529.6409454346 0 0 0 0 -27176961.843319178 44995476.050807953 0 44995476.050807953 1558539.9490242004 0 0 0 0 -14702667.962267876 10885923.727845192 0 10885923.727845192 19702671.075908661 0 0 0 0 -30738293.093755007 11961138.691951752 0 11961138.691951752 24021369.12336731 0 0 0 0 -32160318.715707302 -5391620.2567920685 0 -5391620.2567920685 9070912.3360443115 0 0 0 0 -2847897.4540979452 2600479.8091743505 0 2600479.8091743505 18908998.028306805 0 0 0 0 -22994772.636596978 4590207.9322319031 0 4590207.9322319031 22299583.20646286 0 0 0 0 2429594.0358218686 -4971470.5230349759 0 -4971470.5230349759 14338147.014955636 0 0 0 0 -10697061.378390551 2222326.0521068573 0 2222326.0521068573 31045205.684234619 0 0 0 0 3528450.8876742409 -458033.98663415934 0 -458033.98663415934 13335105.975222819 0 0 0 0 -18634060.74916172 -6765972.4923744202 0 -6765972.4923744202 5083343.003276825 0 0 0 0 6259371.1394993663 7414938.3431987762 0 7414938.3431987762 20539084.904811859 0 0 0 0 17872649.387617946 -5024679.6824226379 0 -5024679.6824226379 10489695.212738037 0 0 0 0 -17109429.310849905 -1025729.4707870483 0 -1025729.4707870483 35279457.114349365 0 0 0 0 -9612662.5260045528 -5563780.4473114014 0 -5563780.4473114014 24392544.888023376 0 0 0 0 -13537084.765015125 -3556362.396987915 0 -3556362.396987915 23402428.727111816 0 0 0 0 -14148158.543690205 2022695.5208282471 0 2022695.5208282471 33437135.051681519 0 0 0 0 -13016841.584589899 4241336.2852754593 0 4241336.2852754593 34444850.055198669 0 0 0 0 24567987.314849854 -100090313.07176971 0 -100090313.07176971 -406127433.12551689 0 0 0 0 -74712217.913951874 -65421814.484958649 0 -65421814.484958649 -232292204.18877602 0 0 0 0 -48377180.143910408 -98844056.931824684 0 -98844056.931824684 -75339512.040082932 0 0 0 0 -21644145.256503105 -178866935.75282097 0 -178866935.75282097 -136826968.73202896 0 0 0 0 -33474074.28858763 -85098963.379464507 0 -85098963.379464507 -206920605.15312195 0 0 0 0 -7805817.9087252617 -201700667.88803959 0 -201700667.88803959 -46332661.611814499 0 0 0 0 369925386.14892483 32523935.859373093 0 32523935.859373093 -784609336.49544525 0 0 0 0 223564395.18255901 -69413825.17802906 0 -69413825.17802906 -271336992.19891059 0 0 0 0 -117075488.98960876 10592458.772750854 0 10592458.772750854 -265269634.1673528 0 0 0 0 -51370899.12184906 -174385020.02142143 0 -174385020.02142143 -277645065.13100624 0 0 0 0 194902906.82463726 -260466941.3430407 0 -260466941.3430407 369717665.24976349 0 0 0 0 612336.25323069934 169609.77380030043 0 169609.77380030043 288018.56588766002 0 0 0 0 419615375.39059627 -1091670548.5271566 0 -1091670548.5271566 1165034876.1408234 0 0 0 0 212514308.41949701 -179117434.09243011 0 -179117434.09243011 548384916.96627522 0 0 0 0 1642919.3716710936 401903.73415138386 0 401903.73415138386 825344.25051105744 0 0 0 0 80169016.368933678 -184523814.65969086 0 -184523814.65969086 451756359.1023407 0 0 0 0 94816204.799275517 -207392131.23933029 0 -207392131.23933029 346792368.8298912 0 0 0 0 -109176428.32690251 -126846592.62582397 0 -126846592.62582397 402315221.89385223 0 0 0 0 253745.67035264324 106227.49714694778 0 106227.49714694778 -138804.04992271122 0 0 0 0 101520674.47803071 -203188469.56340122 0 -203188469.56340122 184444339.03187943 0 0 0 0 76936335.820316017 -59750810.770624638 0 -59750810.770624638 47229765.907398224 0 0 0 0 2133815.153678243 -384050.89543105941 0 -384050.89543105941 5054.4388696295209 0 0 0 0 145423867.34369475 -135876388.58916378 0 -135876388.58916378 90313180.339584351 0 0 0 0 -4678621.9141736031 -8691780.2267627716 0 -8691780.2267627716 20306267.921004295 0 0 0 0 40153270.959988594 -4138885.880153656 0 -4138885.880153656 -1314958.3043785095 0 0 0 0 73462.193033695221 1996843.5996723175 0 1996843.5996723175 -1167313.2562441826 0 0 0 0 2012019.6807997855 -153827.56577894045 0 -153827.56577894045 2309809.9330903105 0 0 0 0 -42942460.010097265 -136191871.0021832 0 -136191871.0021832 -143817824.37100792 0 0 0 0 -25574782.164961815 -133003839.286973 0 -133003839.286973 -146263705.9752512 0 0 0 0 -96772848.879566193 -30772192.838550568 0 -30772192.838550568 -31343340.875897408 0 0 0 0 -77958626.784229279 -92990209.882021904 0 -92990209.882021904 37721066.033867836 0 0 0 0 30657817.444038391 6946205.7864093781 0 6946205.7864093781 -3794848.9017906189 0 0 0 0 30692144.222820282 -186400394.64261341 0 -186400394.64261341 66153178.256052494 0 0 0 0 -108605999.89559555 -95977682.930934906 0 -95977682.930934906 16279227.602061272 0 0 0 0 2754062.5063850014 -709257.71300056344 0 -709257.71300056344 5398173.105798061 0 0 0 0 -90019058.175884247 -70788784.535824776 0 -70788784.535824776 38911650.932287216 0 0 0 0 -51857605.496294022 -67906724.283779144 0 -67906724.283779144 17752137.861488342 0 0 0 0 -62334952.988598824 -38234502.963921547 0 -38234502.963921547 71022572.1136446 0 0 0 0 -60511135.787155151 -52255423.55249691 0 -52255423.55249691 24705985.89209938 0 0 0 0 -79974264.506896019 -20351102.800499916 0 -20351102.800499916 93488724.550842762 0 0 0 0 -67219939.684473515 -24221615.257671356 0 -24221615.257671356 91979904.616723061 0 0 0 0 -54941492.829680443 26853778.837953568 0 26853778.837953568 199159983.01541328 0 0 0 0 -42217028.994994164 -70356218.68950367 0 -70356218.68950367 124611795.23099947 0 0 0 0 -72231682.287502587 -38829111.608567178 0 -38829111.608567178 93387138.020923615 0 0 0 0 -29707668.181593895 -162203545.99113846 0 -162203545.99113846 -1574630.6251859665 0 0 0 0 -30186216.608885575 -73545245.989921331 0 -73545245.989921331 47867487.918325424 0 0 0 0 99126304.129615784 -154203518.5850153 0 -154203518.5850153 98103511.353897095 0 0 0 0 96130681.830283642 -150561854.6352253 0 -150561854.6352253 251043352.96330261 0 0 0 0 52698066.593132019 -92811780.080958366 0 -92811780.080958366 293962512.05335045 0 0 0 0 37449414.292219639 70470667.650963783 0 70470667.650963783 239125493.63320327 0 0 0 0 -14573434.843225241 -8407982.1677868366 0 -8407982.1677868366 192255401.84004211 0 0 0 0 180219773.80408239 -57001512.682218552 0 -57001512.682218552 212774804.86820984 0 0 0 0 131787145.97346973 117440210.87111759 0 117440210.87111759 51818168.247872353 0 0 0 0 19986955.126003265 89793470.338775635 0 89793470.338775635 273653503.2445879 0 0 0 0 -10092047.634610176 50152334.574560642 0 50152334.574560642 125634946.75651073 0 0 0 0 13534470.419315815 54591715.819350243 0 54591715.819350243 120823895.63911438 0 0 0 0 48220745.445521355 83865565.488099098 0 83865565.488099098 103200195.3374691 0 0 0 0 81751589.2838552 61259830.928147554 0 61259830.928147554 59475057.010887146 0 0 0 0 86645896.929247379 68318338.740244865 0 68318338.740244865 50076581.878362685 0 0 0 0 56665366.32237339 58827071.712836981 0 58827071.712836981 59440473.528464794 0 0 0 0 56922790.550517321 56869157.475592524 0 56869157.475592524 57297107.24187851 0 0 0 0 8652049.6066665649 44818840.838537216 0 44818840.838537216 73317579.183965683 0 0 0 0 -231516853.84457684 -150449209.71731329 0 -150449209.71731329 -21548432.386846542 0 0 0 0 -209579577.17972183 -257318376.68718767 0 -257318376.68718767 -125381940.00104141 0 0 0 0 5468517.1456905082 -3938692.5094070015 0 -3938692.5094070015 6707674.5691710552 0 0 0 0 337980.87344360352 28738084.71295023 0 28738084.71295023 49850207.244274467 0 0 0 0 -499345.55967330933 31007350.959331989 0 31007350.959331989 54033909.88657856 0 0 0 0 27191629.335280418 32616411.346981287 0 32616411.346981287 51430523.365898132 0 0 0 0 23797096.680298805 39921055.894627571 0 39921055.894627571 53408141.330621719 0 0 0 0 -17463144.986702919 24641819.259868145 0 24641819.259868145 69534523.94604373 0 0 0 0 -8441767.5539684296 37542260.735074043 0 37542260.735074043 74226138.983641624 0 0 0 0 -4930356.3319494724 25963538.562631965 0 25963538.562631965 58980669.303557396 0 0 0 0 -32341472.067976952 13845468.821320534 0 13845468.821320534 64133792.031741142 0 0 0 0 -16726642.757977843 22398218.041844249 0 22398218.041844249 67057152.331792831 0 0 0 0 -43533335.647744179 -2918292.5761299133 0 -2918292.5761299133 67266437.703126907 0 0 0 0 -34554023.765315056 19768176.801658154 0 19768176.801658154 95675358.168254852 0 0 0 0 -46899786.984053612 2842235.13463974 0 2842235.13463974 76606980.215398788 0 0 0 0 -30874547.55193615 18669409.465326309 0 18669409.465326309 89560174.972821116 0 0 0 0 6619484.6175022125 47413329.938426495 0 47413329.938426495 85681726.545418739 0 0 0 0 -51148677.582077026 17343175.185824394 0 17343175.185824394 122679204.12999535 0 0 0 0 -6451390.2685960531 32563373.156681299 0 32563373.156681299 93004395.536994934 0 0 0 0 -66713427.662288666 -12346277.606964111 0 -12346277.606964111 86561457.634019852 0 0 0 0 -54005686.553037643 -11437238.796533585 0 -11437238.796533585 79545099.912023544 0 0 0 0 -52933715.176383018 -19462712.798204422 0 -19462712.798204422 61380872.508432388 0 0 0 0 -55401028.160747528 -30367660.497468948 0 -30367660.497468948 52143802.402957916 0 0 0 0 -51499716.090268254 -22425037.5478158 0 -22425037.5478158 45884416.777805328 0 0 0 0 -51541333.300542831 -15324349.734167099 0 -15324349.734167099 59462748.664365768 0 0 0 0 -47296302.077297211 -21979467.644814491 0 -21979467.644814491 35143379.713433266 0 0 0 0 -49766687.455154419 -27598166.410143852 0 -27598166.410143852 37883996.387770653 0 0 0 0 -52094390.087972164 -38790711.72954607 0 -38790711.72954607 18259974.838558197 0 0 0 0 -38647728.116462708 -24416688.767056465 0 -24416688.767056465 17285956.218841553 0 0 0 0 -47748186.76017952 -11536534.852731943 0 -11536534.852731943 33873628.609242916 0 0 0 0 -39308306.666590452 -22572582.864391804 0 -22572582.864391804 21029131.437141418 0 0 0 0 -15536824.341926575 -10107713.316764832 0 -10107713.316764832 25164582.162261963 0 0 0 0 -47345343.48776865 -14514601.495638013 0 -14514601.495638013 43564651.140739441 0 0 0 0 -44933801.412903786 -9807035.4685444832 0 -9807035.4685444832 48754897.209459305 0 0 0 0 -47855035.416360855 -7530816.6848964691 0 -7530816.6848964691 57970999.736495495 0 0 0 0 -41140479.993301392 -3215608.7086951733 0 -3215608.7086951733 57798539.673151016 0 0 0 0 -22767971.5160532 -15988032.043708801 0 -15988032.043708801 17284385.805252075 0 0 0 0 -13136028.90184927 -9800179.8569717407 0 -9800179.8569717407 19641281.741470337 0 0 0 0 -9932671.3909482956 2449270.7260704041 0 2449270.7260704041 58676795.496574402 0 0 0 0 -22225056.669495821 -7684664.6622533798 0 -7684664.6622533798 12853109.324256897 0 0 0 0 -1841113.6066424353 -2735526.6326131709 0 -2735526.6326131709 15947364.764661461 0 0 0 0 -6272073.317417739 9103616.665581502 0 9103616.665581502 19765033.106652919 0 0 0 0 -4341196.2499373658 1947562.0726351442 0 1947562.0726351442 33564258.871560559 0 0 0 0 -155216945.89941788 -118547233.15532303 0 -118547233.15532303 16595906.329376221 0 0 0 0 7094109.7051119804 95663843.145336151 0 95663843.145336151 4018439.5368041992 0 0 0 0 -837342.61422447301 2909515.8952985369 0 2909515.8952985369 35343427.611902043 0 0 0 0 42789306.21528101 -10808151.382232666 0 -10808151.382232666 -148790476.38212585 0 0 0 0 53482940.176649094 116341682.78274536 0 116341682.78274536 181643600.87878418 0 0 0 0 -10234808.670606136 -3925619.289604187 0 -3925619.289604187 7676113.9706573486 0 0 0 0 -380715.91333239584 826108.5739697814 0 826108.5739697814 6070370.3566829488 0 0 0 0 -14811348.896281958 135370270.11713791 0 135370270.11713791 161315716.32797241 0 0 0 0 -1030050.0567692586 1040987.2771491352 0 1040987.2771491352 3940648.7200571895 0 0 0 0 -7066975.9331364632 -16711435.924591064 0 -16711435.924591064 37277969.329627991 0 0 0 0 61244134.263239503 112947053.89901924 0 112947053.89901924 -2539031.6041259766 0 0 0 0 4389700.1235447824 5512430.3542058468 0 5512430.3542058468 31139708.012794495 0 0 0 0 -91095563.270207405 -61656365.83165741 0 -61656365.83165741 -5689151.97605896 0 0 0 0 432339.21501914505 -2481399.17911309 0 -2481399.17911309 25443126.675643921 0 0 0 0 -675104.45712633431 -494232.87247130275 0 -494232.87247130275 2831122.5711559067 0 0 0 0 -51850851.439762115 -11971186.722457886 0 -11971186.722457886 40866548.092987061 0 0 0 0 411724.16505376995 -3679489.7119876742 0 -3679489.7119876742 30600008.588348389 0 0 0 0 -68006972.955630302 25169730.170204163 0 25169730.170204163 94528254.775588989 0 0 0 0 -75627103.861466408 11191307.375846863 0 11191307.375846863 76648140.923271179 0 0 0 0 -250043203.73766518 17294193.742889404 0 17294193.742889404 101961926.59432983 0 0 0 0 -225564969.39580035 207984650.28843498 0 207984650.28843498 103647626.24325562 0 0 0 0 -45910675.719752312 157123223.90042877 0 157123223.90042877 52044608.726287842 0 0 0 0 -2668676.1066914899 2032092.3402153021 0 2032092.3402153021 39326087.681550667 0 0 0 0 31888942.420327187 51177443.097728729 0 51177443.097728729 43010742.815231323 0 0 0 0 -29551852.04528141 -11067634.72246933 0 -11067634.72246933 83164946.559844971 0 0 0 0 -62676537.868783951 19398647.436386108 0 19398647.436386108 96991253.693023682 0 0 0 0 1478248.3152737617 31972492.51158905 0 31972492.51158905 77060812.049224854 0 0 0 0 -58332970.21553421 29514372.148975372 0 29514372.148975372 118672442.76225281 0 0 0 0 -90322843.120136261 6237130.6893768311 0 6237130.6893768311 114007974.59114456 0 0 0 0 -34238468.724764824 14427929.037026882 0 14427929.037026882 61268781.136886597 0 0 0 0 -31715772.968027115 9038254.9473814964 0 9038254.9473814964 49350937.717787743 0 0 0 0 -36026739.291813374 6920386.9059557915 0 6920386.9059557915 37504806.490350366 0 0 0 0 -60411436.643014431 4390229.7609820366 0 4390229.7609820366 55587050.738145828 0 0 0 0 -25306089.706865311 10954073.33216238 0 10954073.33216238 50266269.606128693 0 0 0 0 -14966028.663642764 12728514.525046706 0 12728514.525046706 41719371.039780617 0 0 0 0 -9323813.7684614658 29539125.958075881 0 29539125.958075881 58059984.356960297 0 0 0 0 -31661087.957553864 17178583.074062586 0 17178583.074062586 62900546.6035465 0 0 0 0 -9179362.9087440446 3734780.0583534329 0 3734780.0583534329 26458403.483150862 0 0 0 0 29459078.856988907 -26712920.237194061 0 -26712920.237194061 33610018.574056625 0 0 0 0 -12977054.819060206 -20079470.388759613 0 -20079470.388759613 18456936.528930664 0 0 0 0 29796422.471157074 28385920.071304321 0 28385920.071304321 -6238413.9640579224 0 0 0 0 -625276.44885536877 -2446877.4715974592 0 -2446877.4715974592 6684049.1338302437 0 0 0 0 -31999779.484544754 23190457.27583313 0 23190457.27583313 -7820080.8167800903 0 0 0 0 -6467271.414797632 5221775.5099816434 0 5221775.5099816434 43471175.262787297 0 0 0 0 -76989288.606358051 -36143443.101481438 0 -36143443.101481438 70535526.581268311 0 0 0 0 -15066245.70460996 -3465105.1814992428 0 -3465105.1814992428 33611254.041885376 0 0 0 0 -37260744.665218353 11513780.311565399 0 11513780.311565399 64562256.2237854 0 0 0 0 -38611429.186526209 -18951421.620596886 0 -18951421.620596886 42557691.000640869 0 0 0 0 -11736547.700154305 -3176488.5675201416 0 -3176488.5675201416 44056209.171160698 0 0 0 0 -11822262.042507648 3384288.7484750748 0 3384288.7484750748 44907296.672058105 0 0 0 0 -17724233.08580333 -9323116.9720478058 0 -9323116.9720478058 49137153.299186707 0 0 0 0 -20212694.177354813 2632819.4787406921 0 2632819.4787406921 43217746.320407867 0 0 0 0 -13474174.399663385 1681990.8084360473 0 1681990.8084360473 38201206.333910733 0 0 0 0 -14212932.989534378 -3243314.0495376587 0 -3243314.0495376587 33431227.449552536 0 0 0 0 -11132250.058628559 2555151.1615800858 0 2555151.1615800858 34531986.107704163 0 0 0 0 -22754520.603261948 -809476.67290210724 0 -809476.67290210724 26526049.885482788 0 0 0 0 763287.43032345176 -42338949.495434225 0 -42338949.495434225 39187384.654499054 0 0 0 0 -13228059.536803722 -22972467.925355911 0 -22972467.925355911 22610610.484329224 0 0 0 0 -8838249.7365722656 -379356.46644592285 0 -379356.46644592285 11781857.5975914 0 0 0 0 933741.61236381531 11702333.335681915 0 11702333.335681915 17550782.662202835 0 0 0 0 161131.02536188072 -1354403.8163952739 0 -1354403.8163952739 90220.825115397573 0 0 0 0 -6476647.4594328403 -41741064.893852234 0 -41741064.893852234 109881456.04738617 0 0 0 0 -223322.08824145235 -1135718.717898393 0 -1135718.717898393 1322232.1645780355 0 0 0 0 51480228.184472561 -66059087.421813965 0 -66059087.421813965 41448215.051834106 0 0 0 0 -6704185.476448725 2297166.2559618112 0 2297166.2559618112 31150580.677894998 0 0 0 0 -38799030.489995003 6531142.9549236298 0 6531142.9549236298 40722182.27571106 0 0 0 0 -26794121.84305954 19870414.516204834 0 19870414.516204834 55497709.98097229 0 0 0 0 -13690027.612137794 8071190.0424919128 0 8071190.0424919128 25666649.009837151 0 0 0 0 -1560929.7150831223 19816208.530615807 0 19816208.530615807 25072268.171661377 0 0 0 0 -17825892.573328972 5828007.2109413147 0 5828007.2109413147 15702076.520954132 0 0 0 0 -20127696.323153496 -194243.07948970795 0 -194243.07948970795 20228835.529094696 0 0 0 0 -17237074.251433611 -1427719.0540847778 0 -1427719.0540847778 8007229.4683246613 0 0 0 0 -17291004.503051281 3016440.8178424835 0 3016440.8178424835 23299400.114982605 0 0 0 0 -10520010.051195949 7746228.0123149343 0 7746228.0123149343 21788871.479308702 0 0 0 0 -12059484.703936815 -2353393.0583496094 0 -2353393.0583496094 17771661.939956665 0 0 0 0 -23896688.24388361 1647652.9703426361 0 1647652.9703426361 6828637.8770294189 0 0 0 0 -6187627.24597371 1635881.0918102113 0 1635881.0918102113 10974508.144828068 0 0 0 0 2180788.3660626449 -11213816.976058338 0 -11213816.976058338 616741.13117204607 0 0 0 0 -12782259.10973978 10449453.795016069 0 10449453.795016069 23095402.34831214 0 0 0 0 -43577319.562623978 -14841861.318927765 0 -14841861.318927765 40220814.023813009 0 0 0 0 -6229812.5191718079 -7348168.6674463209 0 -7348168.6674463209 25801918.662007868 0 0 0 0 -57947463.706739426 -18459026.764806747 0 -18459026.764806747 39712622.765305996 0 0 0 0 -1770889.2466147123 -12411498.681262419 0 -12411498.681262419 26998061.553219605 0 0 0 0 -60162773.442552567 -20490813.778964281 0 -20490813.778964281 53569225.435779572 0 0 0 0 -131062735.96710205 -69392288.438225746 0 -69392288.438225746 26891722.298821449 0 0 0 0 -89400362.781206131 -10670184.857045174 0 -10670184.857045174 53342845.562616348 0 0 0 0 -55833253.230340958 -472910.20397377014 0 -472910.20397377014 51677906.879989624 0 0 0 0 -44588882.69349575 18183751.534612656 0 18183751.534612656 58387142.742982864 0 0 0 0 -91104056.477028072 22682376.888361096 0 22682376.888361096 86809039.14548111 0 0 0 0 36373407.8691926 2874173.7716007233 0 2874173.7716007233 33332989.720413208 0 0 0 0 -12310035.07667923 56660849.879817963 0 56660849.879817963 74325106.971804619 0 0 0 0 -67973617.900138855 35820003.087826729 0 35820003.087826729 91644865.715687275 0 0 0 0 101639338.80458164 133682480.96351457 0 133682480.96351457 119014671.59209633 0 0 0 0 -65628472.262458801 20592338.118905067 0 20592338.118905067 77480036.447806358 0 0 0 0 -132394731.50636292 19893774.579265594 0 19893774.579265594 119708608.45521164 0 0 0 0 -248764075.07640266 -63544939.372790337 0 -63544939.372790337 99176747.555053711 0 0 0 0 -109154310.48478222 -41483177.096028805 0 -41483177.096028805 -19184066.634794235 0 0 0 0 -141554186.50534058 -40050561.618702888 0 -40050561.618702888 279242245.64187717 0 0 0 0 149600046.65588665 -64466925.955155849 0 -64466925.955155849 15393258.684658051 0 0 0 0 -139897739.93968391 -27562837.41865921 0 -27562837.41865921 47191066.857745647 0 0 0 0 -77154791.961408615 -134247160.11879444 0 -134247160.11879444 -133970613.88484162 0 0 0 0 -245391179.54844332 -152112333.19601917 0 -152112333.19601917 54863636.445100784 0 0 0 0 25302015.230104446 37059611.283947468 0 37059611.283947468 49991974.233332515 0 0 0 0 -265011491.38934135 -114804917.82742023 0 -114804917.82742023 -5238313.4117126465 0 0 0 0 4216662.2136430657 -2886777.309886938 0 -2886777.309886938 13236198.808673386 0 0 0 0 25090350.256152153 29821937.650402069 0 29821937.650402069 50639962.363038778 0 0 0 0 -8944615.8722381592 -274221.97160816193 0 -274221.97160816193 19032640.25135231 0 0 0 0 -756327.27373894164 2771248.7635059981 0 2771248.7635059981 17042602.992293276 0 0 0 0 794096.86222756468 -9961768.9941347614 0 -9961768.9941347614 16912396.50063093 0 0 0 0 1589762.1360440254 22380143.376239061 0 22380143.376239061 54431979.710615635 0 0 0 0 -91013486.772895813 -71294773.605592728 0 -71294773.605592728 23919380.934356689 0 0 0 0 -181310977.6450758 -185989627.32302618 0 -185989627.32302618 -121569992.3656044 0 0 0 0 -743284.8321036119 -1137318.7840125677 0 -1137318.7840125677 3196992.0298936553 0 0 0 0 30350336.351060867 -81843859.57244873 0 -81843859.57244873 -59750913.218048096 0 0 0 0 -94858134.138332367 -28918447.664840698 0 -28918447.664840698 141234875.53611755 0 0 0 0 52638373.531003952 36163342.481842041 0 36163342.481842041 -259375816.22511292 0 0 0 0 57179008.340406418 13476737.460792542 0 13476737.460792542 -141576207.49090576 0 0 0 0 -63384409.396259308 80252786.039031982 0 80252786.039031982 179299742.81082153 0 0 0 0 44627245.721693039 126853521.25036621 0 126853521.25036621 2411727.345993042 0 0 0 0 -35868127.781602383 -40855342.997695923 0 -40855342.997695923 72273630.758239746 0 0 0 0 -3246825.2314607501 -1163999.2357509658 0 -1163999.2357509658 3468182.5123824636 0 0 0 0 -146121020.94128036 -18863286.596588135 0 -18863286.596588135 138573335.30454922 0 0 0 0 -977075.17970993184 -750236.13010045886 0 -750236.13010045886 1042900.8363648606 0 0 0 0 59945758.673716545 -109525329.84725952 0 -109525329.84725952 114440513.25163269 0 0 0 0 316955268.65180206 -117908181.66156006 0 -117908181.66156006 -81638682.109130859 0 0 0 0 -36897379.443876266 145950965.29618454 0 145950965.29618454 204212254.8354187 0 0 0 0 89970820.522626877 186216971.61819458 0 186216971.61819458 140775496.08685303 0 0 0 0 -1068326.7615737095 -1434120.7077672631 0 -1434120.7077672631 -637719.34500005096 0 0 0 0 -167982837.55459213 212189258.23574829 0 212189258.23574829 132785183.35229492 0 0 0 0 -223651081.37244797 -123689532.51659393 0 -123689532.51659393 265808424.89396667 0 0 0 0 -12383798.70936119 -789368.20643894374 0 -789368.20643894374 18228736.91335208 0 0 0 0 62181018.224273682 -1802200.9854736328 0 -1802200.9854736328 -104796625.97184753 0 0 0 0 -171762795.30738449 -42718688.168502808 0 -42718688.168502808 9053068.912109375 0 0 0 0 80614464.911636353 -11598166.577590942 0 -11598166.577590942 12336406.648509979 0 0 0 0 -103185164.47911072 171406467.99789429 0 171406467.99789429 -42736046.547866821 0 0 0 0 -139706988.96343613 114430070.70487213 0 114430070.70487213 225900478.52333069 0 0 0 0 58447671.097862244 61615798.024345398 0 61615798.024345398 17888823.941955566 0 0 0 0 3190052.354514122 -22068515.030223846 0 -22068515.030223846 111511649.03870392 0 0 0 0 -3837468.1712665819 20016993.361880615 0 20016993.361880615 77091.781500481069 0 0 0 0 155303.48314857483 87626844.877731323 0 87626844.877731323 51069322.105484009 0 0 0 0 -650461.7852935791 85469332.945671082 0 85469332.945671082 113976572.8583374 0 0 0 0 -9575575.7252907231 18743872.157064594 0 18743872.157064594 -1338918.662859831 0 0 0 0 -27958690.764175415 101390420.97911072 0 101390420.97911072 153869921.82173157 0 0 0 0 -84167708.53553772 11859543.443099976 0 11859543.443099976 196180748.97506714 0 0 0 0 8246507.8607807159 61884885.245822906 0 61884885.245822906 115349691.48129272 0 0 0 0 -14118228.392145365 18880330.348377824 0 18880330.348377824 132647.28294782341 0 0 0 0 -85381779.710029602 58836922.904571533 0 58836922.904571533 119527421.98150253 0 0 0 0 -69977291.830295563 34971416.894172668 0 34971416.894172668 101359759.37017822 0 0 0 0 -142722117.02028656 81585006.707672119 0 81585006.707672119 104449585.3480835 0 0 0 0 -107091049.8317337 20368718.116912842 0 20368718.116912842 118188737.58624268 0 0 0 0 -109818227.68799782 40287422.990112305 0 40287422.990112305 43278323.465637207 0 0 0 0 -116934444.50789642 98112941.320922852 0 98112941.320922852 24842433.150066376 0 0 0 0 -141978009.81929779 71017780.986923218 0 71017780.986923218 136127734.4993515 0 0 0 0 96543449.670372009 -104973901.70732117 0 -104973901.70732117 84924277.721801758 0 0 0 0 92207981.535914421 -49818998.488219261 0 -49818998.488219261 47029427.511901855 0 0 0 0 12887.28433714807 -2174959.0458657891 0 -2174959.0458657891 4743267.2894891948 0 0 0 0 22392134.703773499 13330105.587417603 0 13330105.587417603 96301285.878417969 0 0 0 0 42697809.532464981 -145340258.22827148 0 -145340258.22827148 228713118.21524048 0 0 0 0 -3113600.3751678467 -42342762.774429321 0 -42342762.774429321 156262994.28858948 0 0 0 0 -33692569.171073914 19459199.382949829 0 19459199.382949829 254735215.01141739 0 0 0 0 -47958865.144355774 45102035.232635498 0 45102035.232635498 210183831.71068573 0 0 0 0 -5343324.459985733 946424.76502227783 0 946424.76502227783 36715812.817295074 0 0 0 0 -9963204.763336027 848547.34188728128 0 848547.34188728128 23944221.233108014 0 0 0 0 -30207921.968435287 -1488981.7837219238 0 -1488981.7837219238 9741231.5591964722 0 0 0 0 -110017678.19256592 -27033077.309799194 0 -27033077.309799194 103572269.73590088 0 0 0 0 -9855630.3036373239 9206061.3720911816 0 9206061.3720911816 28162242.266533107 0 0 0 0 -3261353.5585250854 10338723.408325195 0 10338723.408325195 71311284.591966629 0 0 0 0 -100890597.00804901 -16479127.866088867 0 -16479127.866088867 103130227.57324219 0 0 0 0 -96558265.802139282 45924684.610733032 0 45924684.610733032 99181665.869995117 0 0 0 0 -35473971.39448452 7052098.9724140167 0 7052098.9724140167 12519425.052368164 0 0 0 0 -9729516.6234163903 -15201336.110777665 0 -15201336.110777665 35686960.596418321 0 0 0 0 -36363518.759052277 2026517.4592056274 0 2026517.4592056274 -800125.17237091064 0 0 0 0 -40545124.135894775 10092647.155273438 0 10092647.155273438 88272537.823043823 0 0 0 0 -77960429.989212036 -45618577.137451172 0 -45618577.137451172 51716704.099243164 0 0 0 0 -4886680.8143920898 -60378334.959350586 0 -60378334.959350586 112205206.60217285 0 0 0 0 -21335889.445266724 -5098078.7387084961 0 -5098078.7387084961 78882797.598327637 0 0 0 0 -33000551.614242554 24869836.598117828 0 24869836.598117828 27080055.394470215 0 0 0 0 -12954834.22229775 -15321.918596856296 0 -15321.918596856296 37712569.748897515 0 0 0 0 -12050469.586194251 -4579964.6637263447 0 -4579964.6637263447 47579174.082900971 0 0 0 0 -11360999.496046821 755520.28580650734 0 755520.28580650734 25736431.074301653 0 0 0 0 -9308335.7873231173 -8159166.8961029053 0 -8159166.8961029053 33664539.644599915 0 0 0 0 -67052378.600122452 -26999034.642993927 0 -26999034.642993927 51722472.033203125 0 0 0 0 -30138638.643204689 -18710865.795135498 0 -18710865.795135498 5684508.4087524414 0 0 0 0 -392567.47902626288 1845277.3683644375 0 1845277.3683644375 -408004.63595983386 0 0 0 0 34950140.066568375 -27926630.039031982 0 -27926630.039031982 30194459.848442078 0 0 0 0 -288721.83864666335 -740741.69071462005 0 -740741.69071462005 750410.22571592964 0 0 0 0 134628596.05929589 48872037.825233459 0 48872037.825233459 54812813.495330811 0 0 0 0 -8966458.1302399077 -152168.36506205797 0 -152168.36506205797 14306719.331387794 0 0 0 0 169421394.37712097 -2479278.2153015137 0 -2479278.2153015137 32315281.800552368 0 0 0 0 -7766227.587097168 10697315.317108154 0 10697315.317108154 51297528.501014709 0 0 0 0 -134136571.14102173 114491425.52571106 0 114491425.52571106 69016923.825561523 0 0 0 0 3322768.6816140562 10172166.649350405 0 10172166.649350405 41018463.146911621 0 0 0 0 -35170093.953631401 -67198584.517951965 0 -67198584.517951965 73079260.837677002 0 0 0 0 -12562695.870713905 2876947.3881441951 0 2876947.3881441951 41931129.492340088 0 0 0 0 -5669030.6765034124 5912551.8692164198 0 5912551.8692164198 26236605.557952821 0 0 0 0 -42546815.158657074 -44467605.079940796 0 -44467605.079940796 74893022.941314697 0 0 0 0 53102558.46627903 63746046.165679932 0 63746046.165679932 -30590073.266662598 0 0 0 0 -35001023.993167877 5929210.9672775269 0 5929210.9672775269 95784344.51008606 0 0 0 0 -19336954.583274007 15582821.180720098 0 15582821.180720098 7292966.9416765999 0 0 0 0 -57538994.515541077 66640331.814346313 0 66640331.814346313 100470502.72150421 0 0 0 0 -83689782.237922668 -27712838.711334229 0 -27712838.711334229 23613293.994243622 0 0 0 0 13617951.616546631 82028551.221954346 0 82028551.221954346 49430800.906646729 0 0 0 0 -5979174.2349777352 -742854.07761664689 0 -742854.07761664689 7293140.0898748292 0 0 0 0 -26879727.988909245 11973014.368041992 0 11973014.368041992 104973887.1187439 0 0 0 0 37357494.897081375 14016104.864929199 0 14016104.864929199 -68159653.946502686 0 0 0 0 2827643.0051940978 -948248.63243103027 0 -948248.63243103027 70979047.15284729 0 0 0 0 -7156741.4555565119 16113217.915351868 0 16113217.915351868 67121852.888153076 0 0 0 0 -22210449.566414356 23235833.374053955 0 23235833.374053955 89299018.893875122 0 0 0 0 -25086706.600705147 -23175510.808898926 0 -23175510.808898926 92464226.520950317 0 0 0 0 -3316004.7404119149 29862517.984455109 0 29862517.984455109 -2821310.0763778687 0 0 0 0 -62190311.949852526 35213216.792490005 0 35213216.792490005 65177178.595581055 0 0 0 0 74584.210637360811 12619914.163612366 0 12619914.163612366 36785919.978130221 0 0 0 0 -3982211.7833283842 22276865.860244751 0 22276865.860244751 36921931.406585693 0 0 0 0 -38726533.539841175 19350058.365867615 0 19350058.365867615 32287196.27293396 0 0 0 0 -29389103.034780502 2098379.0781173706 0 2098379.0781173706 61232917.532737732 0 0 0 0 -639365.59166283533 -882893.28736750036 0 -882893.28736750036 3952407.4055412821 0 0 0 0 -47143385.123918772 22892686.605369568 0 22892686.605369568 63125036.749656677 0 0 0 0 -3937220.489739418 15868601.117752075 0 15868601.117752075 27966978.14440155 0 0 0 0 -9070615.4886827469 -45226465.357772827 0 -45226465.357772827 52075381.29928112 0 0 0 0 -2742083.2997941119 -1998594.9753614217 0 -1998594.9753614217 5372885.1148497015 0 0 0 0 1031331.7260069847 19031691.067642212 0 19031691.067642212 29613969.18371582 0 0 0 0 -2301062.8875341415 12452156.004959106 0 12452156.004959106 25857742.754203796 0 0 0 0 -2314632.3035840988 11249658.043609619 0 11249658.043609619 42003961.441085815 0 0 0 0 -5354965.1261520386 -3794619.3410949707 0 -3794619.3410949707 45275506.520385742 0 0 0 0 315663.27820920944 15027276.66822052 0 15027276.66822052 24377990.697120667 0 0 0 0 -1102691.9190912242 -537825.22533716261 0 -537825.22533716261 12865697.139039997 0 0 0 0 -4351674.2209746577 6354424.1919289762 0 6354424.1919289762 25704935.856653169 0 0 0 0 -21764111.56855654 2348781.4906163216 0 2348781.4906163216 25308420.299194336 0 0 0 0 53685750.901275635 -9376169.4473419189 0 -9376169.4473419189 -82902066.841491699 0 0 0 0 -1917284.8099318326 -937217.38806635886 0 -937217.38806635886 8854207.6558741145 0 0 0 0 -2907100.2113655508 2519893.4551999569 0 2519893.4551999569 1405094.8941040039 0 0 0 0 -1364328.0771604809 3745542.4192228708 0 3745542.4192228708 11149288.019846745 0 0 0 0 -1678640.9025173939 5366273.5785547197 0 5366273.5785547197 14596260.941009298 0 0 0 0 -2471933.935934972 -1510763.1564140804 0 -1510763.1564140804 21182869.58143986 0 0 0 0 -51724953.001614571 51735235.183074951 0 51735235.183074951 -60269745.562255859 0 0 0 0 -6009768.1561713219 11362303.745067596 0 11362303.745067596 34955473.414756775 0 0 0 0 -37824733.356695175 95147446.085716248 0 95147446.085716248 218868732.79333496 0 0 0 0 42161.534906560584 3886247.9310227009 0 3886247.9310227009 -227667.70815301687 0 0 0 0 69888728.679253578 -79353166.705215454 0 -79353166.705215454 -128091097.49822998 0 0 0 0 -256800418.72516394 326212158.16114807 0 326212158.16114807 384863226.29046631 0 0 0 0 -38733507.902115822 -40800627.42616272 0 -40800627.42616272 24010006.398651123 0 0 0 0 -66121065.065434217 -32465600.05311203 0 -32465600.05311203 12275714.316925049 0 0 0 0 -54913179.965003967 10312712.723464966 0 10312712.723464966 28028616.788513184 0 0 0 0 808860.34932336956 8004247.2899156492 0 8004247.2899156492 19616659.398111314 0 0 0 0 -11316948.418877043 24490642.385053933 0 24490642.385053933 23627020.748222351 0 0 0 0 -26025589.605778217 14693572.227180481 0 14693572.227180481 27946753.631889939 0 0 0 0 -26239883.116931319 -5586473.3820037842 0 -5586473.3820037842 32872033.578445435 0 0 0 0 -27361635.180491209 -9407942.5594177246 0 -9407942.5594177246 27558792.855373383 0 0 0 0 -28664899.839705229 -7369613.2291183472 0 -7369613.2291183472 26214513.006057739 0 0 0 0 -508081.96578884125 -4991897.0981998444 0 -4991897.0981998444 29396158.558990479 0 0 0 0 -21384040.934697628 6450102.192024231 0 6450102.192024231 36711104.580184937 0 0 0 0 -13509861.668335915 8941337.4253768921 0 8941337.4253768921 15255852.351959229 0 0 0 0 -21989019.692326307 2975607.882358551 0 2975607.882358551 15016744.231255531 0 0 0 0 3155925.8475456238 16042183.921600342 0 16042183.921600342 15520365.805679321 0 0 0 0 -55755151.998035431 8643502.1391677856 0 8643502.1391677856 40075920.880554199 0 0 0 0 -43919123.253833771 -10442787.330917358 0 -10442787.330917358 19161558.389465332 0 0 0 0 -1632901.8875986524 -257035.95431012288 0 -257035.95431012288 1576543.9292507023 0 0 0 0 63621859.582675934 60041088.42414856 0 60041088.42414856 40977050.149383545 0 0 0 0 45569309.191865921 77331400.172782898 0 77331400.172782898 67041251.752283096 0 0 0 0 -20414858.079589844 14094691.936126709 0 14094691.936126709 26907100.209213257 0 0 0 0 -16499281.050727844 326543.0051574707 0 326543.0051574707 17391743.022033691 0 0 0 0 3211059.3925380707 5822575.2049560547 0 5822575.2049560547 15079125.004577637 0 0 0 0 -37732933.995595932 13384123.854568481 0 13384123.854568481 30438426.588546753 0 0 0 0 -10505642.980120702 5741405.7705267072 0 5741405.7705267072 19219084.058902755 0 0 0 0 -39444865.595237732 7772810.5424041748 0 7772810.5424041748 29288279.743774414 0 0 0 0 16032280.804365158 44605764.024536133 0 44605764.024536133 24996659.238739014 0 0 0 0 -11768252.121931249 3852605.6988302469 0 3852605.6988302469 17106776.25155028 0 0 0 0 -32720320.374631882 -22168894.415275574 0 -22168894.415275574 27269705.185398698 0 0 0 0 -30683763.123436213 -19497246.733318329 0 -19497246.733318329 -5710070.8278656006 0 0 0 0 574521.22359042428 937681.51297353208 0 937681.51297353208 1097430.3923657499 0 0 0 0 38793664.220613003 35969528.170558929 0 35969528.170558929 115310579.41729736 0 0 0 0 12066929.654521942 51490695.53994751 0 51490695.53994751 133553726.02127886 0 0 0 0 18923087.8129282 13628345.990516663 0 13628345.990516663 18842317.477996826 0 0 0 0 -22911149.707832336 -8843215.2471008301 0 -8843215.2471008301 71008991.29864502 0 0 0 0 -57996424.926662743 -19122821.596183777 0 -19122821.596183777 70626542.154510498 0 0 0 0 -4835611.8462499063 -1378636.7445429713 0 -1378636.7445429713 1640271.1794825941 0 0 0 0 -11527243.026733875 -3205702.8783874512 0 -3205702.8783874512 58846228.294311523 0 0 0 0 -17561723.686185837 -10515882.294876099 0 -10515882.294876099 -2701667.1285018921 0 0 0 0 -13380130.458707266 -968343.26913815737 0 -968343.26913815737 17195464.705645084 0 0 0 0 -15552287.067214966 -4702928.3320159912 0 -4702928.3320159912 -14192.274856567383 0 0 0 0 -2095958.3571198517 -336089.03383085132 0 -336089.03383085132 1212787.1943532377 0 0 0 0 5317488.9765949249 30633576.432853699 0 30633576.432853699 63876102.225402832 0 0 0 0 -1631081.2728148242 -282948.53853143379 0 -282948.53853143379 1604438.8044854105 0 0 0 0 30088880.280807495 62581412.0338974 0 62581412.0338974 54904100.515884399 0 0 0 0 -48652310.220559597 -24361275.22933197 0 -24361275.22933197 32572791.904342651 0 0 0 0 -34494015.524233818 -103642017.824646 0 -103642017.824646 50285967.208084106 0 0 0 0 -23264831.013319016 29222910.616920471 0 29222910.616920471 111780265.34403992 0 0 0 0 -196621127.53368378 96067948.100112915 0 96067948.100112915 87396753.790481567 0 0 0 0 -78700350.865586042 -91167451.073394775 0 -91167451.073394775 111909035.77377319 0 0 0 0 -2775693.1161281215 -443398.2523647137 0 -443398.2523647137 2694310.9583251104 0 0 0 0 -54365486.000886917 93258973.513916016 0 93258973.513916016 65173753.043273926 0 0 0 0 8362866.7666213512 25729463.126808167 0 25729463.126808167 64870672.119735718 0 0 0 0 -10143285.904510975 64230612.781356812 0 64230612.781356812 -29647675.759658813 0 0 0 0 19871340.126062393 8112655.9293289185 0 8112655.9293289185 74908785.221040726 0 0 0 0 -1753536.0007465258 26884.784683696926 0 26884.784683696926 2988068.0914775357 0 0 0 0 46084214.495443344 -10136019.557731628 0 -10136019.557731628 125197715.18405151 0 0 0 0 -145052273.53826189 193644956.20355225 0 193644956.20355225 445524408.13061523 0 0 0 0 552830763.11159134 268747887.83204651 0 268747887.83204651 248808376.89135742 0 0 0 0 1330124150.0517769 533872045.51630402 0 533872045.51630402 -156079184.04564667 0 0 0 0 710615082.18772531 1170749941.091774 0 1170749941.091774 1093584261.1236572 0 0 0 0 73841904.074757576 152980446.13062286 0 152980446.13062286 381302965.44567871 0 0 0 0 29632901.626152039 17811560.425758362 0 17811560.425758362 -51532629.327598572 0 0 0 0 19274843.04238224 125982488.19439697 0 125982488.19439697 -6598418.4475402832 0 0 0 0 45337933.388141632 211614666.00554657 0 211614666.00554657 260872041.87472534 0 0 0 0 -69121314.66271019 128082131.35523987 0 128082131.35523987 341377702.93511963 0 0 0 0 -3539374.0313230325 1721532.2135840431 0 1721532.2135840431 7978886.5559161603 0 0 0 0 40133217.717842102 42649489.089355469 0 42649489.089355469 39799273.858821869 0 0 0 0 222706540.51729202 38427582.560134888 0 38427582.560134888 121355134.98446655 0 0 0 0 -70324780.667450547 110658206.31539011 0 110658206.31539011 278384695.04318237 0 0 0 0 -15558048.180831909 342576277.88676453 0 342576277.88676453 351064166.09638977 0 0 0 0 -6634482.7891120911 31364829.142379761 0 31364829.142379761 65619107.139306068 0 0 0 0 -4038083.7046936117 5708746.0139923841 0 5708746.0139923841 14419508.758568384 0 0 0 0 -2838601.4119491577 21694625.625579834 0 21694625.625579834 50669067.026763916 0 0 0 0 -29025856.435668945 16949893.973480225 0 16949893.973480225 64744805.062866211 0 0 0 0 -26219726.223646164 5545476.0738735199 0 5545476.0738735199 47410168.52722168 0 0 0 0 10240535.466163635 56252584.487701416 0 56252584.487701416 65423141.784800529 0 0 0 0 -28706786.893828392 13534710.270378113 0 13534710.270378113 60386119.193206787 0 0 0 0 27177373.0938797 45617018.457702637 0 45617018.457702637 110619679.48370361 0 0 0 0 54168373.540054321 99641223.285095215 0 99641223.285095215 141610967.70745522 0 0 0 0 10365189.323860168 38391609.530792236 0 38391609.530792236 141686457.74276733 0 0 0 0 -78912894.715366364 142409387.16401672 0 142409387.16401672 274169349.65350342 0 0 0 0 213271063.68288422 159447707.25404358 0 159447707.25404358 112159158.85842896 0 0 0 0 99341442.89094162 86682847.394493103 0 86682847.394493103 91309141.434631348 0 0 0 0 194589879.04598999 55858641.984344482 0 55858641.984344482 40989104.691223145 0 0 0 0 92409307.250162125 106526377.76187897 0 106526377.76187897 103982014.08599854 0 0 0 0 74661831.232673645 86684893.922470093 0 86684893.922470093 83782697.510681152 0 0 0 0 30044486.444152832 75194050.078125 0 75194050.078125 117508959.79754639 0 0 0 0 412534.58352885954 3231599.2745906636 0 3231599.2745906636 1618317.5150410533 0 0 0 0 -66468780.618534088 21788217.0054245 0 21788217.0054245 44189389.581130981 0 0 0 0 347793547.68345261 298573744.9130249 0 298573744.9130249 101561378.04330444 0 0 0 0 -50008771.286792755 99277043.143203735 0 99277043.143203735 277962395.57599592 0 0 0 0 265653790.72216988 94264234.389648438 0 94264234.389648438 39242663.181884766 0 0 0 0 7492718.733259201 26407756.048965454 0 26407756.048965454 13560161.771080017 0 0 0 0 2033155.7523106481 8837682.8491166662 0 8837682.8491166662 4492947.3731801063 0 0 0 0 28458790.067751408 22022109.209943771 0 22022109.209943771 -8636949.9163818359 0 0 0 0 -1646777.7723323759 4319075.6519211903 0 4319075.6519211903 6558919.2711765021 0 0 0 0 53488206.174713135 42492522.712921143 0 42492522.712921143 36749297.774963379 0 0 0 0 82348775.482467055 72413469.994508505 0 72413469.994508505 45072305.550262451 0 0 0 0 42873191.625068665 71664262.073577881 0 71664262.073577881 78786998.946983337 0 0 0 0 81066401.481784821 28618902.702606201 0 28618902.702606201 37903211.060350418 0 0 0 0 43528451.071445465 51327314.504440308 0 51327314.504440308 38339604.226867676 0 0 0 0 4156787.9999008263 6275852.9063483439 0 6275852.9063483439 4024491.7624762356 0 0 0 0 39555376.578769684 21488382.897895813 0 21488382.897895813 10544351.306036949 0 0 0 0 68217871.934806824 46121589.752891541 0 46121589.752891541 13056040.051208496 0 0 0 0 26677098.683946609 18048829.04133606 0 18048829.04133606 11010079.642597198 0 0 0 0 24027379.703887939 36793073.679931641 0 36793073.679931641 23998101.86706543 0 0 0 0 1891063029.585309 1960183511.571022 0 1960183511.571022 1730057127.5297732 0 0 0 0 159433.61053911876 344515.22199385613 0 344515.22199385613 4365975.0308785141 0 0 0 0 2044906268.7085876 1658359554.1687527 0 1658359554.1687527 1485243803.3933868 0 0 0 0 1361381562.6910059 1409994220.7134743 0 1409994220.7134743 1566196181.4350662 0 0 0 0 32568215.278873444 -7594023.4001922607 0 -7594023.4001922607 10398794.207214355 0 0 0 0 12333698.781860352 16760153.416320801 0 16760153.416320801 35352391.965270996 0 0 0 0 62753727.187824249 17508068.673057556 0 17508068.673057556 7611962.9005279541 0 0 0 0 -1345865.3512001606 1382241.9313068315 0 1382241.9313068315 2802333.0063171238 0 0 0 0 56604480.145702362 48745666.497360229 0 48745666.497360229 44095645.111022949 0 0 0 0 -15647883.762337685 8314587.6772880554 0 8314587.6772880554 44350165.566703796 0 0 0 0 -16557086.559711933 5071947.8422317505 0 5071947.8422317505 36025180.709762573 0 0 0 0 -23525540.931120872 4342685.8236656189 0 4342685.8236656189 39096555.032798767 0 0 0 0 -16612101.696628332 -2149121.6490211487 0 -2149121.6490211487 32064077.839233398 0 0 0 0 -4673931.3770811558 5826663.8644332886 0 5826663.8644332886 28727651.188148499 0 0 0 0 -9438198.1832845211 4416434.0551605225 0 4416434.0551605225 37373488.946361542 0 0 0 0 -10952761.368178248 4742013.309425354 0 4742013.309425354 44210279.883071899 0 0 0 0 -1299305.756613493 3242797.7029724121 0 3242797.7029724121 44389491.7448349 0 0 0 0 2637591.9513522387 7594739.6549987793 0 7594739.6549987793 39264916.142398834 0 0 0 0 -7050796.9399128575 682069.39849749766 0 682069.39849749766 21542592.618401796 0 0 0 0 -1644473.1408262253 9734108.4615783691 0 9734108.4615783691 44011188.194267273 0 0 0 0 154477.24819023011 982616.35511079803 0 982616.35511079803 3258660.7888706028 0 0 0 0 -1264562.2761646509 10531633.049537659 0 10531633.049537659 37167760.737937927 0 0 0 0 -5758415.2499862313 4305021.3100388721 0 4305021.3100388721 23084537.028474964 0 0 0 0 -4432754.2330205441 4391002.383898735 0 4391002.383898735 36731811.13495636 0 0 0 0 3254372.1673851013 17513538.861534119 0 17513538.861534119 37381276.453094482 0 0 0 0 -11864320.000962496 9814105.9373709261 0 9814105.9373709261 24351632.551324755 0 0 0 0 16092606.900764465 18064913.284835815 0 18064913.284835815 41094688.346324921 0 0 0 0 14696332.277732849 23449208.625152588 0 23449208.625152588 44388353.990692139 0 0 0 0 9483224.6398849487 13185002.757843018 0 13185002.757843018 40340173.415771484 0 0 0 0 -4441890.1408023834 20033347.006721497 0 20033347.006721497 53809787.30569458 0 0 0 0 -6243262.8413443565 2850110.9237518311 0 2850110.9237518311 9422493.5204467773 0 0 0 0 5163076.5594482422 65118321.0859375 0 65118321.0859375 120489245.49455261 0 0 0 0 5163076.5594787598 65118321.085906982 0 65118321.085906982 120489245.49452209 0 0 0 0 5163076.559463501 65118321.085845947 0 65118321.085845947 120489245.49450684 0 0 0 0 -6588384.8703856822 9811898.9198886231 0 9811898.9198886231 19910978.704360887 0 0 0 0 6744563.1812591553 35871433.8543396 0 35871433.8543396 67716128.261520386 0 0 0 0 -11439495.312212452 2854266.7724019513 0 2854266.7724019513 21591150.266327091 0 0 0 0 15024980.502334595 55308153.865753174 0 55308153.865753174 86002254.915351868 0 0 0 0 -6523853.9886360168 51542016.767440796 0 51542016.767440796 106909680.01489258 0 0 0 0 32171631.375644684 71520200.768127441 0 71520200.768127441 100893309.246521 0 0 0 0 46450825.070830345 59843301.991436005 0 59843301.991436005 42984236.546112061 0 0 0 0 24251116.083744049 51568643.437553406 0 51568643.437553406 56625470.20539856 0 0 0 0 42585898.344718933 72852842.609725952 0 72852842.609725952 80974317.88130188 0 0 0 0 33160145.470214844 40557129.658050537 0 40557129.658050537 29425593.436325073 0 0 0 0 32027183.398300171 42147890.230659485 0 42147890.230659485 36655421.494293213 0 0 0 0 30347057.506542206 41720262.783256531 0 41720262.783256531 54004061.40253067 0 0 0 0 261603.19065618515 12599851.15738678 0 12599851.15738678 45968498.452850342 0 0 0 0 -11056490.08242383 8581051.1065901294 0 8581051.1065901294 31511140.898825504 0 0 0 0 23637790.308996201 45267340.095127106 0 45267340.095127106 52783330.581253052 0 0 0 0 24046599.879917145 48575306.898971558 0 48575306.898971558 72405662.597896576 0 0 0 0 -3883574.1894876957 20376424.754161835 0 20376424.754161835 37068730.585769653 0 0 0 0 -3128104.7900063992 22940102.585506439 0 22940102.585506439 44986419.422786713 0 0 0 0 -11196605.48323679 10766787.184516907 0 10766787.184516907 57899831.942459106 0 0 0 0 -12332598.497167826 6469473.049949646 0 6469473.049949646 41656123.66607666 0 0 0 0 -12137016.784838915 8842558.619884491 0 8842558.619884491 25600238.629943848 0 0 0 0 -9347459.481190443 9756307.3155326843 0 9756307.3155326843 24920520.726766586 0 0 0 0 -9516964.1319086552 13039423.600952148 0 13039423.600952148 33519691.760284424 0 0 0 0 -47923493.244963884 11183326.664787292 0 11183326.664787292 51561616.243175507 0 0 0 0 4301520.1272970345 7580548.0986175975 0 7580548.0986175975 14878171.251728885 0 0 0 0 860315.69523687661 -91309934.244848013 0 -91309934.244848013 -85428554.881309509 0 0 0 0 -9224004.6055965424 12503788.963054657 0 12503788.963054657 20770516.539649963 0 0 0 0 -608844.45188879967 35264134.932409525 0 35264134.932409525 26637785.342651367 0 0 0 0 -2980422.892539917 8431140.0221583508 0 8431140.0221583508 23484112.203351609 0 0 0 0 35621698.240764618 37721162.045562744 0 37721162.045562744 34468200.257720947 0 0 0 0 -8570457.7984703667 15515633.684610404 0 15515633.684610404 30314246.687125929 0 0 0 0 19632025.403464381 20838693.014550991 0 20838693.014550991 16790472.732323781 0 0 0 0 19043165.142134152 65600288.01902771 0 65600288.01902771 -9043567.5221271515 0 0 0 0 30563508.993110657 35779122.554672241 0 35779122.554672241 36326569.320610046 0 0 0 0 27710760.184590816 25447117.971800804 0 25447117.971800804 25051406.470443726 0 0 0 0 6843651.3569802288 8144772.1570034213 0 8144772.1570034213 9118446.2973980382 0 0 0 0 -30732249.48907423 -22843225.814916611 0 -22843225.814916611 -19349047.654327393 0 0 0 0 7823552.2327737808 7936766.1914558411 0 7936766.1914558411 12004959.44303894 0 0 0 0 4584854.573059082 11836196.637992859 0 11836196.637992859 18560554.798599243 0 0 0 0 14487303.432489678 6621085.4580589198 0 6621085.4580589198 1030941.4457201809 0 0 0 0 758629.93506765028 -1148474.1652958803 0 -1148474.1652958803 -1047569.897243645 0 0 0 0 -194012963.57400763 388368663.11320877 0 388368663.11320877 3451940564.1017456 0 0 0 0 691017865.24857974 23371858.375999451 0 23371858.375999451 -1882046239.9117966 0 0 0 0 294598660.5458169 283317219.51374054 0 283317219.51374054 3445799805.8625793 0 0 0 0 1132034075.9564841 1840146736.2304306 0 1840146736.2304306 5356260594.137764 0 0 0 0 -136705815.5811511 1708199504.0004311 0 1708199504.0004311 5997437686.4218216 0 0 0 0 -741383874.60767972 1892817781.4791641 0 1892817781.4791641 7769341629.1261444 0 0 0 0 534228159.80604589 1990172214.0377769 0 1990172214.0377769 2824071178.8060226 0 0 0 0 227174062.52881035 -410684652.92846298 0 -410684652.92846298 2674896832.3604736 0 0 0 0 9041347.1342052892 16718355.566850662 0 16718355.566850662 27554725.423725128 0 0 0 0 -99400906.769072741 139284508.59344482 0 139284508.59344482 -14281829.785751343 0 0 0 0 4732158.9744545054 2501256.8822730295 0 2501256.8822730295 14029076.486495622 0 0 0 0 878923.66027166799 3099746.711514378 0 3099746.711514378 4746253.1614331231 0 0 0 0 -131031555.99720249 108081861.42279053 0 108081861.42279053 -20797902.850727081 0 0 0 0 -116464033.8780098 179588614.18186569 0 179588614.18186569 136401273.3968277 0 0 0 0 341687153.42290634 227511205.37596512 0 227511205.37596512 -50344763.699520111 0 0 0 0 -455018751.83072788 -469395378.89453506 0 -469395378.89453506 222953469.98165131 0 0 0 0 712037064.0682801 2740494341.5342236 0 2740494341.5342236 5351137999.5162354 0 0 0 0 1696072.4643133094 2768342.7385256961 0 2768342.7385256961 10720751.749086738 0 0 0 0 -391334909.52360171 -1051946435.316433 0 -1051946435.316433 5324210457.6654825 0 0 0 0 529325097.58720672 1233261677.3326683 0 1233261677.3326683 2203291442.9078331 0 0 0 0 488364933.36528397 -162012510.4070282 0 -162012510.4070282 -84990735.823722839 0 0 0 0 1736692634.3234015 1957066888.3540387 0 1957066888.3540387 2182080338.4216461 0 0 0 0 1692320532.3986168 2396030122.390686 0 2396030122.390686 2570149346.2069054 0 0 0 0 1299260894.0695419 1811439553.9152927 0 1811439553.9152927 1983883550.1869354 0 0 0 0 1828676621.9749851 1846473773.9516945 0 1846473773.9516945 1908790480.236763 0 0 0 0 1279230445.4111617 1842280239.1342373 0 1842280239.1342373 2394815278.4585571 0 0 0 0 1856516420.7737694 1881349184.3100967 0 1881349184.3100967 1733533601.3089881 0 0 0 0 1409975882.0117226 1134235922.6006641 0 1134235922.6006641 1209333227.2791061 0 0 0 0 3091405.1302315146 1986303.4309350587 0 1986303.4309350587 10592929.995083496 0 0 0 0 3170130.6137619019 15745210.122272491 0 15745210.122272491 19629561.321182251 0 0 0 0 1705576.2434125205 13717159.399319589 0 13717159.399319589 14240067.338043422 0 0 0 0 4361506.0458458941 11203473.347315535 0 11203473.347315535 10186019.146644577 0 0 0 0 -117764.20130522968 4850647.4463670366 0 4850647.4463670366 21028885.712881081 0 0 0 0 28854525.961537361 29383330.621513367 0 29383330.621513367 -314671758.85618591 0 0 0 0 1349250898.5143549 1134363213.3422203 0 1134363213.3422203 1226799467.0674133 0 0 0 0 2658310819.2143316 2022459130.6449814 0 2022459130.6449814 1196124507.2077949 0 0 0 0 2493277411.5735221 2756991743.7549057 0 2756991743.7549057 2347551696.2492867 0 0 0 0 2687449713.0361295 3413674333.354496 0 3413674333.354496 4406286310.0902252 0 0 0 0 3049675931.0292497 2924315938.1826553 0 2924315938.1826553 4210781736.7212601 0 0 0 0 6375362637.4042282 4906578759.9603081 0 4906578759.9603081 4027728815.9587555 0 0 0 0 -292716256.70874882 -767504649.45683289 0 -767504649.45683289 3389404381.6137085 0 0 0 0 214564.09044076817 1636578.6972658392 0 1636578.6972658392 7838115.2617184594 0 0 0 0 486650691.42818499 832014294.53687382 0 832014294.53687382 -718373162.41755676 0 0 0 0 4509215307.6562023 2408635150.3557968 0 2408635150.3557968 697074392.24019241 0 0 0 0 3119988071.9614787 3420509821.4552689 0 3420509821.4552689 7424090519.7370377 0 0 0 0 4581660954.5437946 3544702093.3316956 0 3544702093.3316956 5533364906.7381401 0 0 0 0 4521479272.1833782 1299489483.6907375 0 1299489483.6907375 6230127652.9238739 0 0 0 0 3127666890.9384928 2415446503.0082588 0 2415446503.0082588 5353799591.4361725 0 0 0 0 1590771865.7489662 2297731375.9645805 0 2297731375.9645805 6038365372.0009537 0 0 0 0 527934365.63796753 2278528678.3439331 0 2278528678.3439331 5357837144.1557007 0 0 0 0 1563011052.8070629 2053984170.1508636 0 2053984170.1508636 4310186859.6442642 0 0 0 0 1044525558.5808872 2031623962.6486053 0 2031623962.6486053 2885623771.7011604 0 0 0 0 1442616825.223695 2849128755.7515259 0 2849128755.7515259 4313419440.379303 0 0 0 0 830036907.52166748 2189372851.411747 0 2189372851.411747 3482175380.3666763 0 0 0 0 -75976166.968188435 1345965384.5740662 0 1345965384.5740662 3932860842.4820023 0 0 0 0 -600190154.13072491 1496208345.1692009 0 1496208345.1692009 5342889248.8855572 0 0 0 0 -1310852132.3370435 272371644.59183502 0 272371644.59183502 3238340759.6753845 0 0 0 0 -542934442.40087986 1469920706.1749115 0 1469920706.1749115 3418922370.7279072 0 0 0 0 333994541.09906262 1617498385.1663475 0 1617498385.1663475 2883892057.3366852 0 0 0 0 344218764.38278604 1451609784.2788315 0 1451609784.2788315 2800735597.6923294 0 0 0 0 -22242788.868488446 1163041789.2986012 0 1163041789.2986012 2615396578.4655609 0 0 0 0 769813120.03406048 1456582211.0893707 0 1456582211.0893707 2123841540.2912064 0 0 0 0 762069026.27736461 1384120654.7985764 0 1384120654.7985764 2152219801.3203964 0 0 0 0 -440909414.30687904 420192683.30940247 0 420192683.30940247 2914638924.4872818 0 0 0 0 -318534576.35424721 22790164.280143023 0 22790164.280143023 1924258333.5927124 0 0 0 0 -72480804.32173121 948429366.71078968 0 948429366.71078968 2422969131.8953705 0 0 0 0 216725147.88442564 848965932.9848938 0 848965932.9848938 2355025243.1687469 0 0 0 0 -726711825.21613181 792791537.8471365 0 792791537.8471365 3087876882.925293 0 0 0 0 -265957941.19677353 712048071.16770935 0 712048071.16770935 2987845535.8514023 0 0 0 0 -168937572.34334517 907290648.51512909 0 907290648.51512909 3049546695.2691956 0 0 0 0 593806918.51409054 704254194.28144073 0 704254194.28144073 2933298928.7069817 0 0 0 0 -4711605.5240166523 -43839.991470113397 0 -43839.991470113397 8134477.3803014532 0 0 0 0 1138954470.4858577 2758273194.5151215 0 2758273194.5151215 5353224207.1927109 0 0 0 0 -130844930.48887375 964772468.3250494 0 964772468.3250494 3199850836.381485 0 0 0 0 -127095395.90203428 911472153.15185547 0 911472153.15185547 2637512651.8927994 0 0 0 0 -797641566.91552258 -513932486.32325554 0 -513932486.32325554 1041290869.7691498 0 0 0 0 -3974346.6556448508 105646.1995174326 0 105646.1995174326 8875359.7503029257 0 0 0 0 -117194592.26570445 1316904281.8269386 0 1316904281.8269386 3699696645.0907974 0 0 0 0 -1997417641.0041289 714832135.00907516 0 714832135.00907516 5353926021.9640503 0 0 0 0 -47964902.511474252 1354872752.2756805 0 1354872752.2756805 2806882713.8796692 0 0 0 0 -972449925.335989 848200077.77724648 0 848200077.77724648 3322623459.9594193 0 0 0 0 -664383548.24000597 90290433.478403091 0 90290433.478403091 5091574432.473877 0 0 0 0 125081779.31807327 -105807716.30507278 0 -105807716.30507278 4005193852.3875427 0 0 0 0 -1068620449.0185909 -1206886263.1039505 0 -1206886263.1039505 5614022389.763504 0 0 0 0 -2458715627.1777458 801403467.10045624 0 801403467.10045624 3646050804.5021286 0 0 0 0 -1190305.7042794204 1387745.8576583043 0 1387745.8576583043 2786209.2287876513 0 0 0 0 -284470830.92919731 59064584.869171143 0 59064584.869171143 2692220506.1772461 0 0 0 0 -1214151164.9218693 -231372927.98963928 0 -231372927.98963928 4386742505.4898682 0 0 0 0 -1662141738.9775429 62047748.201751709 0 62047748.201751709 4315510323.2500305 0 0 0 0 -191644730.40170479 -754899369.58633423 0 -754899369.58633423 3208360994.3928986 0 0 0 0 -306773820.38293171 -219648141.73989868 0 -219648141.73989868 2135679668.57547 0 0 0 0 924343589.73490131 -1120915733.2913895 0 -1120915733.2913895 3216624027.6450958 0 0 0 0 753226419.41420078 2445456781.4169083 0 2445456781.4169083 4712215184.6283875 0 0 0 0 -541696206.63998318 2965467142.1926651 0 2965467142.1926651 6309710299.7319031 0 0 0 0 -2419395.4839157909 50501.880578614771 0 50501.880578614771 3681980.6900625154 0 0 0 0 -268063174.40216064 1980798985.9939575 0 1980798985.9939575 4944877152.0117188 0 0 0 0 -2547707963.0848961 1112471840.496933 0 1112471840.496933 2894181600.1341553 0 0 0 0 -2281811188.3944669 -1219556876.9811783 0 -1219556876.9811783 2125854282.9644394 0 0 0 0 -2072339026.1628361 409635775.36437988 0 409635775.36437988 4662700345.3615417 0 0 0 0 -1958484884.6046143 23821532.643096924 0 23821532.643096924 3876923329.0847473 0 0 0 0 -1906291749.6425247 1079824802.8988647 0 1079824802.8988647 6363299082.6184015 0 0 0 0 -1689201853.490448 989695443.4083252 0 989695443.4083252 5299865922.8322372 0 0 0 0 -1940180780.8214285 288705762.13808727 0 288705762.13808727 5260026510.8360596 0 0 0 0 -845403901.96332073 947406505.0194931 0 947406505.0194931 3482077521.2714539 0 0 0 0 -986848733.68912029 1344315325.1306 0 1344315325.1306 4523114610.5473633 0 0 0 0 -1898944034.4820709 501079575.27197266 0 501079575.27197266 4417510534.3551636 0 0 0 0 -1289861409.1650696 633223594.57302856 0 633223594.57302856 4325660641.6286926 0 0 0 0 -1278185500.7134342 810678081.58786011 0 810678081.58786011 3592310337.2050171 0 0 0 0 -1478355047.1041222 198298062.36686707 0 198298062.36686707 3697337373.0377197 0 0 0 0 -1022170643.7177486 456606350.30003357 0 456606350.30003357 3455003954.2866516 0 0 0 0 -1003596242.9942875 602962087.10968018 0 602962087.10968018 3631830880.2337875 0 0 0 0 -752855287.13713264 728101688.53593445 0 728101688.53593445 2474944916.6619568 0 0 0 0 -794017666.66409302 960689265.67458344 0 960689265.67458344 3481870106.230072 0 0 0 0 -323199719.84072876 510605440.50862503 0 510605440.50862503 1838792696.8925934 0 0 0 0 -294448716.18140221 959283347.07546353 0 959283347.07546353 3028838695.57901 0 0 0 0 -328730311.47636223 988317862.7243042 0 988317862.7243042 3012748009.7964325 0 0 0 0 -463504650.19544601 957130316.80931854 0 957130316.80931854 35576766.506256104 0 0 0 0 -1136226113.1269217 745632445.38398743 0 745632445.38398743 1923793462.9572525 0 0 0 0 -638656031.4587822 367883987.07133484 0 367883987.07133484 2409343497.6550713 0 0 0 0 -485919894.70779109 638382854.61748695 0 638382854.61748695 1780114890.9398499 0 0 0 0 -60424725.501089096 -4050454.8930358887 0 -4050454.8930358887 129428943.73576736 0 0 0 0 -2376881.2097980035 2155154.9822069332 0 2155154.9822069332 4105292.1273522042 0 0 0 0 152679600.25948906 -27535408.769140244 0 -27535408.769140244 -1014937697.5760651 0 0 0 0 -218788868.95218611 340152176.56716156 0 340152176.56716156 252193418.75842285 0 0 0 0 243704816.9816508 371764773.4452312 0 371764773.4452312 296206931.05154419 0 0 0 0 258806140.6061914 -978377403.43264008 0 -978377403.43264008 1480727108.2910538 0 0 0 0 174428285.35951519 -305077454.50775909 0 -305077454.50775909 614560388.40645599 0 0 0 0 325032229.27720976 -50600146.637374878 0 -50600146.637374878 -393229655.80256653 0 0 0 0 -6402652.1663690861 9230107.4387363531 0 9230107.4387363531 13282215.112838142 0 0 0 0 -210417485.67629433 -28127007.461227417 0 -28127007.461227417 28600106.146743774 0 0 0 0 4882984.9975022888 17762606.278105397 0 17762606.278105397 23763850.744073093 0 0 0 0 -197218643.19115999 165878940.67258453 0 165878940.67258453 223068665.05361938 0 0 0 0 14830636.791395664 15604100.982503891 0 15604100.982503891 4460243.143951416 0 0 0 0 -1446034.3477821928 6392057.5044419542 0 6392057.5044419542 12622214.461872995 0 0 0 0 17973394.521280527 35409854.067443848 0 35409854.067443848 20055786.821304321 0 0 0 0 8393203.4201660156 18399057.087165833 0 18399057.087165833 14212360.426727295 0 0 0 0 6107265.674574852 29458108.313024521 0 29458108.313024521 45147741.951721191 0 0 0 0 7058185.5861273874 21338952.053206481 0 21338952.053206481 23959447.365378886 0 0 0 0 -7980274.4707546234 67861072.017326355 0 67861072.017326355 50995857.777759552 0 0 0 0 -9892330.2896601111 -3208834.3588856161 0 -3208834.3588856161 13671948.722310234 0 0 0 0 553831568.06394482 1035507465.7403717 0 1035507465.7403717 1805944286.7466125 0 0 0 0 9535480.0274524689 49521668.886322021 0 49521668.886322021 60052295.045150757 0 0 0 0 303580627.56651783 749940408.85509109 0 749940408.85509109 1741547329.8059082 0 0 0 0 -294274.80467750318 -143674.80186542869 0 -143674.80186542869 603655.16506581008 0 0 0 0 -202280341.54920769 792361548.837677 0 792361548.837677 3142024548.7852783 0 0 0 0 -161051334.23075175 91196235.869959831 0 91196235.869959831 43327063.188644409 0 0 0 0 17074204.800453186 23918892.923828125 0 23918892.923828125 -7546335.6900558472 0 0 0 0 4962096.9491792182 2986614.7428154275 0 2986614.7428154275 8746418.4557750672 0 0 0 0 538877517.48340511 896526541.4909668 0 896526541.4909668 2364037728.7962112 0 0 0 0 474130261.68527985 1169688008.140625 0 1169688008.140625 2904235476.642395 0 0 0 0 422684087.6156435 1375148070.8361816 0 1375148070.8361816 2746002556.0909576 0 0 0 0 787889425.49070597 1126506898.83675 0 1126506898.83675 2128940729.0850372 0 0 0 0 -273594624.85657936 660702751.4603405 0 660702751.4603405 -926277950.37669373 0 0 0 0 430126754.3004818 1781280319.6970558 0 1781280319.6970558 4070867790.3379669 0 0 0 0 916282.07916088216 579880.79853787273 0 579880.79853787273 3086920.5462202467 0 0 0 0 779938682.96546531 1266201877.0086746 0 1266201877.0086746 1075452109.1652679 0 0 0 0 502077970.70011568 753140468.35610199 0 753140468.35610199 926192333.12099457 0 0 0 0 1122696832.2236755 1730116034.3681602 0 1730116034.3681602 1557236700.5157776 0 0 0 0 452865692.7455337 1110410713.8365173 0 1110410713.8365173 2038158779.3578796 0 0 0 0 580799894.93624294 1209719836.643631 0 1209719836.643631 1286654000.1977844 0 0 0 0 453641627.63667881 780175511.59896088 0 780175511.59896088 670179406.62812805 0 0 0 0 346005599.57168388 778830334.01807404 0 778830334.01807404 725634750.51724243 0 0 0 0 890119847.03437948 1251040826.3143539 0 1251040826.3143539 833418075.52383804 0 0 0 0 708913077.95620608 1364837093.2762985 0 1364837093.2762985 1117082473.9298973 0 0 0 0 688461983.80852091 1201406566.0185285 0 1201406566.0185285 1077558237.6875458 0 0 0 0 1015524413.4070003 1042299052.6851883 0 1042299052.6851883 1145352868.4519844 0 0 0 0 1035693827.6036441 1392779240.746376 0 1392779240.746376 1164030167.7266617 0 0 0 0 707964899.55601716 1434042980.5129738 0 1434042980.5129738 1445461493.0691681 0 0 0 0 446798522.13894081 910907824.11085129 0 910907824.11085129 1556466503.4749832 0 0 0 0 178853813.27062631 699158712.26145363 0 699158712.26145363 1776727988.7439728 0 0 0 0 -756707186.15401876 -427554495.37766266 0 -427554495.37766266 305371501.30735779 0 0 0 0 -67401322.500144005 204982786.75449371 0 204982786.75449371 1209210459.4783325 0 0 0 0 -76711473.824907303 647863554.97190094 0 647863554.97190094 1843328542.6726875 0 0 0 0 640352347.79494667 1203687491.1892624 0 1203687491.1892624 -625422487.79873657 0 0 0 0 623107733.1881032 1286466992.9961929 0 1286466992.9961929 1236736938.0464554 0 0 0 0 644315540.00518918 1389412301.794529 0 1389412301.794529 499199379.26438904 0 0 0 0 -486009258.52164942 -367488602.8103981 0 -367488602.8103981 5351475135.0171242 0 0 0 0 -79587.067725342 -15423310.731147766 0 -15423310.731147766 3198860908.7360535 0 0 0 0 -21427570.883485455 189261360.00798607 0 189261360.00798607 1366036244.6903687 0 0 0 0 15695641.258241719 8956697.4204610586 0 8956697.4204610586 659810629.78302002 0 0 0 0 108627268.37967776 640194464.52639008 0 640194464.52639008 6235544816.2293549 0 0 0 0 313650763.52703947 -2095905174.4663849 0 -2095905174.4663849 6148848640.1519165 0 0 0 0 -120328.5687578795 1316369.967523627 0 1316369.967523627 2899112.6639399827 0 0 0 0 -1595893522.5465188 -527829443.26882172 0 -527829443.26882172 4677930502.0878601 0 0 0 0 871439.12423684029 2907509.4215320647 0 2907509.4215320647 4915946.3781157583 0 0 0 0 -642147894.01398873 -66799642.458499908 0 -66799642.458499908 2886070147.1392059 0 0 0 0 17140314.751136094 66659118.721926689 0 66659118.721926689 1835486299.2322235 0 0 0 0 -11124656.135506272 31517197.110015869 0 31517197.110015869 1893859443.0503998 0 0 0 0 24346058.95949614 -589348306.07398224 0 -589348306.07398224 3021697530.9130859 0 0 0 0 1188916.4835883393 1390222.3622328565 0 1390222.3622328565 2069607.4096849114 0 0 0 0 -358049402.45728505 64295402.567153931 0 64295402.567153931 5904954696.7319489 0 0 0 0 159699687.14245582 3094156834.8153305 0 3094156834.8153305 156335183.66363525 0 0 0 0 325131888.19185984 1475896521.5432892 0 1475896521.5432892 2446299107.8836823 0 0 0 0 1233014468.5691786 1900504194.9345398 0 1900504194.9345398 1456605108.6728668 0 0 0 0 249085080.02212286 -263381468.16496277 0 -263381468.16496277 1218645852.726078 0 0 0 0 214837092.45714283 2716225307.7134857 0 2716225307.7134857 3983063241.8893127 0 0 0 0 1352450858.0434484 -363816294.93131256 0 -363816294.93131256 5068835088.9877472 0 0 0 0 -182580374.27902508 1155109955.0564346 0 1155109955.0564346 4903332229.7992554 0 0 0 0 103167868.22102737 223347242.16621399 0 223347242.16621399 1277541705.5011444 0 0 0 0 1252781758.5454035 713819732.97506094 0 713819732.97506094 6269088399.9756775 0 0 0 0 -156281575.17343089 56699685.665962219 0 56699685.665962219 4877263398.0457592 0 0 0 0 1395039171.5077469 -1474785489.3697052 0 -1474785489.3697052 5453314277.3334961 0 0 0 0 100141216.55625626 -389301620.86483383 0 -389301620.86483383 5355290613.0586414 0 0 0 0 1754870.1893575462 1325606.0610689744 0 1325606.0610689744 2581707.3531130962 0 0 0 0 -508680402.41191387 -922170762.2665329 0 -922170762.2665329 4975880351.7256622 0 0 0 0 -113011141.08931303 -1171925981.6188049 0 -1171925981.6188049 3783043313.3700562 0 0 0 0 469183.41070265486 2956743.6821031943 0 2956743.6821031943 5148891.8044808283 0 0 0 0 5617209553.1993217 645156235.50657654 0 645156235.50657654 2796298421.0219421 0 0 0 0 -68202299.619222641 -4108943963.4610214 0 -4108943963.4610214 6852340901.4433975 0 0 0 0 2012193.7882698826 4243118.793671988 0 4243118.793671988 6934231.7189379036 0 0 0 0 676698137.61663818 851959825.87815094 0 851959825.87815094 -281493008.77050781 0 0 0 0 1051733148.4436798 2509507919.672142 0 2509507919.672142 942220428.54600525 0 0 0 0 -252977126.00237101 -58226643.238647461 0 -58226643.238647461 2223713851.9191952 0 0 0 0 368170522.15734434 -646969626.12467194 0 -646969626.12467194 2228421089.1639862 0 0 0 0 -902558246.36724472 319779137.04053497 0 319779137.04053497 125874536.84306335 0 0 0 0 4158162.0350616714 11763170.819060355 0 11763170.819060355 17893716.589689597 0 0 0 0 -303187623.20464897 -823594217.16958618 0 -823594217.16958618 333098095.0233345 0 0 0 0 856679550.102736 -160891097.3879776 0 -160891097.3879776 -157397074.25637817 0 0 0 0 -44826770.868112564 -443804460.38525391 0 -443804460.38525391 222820595.9286499 0 0 0 0 -103521079.06263793 25858525.156576157 0 25858525.156576157 279196334.07940674 0 0 0 0 -160661275.68624687 -121467530.8210144 0 -121467530.8210144 116136195.52664185 0 0 0 0 -133636779.688591 -122148154.24595642 0 -122148154.24595642 103060723.31904888 0 0 0 0 121434292.77731323 361939173.38891602 0 361939173.38891602 1050767666.4852295 0 0 0 0 -2613250.0899562836 78384697.003128052 0 78384697.003128052 116721773.16296387 0 0 0 0 -10389841.583053874 -7532072.1772289425 0 -7532072.1772289425 11750856.005453471 0 0 0 0 -28093793.54030323 29868009.807159424 0 29868009.807159424 87058500.878509521 0 0 0 0 -5494887.6238557678 -8379072.4467809722 0 -8379072.4467809722 2374445.4497232884 0 0 0 0 -327208698.36252117 273576903.25567627 0 273576903.25567627 271976899.90635681 0 0 0 0 -2249600.8531590551 -3959750.0115060806 0 -3959750.0115060806 3972225.0462799072 0 0 0 0 -74475796.103357315 -114567845.71238708 0 -114567845.71238708 378835531.88866425 0 0 0 0 74229949.743155479 25613122.219200134 0 25613122.219200134 -139478938.4085083 0 0 0 0 11794889.647062302 -269375931.76863098 0 -269375931.76863098 -383604829.09049988 0 0 0 0 -1087771.1896406738 759886.70671286434 0 759886.70671286434 4203570.302246429 0 0 0 0 -2807237.671539553 -2596771.1907702303 0 -2596771.1907702303 -578870.81587970257 0 0 0 0 270785069.51349068 152923852.9892807 0 152923852.9892807 -703181513.80728149 0 0 0 0 -257655386.82090521 -248801380.48776245 0 -248801380.48776245 -182670826.7883606 0 0 0 0 -4665806.3669553418 -9030376.5867846869 0 -9030376.5867846869 1519325.696942836 0 0 0 0 -119075685.08037376 -29501085.722229004 0 -29501085.722229004 72435725.148429871 0 0 0 0 -259113639.43664074 146687097.53761292 0 146687097.53761292 -49217805.115707397 0 0 0 0 -293771225.19302893 118666987.18748856 0 118666987.18748856 418111389.28521729 0 0 0 0 -5939182.7899704147 -5445132.8665273264 0 -5445132.8665273264 906862.7234551236 0 0 0 0 -46067597.173830837 -101986301.80989075 0 -101986301.80989075 -374782992.57452393 0 0 0 0 337388527.91246629 -181209235.68670654 0 -181209235.68670654 -361824225.1252594 0 0 0 0 -77802523.337621331 117556971.55872345 0 117556971.55872345 108862368.49487305 0 0 0 0 476162499.20715505 651247761.13954496 0 651247761.13954496 405618905.20349121 0 0 0 0 -94298697.338246346 -330397614.01184082 0 -330397614.01184082 -195420857.9833374 0 0 0 0 542514923.27866817 -135655094.56039429 0 -135655094.56039429 -299516423.81233215 0 0 0 0 -693980003.31333399 11206824.120195389 0 11206824.120195389 1413377527.8977356 0 0 0 0 -1195494.5274609239 1188577.6767680515 0 1188577.6767680515 517457.7029093504 0 0 0 0 223693699.43322361 557003042.65964508 0 557003042.65964508 408525093.91815186 0 0 0 0 1024218153.4241731 1367287826.4256287 0 1367287826.4256287 2121824676.6591492 0 0 0 0 1533371475.6487186 1419021017.026535 0 1419021017.026535 2044944801.2936401 0 0 0 0 -47571061.090677738 50199862.611328125 0 50199862.611328125 1535218864.1403198 0 0 0 0 -122083183.12731957 133027954.6013031 0 133027954.6013031 1272751020.3369141 0 0 0 0 143874693.13346082 627157949.73588562 0 627157949.73588562 1939518074.2805176 0 0 0 0 -260674913.80514789 522518258.77020264 0 522518258.77020264 2326799056.6556244 0 0 0 0 -614210613.93105698 709300467.05032349 0 709300467.05032349 2243257973.5455933 0 0 0 0 -1040883949.8463767 528786627.27677917 0 528786627.27677917 1966387057.2405701 0 0 0 0 -84811636.310710371 876291212.15589905 0 876291212.15589905 1696590398.2795105 0 0 0 0 -363054039.67278218 -430605946.33262634 0 -430605946.33262634 -480167892.53627014 0 0 0 0 167697076.75526196 511537968.66125488 0 511537968.66125488 1165652345.5021362 0 0 0 0 -509912323.89068723 -519770603.94199371 0 -519770603.94199371 363118607.24920654 0 0 0 0 220049680.41467708 401302718.80979919 0 401302718.80979919 -418692574.5103302 0 0 0 0 7881593.7869672775 92084135.21206665 0 92084135.21206665 -345239590.05537415 0 0 0 0 239627004.36861706 383485547.20645142 0 383485547.20645142 -495964870.79736328 0 0 0 0 -2032396.4110768714 -1297608.295416303 0 -1297608.295416303 438142.65205651522 0 0 0 0 419079019.47990799 730220379.25634766 0 730220379.25634766 554922198.50045776 0 0 0 0 -300362036.20906448 -117321919.70478821 0 -117321919.70478821 1040830656.9404602 0 0 0 0 -296929212.08899307 -167668543.85818481 0 -167668543.85818481 114319235.81016541 0 0 0 0 -1534469705.3573246 -116391419.87329865 0 -116391419.87329865 1710505087.6318054 0 0 0 0 828612554.65148497 -193191716.18313789 0 -193191716.18313789 -330337623.72796631 0 0 0 0 -430339.01112201792 634921.43744459702 0 634921.43744459702 4379346.2646077275 0 0 0 0 -493518841.52940029 -376728294.20816803 0 -376728294.20816803 -345111836.84765625 0 0 0 0 -165570.8310637025 27392.459265222831 0 27392.459265222831 2006376.784225598 0 0 0 0 281733177.47111851 740584951.16720343 0 740584951.16720343 561293344.5050354 0 0 0 0 -220901688.71697295 146389203.05948639 0 146389203.05948639 366237703.52648163 0 0 0 0 49538307.552942805 229165080.51669216 0 229165080.51669216 1139360801.6751251 0 0 0 0 353410.43022504682 169505967.3731308 0 169505967.3731308 -377075.59718322754 0 0 0 0 -171923384.58867899 -23233086.740253448 0 -23233086.740253448 600603153.63703918 0 0 0 0 -178970049.55224982 338481293.87839508 0 338481293.87839508 406721958.56828308 0 0 0 0 -652715020.3508637 -106679133.47884369 0 -106679133.47884369 176407083.67725372 0 0 0 0 -118246315.71229714 19711343.287662506 0 19711343.287662506 68722742.339370728 0 0 0 0 -348764041.95012081 241919494.50392151 0 241919494.50392151 45775147.778331757 0 0 0 0 -154404547.1395382 376267483.40633428 0 376267483.40633428 -67173343.196136475 0 0 0 0 -238081442.08173037 -74304184.774215698 0 -74304184.774215698 183327558.14612579 0 0 0 0 605074291.77106774 577008281.15170288 0 577008281.15170288 -502985955.79057312 0 0 0 0 -316508.00412894326 1233312.7083740006 0 1233312.7083740006 3417225.9027249962 0 0 0 0 -473157722.50889516 -1145864131.4693527 0 -1145864131.4693527 714032363.28744507 0 0 0 0 -314681.20146748499 545677.75532752089 0 545677.75532752089 4437238.5964149088 0 0 0 0 24451205.78450489 -434141254.04933929 0 -434141254.04933929 307854152.83355713 0 0 0 0 -945594805.14042926 -549608370.23738098 0 -549608370.23738098 807882175.83673096 0 0 0 0 193208657.17429638 -171953039.31499481 0 -171953039.31499481 -919564476.26611328 0 0 0 0 -447587762.02763176 -507030497.6728363 0 -507030497.6728363 66106433.04019165 0 0 0 0 -1088505172.7173185 658929395.96125793 0 658929395.96125793 513621568.13204956 0 0 0 0 -2006381905.0700788 427748115.10179901 0 427748115.10179901 872774011.27923584 0 0 0 0 -535469.88458674902 2175690.8078106837 0 2175690.8078106837 9738310.8258987367 0 0 0 0 -74923.236840039186 581531.43527870928 0 581531.43527870928 1043615.6885873973 0 0 0 0 1121842376.4380033 466040547.59209442 0 466040547.59209442 -330937677.20527649 0 0 0 0 7321054.0514988899 1091431057.9423523 0 1091431057.9423523 -75908218.239730835 0 0 0 0 24306825.115766108 -55702056.028736115 0 -55702056.028736115 1121219240.3531647 0 0 0 0 -56413944.855081558 -509983670.8180542 0 -509983670.8180542 -246118713.16208267 0 0 0 0 1335498648.5563593 1685471362.156311 0 1685471362.156311 17296093.009216309 0 0 0 0 1333704333.4768238 1131985499.614563 0 1131985499.614563 -611863806.09667206 0 0 0 0 974498944.50066566 1674310022.5089264 0 1674310022.5089264 1024882031.8158646 0 0 0 0 885166594.88341188 1445880713.4857483 0 1445880713.4857483 469432673.70028687 0 0 0 0 1196610166.3129473 2249101005.0674591 0 2249101005.0674591 1360966030.7712097 0 0 0 0 1073732502.1219265 1497453879.0865936 0 1497453879.0865936 1297937073.4781494 0 0 0 0 853821467.11549568 1116888342.3001709 0 1116888342.3001709 1557935640.8398895 0 0 0 0 676177602.94374621 1235678000.6275501 0 1235678000.6275501 1484897791.0802917 0 0 0 0 1072103827.1904492 818247134.11481476 0 818247134.11481476 1370878225.8493347 0 0 0 0 1751984095.9817305 1132107146.7550659 0 1132107146.7550659 645955424.34716034 0 0 0 0 1601461302.3976068 346069489.84307861 0 346069489.84307861 1774590182.8598633 0 0 0 0 727740807.03455067 424825399.83590698 0 424825399.83590698 2081478542.0296936 0 0 0 0 143307592.96641922 958781782.6259079 0 958781782.6259079 1891449350.2738647 0 0 0 0 363841991.86395454 -710830805.55812073 0 -710830805.55812073 848608845.50354767 0 0 0 0 -19557172.003375053 -417671977.17066193 0 -417671977.17066193 669380267.1166687 0 0 0 0 -107868743.68765163 -187547267.61447906 0 -187547267.61447906 -142111258.26516724 0 0 0 0 463892664.07309341 -435633976.9809494 0 -435633976.9809494 433500795.53523254 0 0 0 0 187325.72361033224 -2319784.9875087738 0 -2319784.9875087738 736704.45364265889 0 0 0 0 662751885.25937557 -576654089.2444458 0 -576654089.2444458 473914654.91337585 0 0 0 0 704047897.13330007 937111759.64016533 0 937111759.64016533 1456206522.4512024 0 0 0 0 -1430929.5260003791 -2528198.8396195602 0 -2528198.8396195602 3666298.7184603959 0 0 0 0 767902004.09255362 847478504.41136169 0 847478504.41136169 728594791.97436523 0 0 0 0 277272620.59646416 784633238.54716492 0 784633238.54716492 1739106615.9598885 0 0 0 0 533548705.33028507 957046300.8682251 0 957046300.8682251 1685417708.3967361 0 0 0 0 337311164.0922519 1001704604.3969879 0 1001704604.3969879 1676998990.9474487 0 0 0 0 684362346.17787647 389944929.55938721 0 389944929.55938721 126454130.65734863 0 0 0 0 -4806205.2594254958 -5865014.3931156248 0 -5865014.3931156248 3698849.2799101062 0 0 0 0 262905409.010746 -86440726.427276611 0 -86440726.427276611 105850706.44049263 0 0 0 0 61399069.474287033 735689367.91490936 0 735689367.91490936 1274400306.0183105 0 0 0 0 357594261.14778757 554169969.14517212 0 554169969.14517212 884718449.26602173 0 0 0 0 129341663.6281395 764934884.15115356 0 764934884.15115356 1106002091.4686279 0 0 0 0 -170307183.79909134 397631548.85623169 0 397631548.85623169 898604155.32580566 0 0 0 0 -296183587.99015427 713207773.93127441 0 713207773.93127441 237533213.10620117 0 0 0 0 -458243.89032061119 247700.79442812502 0 247700.79442812502 673510.47680656612 0 0 0 0 263244888.49213791 736867858.71957397 0 736867858.71957397 980229537.26321411 0 0 0 0 176997156.84469223 878994268.82397461 0 878994268.82397461 1273167987.5395508 0 0 0 0 349578427.91783524 838065629.56359863 0 838065629.56359863 1045684409.6935883 0 0 0 0 369255610.99056911 774055362.60374451 0 774055362.60374451 1189949150.4778442 0 0 0 0 248095733.87004089 757218099.29824829 0 757218099.29824829 1374279270.604248 0 0 0 0 296097905.48737884 1038091876.2252274 0 1038091876.2252274 1568487651.6383057 0 0 0 0 369163039.28351307 717760384.30010986 0 717760384.30010986 1257926907.9227829 0 0 0 0 347636695.21871948 895574190.45672607 0 895574190.45672607 1728149954.2111282 0 0 0 0 687899497.62633514 1064377326.9427338 0 1064377326.9427338 1782097591.053894 0 0 0 0 352645537.59861946 883647680.68857574 0 883647680.68857574 2092982891.0649414 0 0 0 0 609752267.68534899 1103334121.5421371 0 1103334121.5421371 2172965150.0964432 0 0 0 0 955593500.44842052 737565347.08955383 0 737565347.08955383 1959402191.866745 0 0 0 0 549294556.53890324 844263419.02961349 0 844263419.02961349 1935569428.0481873 0 0 0 0 526748946.8778162 739737624.733078 0 739737624.733078 1744524756.276165 0 0 0 0 1515146348.6293955 1350942012.8760376 0 1350942012.8760376 1927552248.0378571 0 0 0 0 614784549.79980087 967620439.33631897 0 967620439.33631897 1776710024.6317444 0 0 0 0 -410888.19915477093 35698.793174497783 0 35698.793174497783 1855821.2177114934 0 0 0 0 397760867.90317488 -38298381.392829895 0 -38298381.392829895 -1096774007.1767502 0 0 0 0 142280011.91095924 1426388251.7640915 0 1426388251.7640915 3751235215.727005 0 0 0 0 1407896.3602922331 325849.49441327155 0 325849.49441327155 509978.07819983363 0 0 0 0 3822821.2406528592 63024862.117492676 0 63024862.117492676 404204561.16886139 0 0 0 0 765727883.78503275 823944225.47125244 0 823944225.47125244 -296852112.16612244 0 0 0 0 689258385.05188274 1274125076.7285156 0 1274125076.7285156 1377158649.4575195 0 0 0 0 737537855.33276939 1084150997.4264374 0 1084150997.4264374 839641944.57623291 0 0 0 0 -412746.54563025839 -1105282.4710311219 0 -1105282.4710311219 1492226.7959079742 0 0 0 0 -8230944.4053840637 293205528.27820587 0 293205528.27820587 882297678.8717041 0 0 0 0 348595313.16565275 214265580.76832581 0 214265580.76832581 398931930.30747223 0 0 0 0 30754163.608036309 121394923.17742825 0 121394923.17742825 158257151.97251892 0 0 0 0 2423763.3089101017 -41048673.766810417 0 -41048673.766810417 134823676.38070679 0 0 0 0 -68758575.011718631 -119283475.6774292 0 -119283475.6774292 -70710621.994750977 0 0 0 0 -338143260.61521149 40551272.930435181 0 40551272.930435181 191262900.12274551 0 0 0 0 -91593052.328443766 161224091.22882843 0 161224091.22882843 347578669.77130127 0 0 0 0 246635556.24725223 -20438162.930595398 0 -20438162.930595398 24256348.691120148 0 0 0 0 125497068.34471667 209553537.48952103 0 209553537.48952103 -78809966.984786987 0 0 0 0 784510327.67917681 -88500316.530532837 0 -88500316.530532837 -115637547.01745605 0 0 0 0 743581130.72323132 -18191722.282104492 0 -18191722.282104492 461517312.00454712 0 0 0 0 213109.45332445391 -520272.40613485873 0 -520272.40613485873 644521.35465801507 0 0 0 0 293580987.61860085 -25519002.533535004 0 -25519002.533535004 205939901.62297058 0 0 0 0 529216306.07608509 -97540503.450576782 0 -97540503.450576782 1139409713.0958252 0 0 0 0 621132147.04599762 127559287.50771332 0 127559287.50771332 963598638.17547607 0 0 0 0 226303575.90913773 192633136.34857178 0 192633136.34857178 2507035231.9146271 0 0 0 0 285609604.6876955 894456309.71112061 0 894456309.71112061 3399021404.3867493 0 0 0 0 990440879.39478207 1241496700.8130798 0 1241496700.8130798 2706867147.4031372 0 0 0 0 344892482.15625 1092982688.8651733 0 1092982688.8651733 1848933847.6639023 0 0 0 0 395303426.02128744 308362456.64073181 0 308362456.64073181 2203278718.0503235 0 0 0 0 371865879.95763874 758104355.34970093 0 758104355.34970093 728607397.80214691 0 0 0 0 -74466559.068397522 879352626.9876709 0 879352626.9876709 1580939606.4209137 0 0 0 0 318572008.83292353 1032668474.6759596 0 1032668474.6759596 1242845235.8612366 0 0 0 0 655769511.19649315 1464312340.4759674 0 1464312340.4759674 1536789536.9448242 0 0 0 0 416336873.4072156 1135288330.5188599 0 1135288330.5188599 1453855282.2243347 0 0 0 0 595049991.26429653 1600410880.8548431 0 1600410880.8548431 1321069066.0189209 0 0 0 0 701598029.20926189 1763476653.4714508 0 1763476653.4714508 1570554064.239502 0 0 0 0 671599209.42726707 1823013094.1677551 0 1823013094.1677551 1922300832.5695496 0 0 0 0 782058126.15577722 2047216192.8592644 0 2047216192.8592644 2298098209.9907837 0 0 0 0 272855780.88845754 1317339871.8169899 0 1317339871.8169899 2369381740.116272 0 0 0 0 -1245137634.3983729 -407304923.38765717 0 -407304923.38765717 1836909289.7681427 0 0 0 0 -103839.11570121546 1481075.8359269258 0 1481075.8359269258 5331318.4678427875 0 0 0 0 1473601695.2371955 2191651223.3426285 0 2191651223.3426285 1307316100.6051025 0 0 0 0 -449460028.78231311 604995201.57995605 0 604995201.57995605 3026112338.1512451 0 0 0 0 776314116.7216469 1860244914.7150059 0 1860244914.7150059 3866676294.776001 0 0 0 0 -203467969.09951699 -148066646.04172516 0 -148066646.04172516 1146674266.6704407 0 0 0 0 -778269245.0432086 -110899310.96562195 0 -110899310.96562195 2535444028.1987305 0 0 0 0 630336700.02263093 1210264178.7569733 0 1210264178.7569733 1761929592.2361755 0 0 0 0 -392172941.30316949 640881011.21842957 0 640881011.21842957 2530885922.0803375 0 0 0 0 -26706218.646923065 604219729.13542175 0 604219729.13542175 2320154924.1417694 0 0 0 0 575431976.48337078 1317715094.8927765 0 1317715094.8927765 2707709077.0282087 0 0 0 0 298703088.01117682 1502892749.7493172 0 1502892749.7493172 3384003733.3087769 0 0 0 0 3128666115.9565182 967967204.28710938 0 967967204.28710938 2722276794.2577209 0 0 0 0 2520873421.5884438 155582947.00418091 0 155582947.00418091 3365058787.51577 0 0 0 0 53237.690431179828 406353.78700504079 0 406353.78700504079 2143443.8985469341 0 0 0 0 520456360.39427876 -207528777.32234097 0 -207528777.32234097 82950635.576812744 0 0 0 0 1556385820.6279619 1566531464.1512756 0 1566531464.1512756 1483444578.8916016 0 0 0 0 107831782.56346774 -223806500.24513245 0 -223806500.24513245 1075768347.7538452 0 0 0 0 729213226.82400417 282366643.53636169 0 282366643.53636169 -475438398.43914795 0 0 0 0 -180160259.71705234 28187469.623657227 0 28187469.623657227 161440461.40769386 0 0 0 0 1135877779.4049473 844624275.50637817 0 844624275.50637817 354363213.76860046 0 0 0 0 351722841.39357114 1152945056.7504883 0 1152945056.7504883 1750182319.382782 0 0 0 0 81479408.452798754 791371490.66527653 0 791371490.66527653 1165271506.1412506 0 0 0 0 125864995.65041304 646574552.20435333 0 646574552.20435333 622881671.24829102 0 0 0 0 -836849.1086219569 344896953.65318942 0 344896953.65318942 1163184178.8955383 0 0 0 0 -169498789.86721426 419387702.81284332 0 419387702.81284332 1479802161.0328865 0 0 0 0 -174906047.49596524 483180055.84173203 0 483180055.84173203 1878075517.0662537 0 0 0 0 47463101.088120341 59556276.739364624 0 59556276.739364624 -218869520.67884827 0 0 0 0 170490.58968140546 714469.60375354439 0 714469.60375354439 407655.71375338733 0 0 0 0 7674776.7771676909 2198548.7117475793 0 2198548.7117475793 -21474.615864098072 0 0 0 0 574560151.03092194 343450872.27206421 0 343450872.27206421 376252848.70414734 0 0 0 0 11658770.731298447 -504852.30319213867 0 -504852.30319213867 20940397.768135071 0 0 0 0 18686445.695631027 -9773883.6638336182 0 -9773883.6638336182 10221730.06010437 0 0 0 0 20092243.335893154 -3979974.03748703 0 -3979974.03748703 -12489467.700714111 0 0 0 0 19370973.856480598 -3091616.4199104309 0 -3091616.4199104309 4144224.6934814453 0 0 0 0 14804319.075367928 1462948.2859725952 0 1462948.2859725952 10557825.092056274 0 0 0 0 1259429.5031749776 7825585.7694938285 0 7825585.7694938285 7641350.3594576865 0 0 0 0 -26979113.961075366 14507886.631275177 0 14507886.631275177 11294952.744384766 0 0 0 0 6957755.9528849125 564852.47503662109 0 564852.47503662109 -870073.78807067871 0 0 0 0 11438074.898199081 17783903.429092407 0 17783903.429092407 15562198.053771973 0 0 0 0 17968606.997459769 18937120.386978149 0 18937120.386978149 -2661513.0317382812 0 0 0 0 6966971.8618500233 11996975.423858643 0 11996975.423858643 -3825514.6280517578 0 0 0 0 18042319.704739094 16204805.917617798 0 16204805.917617798 -9587921.3538513184 0 0 0 0 -781396.34195993841 23418562.269012451 0 23418562.269012451 -2757441.2327270508 0 0 0 0 -20809473.249640614 4802075.6148986816 0 4802075.6148986816 5528895.8249511719 0 0 0 0 11461233.430176735 2940190.3052749634 0 2940190.3052749634 2092026.6086730957 0 0 0 0 6182746.3771352768 9370739.2135620117 0 9370739.2135620117 2188760.87940979 0 0 0 0 22646889.556580544 6628769.9084625244 0 6628769.9084625244 2546993.1751251221 0 0 0 0 -54739766.931544304 -7964633.500289917 0 -7964633.500289917 26487307.21572876 0 0 0 0 25824216.854447842 -58416270.335739136 0 -58416270.335739136 52281621.057006836 0 0 0 0 101784470.25231552 -47012529.150741577 0 -47012529.150741577 52465169.69942379 0 0 0 0 -44637333.643738687 58778524.878173828 0 58778524.878173828 5325680.1787109375 0 0 0 0 -56977311.464302242 -2735468.5025787354 0 -2735468.5025787354 12536379.28503418 0 0 0 0 14832112.830013752 30237294.168182373 0 30237294.168182373 181493.73597717285 0 0 0 0 13448098.854083776 22299420.641052246 0 22299420.641052246 -12772349.962615967 0 0 0 0 60568387.539725304 22226743.752624512 0 22226743.752624512 -29938448.394378662 0 0 0 0 40887199.334413528 -14311639.289657593 0 -14311639.289657593 181443062.68722534 0 0 0 0 80059273.776605189 -60410355.370199203 0 -60410355.370199203 46102099.140319824 0 0 0 0 70529228.818095908 22688196.716524124 0 22688196.716524124 -137385536.14776611 0 0 0 0 -25023273.028166771 -159659143.64578247 0 -159659143.64578247 166568908.88897705 0 0 0 0 140436373.74626756 121409125.60882568 0 121409125.60882568 388218450.15306091 0 0 0 0 106345265.18139821 -64443021.901063919 0 -64443021.901063919 202268089.49816895 0 0 0 0 -110054008.67934823 164874686.13516998 0 164874686.13516998 848070235.27996826 0 0 0 0 -21009294.943695068 -87114840.395561218 0 -87114840.395561218 170043038.72167969 0 0 0 0 46056310.816748142 86323944.745681763 0 86323944.745681763 532526131.10612488 0 0 0 0 107225485.57281828 7459059.9904937744 0 7459059.9904937744 105328210.60063171 0 0 0 0 153277322.10224581 338066434.38659668 0 338066434.38659668 600118625.06020737 0 0 0 0 235085273.82532883 352356734.00121307 0 352356734.00121307 47276330.934814453 0 0 0 0 305867842.0599733 363430186.94692039 0 363430186.94692039 365999201.46765137 0 0 0 0 191106508.81410587 592310365.40238571 0 592310365.40238571 1146002873.6330719 0 0 0 0 394836795.01668847 730326039.35352707 0 730326039.35352707 1262676805.099823 0 0 0 0 374674307.02922845 383148012.13995361 0 383148012.13995361 714002049.59629822 0 0 0 0 1932480.9667140283 2787968.9448612314 0 2787968.9448612314 -826229.29364071786 0 0 0 0 12092133.283073902 -73851824.274124146 0 -73851824.274124146 384475524.80212402 0 0 0 0 200770091.02170539 485542950.52450562 0 485542950.52450562 531673468.04947662 0 0 0 0 385140461.64240289 795047464.06788254 0 795047464.06788254 1386387210.8173676 0 0 0 0 306554487.68910694 274742323.84159088 0 274742323.84159088 810202660.3400116 0 0 0 0 584492518.82423401 556006837.51364136 0 556006837.51364136 1401381166.7391968 0 0 0 0 868603815.95001841 1076785335.3606739 0 1076785335.3606739 1374041260.7512665 0 0 0 0 408305956.67917252 896892272.94244385 0 896892272.94244385 2129631837.6310358 0 0 0 0 481443926.18502986 1317380458.3466434 0 1317380458.3466434 1804387099.8378296 0 0 0 0 -347059.3371819621 426565.26520727575 0 426565.26520727575 1273121.5303477123 0 0 0 0 205742293.04920387 975678936.23124695 0 975678936.23124695 1806085308.6820984 0 0 0 0 672317213.90240097 1081692152.1959381 0 1081692152.1959381 1545463365.5355606 0 0 0 0 33931192.520583391 331982186.9805069 0 331982186.9805069 919731674.72823334 0 0 0 0 423244108.53406572 844499534.12117767 0 844499534.12117767 1365253787.6622314 0 0 0 0 375907564.71716309 873920540.49925232 0 873920540.49925232 1804871361.2954712 0 0 0 0 384380048.44630241 1043975782.9216766 0 1043975782.9216766 1546330322.606781 0 0 0 0 165650120.71825886 547790240.52589417 0 547790240.52589417 1383857908.7099304 0 0 0 0 662633157.04056263 1074072028.0204239 0 1074072028.0204239 1633244506.4455299 0 0 0 0 421874253.03055906 904255125.47262573 0 904255125.47262573 1675553410.3663025 0 0 0 0 477181462.58677983 889200351.26662445 0 889200351.26662445 1724907397.1491699 0 0 0 0 410421670.02195072 1217646577.6803131 0 1217646577.6803131 1983151760.0368671 0 0 0 0 491148228.59802246 884796588.22140503 0 884796588.22140503 2006093094.2624569 0 0 0 0 -499556.00829452695 569803.75498972088 0 569803.75498972088 2604785.9935906008 0 0 0 0 512619614.26017094 1305619409.6810455 0 1305619409.6810455 1971309408.845459 0 0 0 0 501700194.72326088 990795086.45921326 0 990795086.45921326 2019916114.13414 0 0 0 0 568020197.49624026 816017579.73653793 0 816017579.73653793 1701183977.0839386 0 0 0 0 461326807.25674438 888181267.24922943 0 888181267.24922943 2027819018.2710266 0 0 0 0 4342339.5209627356 1543168.0922126994 0 1543168.0922126994 418806.68965788558 0 0 0 0 147946593.99682426 87364040.683395386 0 87364040.683395386 -401656560.68642426 0 0 0 0 6477725.6298774257 1995807.9167188257 0 1995807.9167188257 115955.26383525133 0 0 0 0 318271902.22403479 417830409.14370728 0 417830409.14370728 976590061.92669678 0 0 0 0 58709506.071795464 715897554.31970215 0 715897554.31970215 1954629496.668045 0 0 0 0 34821422.329353809 72217370.130355835 0 72217370.130355835 -278663725.77148438 0 0 0 0 -141347634.92636013 58555532.026496887 0 58555532.026496887 25111416.191291809 0 0 0 0 26537711.857944489 -14160419.886054993 0 -14160419.886054993 -78418613.729522705 0 0 0 0 -20287592.132824898 86559697.59135437 0 86559697.59135437 -70981148.489120483 0 0 0 0 -137727232.77103162 80753339.47971344 0 80753339.47971344 67725066.34274292 0 0 0 0 -154643142.72447437 104506457.11794472 0 104506457.11794472 301245190.98921204 0 0 0 0 -1078730.6192305372 -531183.46691811085 0 -531183.46691811085 778599.90723729879 0 0 0 0 -253142228.3504467 102133551.32095337 0 102133551.32095337 101371040.74176025 0 0 0 0 -38517036.078783989 4385014.8658294678 0 4385014.8658294678 102896461.74662018 0 0 0 0 -178170565.11130524 -82449214.122070312 0 -82449214.122070312 50716475.913223267 0 0 0 0 -90764512.657638907 252878921.89439201 0 252878921.89439201 192397779.20518494 0 0 0 0 -207177585.99149919 -87440078.56942749 0 -87440078.56942749 5798912.5872497559 0 0 0 0 133991402.95592356 131739155.20359802 0 131739155.20359802 -370804263.69171906 0 0 0 0 100204699.65942574 174346168.17489624 0 174346168.17489624 -240360401.63319016 0 0 0 0 89176197.811198354 70108668.048191071 0 70108668.048191071 26649633.661392212 0 0 0 0 -51590343.777711868 -33874771.914794922 0 -33874771.914794922 192115651.59822845 0 0 0 0 24657245.795995712 115157992.71544647 0 115157992.71544647 336165027.49874878 0 0 0 0 -1553955.4592114307 -955472.18473245203 0 -955472.18473245203 1487194.5301534832 0 0 0 0 29184609.102757931 -25374607.758926392 0 -25374607.758926392 111344008.69450378 0 0 0 0 22414004.556921005 23577433.938659668 0 23577433.938659668 -210663496.11221313 0 0 0 0 -40675128.475646973 -105540389.26976013 0 -105540389.26976013 208463908.04191589 0 0 0 0 -5310893.3753033122 1731335.6826333106 0 1731335.6826333106 133623.97020121664 0 0 0 0 17122350.296236515 -1713088.0473022461 0 -1713088.0473022461 74780673.196289062 0 0 0 0 26974627.455495238 -73908137.489059448 0 -73908137.489059448 49035366.297401428 0 0 0 0 -838715.25959100109 144008.56130298227 0 144008.56130298227 1023444.6671714261 0 0 0 0 31703277.936993599 -42615949.006217957 0 -42615949.006217957 -89353069.040679932 0 0 0 0 -50927208.973972321 -208341733.51072693 0 -208341733.51072693 -11358746.538383484 0 0 0 0 -208614206.91094053 192237867.22339058 0 192237867.22339058 279562371.71405029 0 0 0 0 40938768.016391754 -28228705.988540649 0 -28228705.988540649 -359210275.61274719 0 0 0 0 -8807898.0523937345 3318506.4615266994 0 3318506.4615266994 726832.34072034061 0 0 0 0 -31802445.636936188 79408423.29699707 0 79408423.29699707 175009229.3755722 0 0 0 0 51434906.654045105 -571904.67834472656 0 -571904.67834472656 -272873404.21103287 0 0 0 0 -11803371.698753435 5219461.8569371849 0 5219461.8569371849 2260848.8822471686 0 0 0 0 -12118730.218150139 28947230.7866745 0 28947230.7866745 -179073901.22900391 0 0 0 0 -13429417.165352821 40687929.445991516 0 40687929.445991516 77162566.633911133 0 0 0 0 -7081173.521323204 31954713.381908417 0 31954713.381908417 64513590.743347168 0 0 0 0 14348746.042931557 51945358.883972168 0 51945358.883972168 24694744.824493408 0 0 0 0 -12713763.281675816 31330317.153274536 0 31330317.153274536 64449330.877105713 0 0 0 0 -8478631.3003931046 29695317.479034424 0 29695317.479034424 29995472.380004883 0 0 0 0 82025753.853552938 110412186.43156624 0 110412186.43156624 12469248.83001709 0 0 0 0 15569277.066653252 -14652166.183303833 0 -14652166.183303833 -59623581.521736145 0 0 0 0 -1878814.9882322126 1271866.704366833 0 1271866.704366833 2756457.8121697009 0 0 0 0 -42681358.328759015 51848189.529557705 0 51848189.529557705 64457637.839416504 0 0 0 0 13400436.60461998 27361580.029735565 0 27361580.029735565 27985779.172058105 0 0 0 0 14043114.474891663 8534563.2694702148 0 8534563.2694702148 -28122323.867630005 0 0 0 0 -1865755.61351329 3883821.9811579213 0 3883821.9811579213 4484146.7010280713 0 0 0 0 -6011200.8353309631 5187828.4145202637 0 5187828.4145202637 24027624.16027832 0 0 0 0 16290020.522481918 13371118.255371094 0 13371118.255371094 6298308.6796875 0 0 0 0 23894134.248714447 10953216.825592041 0 10953216.825592041 -2742345.5884170532 0 0 0 0 24573633.544475555 9607167.7951164246 0 9607167.7951164246 -20972915.546295166 0 0 0 0 17500811.988483906 28713593.842533112 0 28713593.842533112 -1903271.3775939941 0 0 0 0 12909056.416330338 26622503.783668518 0 26622503.783668518 26748185.683296204 0 0 0 0 2969732.9023296833 -2996614.3276062012 0 -2996614.3276062012 -1175049.3243179321 0 0 0 0 -3105174.0396350762 1970357.635453403 0 1970357.635453403 10594385.218081288 0 0 0 0 10533679.021637514 3812480.3894882202 0 3812480.3894882202 -3446776.2359008789 0 0 0 0 453137.04889105354 1166248.1557160206 0 1166248.1557160206 -609076.5552842468 0 0 0 0 -7438298.0199222565 4639231.0839385986 0 4639231.0839385986 10774871.145122528 0 0 0 0 131927.65643835074 7326457.4959929464 0 7326457.4959929464 6941948.1705786586 0 0 0 0 -1363968.6624372602 19660489.132774353 0 19660489.132774353 11183246.642375946 0 0 0 0 -8631943.9611452129 4361809.7421118822 0 4361809.7421118822 10331289.820603788 0 0 0 0 6070808.5372949624 8177320.4453824013 0 8177320.4453824013 7303397.4420628771 0 0 0 0 -9147757.1555981636 11509092.014984131 0 11509092.014984131 38636686.923950195 0 0 0 0 25414775.134412766 3181546.9685974121 0 3181546.9685974121 17126212.151245117 0 0 0 0 4585187.2002353668 5402768.4105682373 0 5402768.4105682373 27471384.617233276 0 0 0 0 1766365.9930670718 3421109.8460012656 0 3421109.8460012656 -963786.80840417743 0 0 0 0 388201.06821019389 1488659.509327013 0 1488659.509327013 2155856.3246398419 0 0 0 0 -10463798.452049974 -221904.65143491328 0 -221904.65143491328 16596634.27367837 0 0 0 0 -4374975.8018684387 619752.4030456543 0 619752.4030456543 6614608.8237075806 0 0 0 0 72818285.039899349 36295696.260189056 0 36295696.260189056 26842684.47819519 0 0 0 0 -13963636.814468481 20072619.733666096 0 20072619.733666096 20806186.205626279 0 0 0 0 23282643.316768646 1919153.8602218628 0 1919153.8602218628 32337679.97591877 0 0 0 0 61110302.524963379 22217391.566925049 0 22217391.566925049 66321570.455093384 0 0 0 0 -5665061.1213665009 50264100.915763855 0 50264100.915763855 -31815473.679351807 0 0 0 0 -14137391.954738755 8773998.4984562397 0 8773998.4984562397 5573840.4655020833 0 0 0 0 52175456.456731796 30060704.873565674 0 30060704.873565674 -178211467.08203125 0 0 0 0 -13252054.761579514 25408487.11555481 0 25408487.11555481 76097133.148773193 0 0 0 0 -27014862.207397461 221369522.19662476 0 221369522.19662476 186846821.06170654 0 0 0 0 -6644591.8541870117 56398176.615661621 0 56398176.615661621 -101229044.78393173 0 0 0 0 -3730661.6020010812 5527209.3130031703 0 5527209.3130031703 -2807038.2140732706 0 0 0 0 -75782260.430612087 113669256.1857872 0 113669256.1857872 -138348707.68292236 0 0 0 0 110522499.44605064 76305735.262428284 0 76305735.262428284 15208070.808303833 0 0 0 0 34363176.19222641 99250452.272750854 0 99250452.272750854 -155285534.46947479 0 0 0 0 55765592.135612488 98504035.564849854 0 98504035.564849854 -122914924.90071106 0 0 0 0 29853946.974807739 75073224.023620605 0 75073224.023620605 -134637988.3195343 0 0 0 0 -387986857.0530529 440118850.4604454 0 440118850.4604454 -161197371.63230896 0 0 0 0 484715724.9956913 258584975.76215553 0 258584975.76215553 -243901285.66734314 0 0 0 0 285174958.89725304 -133351111.53276825 0 -133351111.53276825 35891982.0415802 0 0 0 0 262249169.80810356 -56101714.495155334 0 -56101714.495155334 -117478195.98704529 0 0 0 0 250729472.22035217 -113547613.52290344 0 -113547613.52290344 63132902.878433228 0 0 0 0 277149089.45591354 365929114.09134674 0 365929114.09134674 -231668979.22598267 0 0 0 0 763342062.17521286 31545539.860748291 0 31545539.860748291 -197828437.11127663 0 0 0 0 -33480699.604812622 -148756239.85523224 0 -148756239.85523224 261936227.58650208 0 0 0 0 321938763.68101883 -217162501.19302368 0 -217162501.19302368 123631002.78217316 0 0 0 0 117189545.54768562 -349733669.43480682 0 -349733669.43480682 484529040.88775635 0 0 0 0 166137659.53062534 -140998509.55809021 0 -140998509.55809021 50145132.593414307 0 0 0 0 122447464.31826782 -86232311.817504883 0 -86232311.817504883 96722956.551586151 0 0 0 0 -34794966.393375635 -137066068.2087822 0 -137066068.2087822 352477029.92520142 0 0 0 0 65736518.408452988 20269992.322471619 0 20269992.322471619 -98948444.453536987 0 0 0 0 22368508.861477852 -61858736.206659317 0 -61858736.206659317 70485575.688812256 0 0 0 0 77965339.985004425 -37346077.556442261 0 -37346077.556442261 34540767.559761047 0 0 0 0 132705682.2329998 50679033.954917908 0 50679033.954917908 -141072384.99456787 0 0 0 0 71185424.816448212 57780109.718002319 0 57780109.718002319 -177969548.05740356 0 0 0 0 31308807.677914023 59020273.82870388 0 59020273.82870388 -137023754.8923645 0 0 0 0 26859305.69952774 -10559383.045833588 0 -10559383.045833588 -109975906.38354492 0 0 0 0 8187591.1467170715 48851974.088699341 0 48851974.088699341 -194536075.59742737 0 0 0 0 -27665315.561581373 -54145615.427892685 0 -54145615.427892685 -163832725.21499634 0 0 0 0 -46651011.497425556 31869836.439254761 0 31869836.439254761 -134157811.62887573 0 0 0 0 -17162983.053913593 -58036847.67773819 0 -58036847.67773819 -53985073.049468994 0 0 0 0 -10992433.955729485 63528415.29864502 0 63528415.29864502 26427519.530914307 0 0 0 0 15610131.358861923 41182917.99697876 0 41182917.99697876 -123370238.33826065 0 0 0 0 -54896644.99723506 102442805.78486633 0 102442805.78486633 -34846198.918197632 0 0 0 0 24845690.814757824 -31062217.767349243 0 -31062217.767349243 -393489091.85723877 0 0 0 0 -110552389.20319083 -164012093.11112785 0 -164012093.11112785 441161275.54527283 0 0 0 0 -12210485.952094555 45112196.667640686 0 45112196.667640686 -26891667.213281631 0 0 0 0 -101136434.73885584 16746569.215904236 0 16746569.215904236 183118263.4236145 0 0 0 0 -53039376.088868141 74633092.064239502 0 74633092.064239502 158744786.29832077 0 0 0 0 68135192.307483673 -149911165.78381348 0 -149911165.78381348 1179240802.7099533 0 0 0 0 -764018.11898458377 550944.01659494638 0 550944.01659494638 1121269.6937237903 0 0 0 0 4925568.8121988773 -345436229.12378693 0 -345436229.12378693 1127146082.2474823 0 0 0 0 -29615632.038230836 -61471213.951813698 0 -61471213.951813698 217485172.87496948 0 0 0 0 -20925753.586876869 21602708.455413818 0 21602708.455413818 143945748.65168762 0 0 0 0 -94671829.280826569 116007015.8354187 0 116007015.8354187 449753848.38542938 0 0 0 0 -133595966.70175266 -155054096.37489319 0 -155054096.37489319 719555154.31590271 0 0 0 0 -134442421.06533623 -90741165.160438538 0 -90741165.160438538 470258079.42782593 0 0 0 0 -47684182.999991417 -139346307.08231354 0 -139346307.08231354 444224268.20088959 0 0 0 0 -2018275.3494672775 -272109737.02487183 0 -272109737.02487183 561593496.29971313 0 0 0 0 -3708550.4515171391 -177604.47923704982 0 -177604.47923704982 787526.62588947266 0 0 0 0 -232777467.7804563 -378098211.52190399 0 -378098211.52190399 398888205.58189392 0 0 0 0 -69576057.552535534 -107670965.58654213 0 -107670965.58654213 579327316.5546875 0 0 0 0 99734485.445899963 8391414.8887939453 0 8391414.8887939453 -145391408.39756775 0 0 0 0 -185646860.26212263 -279152940.04927063 0 -279152940.04927063 96912456.828384399 0 0 0 0 -1384632.902898368 -860151.33984981477 0 -860151.33984981477 1069241.3255341295 0 0 0 0 -114791082.84791684 -209121647.13387299 0 -209121647.13387299 1484760841.6370087 0 0 0 0 419316745.15093613 76846626.991836548 0 76846626.991836548 -526929903.07221222 0 0 0 0 -472720.67924506217 37839.355282254517 0 37839.355282254517 488358.31437482499 0 0 0 0 -107593335.75558853 -280891929.33207703 0 -280891929.33207703 1468950283.0114288 0 0 0 0 -12318869.693714142 151063534.93884277 0 151063534.93884277 218761092.08781433 0 0 0 0 -3357501.7661004094 -140745.46772511303 0 -140745.46772511303 659849.00832173973 0 0 0 0 -50919036.307580948 -6551107.052444458 0 -6551107.052444458 335720161.97946167 0 0 0 0 33904349.527486801 82716312.002990723 0 82716312.002990723 -30077658.27166748 0 0 0 0 8990347.4457979202 177589426.10305786 0 177589426.10305786 -6289604.5345153809 0 0 0 0 37082065.398034096 -5994208.7067489624 0 -5994208.7067489624 -136784846.29433441 0 0 0 0 88912.307624769397 958543.4281117022 0 958543.4281117022 -267183.82340824604 0 0 0 0 -299134434.28864574 -43949962.774925232 0 -43949962.774925232 17091958.970108032 0 0 0 0 -1241059.3934065998 18782250.992093801 0 18782250.992093801 -7590716.1506347656 0 0 0 0 23011151.881383896 34459978.10748291 0 34459978.10748291 -9321513.0705413818 0 0 0 0 16110574.663732052 27171293.702003479 0 27171293.702003479 -3684386.6319580078 0 0 0 0 137372973.04193604 -271380860.45186186 0 -271380860.45186186 56694068.547302246 0 0 0 0 -1675418.499087167 48737.273998469114 0 48737.273998469114 454647.65043328702 0 0 0 0 96091283.512210846 -3391367.6698303223 0 -3391367.6698303223 -93932115.093078613 0 0 0 0 -304553252.13134956 -274367805.32752991 0 -274367805.32752991 463732466.70606232 0 0 0 0 -85529530.971751213 -92695655.135280609 0 -92695655.135280609 128394653.29789734 0 0 0 0 -269009042.71959782 103331316.41025543 0 103331316.41025543 3677373.3413200378 0 0 0 0 -93510075.623781204 -137421172.40934753 0 -137421172.40934753 -7839112.996963501 0 0 0 0 -174765827.10090828 287412681.96360016 0 287412681.96360016 370203192.60281372 0 0 0 0 -196512800.79184681 -139394224.71105385 0 -139394224.71105385 183990621.42796326 0 0 0 0 137684989.46589851 -159359192.02122498 0 -159359192.02122498 243524880.14199448 0 0 0 0 211171162.45258713 379178533.63491058 0 379178533.63491058 204916426.40910339 0 0 0 0 421738228.36531448 244669301.62298584 0 244669301.62298584 181634147.35844707 0 0 0 0 466466832.76207924 413799661.57655334 0 413799661.57655334 192459153.4127965 0 0 0 0 -149079172.1836257 4206974.6140480042 0 4206974.6140480042 242773407.33899689 0 0 0 0 460789750.76550865 420271232.76364136 0 420271232.76364136 264837994.29929352 0 0 0 0 9747581.5738429315 -9112619.2190605924 0 -9112619.2190605924 6778870.2192358226 0 0 0 0 -4361595.4634381775 544171.16593408957 0 544171.16593408957 4553272.7313593924 0 0 0 0 392547810.55826759 239083365.59246826 0 239083365.59246826 -290997001.34873962 0 0 0 0 1826644466.5922775 -273210600.27928925 0 -273210600.27928925 -158476797.40460205 0 0 0 0 932698236.72059917 417857161.77724838 0 417857161.77724838 56308462.138031006 0 0 0 0 4645351.3919104105 -3433311.0311421417 0 -3433311.0311421417 1359606.8856126517 0 0 0 0 666888257.69087601 709993112.81076431 0 709993112.81076431 980259834.51604462 0 0 0 0 419212934.77545738 260184770.36621094 0 260184770.36621094 369656516.69782257 0 0 0 0 165644899.18445778 39330142.967712402 0 39330142.967712402 1654736279.7941055 0 0 0 0 782017266.25616455 -927386732.96141815 0 -927386732.96141815 1313412973.8822479 0 0 0 0 2132078822.3697586 -395776191.86997223 0 -395776191.86997223 148462707.5 0 0 0 0 644055631.35406971 102804891.94066811 0 102804891.94066811 57856213.056335449 0 0 0 0 902846695.19842863 -531479300.08546448 0 -531479300.08546448 296761838.66970825 0 0 0 0 114068773.31997299 -267150687.17684174 0 -267150687.17684174 715603251.82745361 0 0 0 0 96155281.322303772 -386598904.51126099 0 -386598904.51126099 639412306.85502625 0 0 0 0 -147892956.11259842 -163692496.74227142 0 -163692496.74227142 539441949.05508423 0 0 0 0 -154166029.58224678 -235737373.01200104 0 -235737373.01200104 553680194.86216736 0 0 0 0 -360524444.3672806 -261517587.73765051 0 -261517587.73765051 743366633.69410706 0 0 0 0 -353091204.66458035 78078366.22592926 0 78078366.22592926 458263730.26446533 0 0 0 0 619601.91162661707 328389745.805112 0 328389745.805112 705009682.3348999 0 0 0 0 81394.417354737816 1052924.6239160672 0 1052924.6239160672 2961372.1120559722 0 0 0 0 70839065.981935307 42794561.410369873 0 42794561.410369873 -262173681.69022369 0 0 0 0 -154137876.54139155 194319328.48528516 0 194319328.48528516 1313524002.2488403 0 0 0 0 -150946645.12936479 15441846.245254517 0 15441846.245254517 1723404334.5978947 0 0 0 0 151063524.28989458 483974469.62537384 0 483974469.62537384 720735506.59132385 0 0 0 0 192983709.98211226 339151781.93579578 0 339151781.93579578 -13166823.85345459 0 0 0 0 -493681612.12099433 -358269897.05158997 0 -358269897.05158997 482292602.95026016 0 0 0 0 -31286.116192217392 196301.80818688124 0 196301.80818688124 1851453.1652380526 0 0 0 0 144077925.34629071 642418684.6000061 0 642418684.6000061 616611226.85803223 0 0 0 0 260696660.18199801 264123816.20574951 0 264123816.20574951 -65943944.203598022 0 0 0 0 -95065.392238312867 554618.09483139217 0 554618.09483139217 3979376.9131890982 0 0 0 0 429571600.1025939 137235337.7430954 0 137235337.7430954 250143.9709777832 0 0 0 0 569612374.81922686 293496221.19387817 0 293496221.19387817 206627322.15660095 0 0 0 0 437607868.20591307 49232448.112747192 0 49232448.112747192 61945730.731842041 0 0 0 0 145485104.38715887 -9054640.0479431152 0 -9054640.0479431152 893809029.97192383 0 0 0 0 60047594.899712563 -19842570.722503662 0 -19842570.722503662 1147194157.9282227 0 0 0 0 133768530.18261433 42788807.531646729 0 42788807.531646729 1003824400.4314575 0 0 0 0 135094493.06163633 118958625.3231101 0 118958625.3231101 1249946188.2354736 0 0 0 0 -69197250.704064369 133058513.93740845 0 133058513.93740845 1743425713.7789001 0 0 0 0 753644151.78700566 670825619.09654999 0 670825619.09654999 966398663.75180054 0 0 0 0 204079343.58658314 135342901.69038391 0 135342901.69038391 1276901814.9009705 0 0 0 0 684330.83937167679 1431249.241392903 0 1431249.241392903 3583275.465270143 0 0 0 0 6278785.3113498688 26925645.417358398 0 26925645.417358398 -170845487.9430542 0 0 0 0 -68467856.272868156 -285383756.73095703 0 -285383756.73095703 1451103501.2695923 0 0 0 0 430084.18867778778 32402222.788482666 0 32402222.788482666 -174992931.09082031 0 0 0 0 412065.22391463816 32340236.280763149 0 32340236.280763149 -58534304.014038086 0 0 0 0 123236025.71588993 -138578426.92150879 0 -138578426.92150879 874802642.36869812 0 0 0 0 690839.24033365282 1534103.4442233592 0 1534103.4442233592 5009816.0961636044 0 0 0 0 -13831424.859046936 40834693.986480713 0 40834693.986480713 -38826026.372283936 0 0 0 0 -768485.82291603088 -91603117.550109863 0 -91603117.550109863 1010597873.9058533 0 0 0 0 -182037446.76096725 -34319412.411987305 0 -34319412.411987305 1101996254.0100098 0 0 0 0 51344874.796402931 -130669650.88763428 0 -130669650.88763428 1001556896.5055542 0 0 0 0 49696656.505589485 -167925158.056427 0 -167925158.056427 1039788953.3518066 0 0 0 0 13824156.017096519 -160742614.19015503 0 -160742614.19015503 1099251513.8354492 0 0 0 0 -9614682.9862213135 -148273128.7388916 0 -148273128.7388916 1056315652.1645508 0 0 0 0 49217688.265951157 -131680199.45819092 0 -131680199.45819092 1330300952.6293335 0 0 0 0 78886805.162720919 -311292305.15948486 0 -311292305.15948486 976562294.28115845 0 0 0 0 -13348513.265100002 -226298750.76319885 0 -226298750.76319885 1151850318.474472 0 0 0 0 -1204624.0654233149 -2005580.8891008496 0 -2005580.8891008496 2693053.0243718755 0 0 0 0 4333819.7558727264 -212868713.99871826 0 -212868713.99871826 1013097430.2342529 0 0 0 0 14291579.460449219 -148250631.53414917 0 -148250631.53414917 991328374.84750366 0 0 0 0 9000981.8094825745 -175082806.24215698 0 -175082806.24215698 1033793794.999176 0 0 0 0 45956553.934784889 -178794021.22653198 0 -178794021.22653198 986660513.0852356 0 0 0 0 46106291.566740036 -137792244.55697632 0 -137792244.55697632 1057054329.4979858 0 0 0 0 42788335.782585025 -155223140.67275238 0 -155223140.67275238 1022665341.2457275 0 0 0 0 50886322.2926054 -184597535.81164551 0 -184597535.81164551 1050584284.4095459 0 0 0 0 45018958.281136513 -154611650.00411987 0 -154611650.00411987 1040308349.0274048 0 0 0 0 49522296.067723751 -170767790.2611084 0 -170767790.2611084 1114538492.1773682 0 0 0 0 32515928.362609863 -164056824.23504639 0 -164056824.23504639 1062185407.3292847 0 0 0 0 -100865960.73112679 -125868622.51898193 0 -125868622.51898193 1120001873.8632202 0 0 0 0 31737602.748920441 -174605065.46374512 0 -174605065.46374512 1092384450.4311523 0 0 0 0 167937494.1333046 -252926523.2767334 0 -252926523.2767334 1158499846.506897 0 0 0 0 -4766776.4354276657 -264559921.734375 0 -264559921.734375 1241741152.3110352 0 0 0 0 103453226.14256287 -151966532.11608887 0 -151966532.11608887 1099371637.7634888 0 0 0 0 -31317.487322676461 -45686.011108726263 0 -45686.011108726263 75183.633668139577 0 0 0 0 232323781.06151199 -429908492.27502441 0 -429908492.27502441 1313682035.1635132 0 0 0 0 -3739513.9854860306 -176288056.78805542 0 -176288056.78805542 1114961412.9977417 0 0 0 0 44785405.498786926 -270294571.04293823 0 -270294571.04293823 1093480640.5771828 0 0 0 0 -20002899.917510986 -212257882.20657349 0 -212257882.20657349 1082799084.0210419 0 0 0 0 142363207.82508898 -87565178.787979126 0 -87565178.787979126 1054645556.6465454 0 0 0 0 106287769.64003849 -256891019.52865601 0 -256891019.52865601 1032006429.6021423 0 0 0 0 83505866.702754259 -162686381.74206543 0 -162686381.74206543 725531805.74520874 0 0 0 0 54507026.639111519 -215969929.24932861 0 -215969929.24932861 879494420.47683716 0 0 0 0 67128863.692832947 -209081087.90115356 0 -209081087.90115356 988017999.89044189 0 0 0 0 -24163306.010668278 -215302153.26480103 0 -215302153.26480103 988771583.68289185 0 0 0 0 -56219826.396852285 -159529641.12177467 0 -159529641.12177467 867805254.15270996 0 0 0 0 -30561083.919277787 -10169925.442198753 0 -10169925.442198753 722016319.28610229 0 0 0 0 83487179.462841988 -165822243.14608765 0 -165822243.14608765 697495640.58557129 0 0 0 0 182400974.40376139 113923967.1408844 0 113923967.1408844 557658408.71392822 0 0 0 0 65603840.143727303 -62481577.804595947 0 -62481577.804595947 1005133138.0516357 0 0 0 0 87865414.407919407 -91317016.636688232 0 -91317016.636688232 945978184.41137695 0 0 0 0 179859685.38754749 132003990.98373413 0 132003990.98373413 903203643.8612051 0 0 0 0 418586690.10526466 153766169.35118389 0 153766169.35118389 -3269121.3015899658 0 0 0 0 447720256.52298689 81961341.809326172 0 81961341.809326172 -179943222.19536591 0 0 0 0 354001323.66214108 107714789.21665955 0 107714789.21665955 -31859075.402038574 0 0 0 0 100157465.36527252 -145928425.08195496 0 -145928425.08195496 269344797.49336243 0 0 0 0 -254315857.77923751 -494336643.25032043 0 -494336643.25032043 465186440.2508316 0 0 0 0 -55544669.790031493 222356230.29194832 0 222356230.29194832 157012624.47007751 0 0 0 0 -425600.06967038044 199207.01239672303 0 199207.01239672303 570277.18061041832 0 0 0 0 82270429.114362001 279490405.99290466 0 279490405.99290466 -500873786.77047729 0 0 0 0 -1710825.8756595731 484705.10557730496 0 484705.10557730496 -33665.300062652677 0 0 0 0 43912043.908244491 -37810625.440563202 0 -37810625.440563202 -666899675.6370697 0 0 0 0 -86662443.299242854 343114169.90309143 0 343114169.90309143 -35783152.324508667 0 0 0 0 13916178.467962742 72689146.970451355 0 72689146.970451355 404778641.87846375 0 0 0 0 -1080290.0063018799 695890.54820558429 0 695890.54820558429 1535768.5275912806 0 0 0 0 140826332.71135855 -215952683.99655151 0 -215952683.99655151 283602903.40226364 0 0 0 0 -114141462.32733703 -257454798.9175415 0 -257454798.9175415 754533537.41563416 0 0 0 0 37417844.469675899 -118989281.2527771 0 -118989281.2527771 828178474.7701416 0 0 0 0 23619719.32104969 -260620797.25588989 0 -260620797.25588989 930290389.41967773 0 0 0 0 -42746746.044780016 -183045323.16042328 0 -183045323.16042328 1122039956.3904419 0 0 0 0 14551655.597485542 -47996129.931213379 0 -47996129.931213379 1204169422.4030457 0 0 0 0 135068630.03962326 -323846386.97527313 0 -323846386.97527313 697955347.14892578 0 0 0 0 67068399.275303364 -38830298.516540527 0 -38830298.516540527 1088610958.5727844 0 0 0 0 84327849.429214478 -345954088.24703979 0 -345954088.24703979 1109941825.7227783 0 0 0 0 -1341800.342893315 108548.48103372753 0 108548.48103372753 336601.50789675489 0 0 0 0 184472669.37551785 68118104.987030029 0 68118104.987030029 -114990711.70324707 0 0 0 0 -191469056.73421478 115481714.27671814 0 115481714.27671814 13234557.241653442 0 0 0 0 -105871414.15093708 -236433095.35527039 0 -236433095.35527039 1362050531.9792175 0 0 0 0 -1923604.9801701191 -1850435.6894797459 0 -1850435.6894797459 1593527.8393470049 0 0 0 0 -714896309.6401062 -159580747.77984619 0 -159580747.77984619 -103214688.36387634 0 0 0 0 -456997423.25336075 -29170369.024261475 0 -29170369.024261475 109828852.72613525 0 0 0 0 -225496115.49658537 -521050175.19767761 0 -521050175.19767761 -177287190.26898193 0 0 0 0 -112743025.86352921 -28807883.934173584 0 -28807883.934173584 107227042.60906982 0 0 0 0 -65288357.573665142 -11394833.136444092 0 -11394833.136444092 77056168.887573242 0 0 0 0 -156011387.7010603 36304364.561855316 0 36304364.561855316 100814729.36724854 0 0 0 0 -22445917.095199585 76436306.932434082 0 76436306.932434082 21349375.845176697 0 0 0 0 28748683.141921997 -9494880.0497207642 0 -9494880.0497207642 113442741.30657959 0 0 0 0 2767984.4901046753 101823425.55911255 0 101823425.55911255 103085281.84320068 0 0 0 0 -31612907.269822121 52992964.438446045 0 52992964.438446045 33814348.206756592 0 0 0 0 -9094242.7071018219 44217860.136276245 0 44217860.136276245 34687777.992198944 0 0 0 0 -50047317.355072975 53492893.993530273 0 53492893.993530273 101714818.71109867 0 0 0 0 -32787223.725129128 20299579.417541504 0 20299579.417541504 13409358.571838379 0 0 0 0 -958139.67021560669 24624702.774749756 0 24624702.774749756 -2780179.6570587158 0 0 0 0 -34621216.604546547 21130851.55960083 0 21130851.55960083 42020334.631892681 0 0 0 0 -21174095.721909285 7935283.0737199783 0 7935283.0737199783 12994296.657348633 0 0 0 0 -3014212.9248000495 2394089.9112281166 0 2394089.9112281166 12547112.81362009 0 0 0 0 -74613999.098967075 10473687.049762726 0 10473687.049762726 41448437.917419434 0 0 0 0 -20534402.109956264 2859803.1371231079 0 2859803.1371231079 44708489.368591309 0 0 0 0 4421696.6936023235 10430775.024673462 0 10430775.024673462 21876727.668609619 0 0 0 0 7557664.4825925827 9744818.4964599609 0 9744818.4964599609 2224122.0353240967 0 0 0 0 -8140162.7069797516 15765839.645782471 0 15765839.645782471 5565719.8384933472 0 0 0 0 -1781856.040843897 3298635.5457558334 0 3298635.5457558334 3218274.8334088176 0 0 0 0 -73402757.55832386 1310174.1832427979 0 1310174.1832427979 19531165.51763916 0 0 0 0 -40577759.711482048 12297123.042831421 0 12297123.042831421 14824979.318023682 0 0 0 0 -17839393.413961649 -152296863.66358566 0 -152296863.66358566 8298315.5811767578 0 0 0 0 -3171387.7883761143 2209511.1010205299 0 2209511.1010205299 12530080.940996706 0 0 0 0 30983225.42526722 -26646665.634124756 0 -26646665.634124756 22390432.014343262 0 0 0 0 -1261922.4937664308 859257.17368722335 0 859257.17368722335 2445677.5927646756 0 0 0 0 270789787.3665905 111952655.77249146 0 111952655.77249146 63345954.534561157 0 0 0 0 274980161.31956673 41279474.973983765 0 41279474.973983765 4671783.4887390137 0 0 0 0 268649239.31997967 -93599566.719650269 0 -93599566.719650269 -18880627.385368347 0 0 0 0 -94502747.632049561 -279577537.25802612 0 -279577537.25802612 -34692051.981262207 0 0 0 0 221802541.94002724 -266884482.87408447 0 -266884482.87408447 -360134685.21730042 0 0 0 0 439407683.80994415 -31609544.704528809 0 -31609544.704528809 -237756663.65844727 0 0 0 0 -1508695.9503207891 3350933.2601552829 0 3350933.2601552829 9405178.5338648707 0 0 0 0 -2827021.6094651222 5650672.8903961182 0 5650672.8903961182 23937534.006591797 0 0 0 0 -14752520.452275276 7033767.8400421143 0 7033767.8400421143 254841.81677246094 0 0 0 0 -17880126.652215242 26902000.695281982 0 26902000.695281982 -18302190.481689453 0 0 0 0 -33969584.027084351 46998350.89932251 0 46998350.89932251 2149296.1197052002 0 0 0 0 -54972397.678925037 59533327.152008057 0 59533327.152008057 12113350.006896973 0 0 0 0 -54125208.450683594 52140096.082489014 0 52140096.082489014 7734044.2915344238 0 0 0 0 -51319823.621216774 32330543.851638794 0 32330543.851638794 10293805.438577652 0 0 0 0 -29824540.082437038 30012384.182952881 0 30012384.182952881 10509431.462879181 0 0 0 0 -17538714.481352568 29129693.791732788 0 29129693.791732788 -25813190.518310547 0 0 0 0 -18699597.134451866 41486289.815307617 0 41486289.815307617 -38912834.947052002 0 0 0 0 -35323613.409078836 42202121.874984741 0 42202121.874984741 -14760792.43548584 0 0 0 0 -15391365.038433552 51556606.081451416 0 51556606.081451416 -22895760.992370605 0 0 0 0 -38650679.250259161 61133063.657409668 0 61133063.657409668 -23234125.346252441 0 0 0 0 -30055532.561974287 100856513.90518188 0 100856513.90518188 -69665616.075378418 0 0 0 0 -23570562.838615894 77054502.441589355 0 77054502.441589355 -60031725.036821365 0 0 0 0 -23990002.604732931 73449853.137422562 0 73449853.137422562 5018670.9450683594 0 0 0 0 -33914716.777253985 81705874.795501709 0 81705874.795501709 -15349245.827148438 0 0 0 0 -34138182.63997364 68625111.758636475 0 68625111.758636475 -4697640.7870178223 0 0 0 0 -38077684.741378069 72264338.601074219 0 72264338.601074219 8138322.8170166016 0 0 0 0 -26747292.991162539 85728553.793960571 0 85728553.793960571 11166759.410049438 0 0 0 0 -48966821.414900064 75232098.252593994 0 75232098.252593994 41507132.684112549 0 0 0 0 -13143967.88829267 79516070.078308105 0 79516070.078308105 31940378.140625 0 0 0 0 -69759973.597685337 54242476.777450562 0 54242476.777450562 40671176.66104126 0 0 0 0 -66193389.658664942 18597836.464584351 0 18597836.464584351 53124440.78994751 0 0 0 0 -70006688.723048404 37269017.117166162 0 37269017.117166162 29570769.278167725 0 0 0 0 -49870571.492231607 37341492.128540039 0 37341492.128540039 25537647.930419922 0 0 0 0 -191534441.75489712 -72147992.378456116 0 -72147992.378456116 5874821.528503418 0 0 0 0 301591.40310057718 1245744.7359164357 0 1245744.7359164357 475199.25816014409 0 0 0 0 -3302303.2868509293 59429612.907531738 0 59429612.907531738 273021630.65965271 0 0 0 0 49344454.467997551 24263106.214111328 0 24263106.214111328 26071978.973823547 0 0 0 0 429051.13760358887 233561.92344470322 0 233561.92344470322 -100935.69251690805 0 0 0 0 -82803050.679865241 -380570868.54026794 0 -380570868.54026794 6458704.1479301453 0 0 0 0 -18141621.118396878 6628387.8035736084 0 6628387.8035736084 -36499040.343717575 0 0 0 0 -161705193.82213342 50499739.91491127 0 50499739.91491127 124603713.99176025 0 0 0 0 136588523.67484668 62876674.372817993 0 62876674.372817993 119433401.1632843 0 0 0 0 -24921402.769250736 -34313071.916410446 0 -34313071.916410446 339525617.4659729 0 0 0 0 307504895.08243567 -228551224.64797974 0 -228551224.64797974 218242762.73374176 0 0 0 0 344009266.11672455 -570675411.48259735 0 -570675411.48259735 686427697.05249405 0 0 0 0 -288599.11395867972 -293240.33599735796 0 -293240.33599735796 1851319.6218027771 0 0 0 0 58145761.291544244 -104604928.47575378 0 -104604928.47575378 560021875.22380066 0 0 0 0 2194306.3794282456 89700724.569389343 0 89700724.569389343 186880213.5335083 0 0 0 0 84839310.171458483 -56454439.722915649 0 -56454439.722915649 191794330.41322517 0 0 0 0 85502.469009184439 74609912.320907593 0 74609912.320907593 71750629.630706787 0 0 0 0 166855.40490707537 99954.005370877683 0 99954.005370877683 -140978.38988766074 0 0 0 0 54118767.226503849 75140826.716262817 0 75140826.716262817 21006269.728729248 0 0 0 0 -11373773.542043246 42659052.03154254 0 42659052.03154254 125703651.01901245 0 0 0 0 125998.1420674886 70759.483456201851 0 70759.483456201851 -154243.23031452298 0 0 0 0 -12930999.954481348 55837518.172161102 0 55837518.172161102 17955749.839141846 0 0 0 0 22577127.062641606 101104672.38272858 0 101104672.38272858 -128835576.51195145 0 0 0 0 46229461.128489763 -24207906.423936844 0 -24207906.423936844 -121597119.55749512 0 0 0 0 -90056.096611910878 65687279.599853516 0 65687279.599853516 -109162516.66760254 0 0 0 0 -17207752.593012318 -15873875.747779846 0 -15873875.747779846 35746635.666351318 0 0 0 0 978322.01415140927 -83093499.325042725 0 -83093499.325042725 96042213.583595276 0 0 0 0 208779.0786255899 -475769.31045352668 0 -475769.31045352668 1278811.3272699416 0 0 0 0 33980848.735671967 -36203164.801635742 0 -36203164.801635742 88433168.645324707 0 0 0 0 2131376.2791332304 -9804378.824508667 0 -9804378.824508667 24877590.603027344 0 0 0 0 -7883190.8688773811 -5724503.7805328369 0 -5724503.7805328369 26585478.322822571 0 0 0 0 -47236.607518427714 909.23840823024511 0 909.23840823024511 96752.413649171591 0 0 0 0 -4293736.5486422926 1834422.744354248 0 1834422.744354248 13141742.260818481 0 0 0 0 -7772326.4573114961 -3902296.3954162598 0 -3902296.3954162598 3726267.7331390381 0 0 0 0 7428408.9716931358 -32689777.143058777 0 -32689777.143058777 47573954.183624268 0 0 0 0 -73520.157285426831 -8297.4692967310548 0 -8297.4692967310548 135062.62541046739 0 0 0 0 123649.03212787959 32241210.307395935 0 32241210.307395935 39781523.564525604 0 0 0 0 -11685331.663265154 6607180.5992889404 0 6607180.5992889404 -17631853.892627716 0 0 0 0 51645.841616856895 33475060.043178163 0 33475060.043178163 24282817.81072998 0 0 0 0 -40752.112530551058 26476432.046305515 0 26476432.046305515 -27201688.223571777 0 0 0 0 -13197068.067498598 40801635.650578499 0 40801635.650578499 -20147216.066726685 0 0 0 0 -181369.73350779276 335413.90440440923 0 335413.90440440923 3083037.2188732922 0 0 0 0 182943855.71007037 -185992804.16567159 0 -185992804.16567159 362244606.65982056 0 0 0 0 176437299.48489523 -511133205.26039124 0 -511133205.26039124 509968715.45454407 0 0 0 0 -27912628.584276915 -181950234.15090942 0 -181950234.15090942 470560789.73922729 0 0 0 0 108976472.30204725 -223185933.69766235 0 -223185933.69766235 345331374.40813065 0 0 0 0 112857936.58528519 -205383697.71617889 0 -205383697.71617889 397986009.59378815 0 0 0 0 418198.42405699281 1119729.78366483 0 1119729.78366483 4713517.8752229661 0 0 0 0 -23553999.240414679 3428501.6092224121 0 3428501.6092224121 12375510.71774292 0 0 0 0 -22823035.435878307 29901518.519859314 0 29901518.519859314 -7239589.3254852295 0 0 0 0 1059846.9481932819 -1398895.377204895 0 -1398895.377204895 9205479.5241394043 0 0 0 0 -13561447.790070087 -3946482.0960540771 0 -3946482.0960540771 29400411.129928589 0 0 0 0 -455081.89149603248 7970947.0379180908 0 7970947.0379180908 37403382.835983276 0 0 0 0 2302831.1055494547 3005012.4897003174 0 3005012.4897003174 -598162.77676391602 0 0 0 0 -19785580.015098661 13983189.105529785 0 13983189.105529785 19132981.630371094 0 0 0 0 20564259.468710423 -118759826.42824554 0 -118759826.42824554 268361275.50276184 0 0 0 0 1483443.0825131659 1544402.1846300066 0 1544402.1846300066 6607946.0734674633 0 0 0 0 35901203.575658798 -134114783.39084625 0 -134114783.39084625 221373709.68054199 0 0 0 0 85532935.095851421 -142025560.48356628 0 -142025560.48356628 272823219.4652195 0 0 0 0 -91636.404866327066 581271.12411521375 0 581271.12411521375 932277.3239739202 0 0 0 0 98146677.967857778 -260169010.97996521 0 -260169010.97996521 559912929.77485657 0 0 0 0 38539546.803329945 -50571906.50655365 0 -50571906.50655365 -71872950.762161255 0 0 0 0 -18324835.333325863 -8503814.17137146 0 -8503814.17137146 77470794.359733582 0 0 0 0 -18850451.475489855 -15114014.915630341 0 -15114014.915630341 16598989.668212891 0 0 0 0 -81678.537455840968 1129832.1872702315 0 1129832.1872702315 2800022.342567876 0 0 0 0 -7784073.2565231323 -14204579.477745056 0 -14204579.477745056 4065198.7381134033 0 0 0 0 18160228.801732063 -201883060.12936783 0 -201883060.12936783 370287745.08778381 0 0 0 0 -5485217.9579143524 -620044.26055908203 0 -620044.26055908203 14179434.50390625 0 0 0 0 176125195.42792416 -76779493.131195068 0 -76779493.131195068 49462953.335495949 0 0 0 0 210118.33148608729 1596998.6689320207 0 1596998.6689320207 5371268.9804158872 0 0 0 0 -29351.936050415039 -3458756.4864425659 0 -3458756.4864425659 15652903.062103271 0 0 0 0 -7271198.7666339874 -2388677.7330322266 0 -2388677.7330322266 18481820.081680298 0 0 0 0 -6460772.8955078125 20978044.932044983 0 20978044.932044983 -4117131.5717353821 0 0 0 0 -6036053.6145348549 443215.06774139404 0 443215.06774139404 15925533.213623047 0 0 0 0 -3069598.3138720863 2892144.9954158664 0 2892144.9954158664 12186792.465465009 0 0 0 0 -5794791.1683809757 16241934.145422935 0 16241934.145422935 -6690339.7874450684 0 0 0 0 19767488.015759468 -4630613.199180603 0 -4630613.199180603 4638504.4244384766 0 0 0 0 -162772495.52847099 85887214.790588379 0 85887214.790588379 -670731046.90393066 0 0 0 0 -7073857.2353647836 1179657.3720458522 0 1179657.3720458522 13976001.140503243 0 0 0 0 -250684960.45789146 203875334.06120491 0 203875334.06120491 255280590.36306763 0 0 0 0 -402947.95454829512 986224.47311702371 0 986224.47311702371 1591641.6221832037 0 0 0 0 -120157362.06210601 -311614473.47950363 0 -311614473.47950363 116238032.77886963 0 0 0 0 559927357.54872608 410052618.0071907 0 410052618.0071907 217326374.04223633 0 0 0 0 137754592.28362098 382680629.82223034 0 382680629.82223034 245122919.82614136 0 0 0 0 -73961111.42091918 -183396444.42300606 0 -183396444.42300606 915152402.30975342 0 0 0 0 700081713.05335617 -474482251.99935913 0 -474482251.99935913 202616181.01619339 0 0 0 0 110303475.06634113 -458805604.96821094 0 -458805604.96821094 209797857.54449463 0 0 0 0 17017600.968502998 -189733119.04078674 0 -189733119.04078674 337703134.67988586 0 0 0 0 -47755329.677530289 -154468524.69407654 0 -154468524.69407654 339767636.36794949 0 0 0 0 -72462203.166215658 -197093751.86363411 0 -197093751.86363411 487101504.11050415 0 0 0 0 20446045.110532761 168856903.57046509 0 168856903.57046509 342452288.80215454 0 0 0 0 2037284.7034022603 -829673.36983270571 0 -829673.36983270571 116844.57721146941 0 0 0 0 483298438.29357147 -321307853.0362854 0 -321307853.0362854 109931451.94332886 0 0 0 0 18232998.264802933 179836839.91317749 0 179836839.91317749 727817397.25887299 0 0 0 0 105987592.74837875 57684304.516952515 0 57684304.516952515 -30020730.054077148 0 0 0 0 14563938.927009583 -403473.67897033691 0 -403473.67897033691 71011516.855041504 0 0 0 0 51048865.639932632 34522413.564468384 0 34522413.564468384 100564989.18870544 0 0 0 0 16268784.493309975 -29149978.378746033 0 -29149978.378746033 54833484.652786255 0 0 0 0 10731161.595721245 -18198960.244750977 0 -18198960.244750977 9346811.733581543 0 0 0 0 5130549.1822204664 -1899040.9064871594 0 -1899040.9064871594 996686.03849539161 0 0 0 0 3013087.7491111639 -5488260.9430944473 0 -5488260.9430944473 12529233.237674251 0 0 0 0 2053065.8197393417 -5006292.2975387573 0 -5006292.2975387573 18717373.151016235 0 0 0 0 34245326.820718765 -30612992.076646805 0 -30612992.076646805 -50944140.582366943 0 0 0 0 43449400.725619316 2632431.6877441406 0 2632431.6877441406 11670020.780208588 0 0 0 0 -1013805.5054479837 -5917533.5815696716 0 -5917533.5815696716 29003571.537155151 0 0 0 0 -229602.36258482933 -6307994.8350563049 0 -6307994.8350563049 29052654.823486328 0 0 0 0 -516459.31025204074 4273154.5150580555 0 4273154.5150580555 27158704.322352536 0 0 0 0 -527407.10073381662 -1313858.2342529297 0 -1313858.2342529297 53576177.399940491 0 0 0 0 -4606278.3420271873 -576475.45182800293 0 -576475.45182800293 46060469.343780518 0 0 0 0 1522979.1068406701 1551241.2799072266 0 1551241.2799072266 32353970.333946228 0 0 0 0 3465760.8666851521 -9379630.9840774536 0 -9379630.9840774536 21503626.740997314 0 0 0 0 5498688.4113149643 -6900272.3382110596 0 -6900272.3382110596 18750002.554229736 0 0 0 0 -731679.31248004048 2732395.9164601192 0 2732395.9164601192 18657670.080070563 0 0 0 0 -3091284.5460636616 9675491.2082519531 0 9675491.2082519531 42898236.702941895 0 0 0 0 1729121.076484859 22420686.114658356 0 22420686.114658356 65045050.453582764 0 0 0 0 -5486775.8460018635 -14375019.696853638 0 -14375019.696853638 53679443.408752441 0 0 0 0 -921013.91333187709 -1061372.9228992388 0 -1061372.9228992388 8191138.1376733631 0 0 0 0 -7904725.2207545638 5435811.7358551025 0 5435811.7358551025 22692391.995788574 0 0 0 0 6969177.4747451842 -15017213.85294342 0 -15017213.85294342 29581529.484344482 0 0 0 0 -2018825.2036361098 1756016.2282972261 0 1756016.2282972261 3523760.7903597951 0 0 0 0 -3062617.4043177068 -8004490.7640914917 0 -8004490.7640914917 23570260.424682617 0 0 0 0 2719992.9832122326 -7698372.277557373 0 -7698372.277557373 21912639.138687134 0 0 0 0 2106402.2220560284 -4800016.6009613499 0 -4800016.6009613499 13745487.995696515 0 0 0 0 1430509.3237121105 -7643648.027545929 0 -7643648.027545929 20876242.48197937 0 0 0 0 -1443022.6238234043 -4888391.1149368286 0 -4888391.1149368286 19644952.562255859 0 0 0 0 29316740.844962597 30061322.428489685 0 30061322.428489685 90895410.239974976 0 0 0 0 2298194.9578499193 1135998.6004843041 0 1135998.6004843041 9969170.3847669512 0 0 0 0 -8702083.9317854643 2857341.6610870361 0 2857341.6610870361 17572112.458007812 0 0 0 0 -8291898.267022077 -5278339.6280281544 0 -5278339.6280281544 26479172.215820312 0 0 0 0 2172359.5328421593 -4614368.3179931641 0 -4614368.3179931641 18725875.985287189 0 0 0 0 -8058631.7304010391 -609020.31038665771 0 -609020.31038665771 36209661.936477661 0 0 0 0 11754538.804138303 -33725941.59147644 0 -33725941.59147644 69739998.128814697 0 0 0 0 -10853899.025211185 -3563837.7520532608 0 -3563837.7520532608 37681151.628601074 0 0 0 0 234553.00203136393 -901275.63351536542 0 -901275.63351536542 3685018.8339959607 0 0 0 0 2558099.5210363865 -20253760.737121582 0 -20253760.737121582 42725613.014461517 0 0 0 0 -6745314.6171134114 13176294.449874878 0 13176294.449874878 10857589.421646118 0 0 0 0 -5742107.9401700329 -9484065.9733190536 0 -9484065.9733190536 42441904.009277344 0 0 0 0 -11542034.766319752 -3938937.3635864258 0 -3938937.3635864258 63862843.565170288 0 0 0 0 -7491409.3335102648 -4546013.6807746887 0 -4546013.6807746887 44300505.002929688 0 0 0 0 16757.29137425877 125140.08815848082 0 125140.08815848082 135684.87009287626 0 0 0 0 -12025604.799561905 -8324022.6701545715 0 -8324022.6701545715 74204621.260192871 0 0 0 0 2540451.5740420632 2085457.6601638794 0 2085457.6601638794 40051720.183639526 0 0 0 0 -5968315.1385079399 -20224353.909194946 0 -20224353.909194946 103769666.26583099 0 0 0 0 9655.2996648471435 -856731.31689453125 0 -856731.31689453125 29096208.822174072 0 0 0 0 8844411.9994037524 4275677.2088012695 0 4275677.2088012695 9887179.1182250977 0 0 0 0 111.34810782230306 46675.413481876254 0 46675.413481876254 59283.62727047503 0 0 0 0 -12116462.274891201 8458671.2443847656 0 8458671.2443847656 60027416.296020508 0 0 0 0 9645.0157043712097 -12188846.87436676 0 -12188846.87436676 86517366.325027466 0 0 0 0 3907441.1368228737 16014194.842712402 0 16014194.842712402 36870924.851608276 0 0 0 0 -3285775.7309167348 -5611710.9539337158 0 -5611710.9539337158 18421358.706306458 0 0 0 0 214570.94821195677 19131336.910903931 0 19131336.910903931 -9183403.9690856934 0 0 0 0 3940094.4774808288 -26128535.467224121 0 -26128535.467224121 91929754.5546875 0 0 0 0 292374.22196221031 -592767.2276737988 0 -592767.2276737988 1946752.3409195468 0 0 0 0 7631.8591480052819 14591142.2841726 0 14591142.2841726 -17932962.487091064 0 0 0 0 -136901571.63044548 -48152939.482589722 0 -48152939.482589722 113642241.85243225 0 0 0 0 48468016.507760048 -6770091.8403015137 0 -6770091.8403015137 -26094876.647636414 0 0 0 0 -141209934.0546183 -175195496.76249075 0 -175195496.76249075 9829539.6378936768 0 0 0 0 13924875.153872767 -19162572.684364088 0 -19162572.684364088 20018545.724613205 0 0 0 0 13638582.879165649 19370639.699005127 0 19370639.699005127 -15179511.649064064 0 0 0 0 -63256823.659324646 57279115.545288086 0 57279115.545288086 190379629.11420441 0 0 0 0 -65882318.449026108 38207899.972824097 0 38207899.972824097 221966674.03887177 0 0 0 0 -1829062.6949577332 32633073.151000977 0 32633073.151000977 72797685.420341492 0 0 0 0 19045142.648421288 -16225466.458763123 0 -16225466.458763123 150830121.81034851 0 0 0 0 1877241.6597948519 3125573.4480145425 0 3125573.4480145425 98294.610949378461 0 0 0 0 26932751.895266593 42147609.456636906 0 42147609.456636906 317387133.03759003 0 0 0 0 275523042.531106 -51568461.179244995 0 -51568461.179244995 -3113826.0375976562 0 0 0 0 119971118.06535602 -130547575.82405853 0 -130547575.82405853 188120709.64554214 0 0 0 0 111395031.68395591 52038497.291248322 0 52038497.291248322 -36161811.430984497 0 0 0 0 257235036.75866318 -104940938.45207977 0 -104940938.45207977 619762.83707952499 0 0 0 0 377454301.71348786 -364700239.08757448 0 -364700239.08757448 199575914.1680603 0 0 0 0 225940542.9525795 -102451176.60419846 0 -102451176.60419846 60504177.11289978 0 0 0 0 413417629.12587935 -164915104.6986618 0 -164915104.6986618 -107492973.42202759 0 0 0 0 286414335.42977142 112304635.91183853 0 112304635.91183853 175569184.81904602 0 0 0 0 352246502.08502293 340993930.51269531 0 340993930.51269531 262369906.03964233 0 0 0 0 12134858.100127498 -13974704.350159854 0 -13974704.350159854 13440079.649231687 0 0 0 0 -92200417.401182652 -168365204.77753258 0 -168365204.77753258 -28458121.761062622 0 0 0 0 280892162.32342768 1079207.3525400162 0 1079207.3525400162 55921394.882400513 0 0 0 0 -57316706.713062286 72385457.579292297 0 72385457.579292297 264074229.12777328 0 0 0 0 -74618104.02498734 -17120811.271810532 0 -17120811.271810532 63239998.452850342 0 0 0 0 -416571080.1843586 -24057893.979179382 0 -24057893.979179382 127282594.87236786 0 0 0 0 128625495.54892159 156092512.04627991 0 156092512.04627991 -311597403.10527039 0 0 0 0 49717932.430831909 144603568.84124756 0 144603568.84124756 242764873.05900574 0 0 0 0 -1947753.3427169365 3746033.1131110787 0 3746033.1131110787 2195046.2950297445 0 0 0 0 -54295513.819564819 9274881.1628723145 0 9274881.1628723145 10049698.518249512 0 0 0 0 -58456279.654752731 14718676.873031616 0 14718676.873031616 27197332.116378784 0 0 0 0 -47983260.987181664 26134831.823799133 0 26134831.823799133 19781945.182907104 0 0 0 0 -227790005.03743315 185541556.16350937 0 185541556.16350937 -93551148.107086182 0 0 0 0 -1005550.4131813627 -14559.21933400631 0 -14559.21933400631 1027476.7985326983 0 0 0 0 -3199771.514011764 1295104.8317967057 0 1295104.8317967057 3907436.2467470542 0 0 0 0 -49952262.676868439 18880845.072799683 0 18880845.072799683 5662674.4904975891 0 0 0 0 -44086692.325601578 -5466099.8690414429 0 -5466099.8690414429 12832154.291620255 0 0 0 0 -94261.389930003323 3921914.8627756499 0 3921914.8627756499 7678508.596740365 0 0 0 0 -34858946.632160187 -83543956.451751709 0 -83543956.451751709 -111679231.59112167 0 0 0 0 8445779.0500259399 -24573370.272323608 0 -24573370.272323608 -38929121.352745056 0 0 0 0 -5265690.7452354431 -32362714.230926514 0 -32362714.230926514 -33389596.112457275 0 0 0 0 50661866.185031891 136316466.70100403 0 136316466.70100403 104222591.20053101 0 0 0 0 -202820269.918993 83749391.191772461 0 83749391.191772461 229967367.01373291 0 0 0 0 13751263.009729385 232992921.49746704 0 232992921.49746704 218890597.90420532 0 0 0 0 37857435.34270668 321761762.68833923 0 321761762.68833923 447587709.99597168 0 0 0 0 -82198.957887991332 1278983.8728096262 0 1278983.8728096262 3063627.394169718 0 0 0 0 39363334.928730011 -501161983.1822052 0 -501161983.1822052 534757034.45066452 0 0 0 0 83491599.356581688 -611407333.54233551 0 -611407333.54233551 771992146.67788696 0 0 0 0 436461566.75933266 352460229.2225647 0 352460229.2225647 39152894.784233093 0 0 0 0 -676899475.51723289 40296888.184143066 0 40296888.184143066 172892690.41654968 0 0 0 0 -118287885.75453949 120874614.72154236 0 120874614.72154236 156467568.00836563 0 0 0 0 -106728713.17827034 173939682.98294067 0 173939682.98294067 310846859.429492 0 0 0 0 -240066570.93398285 114088251.77928162 0 114088251.77928162 595669722.11846924 0 0 0 0 16244328.922714323 -25787279.358409636 0 -25787279.358409636 24900321.500183165 0 0 0 0 -211347722.27654457 97629804.124664307 0 97629804.124664307 318419914.33042908 0 0 0 0 -9034574.210825555 -1618088.2341463007 0 -1618088.2341463007 14793255.561658662 0 0 0 0 -80252122.089540482 -55964450.640274048 0 -55964450.640274048 3746262.9615631104 0 0 0 0 -92143452.574825287 -52287700.636405945 0 -52287700.636405945 96972683.303848267 0 0 0 0 8561202.6733610928 -17141859.730007004 0 -17141859.730007004 12486692.083887141 0 0 0 0 -178838319.15941334 62584522.945827484 0 62584522.945827484 286921377.28652954 0 0 0 0 -116610829.85745621 -59710955.178100586 0 -59710955.178100586 53888231.404205322 0 0 0 0 1466495.380153656 -5268566.6402893066 0 -5268566.6402893066 889743.05226135254 0 0 0 0 20673414.566361427 -10982433.530006409 0 -10982433.530006409 22877441.342834473 0 0 0 0 -412798.8938483838 -5653026.4764426276 0 -5653026.4764426276 17449164.967900723 0 0 0 0 7017235.1902236938 -24225698.720954895 0 -24225698.720954895 40124483.108528137 0 0 0 0 6850837.8957087854 -7761246.2037454247 0 -7761246.2037454247 14007300.710102111 0 0 0 0 -25184181.24071312 -52249877.170753479 0 -52249877.170753479 38365077.782279968 0 0 0 0 -91497113.526617527 43937393.057434082 0 43937393.057434082 56850923.902053833 0 0 0 0 -403498125.10486794 -3478853.778793335 0 -3478853.778793335 1084504553.546875 0 0 0 0 -94273589.075119019 35327566.874511719 0 35327566.874511719 124227984.51022339 0 0 0 0 172967723.03801823 -137925950.11009216 0 -137925950.11009216 171150450.91714478 0 0 0 0 347575587.00819969 -189725243.23893738 0 -189725243.23893738 -883318099.36587524 0 0 0 0 285296609.53027344 -756978753.11578369 0 -756978753.11578369 -84406555.401596069 0 0 0 0 560686815.58996582 932026152.32501221 0 932026152.32501221 115239729.39752054 0 0 0 0 -1205572388.0986176 -75652135.701156616 0 -75652135.701156616 203317909.22055054 0 0 0 0 -289390085.5856781 359262138.5177002 0 359262138.5177002 -2050436622.9883728 0 0 0 0 -273437.35865501128 -351418.25875237584 0 -351418.25875237584 1257942.658349067 0 0 0 0 3035007.1416854858 957625471.45782471 0 957625471.45782471 115373462.77793241 0 0 0 0 2100240012.5612831 -312974775.04629517 0 -312974775.04629517 215224861.62390137 0 0 0 0 -274350774.51544189 -53006870.185592651 0 -53006870.185592651 1983220495.7979126 0 0 0 0 -259106797.9566803 -128245663.37207031 0 -128245663.37207031 320010797.70654297 0 0 0 0 -91335943.871980667 -308076444.94471741 0 -308076444.94471741 -741223918.82429504 0 0 0 0 -3097919.6454291344 -2863593.113698557 0 -2863593.113698557 21483716.695142373 0 0 0 0 -4685709.6611557007 -7223906.9183044434 0 -7223906.9183044434 51263406.55368042 0 0 0 0 -10211825.572341919 -48402704.471801758 0 -48402704.471801758 57906848.661754608 0 0 0 0 9913415.9369544983 -48641334.308853149 0 -48641334.308853149 50158429.41885376 0 0 0 0 11371414.813146126 -20441014.353036489 0 -20441014.353036489 34716856.790270418 0 0 0 0 -15427994.847747803 -51999783.479019165 0 -51999783.479019165 112556102.32391357 0 0 0 0 -2930669.4673528671 2439549.8406562805 0 2439549.8406562805 99467906.243225098 0 0 0 0 27830995.780031204 -70190173.214447021 0 -70190173.214447021 41208557.867538452 0 0 0 0 -27398384.428096771 -13001414.557594299 0 -13001414.557594299 203432416.6859436 0 0 0 0 -2708339.7908066995 -4039634.8184136376 0 -4039634.8184136376 8988131.5242893398 0 0 0 0 13310671.19789505 -84904352.773422241 0 -84904352.773422241 133781866.0284729 0 0 0 0 12828765.708547592 -37469329.460487366 0 -37469329.460487366 65617015.698852539 0 0 0 0 5164153.0776666077 -7193911.6960560717 0 -7193911.6960560717 16306534.52166003 0 0 0 0 15591823.89956665 -22787529.705657959 0 -22787529.705657959 23261282.175674438 0 0 0 0 24243851.81092453 -30731756.439559937 0 -30731756.439559937 18350425.4347229 0 0 0 0 -565877.69966506958 -5107133.1363105774 0 -5107133.1363105774 28369525.100952148 0 0 0 0 22513827.144607544 -56959025.700897217 0 -56959025.700897217 61074535.503787994 0 0 0 0 10758284.114713669 -33318247.924087524 0 -33318247.924087524 39375966.471191406 0 0 0 0 -1276717.8779988745 -11649344.172525171 0 -11649344.172525171 26631396.589710779 0 0 0 0 -1095610.2393722534 -16953038.467041016 0 -16953038.467041016 36874281.320510864 0 0 0 0 5867546.365236029 -6642828.8497435041 0 -6642828.8497435041 27511673.258832432 0 0 0 0 -19209379.304359436 -25931535.922546387 0 -25931535.922546387 38001042.874359131 0 0 0 0 -609014.87332785502 -4181157.9705902338 0 -4181157.9705902338 3435446.2472936809 0 0 0 0 53516.147783940658 -12805642.550769947 0 -12805642.550769947 29418116.630105942 0 0 0 0 -4065824.5253095627 -12780795.841663361 0 -12780795.841663361 20877315.963989258 0 0 0 0 -9593436.2789521217 -4314733.5809135437 0 -4314733.5809135437 23142516.389175415 0 0 0 0 795312.94036817551 -5499832.1426544189 0 -5499832.1426544189 28224200.453765869 0 0 0 0 -158016.81426239014 -12936093.652420044 0 -12936093.652420044 41102056.422241211 0 0 0 0 4066660.0312825721 -789348.18160494044 0 -789348.18160494044 28699759.161235899 0 0 0 0 -894355.33599887043 -2437236.5367210023 0 -2437236.5367210023 8979016.4580148011 0 0 0 0 12527695.972596169 -33883955.945636749 0 -33883955.945636749 56608576.991760254 0 0 0 0 16929321.444522858 -31176751.664863586 0 -31176751.664863586 43384871.878173828 0 0 0 0 8535689.7410640717 -20627252.244628906 0 -20627252.244628906 38117996.231147766 0 0 0 0 4201293.5351600647 -23871605.209156036 0 -23871605.209156036 38917254.420059204 0 0 0 0 8338442.1335964203 -22062027.413455963 0 -22062027.413455963 37483271.61529541 0 0 0 0 2112270.9423789978 -13601921.922271729 0 -13601921.922271729 29845298.942131042 0 0 0 0 -7747422.1504840851 -8193448.6286392212 0 -8193448.6286392212 35297637.273025513 0 0 0 0 7220683.3725528717 -21685082.121749878 0 -21685082.121749878 36115836.698745728 0 0 0 0 15737313.027112484 -27072550.629083633 0 -27072550.629083633 40759032.612121582 0 0 0 0 7985780.6405696869 -19042259.150989532 0 -19042259.150989532 42910871.352310181 0 0 0 0 6841902.2931394577 -47436820.540245056 0 -47436820.540245056 64843125.485187531 0 0 0 0 19676992.763786316 -22232215.915779114 0 -22232215.915779114 45992850.377487183 0 0 0 0 -109768101.43804836 -15863459.737968445 0 -15863459.737968445 62787613.658893585 0 0 0 0 -678195.7675914811 -498819.24414780736 0 -498819.24414780736 3062103.1857065037 0 0 0 0 -70559900.066723824 90791878.978424072 0 90791878.978424072 -20003856.438690186 0 0 0 0 -70174871.69231987 53223321.584602356 0 53223321.584602356 49056238.737388611 0 0 0 0 -66348519.518233061 61017840.423301697 0 61017840.423301697 55361447.128051758 0 0 0 0 -78142093.771062851 55846564.353187561 0 55846564.353187561 66842104.59992218 0 0 0 0 -35575342.617746592 27018643.954710007 0 27018643.954710007 36867892.05229187 0 0 0 0 166543272.20560694 13053985.78502655 0 13053985.78502655 -36609917.769866943 0 0 0 0 -34705.609164834954 4311923.436979264 0 4311923.436979264 3958212.8732947186 0 0 0 0 -1914224.6922417439 -1471554.2896723133 0 -1471554.2896723133 5631030.1123375297 0 0 0 0 2676701709.2467384 -866163430.99241638 0 -866163430.99241638 235307873.87028503 0 0 0 0 46010787.506183147 172408547.09523964 0 172408547.09523964 -56562279.414520264 0 0 0 0 -265786697.58835983 54314922.967964172 0 54314922.967964172 67285157.194625854 0 0 0 0 223387710.44716358 -34863894.827028275 0 -34863894.827028275 39932633.046211243 0 0 0 0 272919079.88383579 9831910.0302886963 0 9831910.0302886963 -342280328.04779816 0 0 0 0 541768036.9140923 -456200804.53645325 0 -456200804.53645325 173114116.18497086 0 0 0 0 -3185626641.1099133 -245640097.76963425 0 -245640097.76963425 1621413180.1493683 0 0 0 0 167578738.91216183 -23181210.501585007 0 -23181210.501585007 125569637.35385895 0 0 0 0 163109492.58889008 -52017060.604812622 0 -52017060.604812622 35145784.877227783 0 0 0 0 115052497.04051018 -70729236.621261597 0 -70729236.621261597 130897686.36342621 0 0 0 0 204681804.12622452 -97516158.759288788 0 -97516158.759288788 20634369.911193848 0 0 0 0 17494554.628004611 -26759143.34655571 0 -26759143.34655571 -23360902.576553345 0 0 0 0 234211507.3251667 -171792705.98171425 0 -171792705.98171425 132684061.08893919 0 0 0 0 -3325466.6751321936 -875427.07106184773 0 -875427.07106184773 14382363.659121364 0 0 0 0 -26092848.593565583 49556860.651901245 0 49556860.651901245 4720754.0539627075 0 0 0 0 101669066.70303345 -86447000.275836945 0 -86447000.275836945 77543995.668424383 0 0 0 0 4714362.5636024475 -167073570.06487274 0 -167073570.06487274 77328270.369499207 0 0 0 0 38061011.208118439 -158198479.18278122 0 -158198479.18278122 3398837.2844295502 0 0 0 0 61709889.407253265 -232868379.80413628 0 -232868379.80413628 -23419310.531684875 0 0 0 0 13532125.886714935 -184124671.93481827 0 -184124671.93481827 -40351902.109375 0 0 0 0 36594367.220829248 -175604727.69116831 0 -175604727.69116831 -61643369.967216492 0 0 0 0 -19915361.15984726 -119997909.36801529 0 -119997909.36801529 10490319.23235321 0 0 0 0 46093158.065689087 -125149609.28229523 0 -125149609.28229523 -22320203.497619629 0 0 0 0 70703392.026561737 -179631016.64691544 0 -179631016.64691544 11123111.707931519 0 0 0 0 42281262.751190186 -92094297.112987518 0 -92094297.112987518 54316430.294517517 0 0 0 0 7834419.5194511414 -154085323.25222778 0 -154085323.25222778 -120677990.8181076 0 0 0 0 -138201704.42034149 -101209722.54785156 0 -101209722.54785156 -34603530.602451324 0 0 0 0 -30568023.590957642 -158921943.90690899 0 -158921943.90690899 -18700014.323051453 0 0 0 0 -169193330.84148407 -136149842.02661514 0 -136149842.02661514 -9289849.0087890625 0 0 0 0 -162858988.60295868 -193024535.33179903 0 -193024535.33179903 -46599477.635490417 0 0 0 0 -164789705.71870422 -163587978.78474045 0 -163587978.78474045 42006901.111671448 0 0 0 0 -89878905.725876808 -162462070.13396645 0 -162462070.13396645 -2858554.8214874268 0 0 0 0 -69912475.680709839 -102672586.6096344 0 -102672586.6096344 4291219.1975727081 0 0 0 0 -29759282.035499573 -145425280.13637161 0 -145425280.13637161 39890023.987709045 0 0 0 0 5659947.598274231 -85028488.869239807 0 -85028488.869239807 50579411.066558838 0 0 0 0 -178756374.01747894 -155820203.96065521 0 -155820203.96065521 41315464.508476257 0 0 0 0 -47016556.884515762 -187571128.7795639 0 -187571128.7795639 -18812839.280319214 0 0 0 0 154714135.00766945 -95011259.032850266 0 -95011259.032850266 68732513.262260437 0 0 0 0 108080610.08622026 -118644940.60884809 0 -118644940.60884809 34371353.875244141 0 0 0 0 59357385.811981201 -112795621.75757599 0 -112795621.75757599 9979521.8722076416 0 0 0 0 54049057.680702209 -62503193.833953857 0 -62503193.833953857 70883596.016765594 0 0 0 0 107040996.64634705 -34987749.752815247 0 -34987749.752815247 112185843.23175049 0 0 0 0 244993409.06995296 -14401682.198041916 0 -14401682.198041916 71352870.840637207 0 0 0 0 103571236.16264725 -74911001.515071869 0 -74911001.515071869 70420245.156494141 0 0 0 0 89077151.071979523 -53187909.565437317 0 -53187909.565437317 95416069.691802979 0 0 0 0 89179560.507811546 -83332097.869992256 0 -83332097.869992256 36276726.443664551 0 0 0 0 30132428.640033722 -55433480.470680237 0 -55433480.470680237 97318386.974189758 0 0 0 0 -4676269.9195263833 417674.70274283364 0 417674.70274283364 4554324.5111663491 0 0 0 0 57225536.903838158 -99736390.58303833 0 -99736390.58303833 -22909281.385803223 0 0 0 0 -163012499.19503784 -156631933.33442688 0 -156631933.33442688 302128078.37882996 0 0 0 0 -8098181.4209517501 669338.40841640532 0 669338.40841640532 7964809.4044580534 0 0 0 0 133880916.41108251 -311981586.62655544 0 -311981586.62655544 344525247.41931152 0 0 0 0 -157978539.69260788 -149849003.36441803 0 -149849003.36441803 311339524.51207733 0 0 0 0 97235780.865001678 -107075361.61425018 0 -107075361.61425018 212576316.06447601 0 0 0 0 -157129211.87080383 -22906463.578460693 0 -22906463.578460693 234215081.33774948 0 0 0 0 -29236964.134391785 -271187183.45924377 0 -271187183.45924377 471761184.72341919 0 0 0 0 157339427.64677811 -218504009.01541901 0 -218504009.01541901 315577636.23959351 0 0 0 0 215677836.25236511 -402795551.73337936 0 -402795551.73337936 120220809.61318207 0 0 0 0 -7744093.6566356495 789089.59849207476 0 789089.59849207476 7927424.9353495166 0 0 0 0 228126113.18251324 -110197538.76490688 0 -110197538.76490688 80176176.042114258 0 0 0 0 -405855742.54239655 -71342451.854801178 0 -71342451.854801178 134396096.69927979 0 0 0 0 -482695534.13172913 101500871.01225281 0 101500871.01225281 60741958.025723934 0 0 0 0 2819402.649651289 -7296498.440361578 0 -7296498.440361578 9202448.2182305828 0 0 0 0 104552355.6229248 -91248585.637084961 0 -91248585.637084961 94555352.155273438 0 0 0 0 -6885058.9020042419 -14623608.47077179 0 -14623608.47077179 24148606.171409607 0 0 0 0 11884905.758596784 -35174322.60934291 0 -35174322.60934291 36325986.638863645 0 0 0 0 -15300088.093170166 -12338282.354904175 0 -12338282.354904175 7935420.9801330566 0 0 0 0 -25298984.767882556 -19615350.52609235 0 -19615350.52609235 30673544.458206177 0 0 0 0 46884069.725921631 -137951621.79443359 0 -137951621.79443359 165503736.16729736 0 0 0 0 7676641.4410633165 -39729662.866234772 0 -39729662.866234772 30532562.609937131 0 0 0 0 -4685743.4051050879 1942122.8902106658 0 1942122.8902106658 3719456.147680752 0 0 0 0 -57395141.592475891 -121079282.23182678 0 -121079282.23182678 40231012.019973755 0 0 0 0 -29991189.273685455 -24681762.195514679 0 -24681762.195514679 2195594.0126495361 0 0 0 0 171454940.48697662 -106562405.00078964 0 -106562405.00078964 -16765129.240707397 0 0 0 0 -31835866.223983765 -34006006.044792175 0 -34006006.044792175 20905039.637840271 0 0 0 0 -2241444.8821318951 -9049849.5791853592 0 -9049849.5791853592 17413421.323610283 0 0 0 0 5483049.4884305671 -27049819.805046022 0 -27049819.805046022 16189442.126961991 0 0 0 0 -274152247.02529144 15814679.103233337 0 15814679.103233337 27394118.846839905 0 0 0 0 -298949078.33137512 53092266.770057678 0 53092266.770057678 184753041.52474213 0 0 0 0 -251903425.00638962 -34028476.370384216 0 -34028476.370384216 216301276.09870911 0 0 0 0 -271622640.67440796 -74768256.960746765 0 -74768256.960746765 132597258.58649635 0 0 0 0 -299730640.9052887 -27658169.923160553 0 -27658169.923160553 81459857.063232422 0 0 0 0 -306703783.54362488 -101554753.01326752 0 -101554753.01326752 166331536.28323364 0 0 0 0 -215630207.24557114 -131166356.86195946 0 -131166356.86195946 92383727.24597168 0 0 0 0 -173141306.72855377 -225875231.80963135 0 -225875231.80963135 187616592.91169357 0 0 0 0 -218609643.71647644 -148165542.96494675 0 -148165542.96494675 65570482.790489197 0 0 0 0 -208017594.99832916 -119707184.2457962 0 -119707184.2457962 60705546.24394989 0 0 0 0 -205217373.49141693 -63658194.221988678 0 -63658194.221988678 40998634.705307007 0 0 0 0 -297148936.33270264 -5544449.0381088257 0 -5544449.0381088257 56996228.490308285 0 0 0 0 -246164318.92701721 -46948276.696063995 0 -46948276.696063995 81935677.270278931 0 0 0 0 -15564452.410968781 -10188765.73384285 0 -10188765.73384285 26704558.780761719 0 0 0 0 -2680793.4987300294 -18852317.92646198 0 -18852317.92646198 31298506.308003969 0 0 0 0 -13715716.983458996 -23301848.796109438 0 -23301848.796109438 32765671.138832092 0 0 0 0 7516495.3751907349 -17538554.878479004 0 -17538554.878479004 23667948.888823509 0 0 0 0 69294.07620928064 169639.10550024733 0 169639.10550024733 -191224.0211198274 0 0 0 0 -5727188.2315368652 -7305308.9737625122 0 -7305308.9737625122 18852550.054946899 0 0 0 0 -21440938.404259026 -18005860.644261569 0 -18005860.644261569 17270815.483963013 0 0 0 0 -116763330.41753387 -90419028.473255157 0 -90419028.473255157 20900416.086662292 0 0 0 0 8620539.5683796946 -28799862.664016597 0 -28799862.664016597 26296907.921518333 0 0 0 0 -149346101.70697784 -123934177.62358475 0 -123934177.62358475 27428210.048019409 0 0 0 0 -151468932.60300446 -116838253.31776142 0 -116838253.31776142 4290561.5626907349 0 0 0 0 -129106368.43856812 -108397934.81921768 0 -108397934.81921768 3701182.8880722523 0 0 0 0 -945114470.81903124 26247678.278554231 0 26247678.278554231 -1136518718.0925369 0 0 0 0 1856988.0456767383 -5319843.8831091374 0 -5319843.8831091374 -225755.5033415854 0 0 0 0 210821399.66259384 269121434.70774746 0 269121434.70774746 -1034745388.0752029 0 0 0 0 -157888465.2692675 -655745120.41069567 0 -655745120.41069567 -494206989.3551178 0 0 0 0 1759227.797767892 -16773995.438700618 0 -16773995.438700618 32999250.413934916 0 0 0 0 -48632442.81291008 -36843676.908374786 0 -36843676.908374786 -306570939.80225945 0 0 0 0 -182036023.39429474 -154981061.32385254 0 -154981061.32385254 64186322.486457825 0 0 0 0 -187879814.71733093 -139854099.07484818 0 -139854099.07484818 38809710.636650085 0 0 0 0 -184315297.19334412 -125054959.49097443 0 -125054959.49097443 45572786.924446106 0 0 0 0 -177470897.90821075 -148095415.97216415 0 -148095415.97216415 36132110.054872513 0 0 0 0 -169743157.17980957 -148716085.03886032 0 -148716085.03886032 -1944763.2473754883 0 0 0 0 -170212120.61315918 -149878441.39838791 0 -149878441.39838791 7382526.8359985352 0 0 0 0 -198733443.26995087 -177811605.26755142 0 -177811605.26755142 3599766.6275463104 0 0 0 0 -141721008.95679474 -169450995.21634865 0 -169450995.21634865 -83382555.549621582 0 0 0 0 -126373941.9247818 -131634779.59215927 0 -131634779.59215927 -26627977.885845184 0 0 0 0 -215309994.03404427 -223276182.00884438 0 -223276182.00884438 -81426582.511749268 0 0 0 0 24281889.186202489 -26680891.381612867 0 -26680891.381612867 23094880.388932645 0 0 0 0 -1044048502.3608227 -846465636.94109678 0 -846465636.94109678 769826354.54333401 0 0 0 0 -175240658.80737305 -146851515.3964119 0 -146851515.3964119 -116151948.31038857 0 0 0 0 2003770526.3713894 233326456.78763199 0 233326456.78763199 -338823037.27348948 0 0 0 0 -189163939.81854057 -393868650.15266705 0 -393868650.15266705 -480254104.403759 0 0 0 0 -511621611.5735836 270917456.54761887 0 270917456.54761887 -639030189.17632103 0 0 0 0 587799390.59411478 97500298.134217739 0 97500298.134217739 -695970147.0742836 0 0 0 0 -734782142.41248679 -382105184.49220252 0 -382105184.49220252 -369240229.5518856 0 0 0 0 32056497.592703592 -35776053.841235444 0 -35776053.841235444 26846846.361472126 0 0 0 0 1413792368.741868 -1258314122.4600992 0 -1258314122.4600992 -1078287211.6620183 0 0 0 0 335680766.87454224 -1430775453.7451067 0 -1430775453.7451067 -929529782.99440575 0 0 0 0 -931020737.64590991 648346692.14388323 0 648346692.14388323 2259778951.3857498 0 0 0 0 -113005494.70700073 363008562.88098335 0 363008562.88098335 1738404888.3427114 0 0 0 0 -26487095.251700401 -27201567.000680447 0 -27201567.000680447 243493445.56942558 0 0 0 0 -268613327.01247978 123018240.20447254 0 123018240.20447254 347925523.98345757 0 0 0 0 369960407.00464678 660200362.37584054 0 660200362.37584054 -359082032.3986454 0 0 0 0 6017658.979347229 101261057.92635632 0 101261057.92635632 21299550.712460756 0 0 0 0 -16609657.126681328 204926400.28108597 0 204926400.28108597 -328813331.72392464 0 0 0 0 20356964.763301849 90942392.393532276 0 90942392.393532276 -92186792.133869171 0 0 0 0 20264127.553909302 47479508.384992599 0 47479508.384992599 37877415.497497559 0 0 0 0 -145819161.31977463 43834480.445793152 0 43834480.445793152 289336771.4656601 0 0 0 0 -12096443.400920868 91393182.605282784 0 91393182.605282784 99247343.460514069 0 0 0 0 -41406203.826545715 17422175.44968605 0 17422175.44968605 -25376286.577541351 0 0 0 0 -35926232.832382202 36533116.121427536 0 36533116.121427536 20618274.761257172 0 0 0 0 -54463475.433820724 -4441974.8488731384 0 -4441974.8488731384 41650435.686170578 0 0 0 0 -23524572.777942657 1513253.0176301003 0 1513253.0176301003 -30380864.771193504 0 0 0 0 -22679323.827003479 -24362836.193551302 0 -24362836.193551302 27361619.132944107 0 0 0 0 -288205.49741602503 -1944789.8424349185 0 -1944789.8424349185 3000321.0783071024 0 0 0 0 -1528768.8118934631 55565163.130373001 0 55565163.130373001 -49586903.899802685 0 0 0 0 -15619983.2697258 66104861.839974403 0 66104861.839974403 -35182350.988156319 0 0 0 0 -825903.53038406372 93187612.239894867 0 93187612.239894867 13744059.733977675 0 0 0 0 67426371.359539032 76595113.678113937 0 76595113.678113937 55123342.904947281 0 0 0 0 5066508.0738277435 26949341.580064893 0 26949341.580064893 -60365079.387680054 0 0 0 0 50843530.223815918 -97284053.089577913 0 -97284053.089577913 -51280149.172876596 0 0 0 0 -1116205.5737784961 -3960668.742865934 0 -3960668.742865934 18656468.016355459 0 0 0 0 -22971505.91841507 9067710.466313839 0 9067710.466313839 55380018.911980629 0 0 0 0 -1997809.9254585337 951415.83365208749 0 951415.83365208749 3274776.0514343255 0 0 0 0 9424499.5833892822 -14114789.957479596 0 -14114789.957479596 13234036.948003411 0 0 0 0 61721163.232875824 -2072590.8651573658 0 -2072590.8651573658 -6011574.8803491592 0 0 0 0 -32307644.810025215 -44678924.003091216 0 -44678924.003091216 19647288.208148479 0 0 0 0 8220432.4736022949 -24401378.096115261 0 -24401378.096115261 16803921.040723801 0 0 0 0 28825069.828958511 -4330162.1380507946 0 -4330162.1380507946 -7808932.3124485016 0 0 0 0 10142684.172488779 -9174842.3507371359 0 -9174842.3507371359 -8566324.4474798832 0 0 0 0 -24393658.059322834 -15106774.299813092 0 -15106774.299813092 22081556.924226165 0 0 0 0 91910115.698823929 -30710054.735548973 0 -30710054.735548973 -35693384.038320541 0 0 0 0 949646.19110230636 -6554320.8221019534 0 -6554320.8221019534 8799984.425102666 0 0 0 0 15698544.961013794 -28999265.974764824 0 -28999265.974764824 -6489102.3848419189 0 0 0 0 -11434413.582870483 -1500589.2736401558 0 -1500589.2736401558 -4482352.190372467 0 0 0 0 -4877048.7697668076 -19341566.170499563 0 -19341566.170499563 26114675.618453979 0 0 0 0 11350196.618320692 -18455875.902775213 0 -18455875.902775213 23078585.624062423 0 0 0 0 33775899.555511475 -75689077.0389781 0 -75689077.0389781 -30850185.502754986 0 0 0 0 77988558.857189178 -64404050.315361977 0 -64404050.315361977 -33839868.500253201 0 0 0 0 47564802.803157806 243517550.14915562 0 243517550.14915562 -309322147.80690193 0 0 0 0 2927163.4973554211 -2532478.6966878911 0 -2532478.6966878911 -2558846.1289020712 0 0 0 0 -37640696.544473171 -94381080.467455268 0 -94381080.467455268 -16126558.453160286 0 0 0 0 152973498.87064552 228792076.91819286 0 228792076.91819286 -494272034.23094797 0 0 0 0 -7845293.0281829834 -85825036.990088463 0 -85825036.990088463 -148520091.78314185 0 0 0 0 8155468.4136390686 -33683028.318234444 0 -33683028.318234444 -64963955.662946701 0 0 0 0 26323437.434074402 16427355.369062424 0 16427355.369062424 -148431524.98050308 0 0 0 0 -19635864.0558815 -27741734.307750702 0 -27741734.307750702 -3625890.5457220078 0 0 0 0 5722940.5792028904 -27197938.700782359 0 -27197938.700782359 -14095351.995923996 0 0 0 0 129487992.62453556 13698618.794574738 0 13698618.794574738 28538073.714888573 0 0 0 0 236632664.87653017 288011373.90599728 0 288011373.90599728 224215469.06020355 0 0 0 0 559775319.56897736 248723253.20543289 0 248723253.20543289 56559163.933980942 0 0 0 0 388163635.94495964 346941101.79777908 0 346941101.79777908 96541520.036701202 0 0 0 0 400018053.03740501 180442257.89388847 0 180442257.89388847 -24851521.324409485 0 0 0 0 51879834.190444946 -25003059.796285629 0 -25003059.796285629 -145308400.36377716 0 0 0 0 48714678.252889991 58565567.914776206 0 58565567.914776206 -28467108.234199524 0 0 0 0 -46447.930260059424 -273782.86178148538 0 -273782.86178148538 1452132.6096517444 0 0 0 0 324776964.2063427 319716834.12601662 0 319716834.12601662 279197991.53896713 0 0 0 0 411818178.82975292 597793790.26963282 0 597793790.26963282 517128120.85768509 0 0 0 0 -15424651.467323303 19805954.144966125 0 19805954.144966125 -49443323.107086182 0 0 0 0 -58327334.317367554 45936018.802224159 0 45936018.802224159 3991437.3738708496 0 0 0 0 113704.46060016565 -601598.60159902368 0 -601598.60159902368 4251043.0240750387 0 0 0 0 1029836.2877011056 -2071505.0381315835 0 -2071505.0381315835 11995966.981961008 0 0 0 0 -17736421.02214241 78336902.300457001 0 78336902.300457001 21204036.346195221 0 0 0 0 -63355600.720371246 -2963594.3865814209 0 -2963594.3865814209 13964986.109427214 0 0 0 0 -154749919.17037725 11718267.129982829 0 11718267.129982829 103014675.34594727 0 0 0 0 -77625631.138082504 10976696.691978455 0 10976696.691978455 17407953.774272919 0 0 0 0 -8735029.7108383179 68839935.578764915 0 68839935.578764915 231082341.08439636 0 0 0 0 -62341498.598884583 -33629926.291276932 0 -33629926.291276932 124554203.2653656 0 0 0 0 3293897.8670063019 94056132.371380806 0 94056132.371380806 103819228.78529358 0 0 0 0 34829747.888376236 52176435.459501266 0 52176435.459501266 130715119.76830292 0 0 0 0 185834834.09466743 109037531.87125206 0 109037531.87125206 113913844.27143478 0 0 0 0 151753476.72661829 226382424.41680861 0 226382424.41680861 338213820.29141235 0 0 0 0 465587116.11440659 372983898.10438538 0 372983898.10438538 102960942.34041214 0 0 0 0 36851940.584531784 -92090798.978900909 0 -92090798.978900909 99056385.246217728 0 0 0 0 368582671.19879913 454889639.13644409 0 454889639.13644409 566813060.94885063 0 0 0 0 26984139.232862473 -38039550.794025421 0 -38039550.794025421 376287924.04106998 0 0 0 0 883578668.58693695 224071404.89466667 0 224071404.89466667 159499061.41368103 0 0 0 0 420207423.57085991 199420525.89980316 0 199420525.89980316 70225973.596932411 0 0 0 0 465781229.26265717 -33248506.297172546 0 -33248506.297172546 659768138.89077377 0 0 0 0 377378261.41809464 204947513.86509705 0 204947513.86509705 160537350.402565 0 0 0 0 6030997.7216396332 8887474.139383316 0 8887474.139383316 -14297584.917535782 0 0 0 0 -1092383.7140362021 446213.65561206592 0 446213.65561206592 2749356.3689000867 0 0 0 0 53508589.111699104 -37436640.545093536 0 -37436640.545093536 77701868.532592773 0 0 0 0 68364908.152687073 34835217.801876068 0 34835217.801876068 -3576292.6159114838 0 0 0 0 72459316.823099136 -55097928.065915465 0 -55097928.065915465 -1224970.1529388428 0 0 0 0 92573280.767168045 29712824.059354782 0 29712824.059354782 71639759.478725433 0 0 0 0 29551205.936300278 -15451995.489461899 0 -15451995.489461899 -46594320.675075531 0 0 0 0 -19500209.653402328 -17107121.257543564 0 -17107121.257543564 -14304031.310556412 0 0 0 0 -24551859.760125637 -41221224.375244737 0 -41221224.375244737 1158359.0715465546 0 0 0 0 -57245853.32217598 -129832253.43549538 0 -129832253.43549538 -54534690.668842316 0 0 0 0 -3335317.0870700292 -4302712.9225603249 0 -4302712.9225603249 18485768.370006327 0 0 0 0 -42797264.11382103 -5522103.8543262482 0 -5522103.8543262482 5659597.1509437561 0 0 0 0 -4880660.8635167005 -3018811.6436119527 0 -3018811.6436119527 21371231.849552561 0 0 0 0 -135146679.28021431 -119129039.71665955 0 -119129039.71665955 35506277.564423561 0 0 0 0 -11606944.983333588 -25132369.605657101 0 -25132369.605657101 -5676819.0718765259 0 0 0 0 -5547946.025384903 -1426849.1552996635 0 -1426849.1552996635 4861468.0250349045 0 0 0 0 -28791108.686105728 -20117154.456876278 0 -20117154.456876278 14055219.119543076 0 0 0 0 7783393.8271598816 -12118106.440316677 0 -12118106.440316677 6658134.6485366821 0 0 0 0 9277490.7897953987 -19231836.089362264 0 -19231836.089362264 8866243.7673664093 0 0 0 0 4645561.7644739151 -5447719.41665411 0 -5447719.41665411 31749831.345647812 0 0 0 0 -179622.66997068841 -1202209.6057724841 0 -1202209.6057724841 2771659.2949230922 0 0 0 0 2971306.2554798126 -2902863.9673466682 0 -2902863.9673466682 39840915.744062424 0 0 0 0 -6089465.2565187998 2472749.1408768715 0 2472749.1408768715 12987681.704437641 0 0 0 0 -4601102.8652477264 8830691.7503819466 0 8830691.7503819466 28972707.849157333 0 0 0 0 -26932282.606079102 17504373.090662956 0 17504373.090662956 44084205.26776886 0 0 0 0 -19195519.363983154 -5525337.537021637 0 -5525337.537021637 18739372.552215576 0 0 0 0 -15129174.702732086 -10351153.405045271 0 -10351153.405045271 1264107.6091022491 0 0 0 0 -16044123.436283112 -18266781.719175339 0 -18266781.719175339 42322298.856303692 0 0 0 0 -3266369.2732294351 -4673514.5195131991 0 -4673514.5195131991 17497492.692091312 0 0 0 0 -39752317.098013878 -61608795.350402832 0 -61608795.350402832 -45958763.786045074 0 0 0 0 -35693371.698852062 -20434472.385329247 0 -20434472.385329247 20016963.857150078 0 0 0 0 -7903423.1236858368 -12471061.263641357 0 -12471061.263641357 13626512.760831833 0 0 0 0 -24040677.954502106 -9797149.6020402908 0 -9797149.6020402908 19324190.441565514 0 0 0 0 -2794672.6641674042 -16330741.257457733 0 -16330741.257457733 -18837886.616048574 0 0 0 0 -16129268.930095673 -36403734.551994324 0 -36403734.551994324 -16518779.01877594 0 0 0 0 2263174.4304595804 -3209686.1894816719 0 -3209686.1894816719 -1770112.8785278816 0 0 0 0 17196988.480910778 14385654.046179771 0 14385654.046179771 31316095.122467041 0 0 0 0 14809157.953147888 3761253.7631130219 0 3761253.7631130219 24397639.123027802 0 0 0 0 -8968891.3249320984 7277331.7859992981 0 7277331.7859992981 41366483.071754456 0 0 0 0 -2225944.6095123291 -17674826.83959198 0 -17674826.83959198 39851794.150917053 0 0 0 0 -12566387.121147156 -5747885.1806373596 0 -5747885.1806373596 30185491.753797531 0 0 0 0 6097316.0699531622 -13794917.134219777 0 -13794917.134219777 27901236.865820445 0 0 0 0 6406496.2109280452 -16839044.02515351 0 -16839044.02515351 23343448.493877061 0 0 0 0 2575133.8782653809 -5636476.6111373901 0 -5636476.6111373901 28518907.205667496 0 0 0 0 10689155.265384674 -28538148.071010113 0 -28538148.071010113 23819077.709205627 0 0 0 0 7394641.0542984009 -15518923.198570251 0 -15518923.198570251 14757692.802726746 0 0 0 0 9485526.0332162268 -22748543.746986322 0 -22748543.746986322 14140579.913240485 0 0 0 0 1992849.8504740386 -12255937.984006105 0 -12255937.984006105 8647370.1708751917 0 0 0 0 464598.97258755192 -2414212.0769450665 0 -2414212.0769450665 11088229.945745984 0 0 0 0 3299101.2746982574 -10503736.97774744 0 -10503736.97774744 7164481.0903167725 0 0 0 0 -9510563.9414653778 -8997861.8067274094 0 -8997861.8067274094 2458610.8993186951 0 0 0 0 3738577.4966106415 -11532195.545115948 0 -11532195.545115948 21547377.309288263 0 0 0 0 -3545067.9504318237 -18993130.91380918 0 -18993130.91380918 14787413.827007294 0 0 0 0 -875908.65296554565 -21950694.389099836 0 -21950694.389099836 17168884.157467455 0 0 0 0 471286.41635172057 -10036334.932322396 0 -10036334.932322396 4718548.1103087533 0 0 0 0 -3812113.0128593445 -14862598.396965742 0 -14862598.396965742 11726113.645503521 0 0 0 0 525320.58142471313 -11829240.992293119 0 -11829240.992293119 13793982.070300579 0 0 0 0 -3563485.6229515076 -9933730.2943410873 0 -9933730.2943410873 7627194.5672650337 0 0 0 0 -11262310.966190338 -13380676.303502083 0 -13380676.303502083 6118208.449534893 0 0 0 0 -3769088.9788799286 -16046362.638753891 0 -16046362.638753891 14404633.231509089 0 0 0 0 3101516.7304531597 -8367030.2128090141 0 -8367030.2128090141 14380447.980432507 0 0 0 0 88936336.895782471 -49594822.532491684 0 -49594822.532491684 -23001683.253005981 0 0 0 0 -62572902.576993942 6469381.1491861343 0 6469381.1491861343 13892208.136024475 0 0 0 0 -281577010.64335632 -225251414.75762177 0 -225251414.75762177 280693021.47094727 0 0 0 0 -18862956.436798096 -7820544.7940368652 0 -7820544.7940368652 23239083.825531006 0 0 0 0 643500.12194644287 -5526293.5548170516 0 -5526293.5548170516 11972028.249110943 0 0 0 0 -10818171.310453415 -11437479.268740416 0 -11437479.268740416 1646018.09765625 0 0 0 0 251202.90511239867 -9697227.6803415846 0 -9697227.6803415846 9971288.0547260214 0 0 0 0 -6064349.3890508916 -4109306.6015607836 0 -4109306.6015607836 31533847.908218343 0 0 0 0 -1265001.3536987305 -9943721.4758758545 0 -9943721.4758758545 20719286.534389496 0 0 0 0 -19984179.578935869 6381200.3162330929 0 6381200.3162330929 46861859.483041063 0 0 0 0 -1263923.0023759576 435161.61759358738 0 435161.61759358738 22178694.455152072 0 0 0 0 -19621826.206363678 -5822939.4811592102 0 -5822939.4811592102 22130257.015539646 0 0 0 0 -20415738.890144348 -6157860.7004489899 0 -6157860.7004489899 23059151.571975708 0 0 0 0 -17004996.66586113 -8070191.8803710938 0 -8070191.8803710938 22716166.281129837 0 0 0 0 -3194901.6315888348 -11133714.804669522 0 -11133714.804669522 25293955.138193376 0 0 0 0 -18477000.571564198 -9104800.5645737648 0 -9104800.5645737648 23625444.056213379 0 0 0 0 16887370.999004364 -7309264.3496627808 0 -7309264.3496627808 25245539.290519714 0 0 0 0 -3910053.8796157837 -4914177.3330078125 0 -4914177.3330078125 41674012.987121582 0 0 0 0 4588423.6883868873 -11845574.064177286 0 -11845574.064177286 17581590.565799668 0 0 0 0 2074503.4698677063 15956861.790195465 0 15956861.790195465 46304503.574737549 0 0 0 0 314588629.16381836 -89967964.166351318 0 -89967964.166351318 73560988.387405396 0 0 0 0 -20322257.934921265 -10803421.767929077 0 -10803421.767929077 40462192.55689621 0 0 0 0 -830573.67003633082 -13392603.543219361 0 -13392603.543219361 18318140.785617966 0 0 0 0 1084681.4844446182 -18362175.847854614 0 -18362175.847854614 27427723.9296875 0 0 0 0 -28808330.558982849 -10907466.955741882 0 -10907466.955741882 31058455.314861298 0 0 0 0 -62043961.749736786 -38430671.396556854 0 -38430671.396556854 29565295.250183105 0 0 0 0 2816349.8846025951 -11291706.298431966 0 -11291706.298431966 14436200.353611201 0 0 0 0 -10350947.946083069 -22147638.575580597 0 -22147638.575580597 7570895.0117454529 0 0 0 0 -27776273.644325256 -22132002.452640533 0 -22132002.452640533 12135038.955368042 0 0 0 0 -12535793.770648956 -15052107.141635895 0 -15052107.141635895 13443670.324203491 0 0 0 0 -60752005.23217392 10566570.553405762 0 10566570.553405762 161709149.18475342 0 0 0 0 -19304797.065299988 -62821598.890014648 0 -62821598.890014648 1276736.7068405151 0 0 0 0 -26213887.782539368 -39816218.552078247 0 -39816218.552078247 -12607472.025615692 0 0 0 0 -14525859.573122025 -6973166.3811826706 0 -6973166.3811826706 39283152.840736389 0 0 0 0 -21593948.584873199 -7377514.6545362473 0 -7377514.6545362473 21935641.86322403 0 0 0 0 -3087241.5254356219 -8444109.2916972768 0 -8444109.2916972768 27230587.03843838 0 0 0 0 47229415.406581879 3311016.5370292664 0 3311016.5370292664 27274020.915344238 0 0 0 0 -23539930.933746338 -7652841.5990695953 0 -7652841.5990695953 24977862.740133286 0 0 0 0 -21522338.311373711 -4267234.9770898819 0 -4267234.9770898819 20007881.955272675 0 0 0 0 -2103468.4507855177 -699323.89054924529 0 -699323.89054924529 25859562.064422332 0 0 0 0 -40350673.210758209 -4675155.5237941742 0 -4675155.5237941742 29872181.121814728 0 0 0 0 -66681001.666116953 32936361.782724977 0 32936361.782724977 68168193.820404053 0 0 0 0 -30662729.269569397 -193194.47694587708 0 -193194.47694587708 21952898.502484322 0 0 0 0 -27861594.974312782 -9391601.9106535912 0 -9391601.9106535912 28809869.116298676 0 0 0 0 -318097696.97473145 -551475143.90777588 0 -551475143.90777588 320522692.16711426 0 0 0 0 -37384313.739025116 -95772596.007892609 0 -95772596.007892609 -343003344.33114624 0 0 0 0 -4552906.1007708432 -7542310.6572569013 0 -7542310.6572569013 30050133.608896151 0 0 0 0 -37144946.216136932 33704239.344184875 0 33704239.344184875 8305441.8439025879 0 0 0 0 -21955460.778675079 -4485874.7437229156 0 -4485874.7437229156 24774766.229064941 0 0 0 0 -28737632.734893799 -2081902.7052516937 0 -2081902.7052516937 30206174.357388496 0 0 0 0 -30797540.904227257 -7563490.8959054947 0 -7563490.8959054947 21843672.947814941 0 0 0 0 -32211275.265563965 1552916.4208602905 0 1552916.4208602905 23462694.195417881 0 0 0 0 -43034393.892968178 -26192464.920671463 0 -26192464.920671463 52160633.346166611 0 0 0 0 -4488331.2542064982 -3398686.6662977855 0 -3398686.6662977855 29447986.309093893 0 0 0 0 -35346168.723367691 2658354.0600061417 0 2658354.0600061417 31664652.285274506 0 0 0 0 -37644580.667957306 6470528.4579443932 0 6470528.4579443932 25404541.521842957 0 0 0 0 -52966131.112472534 58351367.551971436 0 58351367.551971436 23082284.10369873 0 0 0 0 -82228585.390411377 66094347.786819458 0 66094347.786819458 52193617.248055458 0 0 0 0 -30410084.111654282 -4861448.7863821983 0 -4861448.7863821983 37337525.731842041 0 0 0 0 -42425699.409984589 -3817841.0378265381 0 -3817841.0378265381 36929393.022117615 0 0 0 0 -30374346.934059143 3017002.2981452942 0 3017002.2981452942 37450127.913346946 0 0 0 0 -25880878.121582031 30700540.766326904 0 30700540.766326904 61828749.59418869 0 0 0 0 -10701205.363693237 14522132.572059631 0 14522132.572059631 -3545992.9993515015 0 0 0 0 -7512099.7278785706 29839291.854480743 0 29839291.854480743 -12834006.687572479 0 0 0 0 -72402114.16386795 32984726.731552124 0 32984726.731552124 63244077.748443604 0 0 0 0 -17126878.994789124 -32322525.160110474 0 -32322525.160110474 52587582.90222168 0 0 0 0 -109623466.81385803 -67043196.090698242 0 -67043196.090698242 60812007.867004395 0 0 0 0 -112214162.74262619 17262259.360294342 0 17262259.360294342 36842625.895614624 0 0 0 0 -3052018.5323235281 2369651.1586871743 0 2369651.1586871743 3498761.5979982391 0 0 0 0 1203049.2549285889 -18960622.873733521 0 -18960622.873733521 19092507.125778198 0 0 0 0 -6763024.4128570817 -2876296.1190475076 0 -2876296.1190475076 26496063.394495241 0 0 0 0 -10060332.463289857 -15250766.229479313 0 -15250766.229479313 22800377.288574219 0 0 0 0 -10475723.931430817 -11069337.030765533 0 -11069337.030765533 20085791.061141968 0 0 0 0 -9828006.197763443 -9756736.852391243 0 -9756736.852391243 21688822.68951416 0 0 0 0 3347968.0191920921 -12213941.777553659 0 -12213941.777553659 14275322.001004398 0 0 0 0 -46692824.53452301 13359978.505931854 0 13359978.505931854 13150703.804321289 0 0 0 0 -11797128.411567688 -63437435.019706726 0 -63437435.019706726 -198663827.81027603 0 0 0 0 -2117501.0640160739 -1182422.5556996278 0 -1182422.5556996278 4579581.8653228208 0 0 0 0 -71883956.255466461 12936658.770133972 0 12936658.770133972 14960508.042617798 0 0 0 0 -129058.89539398719 -799955.5003810944 0 -799955.5003810944 8735652.6283011027 0 0 0 0 1593483.6041183472 -8671776.156047821 0 -8671776.156047821 24420174.198078156 0 0 0 0 -966344.14091241965 -2128348.6675486574 0 -2128348.6675486574 7880619.6953130029 0 0 0 0 -21928728.889987946 14583123.54419136 0 14583123.54419136 44357789.532761097 0 0 0 0 -2832179.9582090378 -14893655.496562958 0 -14893655.496562958 37588459.893555641 0 0 0 0 -3380427.7134615886 -4750642.4416216277 0 -4750642.4416216277 16838182.740305461 0 0 0 0 -19130349.004728317 -1218140.4452533722 0 -1218140.4452533722 26242635.773359299 0 0 0 0 -41000263.337820053 11815827.304039955 0 11815827.304039955 20717721.452411652 0 0 0 0 -42477561.226898193 -22861300.052894592 0 -22861300.052894592 56182939.11365509 0 0 0 0 1062040.3694934845 -24897907.105918884 0 -24897907.105918884 28345005.459317207 0 0 0 0 1872435.5204658508 -49497390.297706604 0 -49497390.297706604 61237118.887588501 0 0 0 0 91229683.733407974 53266616.014799118 0 53266616.014799118 -47341251.71369648 0 0 0 0 1005760.2042634487 -1529953.1885364326 0 -1529953.1885364326 3133493.7105283579 0 0 0 0 -11010943.049927711 -7864259.2960371971 0 -7864259.2960371971 -29370517.902015686 0 0 0 0 -42916416.596607208 23743581.852625847 0 23743581.852625847 79920449.01313591 0 0 0 0 -464697.22527885437 87338816.276003838 0 87338816.276003838 62885247.709875107 0 0 0 0 1108926.5850505829 -5227002.1408185959 0 -5227002.1408185959 18579546.079810739 0 0 0 0 -1323683.4015583033 720653.80526806624 0 720653.80526806624 3322581.6673478042 0 0 0 0 20281340.948623657 16597659.152545929 0 16597659.152545929 21529567.755377769 0 0 0 0 -56422487.119285583 -1858081.0950584412 0 -1858081.0950584412 27061302.663732529 0 0 0 0 -59452997.213964462 16372612.64509964 0 16372612.64509964 -3935359.0388622284 0 0 0 0 -30447214.911342621 26836865.926133156 0 26836865.926133156 -57665717.557966232 0 0 0 0 -22963714.827777863 -38194630.810804367 0 -38194630.810804367 148938947.22651291 0 0 0 0 12628206.994058609 -11982148.12234211 0 -11982148.12234211 36093077.347303391 0 0 0 0 616421.91584286839 -809645.57243490592 0 -809645.57243490592 617003.02850312693 0 0 0 0 22779853.391124725 5273343.86764431 0 5273343.86764431 -42426038.189302444 0 0 0 0 -7480316.4649581909 6024873.9919567108 0 6024873.9919567108 114812348.5222702 0 0 0 0 -10394436.098927498 -11502518.396394253 0 -11502518.396394253 36127629.055515289 0 0 0 0 -14761297.389147758 -6616485.0351338387 0 -6616485.0351338387 33463038.666107178 0 0 0 0 -14392183.136125565 -2633405.5115604401 0 -2633405.5115604401 84928236.216464996 0 0 0 0 -2387763.0073204041 -6195324.6249694824 0 -6195324.6249694824 37571854.431812286 0 0 0 0 -5248536.1715927124 3771.4451389312744 0 3771.4451389312744 69533822.679527283 0 0 0 0 -2104973.9167175293 -9010789.1108360291 0 -9010789.1108360291 47366045.545661926 0 0 0 0 -6730209.7892820835 39346989.063286483 0 39346989.063286483 25049267.168657303 0 0 0 0 -186052.31427955627 -42840512.298207283 0 -42840512.298207283 95433610.790466309 0 0 0 0 745156.97264148667 -986170.91507826932 0 -986170.91507826932 1172696.9280632427 0 0 0 0 -4373217.2078399658 -25063069.250814438 0 -25063069.250814438 93821701.224025726 0 0 0 0 11562775.418916702 -43110015.628219604 0 -43110015.628219604 82960919.292301178 0 0 0 0 7382682.0715417862 -14320836.771008492 0 -14320836.771008492 54849037.542449951 0 0 0 0 3475621.5267715454 -13862695.526885986 0 -13862695.526885986 68528592.617328644 0 0 0 0 -9389543.6403360367 -1734082.7450294495 0 -1734082.7450294495 61787424.661724091 0 0 0 0 633701.31118011475 -4468420.7871925831 0 -4468420.7871925831 59641807.667736053 0 0 0 0 -3179887.7139472961 -9157427.6868057251 0 -9157427.6868057251 62245668.521416664 0 0 0 0 -2743343.8742961884 -8474462.340587616 0 -8474462.340587616 56941255.701061249 0 0 0 0 -2853512.7685270309 -7702967.3342895508 0 -7702967.3342895508 57074862.4836483 0 0 0 0 -6592012.1260156631 -6700517.5747833252 0 -6700517.5747833252 58917179.762972832 0 0 0 0 -7245615.6477365494 -3688624.0920934677 0 -3688624.0920934677 52576238.720176697 0 0 0 0 140462.87955284119 -11690786.177057266 0 -11690786.177057266 53918070.722320557 0 0 0 0 21504402.93074584 -26191733.468606472 0 -26191733.468606472 27919058.993331909 0 0 0 0 1269036.0669994354 -12770220.808584213 0 -12770220.808584213 38272519.506235123 0 0 0 0 -171706.39531946182 -6561506.5985283852 0 -6561506.5985283852 31689327.29454422 0 0 0 0 -136425353.06216049 -125826049.41499329 0 -125826049.41499329 122801149.81489754 0 0 0 0 -209590820.59023619 67012901.724773407 0 67012901.724773407 66659106.832359314 0 0 0 0 -1948831.3909170628 -22253480.905397654 0 -22253480.905397654 55147347.625883102 0 0 0 0 2842701.0381813049 -7211137.3696479797 0 -7211137.3696479797 39043050.294975281 0 0 0 0 -8250317.7620438272 -1035476.5781891765 0 -1035476.5781891765 15651510.341224289 0 0 0 0 -5896269.8766900133 -2317307.5083615351 0 -2317307.5083615351 12223958.540442895 0 0 0 0 -515540.75751495361 -5851059.0696468353 0 -5851059.0696468353 56149444.786050797 0 0 0 0 -11884962.767467499 -10067950.634086609 0 -10067950.634086609 58573376.301630974 0 0 0 0 -52531466.460222244 62612897.307554245 0 62612897.307554245 -59210812.196033478 0 0 0 0 -7922433.8491535932 -148849.73441620311 0 -148849.73441620311 18473258.66715702 0 0 0 0 -29149046.855989456 23575720.295942307 0 23575720.295942307 5947270.3032569885 0 0 0 0 -3992587.9571926594 -2255505.6696257591 0 -2255505.6696257591 18234890.427567959 0 0 0 0 -4278517.4392326474 -10771978.399430808 0 -10771978.399430808 15306878.271763274 0 0 0 0 -2531834.3479270935 -19212428.378027916 0 -19212428.378027916 29239487.514005661 0 0 0 0 -2433026.4359862804 -4877455.1514040828 0 -4877455.1514040828 18805960.893152773 0 0 0 0 -12138295.637340087 2447141.0864887638 0 2447141.0864887638 16746292.157905117 0 0 0 0 -14414147.361255646 -21065054.663005829 0 -21065054.663005829 45461496.706323147 0 0 0 0 -9822611.677230835 -15321034.789653778 0 -15321034.789653778 41337003.195741653 0 0 0 0 -2434083.3353579026 -4902277.6383718597 0 -4902277.6383718597 19421235.772185881 0 0 0 0 -1229448.2762451172 -6050798.9412975311 0 -6050798.9412975311 15582168.538936615 0 0 0 0 -10431524.339402735 -4576206.2049908638 0 -4576206.2049908638 21478394.936516285 0 0 0 0 -5223660.209112986 -4007398.6348054321 0 -4007398.6348054321 26011846.828698747 0 0 0 0 -3396597.5775104025 -10819608.174278144 0 -10819608.174278144 16869040.1458623 0 0 0 0 -9823648.9785721302 -14757882.075006723 0 -14757882.075006723 24226178.972385406 0 0 0 0 -4408479.7950515747 -909925.63937664032 0 -909925.63937664032 15940466.113566399 0 0 0 0 -9760155.1453225613 -2906241.4975712299 0 -2906241.4975712299 11409337.673569679 0 0 0 0 -10705332.825072885 2033587.6035761833 0 2033587.6035761833 14919230.225851059 0 0 0 0 -6578096.1547157867 -2980609.0975220548 0 -2980609.0975220548 21199492.401348013 0 0 0 0 -61552875.548233032 18969153.529024124 0 18969153.529024124 36431894.541435242 0 0 0 0 -60709486.807199478 15817890.946104527 0 15817890.946104527 47594380.735443115 0 0 0 0 -52996040.931930542 29638711.553480148 0 29638711.553480148 6302635.8804359436 0 0 0 0 -50238755.672166824 19256362.847681999 0 19256362.847681999 35037429.696994781 0 0 0 0 -69378252.700236678 9795824.4652301073 0 9795824.4652301073 54214729.362514496 0 0 0 0 -66002935.089363098 41125217.793790817 0 41125217.793790817 39859888.688709259 0 0 0 0 -58717364.796689987 21981374.846889496 0 21981374.846889496 60162438.891216278 0 0 0 0 -23455946.205457687 -14288454.651428223 0 -14288454.651428223 26817069.930791855 0 0 0 0 -10779899.250694275 9733990.9188899994 0 9733990.9188899994 44936777.838357925 0 0 0 0 -56208008.571498871 3857821.0153465271 0 3857821.0153465271 56315700.903437614 0 0 0 0 -91361029.183826447 -56852434.980293274 0 -56852434.980293274 47258408.783679962 0 0 0 0 -10175778.007246228 -3451289.0221538208 0 -3451289.0221538208 39737937.519244216 0 0 0 0 -10684134.309257986 -16490.20929813385 0 -16490.20929813385 25625588.991036206 0 0 0 0 -11467585.325777054 -3983936.4653968811 0 -3983936.4653968811 17820353.6019907 0 0 0 0 -24223206.691055298 -2785668.2234268188 0 -2785668.2234268188 36314790.875030518 0 0 0 0 15140973.745085001 -21997224.930902958 0 -21997224.930902958 41181517.627502441 0 0 0 0 -4545554.3296759948 -15981588.269311624 0 -15981588.269311624 32564050.030659035 0 0 0 0 26903611.002571106 -17986930.332443237 0 -17986930.332443237 30721935.689453125 0 0 0 0 -36073.239380784333 -146031.86761650071 0 -146031.86761650071 2293937.5623536166 0 0 0 0 -14590820.535891235 72952292.411339939 0 72952292.411339939 34991601.404342651 0 0 0 0 -2265249.7676655874 866478.63604937866 0 866478.63604937866 3049782.5444187075 0 0 0 0 -17132958.161332488 -33747630.465600252 0 -33747630.465600252 93508727.173095703 0 0 0 0 -3809986.2528038025 11281524.219825745 0 11281524.219825745 137729155.157547 0 0 0 0 -23732386.321464539 12524447.063491821 0 12524447.063491821 -21295201.072525024 0 0 0 0 -42207968.52040863 -2229946.2894515991 0 -2229946.2894515991 134707949.76179504 0 0 0 0 -12360926.655549049 -33076103.25670433 0 -33076103.25670433 135366694.98428345 0 0 0 0 -921828.57563246787 1482465.3535946608 0 1482465.3535946608 -1890507.706076093 0 0 0 0 -12793698.035833359 -14093592.768819809 0 -14093592.768819809 17772753.509029388 0 0 0 0 -19088573.472446442 -22263232.915679932 0 -22263232.915679932 110372920.80711365 0 0 0 0 -8183280.1087778462 -4301632.9570715614 0 -4301632.9570715614 33645917.985220082 0 0 0 0 -5414660.2382011414 -3817603.5058078766 0 -3817603.5058078766 19044035.449279785 0 0 0 0 -6474970.4886734672 -10608050.199195337 0 -10608050.199195337 40775883.756476149 0 0 0 0 -29050470.978822708 -16386147.281398773 0 -16386147.281398773 37658794.82131958 0 0 0 0 11098684.350906372 -17171225.111362457 0 -17171225.111362457 13343508.080799103 0 0 0 0 -1225625.6820352785 -2483172.2016548319 0 -2483172.2016548319 3586918.9994534254 0 0 0 0 -3216572.1050014743 -17876647.464205444 0 -17876647.464205444 14159964.559814364 0 0 0 0 -6550424.3171951091 -1896219.9237118238 0 -1896219.9237118238 18150040.784823049 0 0 0 0 -19830226.712126255 -7497534.4629993439 0 -7497534.4629993439 23259083.986591339 0 0 0 0 -16145328.330471396 -598765.48261404037 0 -598765.48261404037 19833092.052832603 0 0 0 0 -13635771.416816711 -3090573.0155105591 0 -3090573.0155105591 24125989.176614761 0 0 0 0 -6270347.3275747299 -6240061.7129688263 0 -6240061.7129688263 17820553.938037872 0 0 0 0 -3657042.3149840748 -3053631.6360900234 0 -3053631.6360900234 16308179.990791842 0 0 0 0 -10724497.576200008 -8854743.5168781281 0 -8854743.5168781281 18372144.710632324 0 0 0 0 -21957956.030310869 -229908.51949644089 0 -229908.51949644089 17157056.536079407 0 0 0 0 -4801155.1631196579 -575627.07298239996 0 -575627.07298239996 13195114.851674519 0 0 0 0 -29389598.601989329 1210925.0261679888 0 1210925.0261679888 24519757.582458496 0 0 0 0 -4983568.6423533354 -1906797.2876131022 0 -1906797.2876131022 26031467.313447349 0 0 0 0 -17063407.187414169 7980826.140335083 0 7980826.140335083 21346230.315557957 0 0 0 0 -31214562.51235348 1747636.0697345734 0 1747636.0697345734 22231626.725013733 0 0 0 0 -9822836.449913457 5995676.5993360002 0 5995676.5993360002 24388920.836690243 0 0 0 0 -20879626.31173867 -2847245.8814634085 0 -2847245.8814634085 37146143.875801086 0 0 0 0 -23939106.231258392 -6607831.369972229 0 -6607831.369972229 36308358.544448853 0 0 0 0 -20341018.565979004 -6256261.6415176392 0 -6256261.6415176392 34884760.605613708 0 0 0 0 -18220992.356676102 -1817843.8987197876 0 -1817843.8987197876 35860584.350448608 0 0 0 0 -19644680.873279572 -2489606.1969490051 0 -2489606.1969490051 46280539.832336426 0 0 0 0 -12477782.839305878 3134335.9243240356 0 3134335.9243240356 36186720.587173462 0 0 0 0 -59026379.563209534 21982148.659576416 0 21982148.659576416 15633038.845994949 0 0 0 0 -10774156.516757965 4947900.3735313416 0 4947900.3735313416 37803549.844085693 0 0 0 0 -10329542.573967479 9794959.7966090403 0 9794959.7966090403 25746173.816834547 0 0 0 0 -54504817.395965576 10899994.196754456 0 10899994.196754456 8264088.1175537109 0 0 0 0 -8000904.1157544758 -3236972.0120296967 0 -3236972.0120296967 26128179.192165762 0 0 0 0 1210433.52031767 -8269477.468153514 0 -8269477.468153514 16838298.852176547 0 0 0 0 -28594813.449523926 -19840190.331680298 0 -19840190.331680298 50052034.623565674 0 0 0 0 11727287.52368927 -61141274.952941895 0 -61141274.952941895 63946612.404201508 0 0 0 0 -9079446.9073181152 -55414398.384460449 0 -55414398.384460449 93168452.755401611 0 0 0 0 18239672.908660889 -23372629.532272339 0 -23372629.532272339 49710176.355316162 0 0 0 0 58274175.403717041 -34073716.659645081 0 -34073716.659645081 50862777.022644043 0 0 0 0 -2254774.2769451877 9510501.7022662386 0 9510501.7022662386 -2294209.7902770042 0 0 0 0 -10095987.907767132 -4897528.5543914773 0 -4897528.5543914773 42105770.902016684 0 0 0 0 -139600092.24473572 14289915.068908691 0 14289915.068908691 48790992.255844116 0 0 0 0 -33590308.92647934 -33590788.856300354 0 -33590788.856300354 44943075.654891968 0 0 0 0 86840513.207530975 -66662834.590354919 0 -66662834.590354919 71187470.050109863 0 0 0 0 -7367980.1916490737 -21754279.402900033 0 -21754279.402900033 68004259.380293548 0 0 0 0 -2168179.7266472168 -15774499.839681307 0 -15774499.839681307 39283451.37319383 0 0 0 0 -78899526.524383545 105510437.05484009 0 105510437.05484009 -819227621.44335938 0 0 0 0 -81969056.995586395 4729659.8885040283 0 4729659.8885040283 64470514.924533844 0 0 0 0 17320927.307072163 -47413256.849368572 0 -47413256.849368572 43283845.329177856 0 0 0 0 -48169289.069885254 -181204484.69970703 0 -181204484.69970703 1320817930.8824463 0 0 0 0 -22742229.923248291 -27867011.591903687 0 -27867011.591903687 95730655.993133545 0 0 0 0 21634507.786903381 -71012182.891952515 0 -71012182.891952515 137568113.50521851 0 0 0 0 -30505964.596542358 74457285.226348877 0 74457285.226348877 155630172.75585556 0 0 0 0 -1183582.1254343987 19651626.167341948 0 19651626.167341948 37219619.124221802 0 0 0 0 -4242320.1823833212 -2557644.3465944082 0 -2557644.3465944082 11999937.783111975 0 0 0 0 -10950090.459020615 -52473478.063611984 0 -52473478.063611984 82489284.955795288 0 0 0 0 -10130694.084434466 -6210477.2856398029 0 -6210477.2856398029 44214749.751307733 0 0 0 0 -33683451.264217377 -63383746.856414795 0 -63383746.856414795 -39783579.90145874 0 0 0 0 -1375297.1908073425 23226620.419810057 0 23226620.419810057 60733201.126174927 0 0 0 0 -16197188.546569824 15974951.753944397 0 15974951.753944397 58421428.670349121 0 0 0 0 -57600977.477973938 -55311501.826919556 0 -55311501.826919556 95029791.536659241 0 0 0 0 -101540000.96518469 -35606935.712797165 0 -35606935.712797165 98794072.049407959 0 0 0 0 -100285107.52920198 -45036787.347951889 0 -45036787.347951889 86578551.926483154 0 0 0 0 -152181769.26199341 -55661426.119255066 0 -55661426.119255066 98607404.439224243 0 0 0 0 -47983230.14956665 -46593705.596252441 0 -46593705.596252441 81620800.778488159 0 0 0 0 -94859429.832092285 -32699230.765228271 0 -32699230.765228271 78108558.784454346 0 0 0 0 -52830014.493782043 -39716285.965484619 0 -39716285.965484619 89792945.902496338 0 0 0 0 -33333809.138816833 -35029735.94108963 0 -35029735.94108963 53851260.433898926 0 0 0 0 -77846075.719802856 13572087.937240601 0 13572087.937240601 868356.18879318237 0 0 0 0 -96780455.642921448 -31473188.563682556 0 -31473188.563682556 96313519.180297852 0 0 0 0 -95091940.265823364 -3085356.1140289307 0 -3085356.1140289307 86531784.759536743 0 0 0 0 -115666309.69692993 -11545765.892120361 0 -11545765.892120361 84918244.29447937 0 0 0 0 -123077755.27490139 9732113.427986145 0 9732113.427986145 120716795.79162598 0 0 0 0 -127801480.28585815 9620150.3819122314 0 9620150.3819122314 123940916.50860596 0 0 0 0 -140325665.40192413 66318898.366149902 0 66318898.366149902 153121488.24604797 0 0 0 0 -49652217.514701843 75275021.445579529 0 75275021.445579529 121892585.58261108 0 0 0 0 -51567670.493330121 122705449.94223094 0 122705449.94223094 88956144.266967773 0 0 0 0 -334968859.73550034 149335877.68592834 0 149335877.68592834 180905187.77687836 0 0 0 0 -207257789.2009201 47591605.30292511 0 47591605.30292511 151848360.91940308 0 0 0 0 -151889248.1940527 177682060.22474861 0 177682060.22474861 180079173.7661438 0 0 0 0 -174052671.31689453 21586507.970016479 0 21586507.970016479 166962480.60516548 0 0 0 0 -191601151.58181381 -1544661.3046875 0 -1544661.3046875 136472850.38348389 0 0 0 0 19287705.409351349 153837714.563591 0 153837714.563591 27419143.465766907 0 0 0 0 63145146.273223877 109245143.41417694 0 109245143.41417694 51637171.543731689 0 0 0 0 18969799.9594841 158496050.31819153 0 158496050.31819153 107083070.26356506 0 0 0 0 550893088.96972466 213465487.49777985 0 213465487.49777985 -51535394.709686279 0 0 0 0 -1798163.3174295533 106163.42011788394 0 106163.42011788394 49966.017830505967 0 0 0 0 337943259.14802933 533291204.83210754 0 533291204.83210754 -461392092.13896179 0 0 0 0 -62890790.872421265 429185492.62359619 0 429185492.62359619 -38408401.983444214 0 0 0 0 -366166925.42015839 588150701.20297241 0 588150701.20297241 -7211284.525177002 0 0 0 0 -307551159.97074127 157722957.37553406 0 157722957.37553406 -334039911.54526901 0 0 0 0 -356788145.38466644 462595009.24446869 0 462595009.24446869 418610178.77423096 0 0 0 0 -182945481.60694122 -97850160.733909607 0 -97850160.733909607 66061957.682250977 0 0 0 0 -351594871.35029602 -10337193.707595825 0 -10337193.707595825 166324783.86456728 0 0 0 0 -261958033.45494843 91509433.769981384 0 91509433.769981384 226297361.88180542 0 0 0 0 -851310946.0109024 -306323.40657043457 0 -306323.40657043457 214382428.69054413 0 0 0 0 -965236120.99915314 -387409918.33955383 0 -387409918.33955383 36398411.53150177 0 0 0 0 -1413418378.62463 246716478.29237366 0 246716478.29237366 392832335.29592323 0 0 0 0 -253971080.88415909 -156018622.69909668 0 -156018622.69909668 111153796.49397278 0 0 0 0 -185699968.92357635 -84770390.939956665 0 -84770390.939956665 66749644.740200043 0 0 0 0 -522155362.20732117 1062044034.3508911 0 1062044034.3508911 -1244174104.8503189 0 0 0 0 -170095643.98275471 -274323671.5594368 0 -274323671.5594368 -185987164.10362244 0 0 0 0 -5434752.3831122816 1608476.7734144628 0 1608476.7734144628 2642830.3425698765 0 0 0 0 -1345340735.3186393 1669057608.2512665 0 1669057608.2512665 1412754508.260376 0 0 0 0 -671373497.05763245 170731400.31716919 0 170731400.31716919 -132369025.40446472 0 0 0 0 -4898386.2859635493 -4718233.4336968204 0 -4718233.4336968204 4407158.9325257242 0 0 0 0 -1309090012.9112473 165522277.62055206 0 165522277.62055206 565029659.13182068 0 0 0 0 -713197078.70173645 224563787.77301788 0 224563787.77301788 14331975.384262085 0 0 0 0 -250710836.08139038 225624569.33872986 0 225624569.33872986 -242702433.04488373 0 0 0 0 519155366.95980549 767544152.09203339 0 767544152.09203339 -67060245.997772217 0 0 0 0 -235630784.03271484 266119737.00463867 0 266119737.00463867 334574074.75826263 0 0 0 0 -2425669.8520256206 -2256920.4289393602 0 -2256920.4289393602 1842054.4145967662 0 0 0 0 -932139680.72495461 823113755.40216827 0 823113755.40216827 128483785.56716919 0 0 0 0 -984646062.26332855 -393934065.61561584 0 -393934065.61561584 -2536503664.755127 0 0 0 0 -119164046.53068542 595579223.1439209 0 595579223.1439209 -456332510.14263916 0 0 0 0 -229845257.65392303 18269341.444847107 0 18269341.444847107 206848623.51795959 0 0 0 0 -967719360.31019211 -281418193.95679474 0 -281418193.95679474 270145223.68161011 0 0 0 0 975635765.8825531 897321561.86040878 0 897321561.86040878 645966473.25440979 0 0 0 0 -226314740.52013779 -232231453.56000519 0 -232231453.56000519 1739293387.782547 0 0 0 0 916241516.43973827 -1268393529.0762711 0 -1268393529.0762711 920696358.10881042 0 0 0 0 -20230065.04640007 -571501272.53976822 0 -571501272.53976822 402946737.03172302 0 0 0 0 32044864.311594963 -510869647.57786942 0 -510869647.57786942 201518703.16520691 0 0 0 0 -909212472.15714264 253246872.12091064 0 253246872.12091064 411980068.91668701 0 0 0 0 483725048.60381269 -592811093.62742949 0 -592811093.62742949 220645960.29309082 0 0 0 0 -596095796.16181755 340138271.95941162 0 340138271.95941162 -26101987.79598999 0 0 0 0 -3048454.3431916591 -3072209.1394022824 0 -3072209.1394022824 3099303.3284887075 0 0 0 0 -206505827.9738121 -422041217.53049469 0 -422041217.53049469 442474640.83000183 0 0 0 0 -286281731.57691956 -9349483.4440994263 0 -9349483.4440994263 289709716.15377808 0 0 0 0 -457258897.39276123 150566981.45323181 0 150566981.45323181 188754204.89434814 0 0 0 0 -278711364.81377029 227284565.2364769 0 227284565.2364769 -44515205.006500244 0 0 0 0 -332101008.09863281 125204681.64150238 0 125204681.64150238 96003985.076721191 0 0 0 0 -178001281.41819763 114471120.77409363 0 114471120.77409363 73355192.752944946 0 0 0 0 -192484570.92830563 19981045.131716728 0 19981045.131716728 71314015.721969604 0 0 0 0 -265435397.21349335 35092075.620223999 0 35092075.620223999 68605250.588043213 0 0 0 0 -24918864.703849792 -13234778.526702881 0 -13234778.526702881 16762498.469558716 0 0 0 0 -2478328.6163616939 -20832421.928040184 0 -20832421.928040184 21660909.920445912 0 0 0 0 -20510385.786045074 -16551588.938171387 0 -16551588.938171387 15835166.213058472 0 0 0 0 -59545340.777610779 7081363.3886413574 0 7081363.3886413574 6885282.6794052124 0 0 0 0 -19040698.764756568 -5224386.5886227638 0 -5224386.5886227638 13917548.556798741 0 0 0 0 -109217722.83718109 7159595.8637313843 0 7159595.8637313843 27143474.107330322 0 0 0 0 -24992247.167724609 1468939.9081420898 0 1468939.9081420898 22975225.101318359 0 0 0 0 -23075736.184234619 -10840896.948150635 0 -10840896.948150635 21651831.890396118 0 0 0 0 -26768151.405925751 -19445768.433357239 0 -19445768.433357239 29356452.243896484 0 0 0 0 138522.78777457029 -434536.14315809309 0 -434536.14315809309 1205492.3729437273 0 0 0 0 -10370843.298858089 1013036.2874579225 0 1013036.2874579225 27104651.100993499 0 0 0 0 -9943421.6116966829 -5057663.4403204732 0 -5057663.4403204732 34000046.621473171 0 0 0 0 -19863055.731815338 -2249548.3536720276 0 -2249548.3536720276 25280044.598457336 0 0 0 0 -6272893.4405021667 3661015.174079895 0 3661015.174079895 56137446.402053833 0 0 0 0 -14532672.91109848 -5132847.9368057251 0 -5132847.9368057251 47197566.316192627 0 0 0 0 1074401.724861145 -9149420.2405471802 0 -9149420.2405471802 69223815.048408508 0 0 0 0 -50707223.275588989 -7818131.3281173706 0 -7818131.3281173706 160253323.53633118 0 0 0 0 -13851944.598747008 845520.84598415345 0 845520.84598415345 7457404.973379042 0 0 0 0 41397680.459001541 73324482.687316895 0 73324482.687316895 47947336.254852295 0 0 0 0 -280616656.44802475 172208571.81631088 0 172208571.81631088 -96554654.565261841 0 0 0 0 -60867410.910354614 89995849.814651489 0 89995849.814651489 -95779776.035579681 0 0 0 0 
</DataArray>
<DataArray type="Float64" Name="cross_section_updated" format="ascii">
1 1 0.051176452568388625 1 1 1 1 0.051173912093330554 1 1 1 1 1 1 1 1 1 1 1 1 0.054485255174276187 1 1 1 1 0.054493742651774271 1 1 1 1 1 1 1 0.054483088823219478 1 1 1 1 1 1 1 1 0.059465449434117537 1 1 1 1 1 1 1 1 1 1 1 0.060292294694850278 0.04850140336532538 1 1 1 1 1 1 1 1 0.070208603439729622 1 1 1 1 1 1 1 1 1 1 1 1 1 1 1 1 1 1 1 1 1 1 0.064629032145768872 1 1 1 1 1 1 1 1 1 1 1 0.05414399709073249 1 1 1 0.051706506638966893 1 1 1 1 1 1 1 1 1 1 1 1 1 1 1 1 1 1 1 1 1 1 1 1 1 1 1 1 1 1 1 1 1 1 1 1 1 1 1 1 1 1 1 1 1 0.049731853768501547 1 0.054773924929861113 1 1 1 1 1 1 1 1 1 1 1 1 1 1 1 1 1 1 1 1 1 1 1 1 1 1 0.052615111534196443 1 1 0.050383742599446585 1 0.051416498307318745 1 1 1 1 1 1 1 1 1 1 1 1 1 1 0.049073062308129453 1 0.062057968956603829 1 1 1 1 1 1 1 0.059099259854296315 1 0.06233524451766663 1 1 1 1 1 1 0.048264700308685494 1 1 0.068675234187527759 1 1 1 1 1 1 0.068356413023570275 0.083039932501429839 1 1 0.049958950779730504 1 0.069252436154722208 1 0.050324839850442588 0.060223746526580621 1 1 1 0.073606777136513507 1 1 1 1 1 1 1 1 1 1 1 1 1 0.094666004480475047 1 1 1 1 1 1 1 0.10616903475135347 1 1 1 1 1 1 1 0.11663859757987122 1 1 1 1 0.052087993148033016 1 1 1 1 1 1 0.050249170535597007 1 1 1 0.055946465050905211 1 1 1 1 1 1 1 0.059187625141428446 1 1 1 1 1 1 0.050132367053362117 1 1 1 1 1 1 0.051450231864698784 1 1 1 1 1 1 1 0.049673018278091605 1 1 1 1 1 1 1 1 1 1 1 1 1 1 1 1 1 1 1 1 1 0.048625843579612985 0.050145366621533259 1 1 1 1 1 0.045271584942705875 1 1 1 1 1 1 1 0.066898208886961241 1 0.031874653731173055 1 1 1 0.067741849143872129 1 1 1 0.050633668324990388 1 0.050042790888603861 1 1 1 1 1 1 1 0.088446771377244909 1 1 1 1 1 1 1 0.12452852621516014 1 1 1 0.049932003387729157 1 1 1 1 1 1 1 1 1 1 1 1 1 1 1 1 1 1 1 1 1 1 1 1 1 1 1 1 1 1 1 1 0.096827164549563888 1 1 1 1 1 1 1 1 1 1 1 1 1 1 1 1 1 1 1 1 1 1 1 1 1 1 1 1 1 1 1 1 0.049920850961842039 1 1 1 1 1 1 1 1 1 1 1 1 1 1 1 1 1 1 1 1 0.049914962376403402 1 1 1 1 1 1 1 0.050150074968451017 1 1 1 1 1 0.050363272715898619 1 1 0.050010246174950916 1 0.051435684817154798 1 1 1 1 0.052998807333865798 1 1 0.05464369063563574 1 1 1 1 1 1 0.055450793497458087 1 1 1 1 1 1 1 1 1 1 1 1 1 1 1 1 1 1 1 0.053888166117943358 1 1 1 1 1 1 1 1 1 1 1 0.051049474778368381 0.053171638574911195 1 1 1 1 1 1 1 1 1 1 1 1 1 1 1 1 1 1 1 1 1 0.049864375856065637 1 0.049905131878751743 0.049249460348413543 1 1 0.050931607302941356 1 1 1 1 1 1 1 1 1 1 1 1 1 0.048056436225884749 1 1 1 1 1 1 1 0.048629401081646234 0.048670023888157506 1 1 1 1 1 1 1 1 0.051036534698290975 0.050591053488968002 1 1 1 0.049687720600777752 1 1 1 1 1 1 1 1 1 1 1 1 1 1 1 1 1 1 1 1 1 1 1 1 1 1 1 1 1 1 1 1 1 1 1 0.049970689130662091 1 1 0.050181157773873261 1 1 1 1 0.050458146164196097 1 1 1 0.049917234745111207 1 1 1 0.049952641113765545 1 1 0.04996456331871553 1 1 1 1 1 1 1 1 1 1 1 1 1 1 1 1 1 1 1 1 1 0.050221118743424997 1 1 1 0.050171937828841467 1 1 1 1 1 0.050264057809777982 1 1 1 1 1 1 0.050046492311280819 1 1 1 1 1 1 1 1 1 1 1 1 1 1 1 1 1 1 0.050095675037668708 1 1 1 1 1 1 1 1 1 1 1 1 1 1 1 1 1 1 1 1 1 0.05027698839032281 1 1 1 1 1 1 1 1 1 1 1 1 1 1 1 0.050237547333520843 1 1 1 1 1 1 1 1 1 1 1 1 1 1 1 1 1 1 0.06255119169799829 1 1 1 1 1 1 1 0.050201262106337984 1 1 1 1 1 1 1 1 1 1 1 1 1 1 1 1 1 1 1 1 1 0.052750257399521522 1 1 1 1 1 1 1 1 1 0.057901653240843995 1 1 1 1 1 1 1 1 0.10479528516576656 1 1 1 1 1 1 1 1 1 1 1 1 1 1 1 1 1 1 1 0.10000995025989555 1 1 1 1 1 0.11233078521426561 1 1 1 0.049826664099476198 1 1 1 1 1 1 0.044704516763866324 1 1 1 1 1 1 1 1 1 1 0.052493402209746354 1 1 1 1 1 1 1 1 1 1 1 1 0.049078704674750326 1 0.057945042376474507 1 1 1 1 1 1 1 0.099855957910081283 1 0.057264601218715711 1 1 1 1 1 1 1 1 1 1 1 1 1 1 1 1 1 1 1 1 1 1 1 1 1 1 1 1 1 1 1 1 1 1 1 1 1 1 1 1 1 1 1 1 1 0.054065484955140096 0.055534802614195924 1 1 0.049773946538804986 1 1 1 1 1 1 1 1 1 1 1 1 1 1 1 1 0.047604781663918579 1 1 1 1 0.1030335904646274 1 1 0.050651328232575732 1 1 1 1 1 1 0.095822669378912637 1 0.090980786436381259 1 1 0.049855358622283727 1 1 1 1 1 1 1 1 1 1 0.049234381291850579 1 1 1 1 1 0.055844269726820883 0.050061308357513656 1 1 1 1 0.069113925428715028 1 1 0.070918066673812521 1 0.066909146129841279 1 1 1 1 1 0.054366464417617721 1 1 0.050016828604860737 1 1 1 1 1 1 1 1 1 1 1 1 0.052255016404025793 1 1 1 1 1 1 1 1 1 1 1 1 1 1 1 0.051934615195134863 1 0.050003569113321218 1 0.054447911848812515 0.054373637675967812 1 0.053643757850034911 1 1 0.050045947557224787 1 1 1 1 1 1 0.04098080233298039 1 0.049767246352482225 1 1 0.039524930825648438 1 1 1 0.071680563258345459 1 1 0.050055438362625118 1 1 1 1 1 0.060867436795984629 1 1 0.054798457941852279 1 1 1 1 1 0.050689221531440266 1 0.067647135746464415 1 1 0.069930608323629351 1 1 0.058082835373848257 1 1 1 1 1 1 1 1 0.055716997508126732 1 1 1 1 1 1 1 1 1 1 0.053466637806097922 1 1 1 1 0.048143428487884943 1 1 0.043326406965627812 1 1 1 1 1 0.066036144047164458 1 1 1 1 1 0.049993200108717273 1 0.049706148931554173 1 1 1 1 1 1 0.050797002867270791 1 1 1 1 1 1 1 1 0.063438886643853096 0.059450652513808086 0.051359382711848145 1 1 1 1 0.062180694673095407 1 0.05026566928443757 1 1 1 0.072636953581067171 0.050038915228207775 1 1 1 0.05298922107499706 1 1 1 0.059306546094326777 1 0.049980308568080195 1 0.052573103541412314 0.067216837181859945 1 0.050000164610388226 1 1 1 1 0.060236432209756899 1 1 1 0.05063487907233627 1 0.053330650125325459 1 0.067562413704049765 1 1 1 1 1 1 1 0.050313428326387521 1 1 1 1 0.068247378049120927 1 1 1 1 1 1 1 1 0.049985095317341952 1 0.051027205365200633 0.05163350248530834 1 1 1 0.051832540399810161 1 1 1 1 0.051525879013365639 0.05420119278361725 1 1 0.068130461563637931 0.050159919206459749 1 1 1 1 1 0.050062157278527857 1 1 1 1 1 1 1 1 0.050061824954551318 1 0.050117500130797063 1 1 1 1 1 1 1 1 1 1 1 1 1 1 1 1 1 0.050053135999654434 1 1 1 1 1 1 1 1 1 1 1 1 1 1 1 1 1 1 1 1 1 1 1 1 1 0.049950361707250833 1 0.050170282779929021 1 1 1 1 1 0.049996401655291511 0.050012838259187495 1 1 1 1 0.052171884187700773 0.04943139774272786 1 0.048097815871569027 1 1 0.052088868036359343 1 1 0.050406736927040049 1 1 1 1 0.051300811961854861 0.049937090886753251 1 1 1 1 1 1 1 1 0.049995600067037377 1 1 0.049981806776094581 1 1 1 0.050057534785367994 1 1 0.050011019525287081 1 1 1 1 1 1 0.049899165930315389 1 1 1 1 1 1 0.050717743373788898 1 1 1 1 1 0.049633729180196234 1 1 0.050943863361847044 0.051030946459037496 1 1 0.051818891269020367 1 1 0.050007919547890356 1 1 1 1 1 1 1 1 1 1 1 1 0.049731784113601622 1 0.054133533715898768 1 1 0.052008438124063805 1 1 1 1 1 1 0.049990549691146899 1 1 1 0.050454630861863844 0.050622627359147188 0.050004299399581217 1 1 1 0.06264509378908302 0.048489518371351112 1 0.053243222494256587 0.055238484868169124 1 1 0.05077694179705633 1 1 0.050598403581140115 1 0.05074756297394685 1 0.048609835758375866 1 1 1 0.052880967608780804 0.050483451655945824 1 1 0.053747741219406814 0.048227372899208608 0.049444987419986632 0.049823783339332496 1 1 1 0.049030371372508409 0.052316985475316463 1 1 0.050382682626133768 0.050547531271550539 0.052036555271090024 1 0.046570442629366077 0.052523710202355925 1 1 0.058205033923265592 1 0.051230521170771329 0.054004465408897015 1 0.056674815508256857 1 1 0.049413342132871504 1 0.053656806830059758 0.050074341356685828 1 1 1 1 0.050587628254763629 0.051459186196923391 1 1 0.049959804601638944 1 1 1 0.050423287549018009 1 1 1 1 1 1 1 1 1 1 1 1 1 1 1 1 1 1 1 1 1 1 1 1 1 1 1 1 1 1 1 1 1 1 1 1 1 1 1 1 1 1 1 1 1 1 1 1 1 1 1 1 1 1 1 1 1 1 0.057799829079103936 1 0.052014044076457017 1 1 1 1 1 1 1 1 1 1 1 1 1 1 0.05620376474293845 1 1 1 1 1 1 1 1 1 1 0.052875325489810159 1 1 1 1 1 1 1 1 1 1 1 1 1 1 1 1 1 1 1 1 1 1 1 1 1 1 1 1 1 1 1 1 1 1 1 1 1 1 1 1 1 1 1 1 1 1 0.049792060061195374 1 1 1 0.049144447688378445 1 0.051158985470175625 1 1 1 1 1 0.053012940689371353 1 0.053810575453288878 1 1 1 1 1 1 1 1 1 1 1 1 1 1 1 1 1 1 1 1 1 1 1 1 1 0.051490924957278306 1 1 1 1 1 1 0.062962782885809421 1 0.054524864007560431 1 1 1 0.074287668538762147 1 1 0.070134823791692918 1 1 1 1 1 1 1 1 1 1 1 1 1 1 1 1 1 1 1 1 1 1 1 1 1 1 1 1 1 1 1 1 1 1 1 1 1 0.046070810368985304 1 0.058055237180781365 1 1 1 1 1 1 1 1 1 1 0.049884624857778323 1 1 1 1 1 1 1 1 1 1 1 1 1 1 1 1 1 0.060307836558333286 1 1 1 0.049984950257854349 0.056533191320045091 1 0.049271049184241494 1 1 1 1 1 1 1 1 0.053049116184567702 1 1 1 1 0.05215148421247591 1 1 1 1 1 1 1 0.050048928177810321 1 1 0.076844565660501796 1 0.068368438973264514 1 1 0.050215599517751584 1 1 0.037292535691908699 0.049962470853170314 1 1 1 1 1 1 1 1 1 1 1 1 1 1 1 0.076454877779224259 1 0.044215151195824878 1 1 1 0.058797169832730339 1 0.04684785620228326 1 1 1 1 1 1 1 1 1 1 1 1 0.049659313409503109 1 0.052678138810026864 1 1 1 1 1 1 1 1 0.049622766454687481 1 1 0.049791911680653361 1 1 1 0.05876803655979973 0.05599629236807771 1 1 1 1 1 1 1 1 1 1 1 1 1 1 1 1 1 1 1 1 1 0.050300321696379435 1 1 1 1 1 0.049995299370613873 1 0.049464548110819136 1 1 1 1 0.05068005887800394 1 1 0.056365294266107306 1 1 1 1 1 0.059847999637858848 1 1 1 1 0.06654494061648504 1 1 1 1 1 1 1 0.051566097561309421 1 1 1 0.05411216893331678 1 1 1 1 1 1 1 1 1 1 1 0.052640743598844818 1 1 1 1 1 1 1 1 0.049870708824227158 1 1 1 1 1 1 0.049749412460737434 1 1 1 1 1 1 0.049924378244383165 1 1 1 1 1 1 1 1 1 1 1 0.048383005236646848 1 1 1 0.049850620562483308 1 1 1 0.056214863798348766 1 0.055765458771214152 1 1 1 1 1 1 0.050045674607872896 1 1 1 1 1 1 1 1 1 1 1 1 1 1 1 0.05523881193507435 1 1 1 1 1 0.058258837988733068 1 1 1 1 1 1 1 1 0.053390850125293293 1 1 1 1 1 1 1 1 1 1 1 1 1 1 1 1 0.049213388891618602 1 1 1 1 0.051699975140745688 1 1 1 1 1 1 1 1 1 1 1 1 1 1 1 1 1 1 1 1 1 1 1 1 1 1 0.057396459226337661 1 1 1 0.049963222505131459 1 0.0509987202426707 1 1 1 1 0.053614921597820719 1 0.051440997063602417 1 1 1 1 1 0.050647129321184092 1 1 1 1 1 1 1 1 1 0.059448023931733492 1 1 1 1 1 1 1 1 1 1 1 1 1 1 1 1 1 1 1 1 1 1 1 1 0.047995144518423127 0.051618410967582337 1 1 1 1 1 0.049987732744188974 1 1 1 0.049164079176879177 1 1 1 0.047490559080164141 1 1 0.054564166044092297 1 0.049495525442068325 1 1 1 1 0.049564213938833951 1 1 1 1 0.049320252347389383 0.049985539286388631 1 1 1 1 1 1 1 1 1 1 1 1 0.049938487043959659 1 1 1 1 0.050001240240662596 1 1 1 1 1 0.051485025531005424 1 1 0.05051236345641795 1 1 1 1 1 1 1 1 1 1 1 1 1 1 1 1 0.049991192741729557 1 1 0.050409482479852108 1 1 1 0.050777044104183107 1 1 1 1 1 1 1 1 1 1 1 0.050367561624331002 1 1 1 1 1 1 1 1 1 1 1 1 1 1 1 1 0.050181388519847894 1 1 0.060452837548736781 1 0.056154763851170318 1 1 0.056077613618436009 1 0.050565711979524905 1 0.055061203565644173 1 1 1 1 1 1 1 1 1 1 1 1 1 0.053231453338987184 1 0.053109281452222948 0.049928283968358945 1 1 0.052581431472834027 0.050317051012311001 1 1 0.049998221208593839 0.050409609609488634 1 1 1 0.052496721515609163 1 0.051438997102929589 1 1 0.053292171280746065 1 1 1 1 0.053448260394473805 0.050073746621136339 1 0.058850958116628049 1 1 0.049798946306637254 0.050027858437094383 1 1 0.050571937157525323 1 1 1 0.050897738728532961 1 1 1 0.053115428698452941 0.056888987881636113 0.050484662762156352 1 1 0.049392486529472812 1 0.065657130885874063 0.050011536941744955 1 1 1 1 1 1 1 1 1 1 1 0.050957526574422055 0.051902740480920022 1 0.05210179047530266 1 0.051553874728197564 1 0.050041731936087734 1 1 1 0.05003446970792181 1 1 1 1 1 0.050737896269173549 1 1 1 1 1 1 1 1 1 1 1 1 1 1 1 1 1 1 1 1 1 1 1 1 0.052785243658524793 1 1 1 1 1 1 1 1 1 1 1 1 1 1 1 1 1 1 0.054975659922389453 1 1 1 1 1 1 1 1 1 1 1 0.054531838315491167 1 1 1 1 1 0.052449385554035596 1 1 1 1 1 1 1 1 1 1 1 1 1 1 0.052098607084827234 1 1 1 1 1 1 1 1 1 1 1 1 1 1 0.048497978148807297 1 0.059171787934037587 1 1 1 1 0.055909525417509542 1 1 1 1 1 1 1 1 1 1 1 1 0.048224399768938046 1 0.049952246077789052 1 1 1 1 0.049075843023954069 1 1 1 1 1 1 1 0.058768742941959336 1 1 1 1 1 1 1 0.050006146242516397 1 1 1 0.047098919397708966 1 0.049999600831135346 1 1 1 1 1 1 1 1 1 0.04883079008951316 1 1 1 1 1 1 1 1 1 1 1 1 1 1 1 1 1 1 1 1 1 1 1 1 1 1 1 1 1 1 1 1 1 1 1 1 1 1 1 1 1 1 1 0.04990411987893846 1 1 0.048418198768680226 1 1 1 1 1 1 1 1 1 1 0.049969932297089528 1 1 1 1 1 0.05046081709859046 1 1 0.049463857693973767 1 1 1 1 1 1 0.047640096225333613 1 1 1 1 0.050012235804390945 1 1 0.048479050588858617 1 0.049183693156690036 1 1 1 1 1 1 1 1 1 1 1 0.049673411923907049 1 0.048381556439765883 1 1 1 1 0.049924607373047977 1 1 1 1 1 1 1 1 1 1 1 1 1 1 1 1 1 1 1 1 1 0.053839337654520161 1 1 1 1 0.051464729196537412 1 1 1 1 1 1 1 0.049393831123569716 1 1 1 1 1 0.055537935724997774 1 1 1 0.053060003817218614 1 1 1 0.053477567430643233 1 1 0.051439700123816656 1 1 1 0.050213882440003646 1 1 0.050048507803835386 1 1 1 1 1 1 1 1 1 1 1 1 1 1 1 1 1 1 1 1 1 1 1 1 1 1 1 1 1 1 1 0.051537090591385129 1 1 1 1 1 1 1 1 1 1 1 0.052619703940781165 1 1 1 1 1 1 1 1 1 1 1 1 1 1 1 0.057654268312250012 0.051982669451695065 1 1 1 0.052899493356653636 1 1 1 1 0.054392261108492324 1 1 0.053106866148117902 1 1 1 1 1 1 1 1 1 1 1 1 1 0.056657825599368203 0.052546601769521258 1 1 1 1 1 1 1 1 1 1 1 0.067018732007536733 1 1 0.0573928240876697 1 1 1 1 1 1 1 1 1 1 1 1 1 1 1 1 1 1 1 0.061713066691370909 1 1 1 0.05016543717078141 1 1 1 1 1 0.047114168737490386 1 1 1 1 1 1 1 1 1 1 1 1 1 1 1 1 1 1 1 1 0.054468290308811375 1 1 0.052321318907011187 1 1 1 1 1 1 1 1 1 1 1 1 1 1 1 1 1 1 1 0.055574654310776531 1 1 1 1 1 1 1 1 1 1 1 1 1 1 1 1 1 1 1 1 1 1 1 1 1 1 1 1 1 1 1 1 0.050392155340514694 1 1 1 1 1 1 0.065651703394806527 1 1 1 1 1 0.065363216176248379 1 1 1 1 0.064247178367570393 1 1 1 1 1 1 1 1 1 1 1 1 1 1 1 1 1 1 1 1 1 1 0.061604060292823636 1 1 1 1 1 1 1 0.05492316733563285 1 1 0.05499803172804256 1 1 0.049481050649949912 1 1 1 1 1 1 0.052437284638507289 1 1 1 1 1 1 1 1 1 1 0.038478568177537524 1 0.064585976836767395 1 1 1 1 1 1 1 1 0.049874082428197922 1 1 0.037003407908304836 1 1 1 0.062890427271696109 1 1 1 0.06007701908830989 1 1 1 0.050180418275072344 0.051241632914208676 1 1 0.045526093110197993 1 1 0.045559099752082687 1 1 0.050248581832291674 1 1 1 1 1 1 1 1 1 0.050248518323476841 1 1 1 0.045885609360877572 1 1 1 0.04567937686239195 1 1 1 0.050021633379392014 1 0.050052426881828191 1 1 0.04858213272969851 1 1 1 1 1 1 1 1 0.047055998870373338 1 1 0.047902443473385611 1 1 1 1 1 1 1 1 1 1 1 1 1 0.046900775999223474 1 0.049975353029279163 1 1 1 0.047605869524000442 0.053230710065997444 1 0.048655543861369173 1 1 1 1 0.050033671508853426 1 0.05295231286669181 1 1 1 1 1 1 1 1 1 0.050882676364903075 1 1 1 1 1 1 1 1 1 1 1 1 1 1 1 1 1 1 1 1 1 1 1 1 1 1 1 1 0.049236986818887989 1 1 1 1 1 1 0.051063299536631156 1 1 1 1 1 1 0.050806505766261841 1 1 1 1 1 1 0.050286976554119546 1 1 1 0.050025194301517445 1 1 1 0.049948074688887359 1 1 0.045036705251701288 1 1 1 1 1 1 0.050669895527427115 1 1 1 0.041187261655270091 0.055426591881969259 1 1 1 1 1 1 1 1 1 1 1 1 1 1 1 1 1 0.053469848069037665 1 1 1 1 1 1 1 0.050107547767257517 1 1 1 1 1 0.0469898110511308 1 1 1 1 1 0.049820585992700034 1 1 0.063331216761068496 1 1 1 1 0.050057577069398826 1 1 1 1 1 1 0.082874229475859887 1 0.046253837558090968 1 0.083181356019794164 0.04486041341826754 1 0.048649289560558522 1 1 1 0.053737530460145941 1 1 1 1 1 0.059011888474116522 1 1 1 0.051950099744891794 1 1 1 1 0.055291361402958962 0.048909097657231768 0.058580340351799091 1 1 1 1 0.050220280169986704 0.051606998385670746 1 0.053261472142886804 1 1 1 1 1 1 0.050013558780013623 1 0.04321967626163184 1 1 0.049865964340498385 1 1 1 0.045420302753564366 1 1 0.054586610048987655 1 1 1 1 1 1 1 1 1 1 1 1 0.050497608554315482 1 1 1 1 0.043585727372527069 1 1 1 1 0.042983743376404829 1 1 1 1 1 1 1 1 1 0.051487615351016286 0.048325358010296957 0.061549688234097399 1 1 1 0.05000107359577434 0.050033586767241685 1 1 0.050454185872224819 1 0.047906753965024938 1 1 1 1 1 1 1 0.072346169748968361 1 1 1 1 1 1 1 1 1 1 1 1 1 1 1 1 0.050201995591292542 1 1 1 1 1 1 1 1 1 0.050595294449343367 1 1 0.04177466443311862 1 0.053593528827563887 1 0.050175787529561984 1 1 0.07078818397298238 1 1 1 0.050004217122196645 0.052661519213068164 1 1 0.049160579803347294 1 1 1 0.071757830237424311 1 1 1 1 0.049705143237362401 1 1 1 1 1 1 1 1 1 1 1 0.05305209228276811 0.050054206978415339 1 1 1 1 1 1 1 1 1 1 1 1 1 1 1 1 1 1 1 1 1 1 1 1 1 1 1 1 1 1 1 1 0.050132951510724222 1 1 1 1 1 1 1 1 1 1 1 1 1 1 1 1 1 1 1 0.062686285786144658 1 1 1 1 1 1 0.050046986948514907 0.054849065936567423 1 1 0.053380864362052742 0.053325618797527279 1 1 1 0.05402995288408495 1 1 1 1 1 1 1 1 1 1 1 1 1 1 1 1 1 1 1 1 1 1 1 0.058062274008505124 1 0.054377627855458653 1 0.052701705356001105 1 1 1 1 1 1 0.043852946007392743 1 0.052268449587337971 0.053901932132026278 1 1 0.080506648771980105 1 1 1 1 1 1 0.049966163891475054 0.084316381237839855 1 1 0.052577659849738917 0.048355645984250628 1 1 0.044572795674002436 0.049987958606068125 1 1 1 1 1 1 1 1 0.044311859094613472 1 1 1 1 1 0.047604632005893099 1 1 0.084391290327614957 1 1 1 0.049907074486313041 1 1 1 1 1 1 1 1 1 1 1 1 1 1 1 1 1 1 1 1 1 1 1 1 1 1 1 1 1 1 1 1 1 1 0.050782106444906244 1 1 0.036808079737454036 1 0.070720097493226761 0.04399397107172686 1 1 1 1 1 1 1 1 1 0.068077197292198396 1 1 1 1 1 0.065368193368728816 1 1 1 1 1 1 1 0.050422374351052159 1 1 1 1 1 1 1 1 0.051283463992514489 1 1 1 1 1 0.052089573056834322 1 1 1 1 1 1 1 1 1 1 1 1 1 1 1 1 1 1 1 1 1 1 1 1 1 1 1 1 1 1 0.050067627283193958 0.050233208444839125 1 1 1 1 1 1 1 0.051037605814835019 1 1 1 0.050095768169330313 1 0.050665498074411522 1 1 1 1 1 1 1 1 1 1 1 1 1 1 1 1 1 1 1 1 1 0.050209305437290658 1 1 1 1 1 1 0.050234429322210283 1 1 1 1 1 1 1 0.050012282482944356 1 1 0.050056723248560447 1 1 1 1 1 1 0.049215957307610511 1 1 1 0.053662156062296164 1 1 0.056305691065407733 0.048898081120666112 1 1 1 1 1 1 1 1 1 1 1 1 1 1 1 1 1 1 1 1 1 1 1 1 1 1 1 1 0.050543770324488868 1 1 1 1 1 1 1 1 1 1 1 1 1 1 1 1 1 1 1 0.040292780806895419 1 1 1 0.045992973486253919 0.050082133167667256 1 1 1 1 1 0.050037785584025357 1 1 1 0.050271729661441195 1 1 1 1 1 0.050421079931824792 1 1 1 1 1 1 1 1 1 1 1 1 1 1 1 1 1 1 1 1 1 0.050101344080386856 1 1 1 1 1 1 0.049754416916263387 1 1 1 1 1 1 1 1 1 1 1 1 0.050090748366904699 1 1 1 1 0.053695859408028762 1 0.050090887749394838 1 1 1 1 1 1 1 1 1 1 1 1 1 0.048910687337508689 1 1 1 1 1 0.046515005735374856 1 1 1 1 1 1 0.053685723612044073 1 1 1 1 1 1 1 1 1 1 1 1 0.053845312898213857 1 1 0.060156320822692552 1 1 0.048380877625665342 1 1 0.049567570297860165 1 1 1 1 1 1 1 1 1 1 0.066104496088933096 1 1 1 1 1 1 1 1 0.050058848584129442 1 1 1 0.049976457207098056 1 1 1 0.051294516217501751 1 1 0.07141726206716334 1 1 1 0.055412919349577552 1 1 1 1 1 0.071204739611182746 1 0.049997240510546014 1 1 1 1 0.049962589465208415 0.065749682932143838 1 1 1 0.049239240317012545 1 1 1 1 0.04983053033203487 1 1 1 1 1 1 1 1 1 1 1 1 1 1 1 0.050418516533119961 1 1 0.06959934587186492 0.065711243592243312 1 1 1 1 0.063561860179114527 1 1 1 1 1 1 0.052750062503385306 1 1 1 1 1 1 0.050900636405161973 1 1 1 1 1 1 1 1 0.04938529327610483 1 1 1 1 1 1 1 1 1 1 0.050619356038441067 1 1 0.04962244084692391 1 1 0.053259949069701537 1 1 1 1 1 0.0586723399577481 0.049942451917103656 1 1 0.049999661232877357 0.051734672426401701 1 0.053238067801438207 1 0.048453493174779053 1 0.050363742837267626 0.048625703620204262 1 1 0.050412192732632796 1 0.055321327358429082 1 0.048227671300999253 1 0.051282432722639798 1 0.053774656403167961 1 1 0.050032267039816183 1 0.059529622103028819 1 0.059096731439909955 1 1 1 1 1 1 0.066959576254988315 1 1 1 0.050038582426480661 1 1 1 1 1 1 1 1 1 0.052456802383769062 1 1 0.06499179739277719 1 0.050767933121131113 1 0.047514564813015719 1 1 1 0.044666961193183821 0.051460935355195407 1 1 1 1 1 1 1 1 1 1 1 0.050183479990525387 1 1 1 1 1 0.049941800230785705 1 1 1 1 1 1 1 1 1 1 1 1 1 1 1 1 1 0.049942767653512674 1 1 1 1 1 1 0.055635793450053428 1 1 1 0.055461466227211084 1 1 0.05105092446553483 1 1 1 0.046038845463302169 1 0.054339394307177144 0.051247252278184593 1 1 1 1 1 1 1 1 1 0.047002908409611709 1 1 1 1 1 1 1 0.050122280311946939 1 0.050072427843369773 1 0.050035547318609937 1 1 1 1 1 1 1 1 1 1 1 1 1 1 1 1 1 1 1 1 1 1 1 1 1 1 1 1 1 1 1 1 1 1 1 1 1 0.05960944337047943 1 1 0.05975033094051057 0.045485006685941382 1 1 1 1 0.044580028889817241 1 1 1 1 1 0.059624532233242496 1 1 0.049980819617443675 0.076653575606365029 1 1 1 1 1 1 0.061119930235259301 1 0.050012545278177716 1 1 0.0452109605391861 0.049928038292761809 1 0.058238123012578975 1 1 1 0.05113627444342754 1 1 1 1 0.051422528640335474 1 1 1 0.047417451765108726 1 1 0.060336847623462087 0.049887663671435399 1 1 1 0.052689798205129798 1 1 1 1 0.050351585364734469 1 1 0.050860738150241488 1 1 1 0.055100517689037148 1 1 0.053740381015892208 1 1 1 0.063245618534330306 1 0.063252145516085462 1 1 0.048875676395006361 1 1 0.056547457115801274 0.049970850266197943 1 1 0.0588747720881026 1 0.04993928261042023 0.056123431998326936 1 1 1 1 0.073453683609381162 1 1 1 1 0.077381955308395423 1 1 1 1 1 1 1 1 1 1 1 1 0.049050488682666135 1 1 1 1 0.049998359005139041 1 0.06010174997943684 1 1 1 1 1 0.061695344575212259 0.049997399531363708 0.050032615082897171 1 1 1 1 1 1 1 1 0.057892345698676607 1 1 1 1 1 1 0.047700219923326737 1 1 1 1 0.044858431492415154 1 1 1 1 1 1 1 1 1 1 1 1 1 1 1 1 1 1 0.051866953633710675 1 0.081109012835175853 1 1 0.047058098316780594 0.071712199573496671 1 0.063088224909542037 1 1 0.05117006770505772 1 0.049630437011153057 1 0.04886966853485164 1 0.050513493358594577 1 1 1 1 0.050152931953905827 1 1 1 0.051325937239696015 1 1 1 1 1 1 1 1 1 1 1 1 1 1 1 1 1 1 1 1 1 1 1 1 1 0.050216988059078954 1 1 1 1 1 0.060206831953911931 1 1 1 1 1 1 1 1 1 1 1 0.050485865322126053 1 1 1 1 1 0.050076027945288003 1 1 0.04628157248715456 0.064056260185557018 1 1 1 0.054379749627118792 1 1 0.050108187778533264 0.054711616406352533 1 0.061915277943580566 1 1 1 1 1 1 1 1 1 1 1 1 1 1 1 1 0.050520762092583896 1 1 1 1 0.050038560753476909 1 1 1 1 1 1 1 1 0.050271286216384548 0.050241309444860473 1 1 0.050014237131729318 1 1 1 1 1 1 1 1 1 0.050183036103776266 0.050161322348571145 1 1 0.049999750695541523 1 1 1 0.049987669212735814 1 1 1 1 1 1 1 1 1 1 1 1 1 1 1 1 1 1 1 1 1 1 1 1 1 1 0.050149504141015031 1 1 1 1 1 1 1 1 1 1 1 1 1 1 1 1 1 1 1 1 0.046672186909475291 1 1 1 0.056855035720653521 0.050000871761712057 1 1 1 0.041921834056730972 1 1 0.04965940735824953 1 1 1 1 1 0.051021949843853498 1 0.055274088747659655 1 1 1 1 1 1 1 1 0.048666968139008754 1 1 1 0.047732317688710425 1 1 0.049288914647337534 1 0.050001040202103157 1 1 1 0.054190723029516857 1 1 1 0.061745144615961541 1 1 1 1 1 1 1 1 1 1 1 1 1 1 1 1 1 0.066182184090496116 1 1 1 1 1 1 1 1 1 0.052547957405110007 1 1 1 1 1 1 1 1 0.06746976343909214 1 1 1 1 1 1 1 1 1 1 1 1 1 0.049981525836231881 1 1 1 0.048815283724661401 1 1 1 1 1 1 1 1 1 1 1 1 1 1 1 1 1 1 1 0.056870467044242215 1 1 1 0.052135379033456386 1 0.050033994028044163 1 1 1 0.04751935731918501 1 1 1 0.049976965246884407 0.060321908457681664 1 1 1 1 1 1 1 1 1 1 1 1 1 1 1 1 1 1 1 1 1 1 0.05105358604593533 1 1 1 1 0.052267695272725179 1 1 1 1 0.051214109226789845 1 1 1 1 1 1 1 0.054019173456315531 1 1 1 1 0.052646395116106484 1 1 1 1 1 1 0.050943759864568387 1 1 1 1 1 1 0.050483416738532384 1 1 1 0.050214259097258906 1 1 1 1 1 1 1 1 1 0.050806377233830614 1 1 1 1 1 1 0.052006594358372328 1 1 1 1 1 1 1 1 1 1 1 0.049995263178964439 1 1 0.044845825954718394 1 1 1 1 1 0.050343338734409833 1 1 0.053296467715443163 1 1 1 1 1 1 1 0.045990561084940283 0.06384704297940301 1 1 1 1 0.067367436626556532 1 1 1 1 1 1 0.049996468693973756 1 1 1 1 1 1 1 1 1 1 0.047279014003681064 1 1 1 1 1 1 1 1 1 1 1 1 0.047811751144127529 1 0.050104180012662369 1 1 1 0.032046696195310628 1 1 0.081263371015375063 1 1 1 1 0.033352679289037214 1 1 1 1 1 0.082234298592663541 1 1 1 1 1 1 1 1 0.07996314958750117 1 1 1 1 0.04853036164815127 1 1 1 1 1 1 1 0.04949464546606297 1 1 1 1 1 1 1 1 1 1 0.04875846892640294 1 1 1 0.050888669226688499 1 0.050859080824855865 1 1 1 1 1 1 0.048878269895110092 1 0.052857712932434048 1 0.050106946353251448 1 1 1 1 0.048525710573949082 1 1 1 1 1 1 1 1 1 1 1 1 1 1 0.051089826982113742 1 0.03020556943498804 1 1 1 1 1 1 1 0.049671215450190459 1 1 1 1 1 1 1 1 1 1 1 1 1 0.035268986205408512 1 1 1 1 0.040685481970070207 1 1 1 1 1 1 1 1 1 1 1 1 1 1 1 1 1 1 1 1 1 1 1 1 0.049581741381547875 1 1 1 1 0.073419002633034469 1 1 1 0.05001481629047045 1 1 0.050012811203332175 1 1 0.049990258824800501 1 1 1 1 1 1 1 1 1 1 1 1 1 1 1 0.049999720656337329 1 1 0.049972450353242402 1 1 1 1 1 1 1 0.04799660386434558 1 1 1 1 1 0.047572466561087809 1 1 1 0.056309304823164791 1 1 1 0.058308733318471459 1 1 1 1 1 1 1 0.057765994232784765 1 1 1 0.04941898283682019 1 0.05186468659781842 0.050188113510712201 1 1 1 1 1 0.050224202428754257 1 1 1 1 1 1 1 1 1 1 0.057506529779975314 1 1 1 1 1 1 1 1 1 1 1 1 1 1 1 1 1 1 1 1 1 1 1 1 1 1 1 1 1 1 1 1 1 1 1 1 1 0.050000641991161644 1 1 1 1 1 1 1 1 1 1 1 1 1 1 1 1 0.04998664562648765 1 1 1 1 1 1 1 1 1 0.050000632862264173 1 1 1 1 1 1 1 0.049996386801687172 1 1 1 1 1 1 1 1 1 1 1 1 1 1 1 1 1 1 1 1 1 0.053979537733535497 1 1 1 1 1 1 1 1 1 1 1 1 1 1 1 1 1 0.054488768753026037 1 1 1 1 1 1 1 1 1 1 1 1 1 1 1 1 1 1 1 1 1 1 1 1 1 1 1 1 1 1 1 1 1 1 1 1 1 1 1 1 1 1 1 1 1 1 0.05344035164990709 1 1 1 1 1 1 1 1 1 1 1 1 1 0.054438658369975253 1 0.049956278021486701 1 1 1 1 1 0.049857521568004548 1 1 1 1 1 0.050737886528645512 0.051041953262315191 1 1 1 1 1 1 1 1 1 1 1 1 1 1 1 1 1 0.049518386924538318 0.054353202187123875 1 1 1 1 1 1 0.050277987049403436 1 0.054155408657057542 1 1 1 1 1 1 1 1 1 0.052926310995004569 1 1 1 1 1 1 1 1 1 1 1 1 1 1 1 1 1 1 1 0.051478439032258419 1 1 1 1 1 0.049529554208252391 1 0.048946374245671602 1 1 1 1 1 1 1 0.048767037107896552 1 1 1 0.049416820037419221 1 1 1 0.045919580546383211 1 1 0.046071269024142103 1 1 1 0.071797422878025804 1 1 0.065702570227794188 1 0.076732787513337591 1 0.07732465809283362 1 1 0.062990466344198401 1 1 1 1 1 1 1 1 1 1 1 1 1 1 1 1 1 1 1 1 1 0.050110547642108427 1 0.077406362689234981 1 1 1 1 1 1 1 0.077270917215371548 1 1 1 1 1 1 1 1 1 1 1 1 1 1 1 1 1 1 1 0.050324806739367352 1 1 1 0.050557836728583092 1 1 1 1 1 1 1 1 1 1 0.052840976408822155 1 1 1 1 0.056057497081077462 1 1 0.051046005815996873 1 1 1 1 1 0.057271992897502816 1 1 1 1 0.048503662752923754 1 0.052271567158103494 1 1 0.073816980054198747 1 1 1 1 1 1 1 0.071356412164136615 1 1 0.052227018013999586 1 0.067060005178482845 1 1 1 1 1 1 1 1 1 1 1 1 1 1 1 1 1 1 0.052466306876981381 1 1 1 1 1 1 1 0.050051896272694685 1 1 1 1 0.052742432180101634 1 1 1 1 1 1 1 1 1 0.050488169087413784 1 1 1 1 0.055682827549236681 1 1 1 1 1 1 1 1 1 1 1 1 0.049204509667628862 1 1 1 1 1 1 1 1 1 0.063066971035419653 1 1 1 1 1 1 1 1 1 1 1 1 0.05640154099828347 1 1 0.051552201086585536 1 1 1 1 1 1 1 1 1 0.050528705363238106 0.078296517921568914 0.064506852846645646 1 1 1 0.050004021589188215 1 1 1 1 1 1 0.066041617059511531 1 1 1 0.049766281028530195 0.049775754009011859 1 1 1 1 1 1 1 1 1 1 1 1 0.069328382669025329 1 1 1 0.050205429709843305 0.044803571940980655 1 1 1 1 1 0.046786240856486527 1 1 1 1 0.057121353718042472 1 1 1 1 0.050102395658697771 1 1 1 1 1 0.074853746872814042 0.054819155742588804 0.051984080650593872 1 1 1 0.048308806141176101 0.04487395580153395 1 1 1 1 1 1 1 1 1 0.072681274445664801 0.050093081190066772 1 1 1 0.050292923401897338 0.050233032505896794 1 1 1 1 1 1 1 1 1 1 1 1 1 1 1 1 1 0.073298299314670662 1 0.07386130704941693 1 1 1 1 0.066119967732518409 1 1 1 1 1 1 1 0.06584131118916825 1 1 1 1 1 1 1 0.074538482217465313 1 1 0.051844876589465676 1 0.064497042245135222 0.053699682411662758 1 1 1 0.052839758109225685 0.050014204059341719 1 1 1 0.049856470445224475 0.053690369698483807 1 1 1 1 1 1 1 1 1 1 0.051987670051748959 1 1 1 1 1 1 1 0.057120860450440264 1 1 1 1 0.055659505135937606 1 1 1 1 1 1 0.06778154311984258 1 1 1 1 0.051464370717993237 1 0.062743452638794411 1 1 1 1 1 1 1 1 1 1 1 1 1 1 0.064886580496094137 1 1 1 1 1 1 1 0.070196833638137918 1 1 1 1 0.050077808595265047 1 1 1 0.04513660070206877 1 1 1 1 1 1 1 1 1 1 1 1 1 1 1 1 1 1 1 1 1 1 0.047323665784612334 1 0.049218282671968747 1 1 0.049671148664824909 1 1 1 0.048904573143558838 1 1 0.048677156623400303 1 1 1 1 1 1 1 1 1 1 1 1 1 1 1 1 1 1 1 1 0.049784956554427315 0.047978801102653297 0.048481921621986432 1 1 1 1 1 1 1 1 1 1 1 1 1 0.054258625688064936 1 1 1 0.052685604497074608 1 1 0.051725068269077024 1 1 1 1 0.051574408177846899 1 1 0.058284027893002757 0.048124558726787732 1 1 1 1 0.04994634528097866 1 1 0.05028721835370107 1 0.050101358874510227 1 1 1 1 1 1 1 1 1 1 1 1 0.054376347908600194 1 1 1 1 1 1 1 0.050730664771477363 1 0.049422935084171254 1 1 1 1 0.053043373175238412 1 1 1 1 1 1 1 1 1 1 1 1 1 1 1 1 1 1 1 1 1 1 1 0.051734970573192471 1 1 1 0.049316243145564126 1 0.054910332447201948 1 1 1 0.04689456108169815 1 1 1 1 1 0.049944639187745873 1 1 0.057183901662875826 1 1 1 1 1 1 1 1 0.05123388718467857 1 1 1 1 1 0.050747098525744799 1 1 1 1 1 1 1 1 1 1 1 1 1 1 0.053045835297300892 1 1 1 1 0.053001260057104163 1 1 1 1 1 1 1 1 1 1 1 1 0.050167932666162984 1 1 1 1 0.050440283027235591 1 1 1 1 1 1 1 1 1 1 1 1 1 0.050385021660787857 1 1 0.050447611233857742 1 1 1 0.051278462424875326 1 1 1 1 1 1 1 1 1 1 1 1 1 0.051329260150578621 0.053867721144998229 1 0.046660232199141782 0.052288969212148609 1 1 1 0.047988575516904254 0.058133667934762975 1 0.044518202746639451 1 0.051531057592340591 1 0.054806550372133216 1 1 1 0.046285584528452932 1 0.050293551350001985 1 1 1 1 0.053786691514488387 1 1 1 1 1 1 0.05017508121353461 1 1 1 1 1 0.058808704192306778 1 1 0.049998434343143022 1 1 0.054114467701439101 1 1 0.050009797612540652 1 1 1 1 1 0.058541393958384487 1 0.059690933419713259 1 1 1 1 1 1 1 1 1 1 1 1 1 0.050571511689644265 1 1 0.050166439763379353 1 1 1 1 1 1 1 1 1 0.052137762551574526 1 1 1 1 1 1 1 1 1 0.051340277940238141 1 1 0.050617091787626786 1 0.049039715975555453 1 1 1 1 1 1 1 0.060672456548892376 1 1 1 1 1 1 1 0.053611830796640225 1 0.061683397421270193 1 1 0.061433461945538018 1 1 1 0.05025627976434012 1 1 1 1 0.050675796575169851 1 1 1 1 1 0.049988159933834063 1 1 1 1 1 1 1 1 1 1 1 1 1 1 1 1 1 1 1 1 1 0.05143827067346507 1 1 0.051503691470720411 1 1 1 0.050823095834311022 1 1 1 1 0.050505703824490947 1 1 1 1 1 1 1 1 1 1 1 1 1 1 1 1 1 1 1 1 1 1 1 0.052786453406540826 1 1 1 1 1 1 0.057628837656298636 1 1 1 1 1 1 1 1 1 1 1 1 1 0.049954852222178756 1 0.068091497560636566 1 1 0.04701635168199484 1 1 1 1 0.048951960719405246 0.052697014900811738 1 0.051361461012815496 1 0.050835387126189707 1 1 1 1 1 0.045353057827084445 1 1 0.088446721372402295 0.090360368249464501 1 1 1 1 1 0.034085169233905178 1 1 0.050001710212807519 1 1 1 1 1 1 1 1 0.066838023420278725 0.033521432385278521 1 1 1 0.054696437932065627 1 0.049972460852629977 1 1 1 1 1 0.047686423037373929 1 0.035229231361081408 1 1 1 1 1 0.048570348990785314 0.048167642956402523 1 1 1 1 0.050058509015060079 1 1 1 1 0.049487445580774211 1 1 1 1 1 1 1 1 1 1 1 1 1 1 1 1 1 0.050919185186962021 1 1 0.050342526684643271 1 1 1 0.050127940683595058 1 1 1 1 1 1 1 1 1 1 1 1 1 1 1 1 1 1 1 0.050667339202537284 1 1 1 1 1 1 1 1 1 1 1 1 1 1 0.049928950796675017 0.049783196196802305 1 1 1 0.050106562841329139 1 1 1 1 1 0.050938097747688857 1 1 1 1 1 1 1 1 1 1 1 0.050208239517561613 1 1 0.050080298833966544 1 1 1 1 1 1 1 1 1 1 0.066974748670059092 1 1 1 0.055620540234212368 1 0.054475550708700887 1 0.05309580985425498 1 1 1 0.050008119096938426 0.056854252023161661 1 0.068457725203526679 1 1 0.050942854445469435 1 1 0.05219744810852088 0.068423508324745919 1 1 1 0.057046050833716409 1 1 0.053892095345055527 1 0.05786725507170791 1 1 1 0.056280258240549962 1 1 0.056379729138837507 0.054723665534031678 1 0.055077179225063014 1 1 0.062318363094517534 1 0.052310102928692724 1 1 1 1 1 1 1 1 1 0.050642568026154008 1 1 1 1 1 0.048997021374255018 1 1 1 1 1 1 1 1 1 1 0.05944813992002787 1 1 1 1 0.054392584001903485 0.056541511836072936 1 1 0.049603916970678966 1 0.051507980683337506 1 1 1 1 1 0.045088057475582297 1 1 0.06181480801842916 1 0.050035216839222123 1 1 1 1 1 1 1 0.062058710594793662 1 1 1 1 1 1 1 1 1 0.0487469096879872 1 0.05001674558146775 1 0.049980988602618598 1 0.060315627877914078 1 1 1 1 0.050079328168794263 1 1 1 1 1 0.050212474362000555 0.054339133669698031 1 1 1 1 1 1 0.049737044462884558 1 1 1 1 1 0.06101739782599231 1 1 1 1 0.047739996083082763 1 1 0.055736574315381628 1 0.073674056397043455 1 1 1 0.056127106954634111 1 0.04801227255901299 1 1 0.050526291689662106 0.050002773216741875 0.04770407973439135 1 1 1 1 1 1 0.050005212720105011 0.053369119911590227 0.049128819383144375 1 1 1 1 0.051011856593241964 1 0.050008161959938582 1 0.051701822896516286 1 1 1 1 1 1 0.050008812392228978 1 1 1 1 1 1 1 1 1 1 1 1 1 1 1 1 1 1 1 1 1 1 1 1 1 1 1 1 1 1 1 1 1 1 1 1 1 1 1 1 1 1 1 1 1 1 1 1 1 0.05228534041117805 1 1 1 0.056987772995228253 0.049952391449768568 1 1 1 1 1 1 1 1 1 1 1 1 1 1 1 1 1 1 1 0.049045727613620291 1 1 1 1 1 1 1 0.049961768201845461 1 1 0.052397820486332972 1 1 0.053738201759822052 1 1 0.049632321386206726 1 0.055669199233634822 1 1 0.057556350967347271 1 1 1 0.050029417935382847 1 0.057221442474742201 1 0.050641392112530888 0.059418793490705064 1 1 1 0.059717800946950818 0.049912106836871889 1 1 0.059001343377343439 1 1 0.059722390303685383 1 1 1 1 1 1 1 1 1 1 1 1 0.06100914532813588 1 1 1 1 0.060841060197097452 1 1 1 1 0.059097695849776956 1 1 1 1 1 1 1 1 1 0.050148135026741147 1 0.050002540555990682 1 1 1 1 0.048537591242001549 1 1 1 0.048566634603307512 1 1 1 1 1 1 0.046711102209636923 1 1 0.050275837929124212 1 1 1 0.059012737718060579 1 1 1 1 1 1 1 0.046661378782232268 1 1 1 1 1 0.048351885051048211 1 1 1 1 1 1 1 1 1 1 1 1 1 1 1 0.044265477283673471 1 1 1 1 1 0.048948908894697996 1 1 0.051904659346021828 1 0.04860857039012903 1 1 1 1 0.049181141327951296 0.05022916137080579 1 1 0.056271165629351555 1 1 1 1 1 1 1 1 1 1 1 0.050159697485207655 1 0.051588360890287926 1 1 1 1 1 0.050481398104104944 1 1 1 0.05083874061411521 1 1 1 0.051157332501416165 1 1 1 1 1 1 1 1 1 1 1 1 1 0.069521329445739799 1 1 1 1 1 1 1 0.053937849400758853 1 0.053784472765722943 1 1 1 1 1 1 1 0.049743785924654615 0.055966612968133003 1 1 1 1 1 1 1 1 1 0.050740610624558674 1 1 1 1 1 1 0.05958761937480609 0.053817758523913857 0.049976887649809523 1 0.055835294643781404 1 1 1 1 1 1 0.061367367760227026 1 0.050236670518671908 1 0.051230517922381091 1 0.053108627392800548 1 1 1 1 1 1 0.052652361941442745 1 1 0.050067463890472966 1 1 1 1 0.05034504452507052 1 1 1 1 1 1 1 1 1 1 1 1 1 1 1 1 1 1 1 1 1 0.091789930620836888 1 0.04937587890488792 1 1 1 1 1 1 1 1 1 1 1 1 1 1 1 1 1 1 1 1 1 1 1 1 1 1 1 1 1 1 1 1 1 1 1 1 1 1 1 1 1 1 1 1 1 1 1 1 1 1 1 1 1 1 1 1 1 1 0.049709731174706229 1 1 1 1 1 1 1 1 1 1 1 1 1 1 1 1 1 1 1 1 1 1 1 0.050135570239571089 1 1 1 0.047985855955847055 1 0.050416481646476649 1 1 1 1 1 1 1 1 1 1 1 1 1 1 1 1 1 1 1 1 1 1 1 1 1 1 1 1 1 1 1 1 1 1 1 1 1 1 1 0.049012768025442327 1 0.049897411146717009 1 1 1 1 1 1 1 1 1 1 1 1 1 1 1 1 1 1 1 1 1 1 1 1 1 0.055755677742084578 1 1 1 1 1 1 1 1 1 1 1 1 1 1 1 1 1 1 1 1 1 1 1 1 1 1 1 1 1 1 1 1 1 1 1 1 1 1 1 1 1 1 1 1 1 1 1 1 1 1 1 1 1 1 1 1 1 1 1 1 1 1 1 1 1 1 1 1 1 0.061345644946212585 1 1 1 1 1 1 1 0.058818959027495413 1 1 0.049910909376166046 1 1 1 1 1 1 1 1 1 1 1 1 1 1 1 1 1 1 1 1 0.064958726485605828 1 1 1 1 1 1 1 1 1 1 1 1 1 1 1 1 1 1 1 1 1 1 1 1 1 1 1 1 1 1 1 1 0.05000825407397641 1 1 1 1 0.051586059833765782 1 0.049709416114526478 1 1 1 1 1 1 0.050147345367319796 1 1 0.050481815865391369 1 1 0.049701485476250043 0.050000718795833433 1 0.050002080327902654 1 1 1 0.050018448702927362 1 1 1 1 1 1 1 1 1 1 1 1 1 1 1 0.04956655791288761 1 1 1 1 1 1 1 1 0.049483918589717193 1 1 1 1 1 1 1 1 1 1 1 1 1 1 1 1 1 1 1 1 1 1 1 1 1 1 1 1 1 1 1 1 1 1 1 1 0.062082149662341338 1 1 1 1 1 1 1 0.04247999503205839 1 1 0.048341419248747075 1 0.062981728600165487 1 1 1 1 1 1 1 1 1 1 1 0.049999666510289136 0.049981865986374226 1 1 0.049273250114779933 1 1 0.049833527957041809 0.050056761021366941 1 1 1 1 0.051010935080306595 1 0.048482335370899729 1 1 0.051402869429534349 1 0.050195197688697207 0.04896315854521166 1 0.054276958008198192 1 0.061513121164376412 1 1 1 1 1 1 1 0.049903946864751074 1 0.050004470764928463 1 1 1 1 1 0.049943905049999293 1 1 1 0.061781398530186521 1 1 0.049433513394492118 1 0.045880133893088607 1 0.047682635589663944 0.053696733048755135 1 1 0.049791711361648429 1 1 1 1 1 1 0.052133778673649211 1 1 1 1 1 1 1 1 0.04124993354314245 0.04988384880174853 1 1 1 0.047950588436982911 1 1 1 1 0.060406964986333508 0.039184438098756234 1 0.04370214597311875 1 1 1 0.047951721277967665 1 1 1 1 1 1 1 1 1 1 1 1 1 1 1 1 0.038768197834720672 1 1 1 1 1 1 0.052413635263468455 1 0.057016023162408169 1 1 1 0.052068313661225281 0.060466431569336662 1 1 0.049961586626620452 1 0.050236655266476138 1 1 1 1 1 1 1 1 1 1 1 1 0.050076028246866258 0.049989837576946014 1 1 1 1 1 0.046049121678341812 1 1 1 1 1 1 1 0.048918385337791866 1 1 1 0.050002530143717729 1 0.055825823575923618 1 1 0.049982679033387024 1 1 1 1 1 1 1 1 1 0.0425624863897998 1 1 0.047273698199502501 1 1 1 1 1 1 1 1 1 1 1 0.051355715473750806 1 1 1 1 1 1 1 1 1 1 1 1 1 1 1 1 1 1 1 1 1 1 0.055461393905304496 1 1 1 1 1 1 1 1 1 1 1 0.065767387100601593 1 1 1 1 0.075333226471530401 1 1 1 1 1 1 1 1 1 1 1 0.050744788811216669 1 1 1 1 1 0.052387480027561523 1 0.049821908352379804 1 1 1 1 1 1 1 1 1 0.084464080326935448 1 1 0.092822031788829959 1 1 0.031352775673798849 1 1 1 1 0.055176590898306135 1 1 1 1 1 1 1 1 1 1 1 1 1 1 1 1 1 1 1 1 1 0.034266168024261148 1 1 0.065129054801043321 1 0.044447424277165679 1 1 1 1 1 1 1 1 1 0.061715170372569093 1 1 0.044318333757462455 0.057452574358591843 0.052788238658363948 1 1 1 0.053078297952963975 1 1 1 1 1 1 0.051304267252551883 0.050397901795338984 1 0.041092116443629423 1 1 0.04175361169724201 1 1 0.061621347585385761 1 1 1 1 0.061229884501358425 1 1 1 1 0.056028041193081787 1 1 1 1 1 1 1 1 1 1 1 0.053380916361287736 1 1 0.049541497995587339 1 0.056987800032710964 0.049766588445657761 1 1 0.049988512680060146 0.054032748245890938 0.046997414681003061 1 1 1 1 1 1 1 1 1 1 0.051832422356704398 1 1 1 1 1 1 1 1 1 0.063819976448764471 1 1 1 1 1 0.054987587297246912 1 1 1 1 1 1 1 1 1 1 0.050880198387599995 1 1 1 1 1 1 1 1 1 1 1 1 1 1 1 1 1 1 1 1 1 1 1 1 0.061917857599521342 0.049096318418349029 1 1 1 1 1 1 1 1 0.054857994412596221 1 1 1 1 1 1 1 1 1 1 1 1 1 1 1 1 0.050857797494418738 1 1 1 1 0.050487501926303857 1 1 1 0.052168124159552437 0.051012986472842872 1 1 1 1 1 1 0.051024020889753607 1 0.051617956198914142 1 1 1 0.053527582689383651 1 1 1 1 1 1 1 1 0.049121863340916477 1 0.049750507566509235 0.054791834424215813 1 1 1 1 1 1 1 1 1 1 1 1 0.051158453814307753 1 1 0.051933914415385821 1 0.05049008068890859 1 1 1 1 1 1 1 1 1 1 1 1 1 1 1 1 1 1 1 1 1 1 1 0.050668843589063192 1 1 1 1 1 0.087201204969858739 1 1 1 1 1 1 1 1 1 1 0.051628976167639319 1 1 1 0.05043817637225774 1 1 1 1 1 1 1 1 1 1 1 0.049706606121630345 0.07843600383264332 1 1 1 1 1 0.070053636364936001 1 1 1 0.048464417722709902 1 1 1 1 1 1 1 1 1 1 0.052661360689961488 1 1 1 1 1 1 1 0.050402745153941206 0.040826935399937064 1 0.080682062769484017 1 1 1 1 0.0522547759815849 1 1 1 1 1 0.055730388720303566 1 1 1 1 1 1 1 1 1 1 0.049974448863751658 1 1 1 1 1 1 1 1 1 1 0.061784824885552522 1 1 1 1 1 1 1 0.053750992587907789 1 1 1 1 1 1 1 1 1 1 1 1 1 1 1 1 1 1 1 1 0.050486516917197417 1 1 1 0.05102477646663172 1 1 1 1 1 1 1 1 1 1 1 1 1 0.049444163601495353 1 0.050334583876192177 0.057143541791741637 1 0.048015606184711179 0.065517935989160905 1 1 1 1 1 0.049995553128490168 1 1 1 1 1 1 1 0.05440396468634344 1 1 0.064937950907411029 1 1 0.048169521322464721 1 1 0.059960858216109122 1 1 0.050228492554468977 0.056864368589759566 0.0481919683470107 0.049445563082283851 1 1 0.053172651536614643 0.055878499116992233 1 1 0.066577799665799492 1 1 0.047959486467367717 1 1 1 1 0.056894018979288682 0.066951681888500175 0.049869585532986614 0.074248537706245871 1 1 1 0.049962738115624156 1 0.05308213862594751 1 0.063477842638577225 1 0.049695779340325194 0.066868783007522664 1 1 1 1 1 1 1 0.053422782871010516 1 1 0.095239547474560607 1 0.049667063806223544 1 1 0.068932202586982627 0.032883870455398014 1 1 1 1 1 1 1 1 1 1 1 1 1 1 1 1 1 0.049112200926197336 1 1 1 1 1 1 1 1 1 1 1 1 1 1 1 1 1 0.047480367412441576 1 1 1 1 1 1 1 1 1 1 1 1 1 1 0.050832710772220624 0.047545331202680112 1 1 1 1 0.049990955045212407 1 0.048105945239435968 1 1 1 0.051584948613204486 0.052690234332020705 1 0.050768546815226689 1 1 1 1 1 1 1 1 1 1 1 1 1 1 1 1 1 1 1 0.048681867564860579 1 0.049760194599150653 1 1 1 1 0.050258101155770812 1 1 1 1 1 1 1 1 1 1 1 1 1 1 1 1 1 1 1 1 0.049740877846934942 1 1 1 1 1 1 1 1 1 1 1 1 1 1 0.050399853622661271 1 1 1 1 1 1 1 1 1 1 1 1 1 1 1 1 1 1 1 1 1 1 1 1 1 1 1 1 1 1 1 1 1 1 1 1 1 1 1 1 1 1 1 1 1 1 1 1 1 1 1 1 1 1 1 1 1 1 1 1 1 1 0.055981322167456993 1 1 1 0.054183802463904869 1 1 0.052425695326752834 1 1 1 1 1 1 1 1 1 1 1 0.051758107137152023 1 1 1 1 0.047241905035723668 1 1 1 1 1 1 1 1 1 1 1 1 1 1 1 1 1 1 1 1 1 1 1 1 1 1 1 1 1 0.053185349737401293 1 1 1 1 0.053193709990368446 1 1 1 1 1 1 1 1 1 1 0.057977578125848146 1 1 0.0694099646487875 1 1 1 1 1 1 1 1 1 1 1 1 0.049909840579799691 1 1 1 1 1 1 1 1 0.074433679475246192 1 1 1 1 1 1 1 1 1 1 0.056242267135380879 1 0.052027062194961615 1 1 1 0.061727551256666555 1 1 1 0.049361876882271893 1 0.065233526539179992 1 0.056981400354640686 0.049888934383455256 1 1 1 1 1 0.056477473547426119 1 1 1 1 1 1 1 1 1 1 1 1 1 1 1 1 1 1 1 1 1 1 1 0.051442533600186677 1 1 0.078553625630805618 1 1 1 0.050742178327448401 1 0.076838034277703512 1 1 1 1 1 1 1 1 1 1 1 1 0.050220425774080112 1 1 1 1 1 1 1 1 1 1 1 1 1 1 1 1 1 1 1 0.05880806944245652 1 1 1 1 1 1 1 1 1 1 1 1 1 1 1 1 1 1 1 1 1 1 1 1 1 1 1 0.053801644236990818 1 1 1 1 1 1 1 1 1 1 1 1 1 1 1 1 1 1 0.059954664430136834 1 1 1 0.058758750534357584 1 1 1 0.052213278277766929 0.051772417871842315 1 1 1 1 1 0.0532732599088592 1 1 1 1 1 1 1 0.0568475290510361 0.056692771078211121 1 1 1 0.053037710151551218 1 0.052129049051910986 1 1 1 1 1 1 0.057691871348899984 0.052321212418170907 1 1 0.063503293822167489 0.060434148204187903 1 1 1 1 1 1 1 1 1 1 0.04996689825957383 1 1 1 1 1 1 0.050585178922812224 1 1 1 1 1 1 1 1 1 1 1 1 1 1 1 1 1 0.050072453455509688 1 1 1 1 0.054892543401549684 1 1 0.050221797121948596 1 1 1 1 1 1 1 1 1 1 1 0.062542647624568987 1 0.061127178466994184 1 0.060553594531836036 1 1 1 1 1 1 1 1 1 1 1 1 1 1 1 1 1 1 1 0.050513241272670553 1 1 0.051367988103764181 1 1 1 0.050007944893124719 1 1 0.051601958679997145 1 1 1 1 0.051799422724033269 1 1 1 1 1 1 1 0.053483953895504262 1 1 1 1 1 1 1 1 1 1 1 1 1 1 1 1 1 1 1 1 1 1 1 1 1 1 1 1 1 0.057991650616146015 1 1 1 1 1 1 1 1 1 1 1 1 1 1 1 1 1 1 1 1 1 1 1 1 1 1 1 1 1 1 1 1 1 1 1 1 1 0.062716590720123977 0.044445748826274029 0.055929070565995186 1 1 0.078165410142756978 1 1 1 0.050630970702657402 1 0.050098113774449685 1 1 1 1 1 0.049713376316874891 1 1 1 1 1 1 1 0.081278918467293765 1 1 1 1 1 1 1 1 1 1 1 1 1 1 0.042750721427279065 1 1 1 0.049828408038599649 1 0.084718778204882286 1 1 1 1 1 1 1 1 0.040580063587046647 1 1 1 1 1 1 1 0.049996692190073522 1 0.050044120375652007 1 0.074806520487074951 1 1 1 1 1 1 1 1 0.051127597645166903 1 1 0.058783901416808094 0.043439611112193958 0.04894473432768174 1 0.06020747780975802 1 0.072021903896144004 1 1 1 1 1 1 1 1 1 1 1 1 1 1 1 1 1 1 1 1 1 0.059911718194662233 1 1 0.049121221865720058 0.066090836041748757 1 1 1 0.049921369465284311 1 1 1 1 1 1 1 0.047592179568364722 1 0.04932309125095595 1 1 1 1 0.05035867634999254 1 1 0.043448007083068861 1 1 1 1 1 1 1 0.04155771019243526 1 1 0.037458754641537556 1 1 1 0.033963205368071701 1 1 1 1 1 1 1 1 1 0.050044539062127198 1 1 1 1 1 1 0.069009872974538811 1 1 0.073809456513701369 1 1 1 1 0.074125884512474954 1 1 1 1 1 1 0.041512083481993381 0.044039957587990008 0.070431384850154197 1 1 1 0.05009477300903406 1 0.049999536690290364 1 0.043006718013221312 1 1 1 1 1 1 0.07087293922179215 1 1 1 0.031029091030576026 1 1 1 0.045402966507326815 1 1 1 1 1 1 1 1 1 1 1 1 0.049889124640159863 1 1 1 0.050149691993703595 1 1 1 1 1 0.049690942216700035 0.070454832698997424 1 1 0.049070617310961802 1 0.057808059551422666 0.061630226054465567 0.049175639749880103 1 1 1 0.049852828633101275 1 1 1 1 1 0.065849702185466721 1 1 1 1 1 1 1 1 1 1 1 1 0.049932312467818075 1 1 1 1 1 1 0.05636196075169396 1 1 0.056069101819991293 1 1 0.050024498024768951 1 1 1 1 1 0.050047029677508542 1 1 0.042745520250350867 1 0.050030243605095649 1 0.049962289741642386 1 1 1 1 1 1 0.049894602209460487 1 1 1 1 0.049388461741361432 1 1 1 1 1 1 1 1 1 1 0.048011711956619851 1 1 1 1 1 0.046196643044046887 1 1 1 1 1 1 1 1 1 1 1 1 1 1 1 0.050375781726601662 1 1 1 1 1 0.051101187133499662 1 0.048621294841417341 1 1 1 1 1 0.048266389454432179 1 1 1 1 1 0.051207492518938615 1 1 1 1 1 0.049531143130426288 1 1 1 1 1 1 1 1 1 1 0.061714451053248916 1 0.050007329410953802 1 0.062560103142990653 1 1 0.056647780698819553 1 1 1 1 1 1 1 1 0.065059467697564322 1 0.044625610484004832 1 1 1 1 1 1 1 1 1 1 0.062040886503704887 1 1 1 1 1 1 1 1 1 1 0.055018028552925577 1 1 1 0.056710572504189455 1 0.057185626541102784 0.078002828489412118 1 1 1 0.049900260428768092 1 1 1 0.063603415721572215 0.049629598796403926 1 1 1 1 1 1 1 1 1 1 0.054789492954804564 0.049819550200319931 1 1 1 1 1 0.05208453310743244 1 1 1 1 1 1 1 1 1 1 0.05331252314804881 1 0.05726644223935231 0.046603027830907855 0.064860430052809892 1 1 1 1 1 1 1 1 0.055591815094022015 1 1 1 1 1 1 1 1 1 1 1 1 1 1 1 1 1 1 1 1 1 1 1 1 1 1 1 1 1 0.049409361080822674 1 1 1 1 0.049886051089681499 1 1 1 1 1 1 1 1 0.04965425239774969 1 1 1 1 1 1 1 1 0.049523208670835511 1 1 1 1 1 1 1 1 1 1 1 1 1 1 1 1 1 1 1 1 1 1 1 1 1 1 0.047616005473925527 1 1 1 1 1 1 0.042432218876616301 1 0.076854540656544373 1 1 0.047149706251909146 1 1 1 0.080360988479830753 1 0.044854542733977015 1 1 1 0.050097908244402863 1 1 1 0.052921495769708039 1 1 1 1 1 1 0.050613648373632865 1 1 1 1 1 1 1 1 1 1 1 1 1 1 1 1 1 1 1 1 1 1 1 1 1 1 1 0.051287465794674802 1 0.053293293580838431 1 1 1 1 0.052005827786163611 1 1 1 1 1 1 1 1 1 1 1 1 1 0.051858663386191647 1 1 0.051512915783941418 1 1 0.057288984798567921 1 1 1 1 1 0.069124462640572273 1 1 1 1 1 1 1 1 0.046168097265632049 1 0.041581039285115556 1 1 1 1 1 0.049093457822925866 0.049990880165766804 1 1 0.052788394993888696 1 1 1 0.042919579434841953 1 1 1 1 1 1 1 0.050175497951733608 1 1 1 1 1 1 1 1 1 1 1 1 1 1 1 1 0.047953887868500508 1 1 1 1 1 0.053468161210112344 1 0.051591956483895918 1 1 1 1 1 1 1 1 1 1 1 1 0.052697729490777334 1 0.053570503073091913 1 1 1 1 1 1 0.058000134206900228 0.050821524764560921 1 1 1 1 1 1 1 1 1 1 1 1 1 1 1 1 1 1 1 1 1 0.05114205412718241 1 1 0.053317025348243785 1 1 1 1 1 0.049112574759828991 1 1 1 1 1 1 0.049969155464749011 1 1 1 1 1 1 1 1 1 1 1 1 1 1 1 1 0.050040771543650261 1 1 0.050979749552309099 1 1 1 1 0.050484991544538074 1 1 1 1 1 1 1 1 1 1 1 0.050500790870058362 1 1 1 1 1 1 1 1 1 1 1 1 1 1 1 1 1 1 1 0.05442963113380829 1 1 1 1 1 1 1 1 1 1 1 1 0.051487911085886448 1 1 1 1 1 1 1 1 1 1 1 1 1 0.049910756195653057 0.055105164683648136 1 1 1 1 1 1 0.058007564933709579 1 1 1 1 1 1 1 1 1 1 1 1 1 1 1 1 1 1 1 1 1 1 1 1 1 1 1 1 1 1 1 1 1 1 1 0.050153040833216797 1 1 1 1 1 1 1 1 0.04972442129689307 1 1 1 1 1 1 1 1 1 1 1 1 0.049765192840543301 1 1 1 1 0.052806026788573657 1 0.054267910793328489 1 1 1 1 1 1 1 1 0.04963726538848677 1 1 1 1 1 1 1 1 1 1 0.04962146606296651 1 1 1 0.045443175516382613 1 1 0.04943525122416749 1 1 1 1 0.042332361649092695 1 1 0.039544238276404305 1 1 1 1 1 1 1 1 0.04829194694139953 1 1 1 0.047124636550014809 1 1 1 1 1 1 1 0.047811055452687455 1 0.050021886972323612 1 0.0573092125895691 1 0.058931913078868692 0.050743157858631906 1 1 1 0.050212367559708149 0.049894046103818743 0.053549593161539365 1 1 0.072532509293072034 1 1 1 0.036854697691096172 1 1 1 1 0.049866259331917351 1 1 1 1 1 1 1 1 1 1 1 1 1 1 1 1 1 1 1 1 1 1 1 1 1 1 1 1 1 1 1 1 1 1 1 1 1 1 0.050122277713386107 1 1 1 1 1 1 1 1 0.047364484749060298 1 1 1 1 0.048758186089786784 1 1 0.049645403411939466 1 1 0.0476192758387389 1 1 1 1 0.049155861624382832 1 1 1 1 1 0.048882393542141966 1 1 1 1 1 1 1 1 1 1 1 1 1 0.063051069630453371 0.050023593774312231 1 1 1 0.054558325963810397 1 1 1 1 1 1 1 1 1 1 1 1 1 1 0.050318186131316507 1 1 1 1 1 1 0.051334115928871188 1 1 0.052822027014757647 1 1 1 1 1 1 1 1 1 1 0.050874242142390828 1 1 1 1 1 0.050919402770955344 1 1 1 1 1 1 1 1 1 1 0.048686372736689944 1 1 1 1 1 1 1 1 1 1 1 1 1 1 1 0.050004568383630585 1 1 1 1 1 1 1 1 1 1 1 1 1 1 1 1 1 1 1 1 1 1 1 0.04998504362756051 1 0.048550244864455104 1 1 1 0.050107321340946614 1 1 1 1 1 1 1 1 1 0.049137184631820589 1 1 1 0.048142357293748064 1 1 1 1 1 1 1 1 1 1 1 1 1 1 1 1 0.058303358575642651 1 1 1 1 1 0.048465006579382533 1 1 1 0.058129556024285989 1 0.050135935499888963 1 1 1 1 1 1 0.057483032138696571 1 1 1 1 1 1 1 1 1 1 1 1 1 1 1 1 1 1 1 1 1 1 1 1 1 1 1 0.049360346451326198 1 1 0.04990230982262546 1 1 1 1 1 1 1 0.050315783409392731 1 1 1 1 0.049944785038926021 1 1 0.049945140828331236 1 1 1 1 1 1 0.050049148489995199 1 1 1 0.05002608486338414 1 1 1 0.050026152102538399 1 1 1 1 1 0.051306146090113601 1 1 1 1 1 0.052776379655032367 1 1 1 1 1 1 1 1 0.054258587317228948 1 1 0.050053484047940716 1 1 1 1 0.050191405492671926 1 1 1 1 0.050315748775828867 1 1 1 1 0.058434163072107102 1 1 1 0.057401760586627826 1 0.049875306996498822 1 1 1 1 1 1 1 1 1 1 0.051211073766983653 1 1 1 1 1 1 1 0.053282617031169863 0.051505475527870936 1 1 1 1 1 0.057900620124376703 1 1 1 1 1 0.055063120046587928 1 1 1 0.05031915634425782 1 1 0.050044840114787381 1 1 0.061455876796670847 1 1 1 0.055506544143660422 1 1 1 1 1 1 0.050242672242036074 1 1 1 1 1 0.050082930348771398 1 1 1 1 1 0.050027255172525625 1 1 1 1 1 1 0.050149408655872321 1 1 1 1 0.078665467539455108 1 1 1 1 1 0.050280574646594335 1 1 1 1 1 1 1 1 1 1 0.070838334630166658 1 1 1 1 1 1 1 0.047542929760707488 1 1 1 1 0.049223975234187603 0.047800759858350722 1 1 0.057190177540717591 1 1 1 1 1 1 1 0.052657637342200872 1 1 1 1 1 1 1 0.086833428595296261 1 0.044456611948815096 1 1 0.063172105200003187 1 1 1 1 0.04936301720258307 1 0.06501773819988492 1 1 1 1 1 1 1 1 1 1 0.049848469763359785 1 1 1 1 1 0.050510341701332936 1 1 1 0.086604331706553322 1 1 1 1 0.049824070621469436 1 1 0.052454180614771979 1 1 1 1 1 0.061687556216446046 1 0.070954957192188695 1 0.049991057112925022 0.05057460583510829 1 1 1 1 0.066676295460836449 0.049593954182021782 1 1 1 1 1 1 1 1 1 1 1 1 1 0.049869935603208029 1 1 1 1 1 1 0.04858584195915458 0.052991085527994947 1 1 1 1 1 1 1 1 1 1 1 1 1 0.059275938212194686 1 1 1 1 1 1 1 1 1 1 1 1 1 1 1 1 1 1 1 1 1 1 1 1 1 1 1 1 1 1 1 1 1 0.049782664142925766 1 1 0.049607870065604645 1 1 1 1 1 1 1 0.049848799696991061 1 1 1 0.049774932441550415 1 1 0.044434506042155056 1 1 1 0.073889069807122038 0.050021151218300725 1 1 1 1 0.066200704252444814 0.062615263238259999 1 1 1 1 1 1 1 1 1 1 1 1 1 1 0.074676725654711451 1 1 0.050000201284349288 1 1 1 0.070621807678487497 1 1 1 1 0.049775004934614502 1 1 0.076669286202438097 1 1 1 1 1 1 1 1 1 1 1 0.089979243992532446 1 1 1 1 1 1 1 0.10182252707981095 1 1 1 1 1 1 1 1 1 1 1 1 1 1 1 1 1 1 0.049898733137095877 1 1 1 1 1 1 0.064568345093028653 1 0.050198914629646929 1 1 1 1 1 0.048968127880454064 1 1 0.049586790260463247 1 1 1 0.078140111803322823 1 1 1 0.049585845465033938 1 1 1 1 1 1 1 1 1 1 1 1 1 1 0.050390143170670899 1 1 1 1 0.051169370457915024 0.059395330000590323 1 1 1 1 1 1 1 1 1 1 1 1 1 1 1 1 1 1 1 0.051374410777349999 1 1 1 1 1 1 1 1 0.061137712728497343 1 0.061034650401089484 1 1 1 1 1 1 1 0.050014222017105731 1 0.050514391252408627 1 1 1 1 1 0.060974437303800075 1 1 1 1 1 1 0.050418268222612653 1 1 1 1 1 0.054991400665282082 0.050490531676596222 1 1 1 0.042320916826814693 0.062118240097281438 0.056353634421483799 1 1 1 1 1 0.05318515979823852 1 1 1 1 1 0.063419113426273724 1 1 1 1 0.059234101929059702 1 0.057367484192916533 0.04703713400010779 1 0.054687441156114139 0.067603570034560301 1 1 1 0.069508154897477914 1 1 1 0.057722324372792011 1 1 1 0.053629679398887575 1 1 1 0.066901301582662956 1 1 1 1 1 1 1 1 0.071175415580902013 1 1 1 0.070457718767533886 1 1 1 1 1 1 0.073454049784123746 1 1 1 1 1 1 0.073150463386868828 1 1 1 1 1 1 1 1 1 1 1 1 1 1 0.049911035853321781 1 0.053419197028960475 1 1 1 0.067532942221990744 1 1 0.04961642025070323 1 0.050303158516003421 1 0.049852284611421785 1 1 0.060682865986887449 1 1 1 1 1 1 0.050217318396282518 1 1 1 1 0.050157877914311047 1 1 1 1 1 1 0.050078837713505873 1 1 1 1 1 1 1 1 1 1 0.049972348423353928 1 1 1 1 1 1 1 1 1 1 1 1 1 1 1 1 1 1 1 0.043725253814664043 0.04666614199477663 1 1 1 0.060052177814134723 1 1 0.044188595866858929 1 1 0.059950055523455219 1 1 0.050363561821502034 1 1 0.045505169316709948 0.051434170462502551 1 1 1 1 0.060131862997347928 1 1 1 1 1 1 1 1 1 1 1 0.041888013975618518 0.058941392865225019 1 1 1 0.047517651387594992 1 0.050017941160398219 1 0.050077766123422796 1 1 1 1 1 0.050082754553101683 1 1 0.07646099221904544 1 0.043123910658610015 1 1 0.049980520277687797 0.060231615076467959 0.064275944101700039 1 1 1 1 0.062778473479291108 1 1 0.060423051717376199 1 0.070543150591164616 1 1 0.053952100682641002 1 1 1 1 1 1 1 1 0.070517087864851238 1 0.069438536682679353 0.050215452128992671 1 1 1 1 1 0.050335915342969426 0.083373824584027798 1 1 1 0.054916784777666802 0.051181161577203489 1 1 1 1 1 1 1 1 0.050021360878104271 1 0.085036245603040794 1 1 1 1 1 1 1 1 1 1 1 1 1 1 1 1 1 1 1 1 1 1 1 1 1 1 1 1 1 0.049987520207840988 1 1 1 1 1 1 1 1 1 1 1 1 1 1 1 0.046679799414642564 1 1 0.050152528478133028 1 1 1 1 1 0.049879500323613213 1 1 1 1 1 1 1 1 1 1 1 1 1 0.050273028154519811 1 1 1 1 1 1 1 1 1 0.067010995750740973 1 1 0.034490422184144359 1 1 1 1 0.049996861134968117 0.071519485455793327 0.052733302912154445 1 1 1 1 1 0.040343532026588538 1 1 1 
</DataArray>
</CellData>
</Piece>
</UnstructuredGrid>
</VTKFile>
